ITEM: TIMESTEP
2000000
ITEM: NUMBER OF CELLS
100
ITEM: BOX BOUNDS pp ss pp
0 1
0 4.9542e-06
-0.5 0.5
ITEM: CELLS id yc f_2[1] f_2[2] f_2[3] 
1 2.4771e-08 2.79337 4.39146 2.78328 
5 2.22939e-07 0.86083 3.84989 0.0281921 
9 4.21107e-07 0.32788 5.60606 1.96186 
13 6.19275e-07 -4.59196 3.49289 3.36493 
17 8.17443e-07 -0.107948 -5.81887 2.80577 
21 1.01561e-06 -0.224049 -8.43056 4.07635 
25 1.21378e-06 1.46447 -3.605 -1.12274 
2 7.4313e-08 0.160256 -12.7056 2.24892 
6 2.72481e-07 1.39332 8.96712 1.17695 
10 4.70649e-07 6.55937 -9.49196 4.44278 
14 6.68817e-07 -1.09954 -0.300395 0.777339 
18 8.66985e-07 0.260148 -18.3211 0.567793 
22 1.06515e-06 1.51784 11.0194 3.07988 
3 1.23855e-07 0.164462 4.99336 2.45815 
7 3.22023e-07 3.08799 -4.24235 0.774758 
11 5.20191e-07 -1.85266 -3.44577 2.92613 
15 7.18359e-07 1.54187 0.476824 1.70434 
19 9.16527e-07 1.06919 -2.70932 -0.166366 
23 1.11469e-06 -0.476496 -5.04784 -0.737879 
4 1.73397e-07 -0.970548 22.2746 -4.03088 
8 3.71565e-07 3.3348 1.28495 -1.11169 
12 5.69733e-07 -1.33423 -10.8218 5.05615 
16 7.67901e-07 0.722472 18.8684 1.805 
20 9.66069e-07 0.143088 1.07355 1.96993 
24 1.16424e-06 1.40606 -10.6563 2.57537 
26 1.26332e-06 1.37367 -6.86334 -1.00235 
30 1.46149e-06 -4.4587 -2.45345 0.783777 
34 1.65966e-06 1.68294 4.54553 1.79015 
38 1.85782e-06 0.373827 1.86876 4.3573 
42 2.05599e-06 1.48695 5.21418 0.439494 
46 2.25416e-06 0.822438 3.00643 -2.41409 
50 2.45233e-06 1.21998 12.047 2.61594 
29 1.41195e-06 1.95205 5.78338 -1.26539 
33 1.61012e-06 -1.15668 8.72203 3.67902 
37 1.80828e-06 1.63382 4.70679 3.24073 
41 2.00645e-06 1.36112 -9.25443 0.914372 
45 2.20462e-06 1.1562 15.0684 -2.18416 
49 2.40279e-06 1.19341 -7.7563 0.708134 
27 1.31286e-06 0.179298 -3.1347 1.44036 
31 1.51103e-06 0.172594 -8.08403 -2.23997 
35 1.7092e-06 -1.90277 7.47537 1.11352 
39 1.90737e-06 -0.545651 13.4173 -1.57393 
43 2.10553e-06 -5.74728 11.4249 3.39442 
47 2.3037e-06 1.65987 6.94452 2.58089 
28 1.3624e-06 0.878365 9.73356 1.52169 
32 1.56057e-06 0.470588 12.3779 4.35073 
36 1.75874e-06 -1.86083 -0.738107 -0.70549 
40 1.95691e-06 -3.11226 6.97875 0.968142 
44 2.15508e-06 -0.82079 15.8513 -2.2981 
48 2.35324e-06 -1.15131 8.96848 -1.04701 
51 2.50187e-06 4.40439 0.811204 0.320633 
55 2.70004e-06 0.872932 -11.0065 0.60408 
59 2.89821e-06 2.26158 -4.95968 2.23892 
63 3.09637e-06 0.446364 -9.88175 3.24198 
67 3.29454e-06 2.58004 0.491392 -0.0721353 
71 3.49271e-06 1.63051 4.02541 1.93661 
75 3.69088e-06 0.408379 -0.103703 -0.0910743 
53 2.60096e-06 0.522133 -4.20524 -1.60377 
57 2.79912e-06 4.62218 0.711165 1.05174 
61 2.99729e-06 -0.060524 18.7853 4.16149 
65 3.19546e-06 -6.2072 4.05806 5.09317 
69 3.39363e-06 -2.57714 -0.773561 -1.47056 
73 3.5918e-06 -1.79767 3.74517 5.57657 
54 2.6505e-06 0.782589 3.05322 -0.0924289 
58 2.84867e-06 0.691175 -2.94485 -0.895685 
62 3.04683e-06 -5.16212 3.80123 5.10435 
66 3.245e-06 5.23896 6.92981 2.6732 
70 3.44317e-06 -2.04249 -20.8089 5.01979 
74 3.64134e-06 0.919669 -2.47207 0.258125 
52 2.55141e-06 -1.1469 -13.9718 4.73911 
56 2.74958e-06 -0.252184 11.0239 -0.0193281 
60 2.94775e-06 1.17561 -2.87098 3.07898 
64 3.14592e-06 2.45887 2.89539 3.15877 
68 3.34408e-06 2.27033 -7.96422 -0.542518 
72 3.54225e-06 -0.700259 3.36146 4.48913 
76 3.74042e-06 -1.50432 -4.67298 0.623936 
80 3.93859e-06 -1.65687 -0.239365 4.83008 
84 4.13676e-06 -1.77739 2.28543 -0.629274 
88 4.33492e-06 -0.477883 -2.16129 1.64863 
92 4.53309e-06 2.33687 3.56052 0.656433 
96 4.73126e-06 0.969616 6.81034 3.97528 
100 4.92943e-06 -4.84656 26.4975 0.619325 
77 3.78996e-06 -0.46483 -8.28432 3.84847 
81 3.98813e-06 -1.69316 5.32041 -1.15257 
85 4.1863e-06 -2.25089 -26.953 -0.794561 
89 4.38447e-06 3.18955 -3.26852 1.89278 
93 4.58263e-06 -3.57187 -7.3699 0.668811 
97 4.7808e-06 0.296703 3.58012 1.70014 
78 3.8395e-06 2.46187 9.44909 1.68063 
82 4.03767e-06 3.15329 3.35969 2.44839 
86 4.23584e-06 2.28726 -5.769 0.75888 
90 4.43401e-06 3.08735 -2.65582 7.07051 
94 4.63218e-06 1.6013 -10.4042 3.07956 
98 4.83034e-06 2.05255 -0.0656888 2.35767 
79 3.88905e-06 2.20511 11.2102 0.338153 
83 4.08721e-06 3.04364 -6.9988 0.875731 
87 4.28538e-06 -0.667144 5.18488 -0.549378 
91 4.48355e-06 -2.07248 14.6019 -2.29551 
95 4.68172e-06 0.62242 0.037142 1.38846 
99 4.87989e-06 -3.0123 -1.89265 2.87199 
