ITEM: TIMESTEP
0
ITEM: NUMBER OF CELLS
400
ITEM: BOX BOUNDS pp pp pp
0 1
0 1
-0.5 0.5
ITEM: CELLS xc yc c_1[1] c_1[2] c_1[3] c_2[1] 
0.025 0.025 5.18688e+20 -10.0364 10.5944 265.343 
0.225 0.025 5.18675e+20 -1.20233 60.1365 272.494 
0.425 0.025 5.18675e+20 9.96627 28.4554 264.127 
0.025 0.075 5.18688e+20 -29.5502 9.36436 265.346 
0.225 0.075 5.18701e+20 -4.02352 55.0669 272.499 
0.425 0.075 5.18701e+20 24.7564 26.1683 268.534 
0.025 0.125 5.18688e+20 -44.5262 7.78219 268.371 
0.225 0.125 5.18675e+20 -6.03555 43.3389 276.915 
0.425 0.125 5.18701e+20 39.2398 20.6605 270.675 
0.025 0.175 5.18688e+20 -53.9467 4.87208 270.208 
0.225 0.175 5.18688e+20 -9.5348 30.1672 280.778 
0.425 0.175 5.18675e+20 48.7323 13.7849 273.261 
0.025 0.225 5.18675e+20 -58.585 1.82152 272.707 
0.225 0.225 5.18701e+20 -9.66196 9.52101 281.638 
0.425 0.225 5.18688e+20 55.0278 3.99471 273.223 
0.025 0.275 5.18701e+20 -58.8343 -1.82627 274.365 
0.225 0.275 5.18675e+20 -8.77084 -9.58078 280.885 
0.425 0.275 5.18662e+20 53.7262 -2.05478 274.708 
0.025 0.325 5.18675e+20 -54.4809 -3.14229 272.755 
0.225 0.325 5.18714e+20 -9.17437 -28.5221 278.909 
0.425 0.325 5.18649e+20 49.2019 -10.7301 272.384 
0.025 0.375 5.18688e+20 -43.071 -7.01647 268.909 
0.225 0.375 5.18675e+20 -5.09316 -40.3202 277.299 
0.425 0.375 5.18688e+20 38.1497 -19.7239 270.855 
0.025 0.425 5.18675e+20 -26.2527 -9.15369 266.884 
0.225 0.425 5.18649e+20 -3.87554 -54.2731 273.034 
0.425 0.425 5.18701e+20 24.9184 -25.1654 266.454 
0.025 0.475 5.18675e+20 -10.5549 -9.14871 263.134 
0.225 0.475 5.18701e+20 -2.39003 -59.8805 273.578 
0.425 0.475 5.18688e+20 8.93773 -28.9693 264.997 
0.075 0.025 5.18675e+20 -8.28036 29.3794 267.675 
0.275 0.025 5.18688e+20 1.61679 59.8342 274.105 
0.475 0.025 5.18688e+20 9.41362 10.068 264.523 
0.075 0.075 5.18701e+20 -25.2146 27.8798 269.188 
0.275 0.075 5.18688e+20 4.91875 54.6798 275.052 
0.475 0.075 5.18662e+20 28.151 7.91263 264.404 
0.075 0.125 5.18688e+20 -38.0785 19.8518 268.436 
0.275 0.125 5.18649e+20 8.82519 42.3251 278.356 
0.475 0.125 5.18714e+20 44.5147 7.82449 268.338 
0.075 0.175 5.18675e+20 -48.5099 10.3491 272.644 
0.275 0.175 5.18701e+20 10.8205 27.9989 279.787 
0.475 0.175 5.18688e+20 53.541 2.56965 272.809 
0.075 0.225 5.18688e+20 -53.1501 3.76679 273.433 
0.275 0.225 5.18688e+20 10.6857 8.26063 278.996 
0.475 0.225 5.18688e+20 60.9049 2.50169 272.811 
0.075 0.275 5.18701e+20 -56.1843 -6.33703 275.92 
0.275 0.275 5.18649e+20 10.4167 -9.30313 281.223 
0.475 0.275 5.18727e+20 58.0778 -3.09776 271.38 
0.075 0.325 5.18662e+20 -48.5624 -12.3648 272.682 
0.275 0.325 5.18701e+20 9.06372 -28.5188 279.005 
0.475 0.325 5.18727e+20 55.698 -3.60377 271.759 
0.075 0.375 5.18714e+20 -36.2799 -18.5639 270.84 
0.275 0.375 5.18701e+20 7.14894 -43.6773 278.695 
0.475 0.375 5.18688e+20 44.3203 -9.45219 266.135 
0.075 0.425 5.18701e+20 -23.2919 -24.8753 268.493 
0.275 0.425 5.18701e+20 2.52851 -52.9607 274.626 
0.475 0.425 5.18675e+20 27.1099 -8.77728 266.593 
0.075 0.475 5.18701e+20 -9.00448 -27.8485 264.586 
0.275 0.475 5.18688e+20 0.803405 -59.0481 271.85 
0.475 0.475 5.18688e+20 8.20601 -10.1614 264.987 
0.125 0.025 5.18675e+20 -7.04354 42.1799 267.379 
0.325 0.025 5.18701e+20 4.08767 55.5406 271.076 
0.125 0.075 5.18688e+20 -17.8859 39.4593 270.955 
0.325 0.075 5.18662e+20 11.2762 48.0732 271.702 
0.125 0.125 5.18688e+20 -32.0591 32.4604 273.072 
0.325 0.125 5.18714e+20 21.3879 38.0804 275.971 
0.125 0.175 5.18688e+20 -38.122 18.288 275.109 
0.325 0.175 5.18688e+20 23.6111 25.3265 278.208 
0.125 0.225 5.18688e+20 -42.5689 6.05791 276.489 
0.325 0.225 5.18675e+20 28.2632 10.85 281.335 
0.125 0.275 5.18688e+20 -43.6562 -6.38683 276.897 
0.325 0.275 5.18701e+20 26.4065 -8.91818 281.398 
0.125 0.325 5.18701e+20 -40.401 -20.4583 274.766 
0.325 0.325 5.18675e+20 23.8051 -25.5917 276.738 
0.125 0.375 5.18675e+20 -30.0976 -31.8777 272.444 
0.325 0.375 5.18688e+20 18.0766 -37.2787 274.32 
0.125 0.425 5.18701e+20 -18.3987 -37.3232 268.028 
0.325 0.425 5.18675e+20 10.9319 -48.6552 273.242 
0.125 0.475 5.18688e+20 -7.35212 -42.107 269.884 
0.325 0.475 5.18675e+20 4.73951 -54.5372 272.882 
0.175 0.025 5.18688e+20 -5.55605 53.7817 270.909 
0.375 0.025 5.18688e+20 7.58113 42.6665 268.759 
0.175 0.075 5.18662e+20 -12.8073 48.4801 274.675 
0.375 0.075 5.18714e+20 20.3971 38.6399 271.959 
0.175 0.125 5.18701e+20 -19.624 39.3926 274.621 
0.375 0.125 5.18662e+20 31.5739 32.1652 274.608 
0.175 0.175 5.18701e+20 -24.647 24.4831 277.452 
0.375 0.175 5.18688e+20 38.8627 19.3408 278.487 
0.175 0.225 5.18662e+20 -28.4342 8.97492 279.389 
0.375 0.225 5.18701e+20 43.7718 7.43863 275.893 
0.175 0.275 5.18675e+20 -28.9901 -8.29931 279.649 
0.375 0.275 5.18688e+20 44.985 -4.93618 280.253 
0.175 0.325 5.18701e+20 -24.8295 -24.5672 276.055 
0.375 0.325 5.18714e+20 39.2201 -20.2653 275.644 
0.175 0.375 5.18688e+20 -18.3931 -39.6382 275.879 
0.375 0.375 5.18701e+20 33.7641 -30.0832 273.751 
0.175 0.425 5.18675e+20 -14.5284 -47.6697 272.229 
0.375 0.425 5.18675e+20 18.2638 -40.0043 272.166 
0.175 0.475 5.18701e+20 -5.40578 -55.6554 270.733 
0.375 0.475 5.18701e+20 7.16911 -45.3247 267.489 
0.075 0.525 5.18675e+20 8.70232 -27.6988 265.269 
0.275 0.525 5.18714e+20 -1.84438 -59.7775 272.578 
0.475 0.525 5.18701e+20 -8.11425 -10.1404 263.754 
0.075 0.575 5.18662e+20 24.2123 -26.3031 270.166 
0.275 0.575 5.18701e+20 -5.28868 -55.5848 274.129 
0.475 0.575 5.18688e+20 -27.6423 -8.23803 265.061 
0.075 0.625 5.18714e+20 39.4023 -19.8024 270.648 
0.275 0.625 5.18675e+20 -7.69113 -42.4567 276.962 
0.475 0.625 5.18688e+20 -40.5552 -7.55793 271.31 
0.075 0.675 5.18688e+20 49.0588 -11.5343 270.125 
0.275 0.675 5.18688e+20 -7.65328 -28.9163 280.128 
0.475 0.675 5.18688e+20 -54.4018 -6.00723 271.14 
0.075 0.725 5.18688e+20 53.313 -2.95133 275.903 
0.275 0.725 5.18688e+20 -10.296 -8.93185 284.505 
0.475 0.725 5.18688e+20 -59.4737 -2.41397 272.11 
0.075 0.775 5.18688e+20 54.1186 3.81459 276.193 
0.275 0.775 5.18688e+20 -11.0529 9.30848 282.333 
0.475 0.775 5.18688e+20 -58.5359 1.738 272.419 
0.075 0.825 5.18675e+20 49.5077 11.1685 272.503 
0.275 0.825 5.18688e+20 -7.34644 28.2536 279.067 
0.475 0.825 5.18701e+20 -54.6362 5.05863 272.467 
0.075 0.875 5.18701e+20 37.7235 20.7976 270.928 
0.275 0.875 5.18688e+20 -7.97944 45.2591 276.84 
0.475 0.875 5.18675e+20 -43.752 7.35288 269.095 
0.075 0.925 5.18688e+20 25.3428 23.6667 268.064 
0.275 0.925 5.18701e+20 -2.06249 54.2399 272.717 
0.475 0.925 5.18701e+20 -27.546 10.0606 265.637 
0.075 0.975 5.18701e+20 8.21839 26.6763 265.159 
0.275 0.975 5.18688e+20 -2.49685 58.6908 275.242 
0.475 0.975 5.18675e+20 -11.594 7.39648 261.617 
0.025 0.525 5.18675e+20 10.4269 -10.6986 266.525 
0.225 0.525 5.18662e+20 1.12409 -56.7519 272.481 
0.425 0.525 5.18662e+20 -7.14196 -28.2313 267.479 
0.025 0.575 5.18675e+20 25.1266 -8.30374 265.531 
0.225 0.575 5.18701e+20 5.07897 -54.9599 273.096 
0.425 0.575 5.18714e+20 -25.0355 -25.2936 271.75 
0.025 0.625 5.18701e+20 42.0182 -7.38338 269.254 
0.225 0.625 5.18688e+20 7.56349 -40.1735 276.713 
0.425 0.625 5.18688e+20 -38.6728 -19.1946 270.363 
0.025 0.675 5.18688e+20 54.2966 -5.42425 270.762 
0.225 0.675 5.18688e+20 7.48437 -27.6752 280.654 
0.425 0.675 5.18688e+20 -47.7599 -12.2111 273.362 
0.025 0.725 5.18688e+20 59.5018 -1.77672 273.205 
0.225 0.725 5.18714e+20 9.25032 -8.54051 280.708 
0.425 0.725 5.18675e+20 -53.8981 -3.62198 274.405 
0.025 0.775 5.18688e+20 61.2858 0.703885 273.484 
0.225 0.775 5.18675e+20 9.17801 9.28084 282.164 
0.425 0.775 5.18727e+20 -55.1805 4.9655 275.07 
0.025 0.825 5.18688e+20 52.2793 4.20496 270.925 
0.225 0.825 5.18701e+20 6.49809 28.4647 282.388 
0.425 0.825 5.18701e+20 -49.172 13.993 270.222 
0.025 0.875 5.18662e+20 42.1685 6.54572 269.225 
0.225 0.875 5.18688e+20 7.54058 45.2575 276.281 
0.425 0.875 5.18701e+20 -40.0161 17.3839 271.257 
0.025 0.925 5.18688e+20 28.2996 8.98477 264.554 
0.225 0.925 5.18662e+20 5.22192 52.9372 273.725 
0.425 0.925 5.18701e+20 -26.7566 24.0768 266.897 
0.025 0.975 5.18688e+20 8.45761 10.1753 263.464 
0.225 0.975 5.18701e+20 3.32318 59.618 273.099 
0.425 0.975 5.18714e+20 -10.1291 26.5301 265.14 
0.125 0.525 5.18701e+20 8.59781 -40.7813 270.285 
0.325 0.525 5.18688e+20 -2.45202 -52.1674 271.362 
0.125 0.575 5.18688e+20 19.7747 -39.6707 269.106 
0.325 0.575 5.18688e+20 -12.8707 -49.5686 273.431 
0.125 0.625 5.18662e+20 31.5159 -34.2298 273.604 
0.325 0.625 5.18688e+20 -20.0528 -36.3724 275.089 
0.125 0.675 5.18688e+20 38.2952 -20.7495 275.278 
0.325 0.675 5.18688e+20 -23.2819 -22.8759 277.425 
0.125 0.725 5.18675e+20 43.2415 -7.84661 276.436 
0.325 0.725 5.18675e+20 -27.9117 -10.9208 279.487 
0.125 0.775 5.18701e+20 41.9921 6.78692 277.174 
0.325 0.775 5.18688e+20 -25.6082 8.55792 279.567 
0.125 0.825 5.18675e+20 37.5953 20.3204 276.587 
0.325 0.825 5.18688e+20 -24.7841 23.5498 277.841 
0.125 0.875 5.18688e+20 32.6287 30.4555 273.239 
0.325 0.875 5.18636e+20 -18.1153 38.8087 275.189 
0.125 0.925 5.18688e+20 17.6483 39.8569 268.128 
0.325 0.925 5.18675e+20 -15.3653 49.2222 271.628 
0.125 0.975 5.18688e+20 7.00964 43.5383 269.611 
0.325 0.975 5.18701e+20 -5.80865 55.3912 270.796 
0.175 0.525 5.18675e+20 3.08089 -54.6937 268.831 
0.375 0.525 5.18688e+20 -7.26273 -42.942 267.373 
0.175 0.575 5.18688e+20 12.5854 -48.1078 274.007 
0.375 0.575 5.18675e+20 -19.0665 -38.5503 270.517 
0.175 0.625 5.18727e+20 19.5507 -40.2169 275.678 
0.375 0.625 5.18675e+20 -31.6265 -28.3782 274.228 
0.175 0.675 5.18688e+20 25.2102 -23.1141 277.237 
0.375 0.675 5.18701e+20 -37.5809 -19.8032 277.129 
0.175 0.725 5.18636e+20 28.3007 -8.84317 281.337 
0.375 0.725 5.18701e+20 -43.0018 -8.59255 277.314 
0.175 0.775 5.18714e+20 25.9479 9.91852 280.938 
0.375 0.775 5.18649e+20 -42.8028 5.88788 277.852 
0.175 0.825 5.18688e+20 23.6256 23.6842 279.374 
0.375 0.825 5.18675e+20 -39.9565 19.8755 276.43 
0.175 0.875 5.18714e+20 19.1374 38.2132 274.777 
0.375 0.875 5.18714e+20 -32.3873 31.5054 274.016 
0.175 0.925 5.18688e+20 12.567 51.212 273.629 
0.375 0.925 5.18675e+20 -20.1784 38.8017 270.536 
0.175 0.975 5.18688e+20 3.71087 54.1751 272.625 
0.375 0.975 5.18675e+20 -7.91924 45.4578 268.378 
0.525 0.025 5.18688e+20 9.15412 -11.1983 262.27 
0.725 0.025 5.18675e+20 1.34354 -60.126 274.041 
0.925 0.025 5.18662e+20 -10.7613 -30.356 266.948 
0.525 0.075 5.18701e+20 28.7985 -9.31956 268.348 
0.725 0.075 5.18701e+20 4.86563 -54.0554 276.789 
0.925 0.075 5.18675e+20 -22.374 -25.1626 269.405 
0.525 0.125 5.18675e+20 43.6796 -4.812 268.808 
0.725 0.125 5.18701e+20 6.91419 -42.8478 277.229 
0.925 0.125 5.18688e+20 -37.1237 -19.3839 269.786 
0.525 0.175 5.18688e+20 54.5878 -2.9792 269.864 
0.725 0.175 5.18688e+20 8.61176 -27.4674 278.288 
0.925 0.175 5.18701e+20 -48.9396 -11.6766 272.36 
0.525 0.225 5.18675e+20 58.3141 -2.07783 273.02 
0.725 0.225 5.18714e+20 8.92576 -8.4989 283.734 
0.925 0.225 5.18675e+20 -53.3509 -4.58763 274.143 
0.525 0.275 5.18675e+20 58.3607 1.59819 272.958 
0.725 0.275 5.18688e+20 8.55591 9.84108 282.102 
0.925 0.275 5.18675e+20 -54.8786 4.66979 276.791 
0.525 0.325 5.18701e+20 53.9743 3.23829 272.363 
0.725 0.325 5.18688e+20 7.9578 27.9876 279.081 
0.925 0.325 5.18701e+20 -46.901 13.9981 271.926 
0.525 0.375 5.18688e+20 44.9907 7.95556 268.274 
0.725 0.375 5.18675e+20 8.21526 42.8939 277.974 
0.925 0.375 5.18701e+20 -40.229 21.271 270.449 
0.525 0.425 5.18675e+20 25.6844 7.91503 265.33 
0.725 0.425 5.18675e+20 2.87283 54.6569 275.529 
0.925 0.425 5.18662e+20 -23.7243 24.8945 267.449 
0.525 0.475 5.18701e+20 9.59811 9.2276 265.882 
0.725 0.475 5.18688e+20 2.49231 59.7807 272.947 
0.925 0.475 5.18714e+20 -6.20785 26.145 264.904 
0.625 0.025 5.18688e+20 5.76402 -43.6012 267.256 
0.825 0.025 5.18675e+20 -3.39227 -54.4872 270.291 
0.625 0.075 5.18688e+20 18.6232 -38.452 270.431 
0.825 0.075 5.18701e+20 -13.4308 -49.2292 273.831 
0.625 0.125 5.18675e+20 32.0839 -30.6689 274.298 
0.825 0.125 5.18662e+20 -19.4737 -39.4916 274.85 
0.625 0.175 5.18662e+20 37.6291 -20.4049 274.114 
0.825 0.175 5.18675e+20 -23.1924 -26.5288 281.133 
0.625 0.225 5.18688e+20 43.9951 -8.93232 277.828 
0.825 0.225 5.18688e+20 -28.7663 -9.93028 278.757 
0.625 0.275 5.18675e+20 41.1833 7.42636 277.27 
0.825 0.275 5.18688e+20 -25.7034 7.1928 279.735 
0.625 0.325 5.18688e+20 37.7593 17.5466 277.873 
0.825 0.325 5.18675e+20 -23.5856 26.8011 279.031 
0.625 0.375 5.18701e+20 31.0685 33.2763 273.372 
0.825 0.375 5.18688e+20 -20.5116 39.9185 276.407 
0.625 0.425 5.18675e+20 20.1018 40.0471 269.433 
0.825 0.425 5.18688e+20 -12.5444 48.5837 271.438 
0.625 0.475 5.18675e+20 7.26489 41.8467 268.841 
0.825 0.475 5.18662e+20 -2.05615 54.4738 270.443 
0.675 0.025 5.18675e+20 4.46588 -56.2506 269.359 
0.875 0.025 5.18688e+20 -6.91119 -41.692 270.369 
0.675 0.075 5.18688e+20 14.5422 -46.5799 275.065 
0.875 0.075 5.18701e+20 -19.3042 -37.4553 270.14 
0.675 0.125 5.18675e+20 17.3861 -39.7214 274.276 
0.875 0.125 5.18701e+20 -29.9777 -32.599 274.397 
0.675 0.175 5.18714e+20 23.8705 -26.4176 277.931 
0.875 0.175 5.18701e+20 -37.7987 -20.307 275.891 
0.675 0.225 5.18662e+20 27.0172 -10.2699 279.705 
0.875 0.225 5.18688e+20 -42.9514 -5.45981 278.418 
0.675 0.275 5.18701e+20 28.7403 9.0152 279.986 
0.875 0.275 5.18701e+20 -42.4987 8.39014 278.665 
0.675 0.325 5.18675e+20 25.9367 25.6637 278.45 
0.875 0.325 5.18662e+20 -39.3624 21.6858 275.041 
0.675 0.375 5.18714e+20 20.37 37.0026 274.816 
0.875 0.375 5.18675e+20 -29.8597 30.097 273.247 
0.675 0.425 5.18714e+20 13.0068 47.2969 272.653 
0.875 0.425 5.18675e+20 -19.7494 38.8059 269.556 
0.675 0.475 5.18701e+20 3.08619 56.5296 271.244 
0.875 0.475 5.1874e+20 -7.58504 40.1735 269.346 
0.575 0.025 5.18688e+20 8.18491 -27.3934 267.779 
0.775 0.025 5.18649e+20 -2.00996 -60.0168 273.515 
0.975 0.025 5.18688e+20 -9.99512 -8.91432 265.388 
0.575 0.075 5.18688e+20 24.352 -24.3932 268.719 
0.775 0.075 5.18727e+20 -4.34232 -56.471 273.363 
0.975 0.075 5.18714e+20 -29.0248 -10.1741 265.716 
0.575 0.125 5.18701e+20 38.5007 -19.9363 269.456 
0.775 0.125 5.18688e+20 -8.45943 -42.8384 277.015 
0.975 0.125 5.18688e+20 -42.6324 -5.87097 265.973 
0.575 0.175 5.18675e+20 48.2817 -11.9653 272.134 
0.775 0.175 5.18675e+20 -7.30816 -27.2834 280.452 
0.975 0.175 5.18675e+20 -53.9464 -4.86733 273.007 
0.575 0.225 5.18688e+20 54.0134 -2.20824 274.928 
0.775 0.225 5.18688e+20 -8.77489 -10.2602 280.732 
0.975 0.225 5.18714e+20 -58.3031 0.281613 272.304 
0.575 0.275 5.18714e+20 53.0629 5.37353 273.859 
0.775 0.275 5.18688e+20 -6.99511 8.7878 283.054 
0.975 0.275 5.18701e+20 -61.786 1.12 271.119 
0.575 0.325 5.18688e+20 48.2471 13.4417 274.529 
0.775 0.325 5.18701e+20 -7.72194 27.9403 278.215 
0.975 0.325 5.18688e+20 -53.1986 1.42545 271.822 
0.575 0.375 5.18675e+20 38.759 19.4952 272.376 
0.775 0.375 5.18688e+20 -7.34112 40.5811 277.816 
0.975 0.375 5.18701e+20 -42.027 8.88333 267.436 
0.575 0.425 5.18662e+20 23.6524 25.9721 268.931 
0.775 0.425 5.18701e+20 -4.64076 56.0247 275.213 
0.975 0.425 5.18675e+20 -28.1061 9.39027 267.083 
0.575 0.475 5.18688e+20 7.67309 27.3006 265.17 
0.775 0.475 5.18675e+20 -1.96949 59.1845 272.314 
0.975 0.475 5.18701e+20 -6.85375 10.8195 262.762 
0.575 0.525 5.18701e+20 -7.91597 26.7908 265.844 
0.775 0.525 5.18701e+20 1.29227 59.278 272.974 
0.975 0.525 5.18688e+20 11.1682 9.08593 263.913 
0.575 0.575 5.18675e+20 -25.4706 28.7103 267.453 
0.775 0.575 5.18688e+20 3.57445 54.8952 276.19 
0.975 0.575 5.18714e+20 25.8997 9.26639 264.717 
0.575 0.625 5.18688e+20 -37.879 19.7327 272.276 
0.775 0.625 5.18701e+20 5.73748 45.0996 277.455 
0.975 0.625 5.18688e+20 44.5274 5.49819 269.116 
0.575 0.675 5.18701e+20 -49.6476 12.8391 272.635 
0.775 0.675 5.18662e+20 9.06328 26.7022 278.905 
0.975 0.675 5.18701e+20 53.9861 5.30943 272.306 
0.575 0.725 5.18688e+20 -53.7725 3.76805 274.193 
0.775 0.725 5.18688e+20 9.74385 8.6109 281.389 
0.975 0.725 5.18688e+20 57.6725 1.11566 271.972 
0.575 0.775 5.18688e+20 -56.1551 -5.52507 274.869 
0.775 0.775 5.18727e+20 6.0618 -9.1211 282.701 
0.975 0.775 5.18701e+20 62.1216 -0.115644 272.825 
0.575 0.825 5.18701e+20 -50.3336 -10.8904 273.429 
0.775 0.825 5.18714e+20 8.82359 -29.0227 282.731 
0.975 0.825 5.18688e+20 53.3706 -5.80303 271.814 
0.575 0.875 5.18662e+20 -39.4695 -20.235 271.94 
0.775 0.875 5.18662e+20 7.30093 -43.2375 277.423 
0.975 0.875 5.18688e+20 41.848 -6.74253 268.495 
0.575 0.925 5.18688e+20 -24.965 -25.5159 266.568 
0.775 0.925 5.18701e+20 3.08236 -53.1301 273.015 
0.975 0.925 5.18688e+20 27.1743 -9.07818 266.363 
0.575 0.975 5.18675e+20 -10.9423 -28.2118 265.313 
0.775 0.975 5.18688e+20 3.008 -58.958 272.919 
0.975 0.975 5.18688e+20 8.74764 -8.94899 264.898 
0.625 0.525 5.18662e+20 -7.22376 43.2718 268.023 
0.825 0.525 5.18688e+20 2.54675 54.0608 271.763 
0.625 0.575 5.18701e+20 -19.7829 38.5425 270.538 
0.825 0.575 5.18701e+20 12.2772 49.2811 269.022 
0.625 0.625 5.18688e+20 -30.0131 30.6184 274.745 
0.825 0.625 5.18688e+20 19.2938 37.0967 275.303 
0.625 0.675 5.18688e+20 -38.8641 18.4865 275.09 
0.825 0.675 5.18701e+20 24.194 25.5128 276.225 
0.625 0.725 5.18675e+20 -42.7089 5.10679 278.593 
0.825 0.725 5.18675e+20 29.8643 8.72749 279.088 
0.625 0.775 5.18714e+20 -44.5653 -6.66 276.086 
0.825 0.775 5.18675e+20 26.0336 -7.99771 281.261 
0.625 0.825 5.18675e+20 -38.9991 -18.988 275.203 
0.825 0.825 5.18714e+20 23.9527 -22.5515 277.275 
0.625 0.875 5.18675e+20 -31.2615 -31.0109 273.33 
0.825 0.875 5.18701e+20 21.5184 -38.4864 276.537 
0.625 0.925 5.18688e+20 -20.1305 -39.0744 272.194 
0.825 0.925 5.18675e+20 12.3454 -48.9843 272.019 
0.625 0.975 5.1874e+20 -5.62271 -43.5284 269.555 
0.825 0.975 5.18701e+20 5.99104 -53.2487 270.647 
0.675 0.525 5.18701e+20 -4.59911 55.8598 270.374 
0.875 0.525 5.18675e+20 5.92838 45.583 269.74 
0.675 0.575 5.18701e+20 -14.8402 48.1243 273.892 
0.875 0.575 5.18688e+20 21.4643 39.7831 270.528 
0.675 0.625 5.18688e+20 -20.9895 39.3154 276.432 
0.875 0.625 5.18701e+20 29.7476 32.2864 270.663 
0.675 0.675 5.18675e+20 -23.7547 23.7748 277.234 
0.875 0.675 5.18662e+20 38.679 19.0703 275.032 
0.675 0.725 5.18701e+20 -26.6248 7.00852 279.036 
0.875 0.725 5.18688e+20 42.6043 6.36945 278.309 
0.675 0.775 5.18675e+20 -26.8606 -9.13803 279.138 
0.875 0.775 5.18688e+20 43.4156 -6.82286 276.575 
0.675 0.825 5.18688e+20 -24.5427 -24.3661 281.296 
0.875 0.825 5.18688e+20 37.2525 -21.476 273.789 
0.675 0.875 5.18701e+20 -21.2309 -40.1118 275.294 
0.875 0.875 5.18675e+20 32.6403 -31.2036 273.455 
0.675 0.925 5.18688e+20 -14.945 -47.0428 271.383 
0.875 0.925 5.18688e+20 19.7684 -37.3156 271.112 
0.675 0.975 5.18688e+20 -5.62949 -54.0837 269.259 
0.875 0.975 5.18688e+20 6.18009 -42.1499 268.952 
0.525 0.525 5.18688e+20 -10.583 8.77191 264.276 
0.725 0.525 5.18662e+20 -1.73295 61.6733 273.136 
0.925 0.525 5.18662e+20 9.62148 26.0146 264.186 
0.525 0.575 5.18701e+20 -28.4332 8.02889 264.388 
0.725 0.575 5.18675e+20 -4.96458 54.4315 275.723 
0.925 0.575 5.18688e+20 23.8367 24.8152 267.913 
0.525 0.625 5.18688e+20 -44.0099 7.39703 267.467 
0.725 0.625 5.18701e+20 -6.71296 42.8869 276.281 
0.925 0.625 5.18688e+20 37.6886 18.8292 270.058 
0.525 0.675 5.18701e+20 -53.5088 2.6383 270.754 
0.725 0.675 5.18688e+20 -13.1376 27.5139 279.088 
0.925 0.675 5.18701e+20 49.6548 14.1413 272.588 
0.525 0.725 5.18675e+20 -59.2866 3.90129 274.293 
0.725 0.725 5.18662e+20 -8.23169 10.5182 283.633 
0.925 0.725 5.18688e+20 54.316 3.54472 273.442 
0.525 0.775 5.18675e+20 -59.3866 -0.871972 273.033 
0.725 0.775 5.18701e+20 -7.91743 -10.9679 280.214 
0.925 0.775 5.18688e+20 56.2293 -5.82662 275.536 
0.525 0.825 5.18662e+20 -52.4444 -1.95729 272.749 
0.725 0.825 5.18662e+20 -8.10389 -26.9793 279.934 
0.925 0.825 5.18688e+20 48.9264 -12.3218 272.582 
0.525 0.875 5.18701e+20 -41.0377 -7.54971 268.761 
0.725 0.875 5.18675e+20 -8.53316 -43.1581 277.518 
0.925 0.875 5.18688e+20 38.3787 -19.9623 267.976 
0.525 0.925 5.18675e+20 -26.5473 -6.18229 266.269 
0.725 0.925 5.18714e+20 -5.26445 -52.3089 275.797 
0.925 0.925 5.18701e+20 25.7393 -24.1691 267.235 
0.525 0.975 5.18714e+20 -9.02495 -9.01669 265.935 
0.725 0.975 5.18688e+20 -3.01021 -60.439 274.186 
0.925 0.975 5.18688e+20 9.07093 -29.297 266.811 
