ITEM: TIMESTEP
2000000
ITEM: NUMBER OF CELLS
100
ITEM: BOX BOUNDS pp ss pp
0 1
0 4.9542e-06
-0.5 0.5
ITEM: CELLS id yc f_4[1] f_4[2] f_4[3] 
1 2.4771e-08 879.438 -53948.7 745.66 
5 2.22939e-07 -2386.51 -67813 242.697 
9 4.21107e-07 -279.455 -78439.4 2113.65 
13 6.19275e-07 3046.71 -79878.6 2907.35 
17 8.17443e-07 -685.3 -92510.1 -1779.6 
21 1.01561e-06 -1190.71 -90017.8 137.768 
25 1.21378e-06 -1795.35 -93233.1 -56.2918 
2 7.4313e-08 -15.6522 -55865.5 -2067.59 
6 2.72481e-07 568.622 -70564.2 -1274.35 
10 4.70649e-07 1986.42 -78452.9 1141.34 
14 6.68817e-07 -43.6795 -83893.5 1980.47 
18 8.66985e-07 -1301.47 -88908.5 208.001 
22 1.06515e-06 2149.62 -91715.3 401.143 
3 1.23855e-07 -929.424 -60181.4 -567.603 
7 3.22023e-07 2066.32 -73215.2 2316.43 
11 5.20191e-07 -790.796 -83323.1 -2963.25 
15 7.18359e-07 2479.77 -87474.3 470.811 
19 9.16527e-07 1521.52 -89426.2 4020.01 
23 1.11469e-06 446.65 -89619 1669.98 
4 1.73397e-07 1038.57 -64675.9 -1830.3 
8 3.71565e-07 1910.12 -76993.1 -368.712 
12 5.69733e-07 -1864.58 -83141.8 -561.826 
16 7.67901e-07 1139.88 -87595.9 -1511.4 
20 9.66069e-07 -1821.05 -90253.3 -610.347 
24 1.16424e-06 937.732 -92335.1 447.659 
26 1.26332e-06 -2568.45 -88590.1 1620.21 
30 1.46149e-06 -1987.55 -88253.3 -1185.87 
34 1.65966e-06 1391.7 -90386.8 3108.07 
38 1.85782e-06 1802.8 -86775.7 218.143 
42 2.05599e-06 -252.548 -88661.3 -705.58 
46 2.25416e-06 -342.237 -88203.1 1932.53 
50 2.45233e-06 -1197.58 -93376 -2437.31 
29 1.41195e-06 -976.651 -86426.4 142.893 
33 1.61012e-06 240.16 -86541.3 -2216.48 
37 1.80828e-06 -2447.35 -86828.9 881.434 
41 2.00645e-06 865.029 -86727.4 469.233 
45 2.20462e-06 -1866.71 -86169.3 287.135 
49 2.40279e-06 -1393.33 -88990.6 -1601.22 
27 1.31286e-06 260.119 -88510.7 -1019.39 
31 1.51103e-06 -1639.23 -88890.8 -96.5645 
35 1.7092e-06 2741.57 -90003.8 826.012 
39 1.90737e-06 1164.08 -88875.7 -1294.41 
43 2.10553e-06 -1191.49 -87781.9 -2256.87 
47 2.3037e-06 1177.76 -88670.5 -973.95 
28 1.3624e-06 1148.16 -87474.5 -293.231 
32 1.56057e-06 -2700.06 -89188 -2426.43 
36 1.75874e-06 4341.92 -89660.7 -4033.44 
40 1.95691e-06 -1088.2 -88459.1 575.626 
44 2.15508e-06 -1489.73 -90453 343.398 
48 2.35324e-06 222.243 -88172.9 1663.5 
51 2.50187e-06 -628.557 -89881.3 -222.863 
55 2.70004e-06 1199.47 -90502.5 -790.473 
59 2.89821e-06 -1277.02 -90438 -1848.61 
63 3.09637e-06 -157.177 -90559.3 -2023.13 
67 3.29454e-06 2259.78 -91525.5 -257.49 
71 3.49271e-06 -1013.86 -93067.9 -42.6953 
75 3.69088e-06 -760.891 -93617.1 1171.55 
53 2.60096e-06 1819.25 -94326.7 -2270.08 
57 2.79912e-06 -360.801 -92362.9 1478.82 
61 2.99729e-06 -1538.35 -92593.2 3155.26 
65 3.19546e-06 2963.13 -93070.1 2040.57 
69 3.39363e-06 -2082.79 -90186.4 -2185.31 
73 3.5918e-06 -1676.44 -93407.4 -614.508 
54 2.6505e-06 -2410.62 -97112.6 932.358 
58 2.84867e-06 1054.13 -90464.9 2280.07 
62 3.04683e-06 -817.65 -91980.1 -945.099 
66 3.245e-06 -1680.72 -90409.9 477.898 
70 3.44317e-06 1935.57 -90739 2544.64 
74 3.64134e-06 -1315.84 -93200.2 172.152 
52 2.55141e-06 810.216 -89459.9 1730.72 
56 2.74958e-06 2997.65 -90465.7 -1769.35 
60 2.94775e-06 -972.689 -93116.3 -1275.25 
64 3.14592e-06 -1308.47 -93761.8 879.422 
68 3.34408e-06 2197.36 -89662.4 -82.11 
72 3.54225e-06 -886.797 -91156.6 1760.98 
76 3.74042e-06 2213.36 -96300.3 1153.3 
80 3.93859e-06 84.7494 -95889 18.3552 
84 4.13676e-06 -585.861 -94355.2 -256.153 
88 4.33492e-06 -1490.19 -93559 161.178 
92 4.53309e-06 546.662 -85175 -550.245 
96 4.73126e-06 984.547 -74685.7 998.015 
100 4.92943e-06 -1571.96 -57869.4 2979.76 
77 3.78996e-06 2160.72 -95190.5 -1070.35 
81 3.98813e-06 883.789 -95377.3 -1290.78 
85 4.1863e-06 -2158.27 -95960.2 -1442.72 
89 4.38447e-06 -154.887 -90219.9 -77.8723 
93 4.58263e-06 -2758.76 -84471.8 -1297.31 
97 4.7808e-06 3293.44 -71095.7 750.936 
78 3.8395e-06 2898.59 -96381.5 -498.419 
82 4.03767e-06 813.702 -95393.6 85.7889 
86 4.23584e-06 -438.633 -95453.5 -2707.07 
90 4.43401e-06 1162.57 -89833 -337.39 
94 4.63218e-06 579.536 -83942.7 264.052 
98 4.83034e-06 -8.06798 -67602 -833.993 
79 3.88905e-06 -1534.56 -93926.7 209.829 
83 4.08721e-06 -71.9179 -94277.3 -92.6152 
87 4.28538e-06 -487.063 -93015.8 2398.41 
91 4.48355e-06 -1005.44 -87035.7 1392.66 
95 4.68172e-06 4.3484 -79167.7 -1949.67 
99 4.87989e-06 -603.307 -59608 -1415.91 
