ITEM: TIMESTEP
1200000
ITEM: NUMBER OF CELLS
300
ITEM: BOX BOUNDS pp ss pp
0 1
0 6.3593e-05
-0.5 0.5
ITEM: CELLS id yc f_1[1] f_1[2] f_1[3] f_1[4] f_1[5] f_1[6] f_1[7] f_1[8] 
1 1.05988e-07 201.499 1.79583 1.06636 273.057 102115 102129 -17.6775 -10690.8 
5 9.53895e-07 201.362 1.79462 5.66572 273.215 102105 102130 -19.5608 -2012.17 
9 1.8018e-06 201.081 1.79212 9.9771 273.692 102140 102140 -31.7067 -5383.61 
13 2.64971e-06 200.983 1.79124 14.1525 273.799 102130 102122 -19.9263 -6858.78 
17 3.49762e-06 200.843 1.78999 18.2664 273.984 102128 102131 -17.1719 -756.125 
21 4.34552e-06 200.686 1.78859 22.5421 274.16 102114 102119 -31.67 -543.197 
25 5.19343e-06 200.614 1.78795 26.7259 274.283 102123 102123 -14.2272 -1344.52 
29 6.04133e-06 200.575 1.78761 30.407 274.337 102123 102120 -16.6698 -216.63 
33 6.88924e-06 200.321 1.78533 33.9648 274.631 102103 102108 -14.7039 -3593.9 
37 7.73715e-06 200.309 1.78524 37.6221 274.701 102124 102133 -23.4285 -4875.51 
41 8.58506e-06 200.169 1.78399 41.0919 274.9 102126 102120 -21.7992 2114.93 
45 9.43296e-06 200.211 1.78436 44.34 274.871 102136 102130 -21.5185 -2469.69 
49 1.02809e-05 200.131 1.78365 47.7317 274.923 102115 102120 -9.34086 -3463.46 
53 1.11288e-05 200.009 1.78256 50.9759 275.113 102123 102105 -14.5921 -3305.71 
57 1.19767e-05 200.01 1.78257 53.8587 275.104 102121 102125 -8.02415 2370.5 
61 1.28246e-05 200.049 1.78291 56.9123 275.129 102150 102119 -14.9927 3088.96 
65 1.36725e-05 199.882 1.78143 59.8487 275.283 102122 102124 -21.9361 -4985.75 
69 1.45204e-05 199.803 1.78072 62.4634 275.423 102133 102135 -15.3285 4444.42 
73 1.53683e-05 199.777 1.78049 65.038 275.433 102123 102112 -1.98561 -3671.76 
2 3.17965e-07 201.501 1.79586 2.28679 273.018 102102 102113 -14.6579 -6677.71 
6 1.16587e-06 201.316 1.79421 6.72911 273.34 102128 102124 -29.5505 -3438.7 
10 2.01378e-06 201.052 1.79185 11.0004 273.731 102140 102132 -24.625 -2719.5 
14 2.86168e-06 200.958 1.79102 15.0952 273.822 102126 102123 -22.8846 -4563.1 
18 3.70959e-06 200.738 1.78906 19.3792 274.127 102128 102117 -16.1089 -5561.11 
22 4.5575e-06 200.685 1.78858 23.6269 274.153 102111 102109 -15.0078 -4459.79 
26 5.4054e-06 200.56 1.78747 27.7254 274.342 102118 102119 -22.0142 -4316.8 
30 6.25331e-06 200.536 1.78725 31.3546 274.373 102117 102129 -31.6379 2557.51 
34 7.10122e-06 200.367 1.78575 34.8071 274.647 102133 102136 -19.5499 -2692.81 
38 7.94912e-06 200.317 1.78531 38.5129 274.728 102138 102140 -8.28843 1308.04 
42 8.79703e-06 200.156 1.78387 41.9126 274.895 102117 102119 -26.197 -2465.53 
46 9.64494e-06 200.185 1.78413 45.2063 274.859 102119 102133 -21.332 -4308.45 
50 1.04928e-05 200.12 1.78355 48.4232 274.972 102127 102132 -27.947 3944.84 
54 1.13408e-05 199.963 1.78215 51.6537 275.182 102125 102131 -23.2865 983.328 
58 1.21887e-05 199.994 1.78242 54.646 275.121 102118 102116 5.18971 -3476.42 
62 1.30366e-05 200.003 1.78251 57.6532 275.117 102122 102123 -10.894 -2085.09 
66 1.38845e-05 199.783 1.78054 60.566 275.366 102101 102116 -4.01282 2448.77 
70 1.47324e-05 199.784 1.78055 63.1034 275.401 102115 102106 -8.58299 -3436.4 
74 1.55803e-05 199.818 1.78086 65.6894 275.354 102115 102125 -14.093 826.351 
3 5.29942e-07 201.544 1.79624 3.4912 273.029 102127 102120 -34.0354 -4086.3 
7 1.37785e-06 201.164 1.79285 7.84685 273.521 102119 102126 -29.9333 -235.354 
11 2.22576e-06 201.017 1.79154 12.0847 273.722 102119 102121 -24.7385 -4782.75 
15 3.07366e-06 200.897 1.79047 16.1455 273.867 102112 102112 -26.2295 -876.061 
19 3.92157e-06 200.751 1.78917 20.4654 274.091 102122 102125 -24.7241 -7279.56 
23 4.76947e-06 200.708 1.78879 24.6654 274.147 102120 102133 -25.3765 -5508.72 
27 5.61738e-06 200.583 1.78768 28.7206 274.327 102124 102116 -20.0701 -8596.32 
31 6.46529e-06 200.43 1.78631 32.2744 274.525 102119 102120 -24.4494 2588.42 
35 7.31319e-06 200.248 1.78468 35.7234 274.718 102098 102118 -27.0709 -1822.12 
39 8.1611e-06 200.235 1.78457 39.3837 274.77 102111 102119 -18.2532 -3495.88 
43 9.00901e-06 200.15 1.78382 42.7235 274.877 102108 102099 -10.01 -2591.75 
47 9.85691e-06 200.204 1.78429 46.0393 274.828 102117 102117 -13.9238 -2122.88 
51 1.07048e-05 200.057 1.78298 49.1661 275.034 102118 102118 -8.08803 -354.406 
55 1.15527e-05 200.003 1.7825 52.3601 275.105 102117 102128 -10.115 -3961.55 
59 1.24006e-05 200.033 1.78278 55.5162 275.095 102129 102125 -16.9393 -1420.62 
63 1.32485e-05 200.023 1.78268 58.3646 275.114 102131 102137 -24.7187 -760.864 
67 1.40964e-05 199.797 1.78067 61.2156 275.376 102112 102121 -10.7091 962.639 
71 1.49444e-05 199.819 1.78086 63.7728 275.367 102120 102128 -15.9141 -4532.17 
75 1.57923e-05 199.792 1.78062 66.2621 275.417 102125 102121 -7.88156 -2269.78 
4 7.41918e-07 201.437 1.79529 4.49302 273.13 102111 102124 -26.4076 1236.58 
8 1.58983e-06 201.065 1.79197 8.89815 273.673 102125 102120 -27.2229 -1345.33 
12 2.43773e-06 201.005 1.79144 13.0696 273.737 102118 102118 -30.7165 -6763.38 
16 3.28564e-06 200.865 1.79018 17.1713 273.972 102135 102134 -27.1289 -1007.16 
20 4.13355e-06 200.745 1.78912 21.4821 274.051 102104 102108 -11.5702 -6909.89 
24 4.98145e-06 200.667 1.78842 25.6664 274.215 102125 102132 -22.8251 -3154.45 
28 5.82936e-06 200.544 1.78732 29.5639 274.336 102107 102125 -30.7047 -5911.15 
32 6.67727e-06 200.357 1.78566 33.1538 274.652 102129 102126 -23.2132 -5411.66 
36 7.52517e-06 200.306 1.7852 36.6552 274.702 102122 102118 -5.75484 -4264.37 
40 8.37308e-06 200.189 1.78416 40.264 274.882 102129 102114 -25.3529 3366.74 
44 9.22099e-06 200.145 1.78377 43.4721 274.89 102110 102128 -15.6093 -4521.68 
48 1.00689e-05 200.15 1.78382 46.821 274.941 102132 102127 -19.2906 537.171 
52 1.09168e-05 200.021 1.78266 50.1354 275.051 102106 102120 5.50532 611.101 
56 1.17647e-05 200.049 1.78292 53.1252 275.036 102115 102130 -13.5596 -2521.63 
60 1.26126e-05 200.036 1.7828 56.2015 275.095 102130 102122 -7.87515 -3674.62 
64 1.34605e-05 199.947 1.782 59.1256 275.192 102121 102118 -7.26295 1951.5 
68 1.43084e-05 199.839 1.78104 61.8841 275.381 102136 102122 -6.10491 -1251.75 
72 1.51563e-05 199.858 1.78122 64.2848 275.37 102142 102122 -11.0478 4207.81 
78 1.64282e-05 199.864 1.78126 68.0346 275.367 102143 102133 -17.0187 -4191.02 
82 1.72761e-05 199.764 1.78038 70.3549 275.444 102121 102119 -4.09539 1510.9 
86 1.8124e-05 199.697 1.77978 72.2037 275.527 102117 102121 -0.645032 -628.072 
90 1.89719e-05 199.744 1.7802 74.3372 275.405 102097 102128 -4.08722 1954.87 
94 1.98198e-05 199.603 1.77894 76.0828 275.599 102096 102112 -16.2542 1951.37 
98 2.06677e-05 199.582 1.77875 77.6376 275.678 102114 102122 9.04726 -385.944 
102 2.15156e-05 199.762 1.78036 79.1971 275.467 102128 102122 -1.32669 -1138.45 
106 2.23635e-05 199.844 1.78109 80.5281 275.328 102119 102122 -20.584 -2982.82 
110 2.32114e-05 199.854 1.78118 81.9074 275.259 102098 102110 -0.759912 -1687 
114 2.40594e-05 199.764 1.78038 83.1034 275.454 102125 102132 -7.66219 -486.532 
118 2.49073e-05 199.739 1.78015 84.1155 275.468 102117 102125 -1.21833 2043.13 
122 2.57552e-05 199.664 1.77948 85.4548 275.562 102113 102116 5.69538 -753.502 
126 2.66031e-05 199.622 1.77911 86.5633 275.612 102111 102115 -2.04297 -417.639 
130 2.7451e-05 199.854 1.78118 87.141 275.353 102133 102114 -9.20183 -2864.67 
134 2.82989e-05 199.826 1.78093 87.6078 275.394 102134 102143 -4.82672 3439.91 
138 2.91468e-05 199.654 1.7794 88.2541 275.611 102127 102133 4.66315 -302.543 
142 2.99947e-05 199.611 1.77901 88.6456 275.672 102127 102123 -15.2379 3661.05 
146 3.08426e-05 199.651 1.77937 89.1211 275.591 102118 102120 15.6165 -1620.44 
150 3.16905e-05 199.557 1.77853 89.4579 275.746 102127 102127 -14.4686 6304.37 
77 1.62162e-05 199.84 1.78105 67.5558 275.359 102128 102126 -7.85194 6551.49 
81 1.70641e-05 199.797 1.78067 69.7325 275.37 102110 102112 -10.9326 -570.911 
85 1.7912e-05 199.692 1.77973 71.7464 275.502 102105 102126 -28.1659 -450.825 
89 1.87599e-05 199.79 1.78061 73.905 275.368 102106 102104 -18.5416 -5746.05 
93 1.96078e-05 199.649 1.77935 75.725 275.656 102141 102126 -14.0552 536.745 
97 2.04557e-05 199.668 1.77952 77.2757 275.589 102125 102122 -20.2542 -3524.06 
101 2.13037e-05 199.684 1.77967 78.7893 275.58 102131 102133 -15.7133 -2682.54 
105 2.21516e-05 199.823 1.7809 80.3029 275.349 102116 102117 -16.688 -4871.39 
109 2.29995e-05 199.911 1.78168 81.4107 275.242 102121 102119 2.2526 -839.637 
113 2.38474e-05 199.791 1.78062 82.8493 275.413 102123 102113 -9.91463 5.21547 
117 2.46953e-05 199.738 1.78015 83.9698 275.471 102118 102115 -11.6927 1813.09 
121 2.55432e-05 199.68 1.77963 85.2185 275.596 102135 102127 -9.1374 -1127.24 
125 2.63911e-05 199.708 1.77987 86.3843 275.545 102130 102123 -6.32968 270.217 
129 2.7239e-05 199.747 1.78022 87.0961 275.447 102113 102124 -8.04264 -495.142 
133 2.80869e-05 199.887 1.78147 87.508 275.274 102121 102126 6.93426 3287.01 
137 2.89348e-05 199.621 1.7791 88.2186 275.588 102101 102113 -12.8444 -3149.48 
141 2.97827e-05 199.654 1.77939 88.6668 275.662 102145 102136 -3.5457 -4618.04 
145 3.06306e-05 199.653 1.77939 88.8812 275.601 102122 102121 0.881378 2215.99 
149 3.14785e-05 199.611 1.77901 89.445 275.652 102120 102126 8.0262 -3245.06 
79 1.66402e-05 199.76 1.78034 68.6352 275.448 102120 102122 -19.3368 -1667.35 
83 1.74881e-05 199.74 1.78016 70.8141 275.436 102105 102118 -20.6721 1103.04 
87 1.8336e-05 199.805 1.78074 72.8024 275.423 102134 102114 -8.83304 -5923.84 
91 1.91839e-05 199.669 1.77953 74.7273 275.537 102107 102118 -14.5017 1256.72 
95 2.00318e-05 199.676 1.77959 76.5354 275.612 102138 102133 -5.98912 -6280.67 
99 2.08797e-05 199.638 1.77925 78.1542 275.638 102128 102113 -12.4408 683.441 
103 2.17276e-05 199.728 1.78006 79.7572 275.5 102123 102122 2.35732 -2202.79 
107 2.25755e-05 199.907 1.78165 80.6809 275.243 102119 102114 -24.2807 1609.83 
111 2.34234e-05 199.905 1.78163 82.1945 275.274 102130 102131 -1.69812 -4495.91 
115 2.42713e-05 199.761 1.78035 83.3912 275.448 102121 102108 -11.8986 4045.31 
119 2.51192e-05 199.694 1.77975 84.5311 275.553 102126 102125 5.41007 2190.36 
123 2.59671e-05 199.664 1.77948 85.7151 275.615 102133 102126 -1.94302 2292.8 
127 2.6815e-05 199.671 1.77955 86.7528 275.572 102121 102127 -10.8834 -720.22 
131 2.7663e-05 199.902 1.78161 87.2848 275.319 102145 102129 8.07795 -1947.88 
135 2.85109e-05 199.745 1.78021 87.8284 275.468 102120 102111 0.0169643 -261.471 
139 2.93588e-05 199.68 1.77963 88.3365 275.539 102113 102123 -2.59075 2241.62 
143 3.02067e-05 199.674 1.77957 88.7209 275.571 102122 102123 -1.52512 -2130.63 
147 3.10546e-05 199.595 1.77886 89.2708 275.632 102104 102112 -7.24382 -1715.84 
76 1.60042e-05 199.802 1.78072 66.8967 275.367 102112 102111 -4.56911 -866.656 
80 1.68521e-05 199.825 1.78092 69.1723 275.396 102134 102126 -4.81648 -1953.88 
84 1.77001e-05 199.757 1.78031 71.2934 275.433 102113 102125 -4.35829 -3966.8 
88 1.8548e-05 199.791 1.78062 73.3387 275.385 102113 102113 -1.76977 252.47 
92 1.93959e-05 199.695 1.77976 75.2613 275.597 102142 102128 -0.531323 852 
96 2.02438e-05 199.653 1.77938 76.944 275.571 102111 102119 -9.21719 -1442.07 
100 2.10917e-05 199.638 1.77925 78.4685 275.592 102111 102122 -9.55234 -4362.98 
104 2.19396e-05 199.812 1.7808 80.1029 275.431 102140 102123 -14.9228 1624.89 
108 2.27875e-05 199.911 1.78168 80.9591 275.254 102125 102129 1.85374 -808.534 
112 2.36354e-05 199.876 1.78137 82.551 275.321 102132 102127 -2.70402 4561.43 
116 2.44833e-05 199.764 1.78037 83.6316 275.482 102135 102132 -10.4069 -2539.67 
120 2.53312e-05 199.634 1.77921 84.8021 275.635 102125 102108 1.50965 1754.47 
124 2.61791e-05 199.628 1.77916 86.0893 275.574 102100 102115 -0.720653 -2552.47 
128 2.7027e-05 199.743 1.78019 86.8918 275.475 102122 102120 -3.86164 -6463.45 
132 2.78749e-05 199.909 1.78167 87.3886 275.265 102129 102123 -7.42484 -2425.06 
136 2.87228e-05 199.693 1.77975 88.056 275.549 102124 102130 9.43241 5417.4 
140 2.95707e-05 199.675 1.77958 88.556 275.586 102128 102118 0.528435 -1343.04 
144 3.04187e-05 199.661 1.77946 88.7661 275.586 102121 102121 1.54761 -2456.81 
148 3.12666e-05 199.584 1.77877 89.3292 275.645 102103 102126 8.30372 3734.28 
151 3.19025e-05 199.587 1.7788 89.3937 275.752 102144 102124 0.755058 -5.10135 
155 3.27504e-05 199.452 1.7776 89.5566 275.865 102117 102114 11.1706 5243.69 
159 3.35983e-05 199.552 1.77848 89.2858 275.738 102121 102118 -0.591784 876.941 
163 3.44462e-05 199.519 1.77819 88.91 275.729 102101 102121 -6.98669 918.119 
167 3.52941e-05 199.514 1.77815 88.1378 275.746 102105 102120 15.2976 4404.14 
171 3.6142e-05 199.482 1.77786 87.6348 275.782 102101 102113 6.35214 -193.726 
175 3.69899e-05 199.602 1.77893 86.7127 275.668 102121 102129 11.878 545.134 
179 3.78378e-05 199.419 1.7773 85.8022 275.938 102127 102126 11.6354 1346.02 
183 3.86857e-05 199.468 1.77774 84.8716 275.844 102118 102111 2.89269 1466.16 
187 3.95336e-05 199.507 1.77808 83.5634 275.809 102124 102124 9.26669 322.007 
191 4.03816e-05 199.54 1.77838 82.5137 275.722 102109 102121 18.8596 -3369.75 
195 4.12295e-05 199.515 1.77815 81.4316 275.737 102102 102107 4.46466 -2143.77 
199 4.20774e-05 199.507 1.77808 79.9269 275.769 102110 102116 0.88748 3064.29 
203 4.29253e-05 199.524 1.77823 78.3832 275.816 102136 102123 7.30312 -1854.95 
207 4.37732e-05 199.451 1.77759 76.6308 275.861 102115 102118 12.8028 4293.91 
211 4.46211e-05 199.531 1.7783 74.5522 275.766 102121 102119 4.50931 -501.941 
215 4.5469e-05 199.447 1.77755 72.5266 275.93 102139 102130 -13.5781 2555.93 
219 4.63169e-05 199.512 1.77813 70.4175 275.804 102125 102131 20.172 904.57 
223 4.71648e-05 199.517 1.77817 68.2455 275.791 102123 102133 8.21314 906.938 
153 3.23264e-05 199.495 1.77797 89.4417 275.829 102126 102115 2.53903 3697.91 
157 3.31743e-05 199.465 1.77771 89.495 275.879 102129 102126 -6.9275 -531.208 
161 3.40223e-05 199.558 1.77854 89.2396 275.744 102127 102126 -5.26916 2472.34 
165 3.48702e-05 199.639 1.77926 88.5204 275.629 102126 102117 10.1108 -3061.07 
169 3.57181e-05 199.51 1.77812 87.7827 275.73 102097 102118 -7.32954 -401.809 
173 3.6566e-05 199.529 1.77828 87.0217 275.723 102104 102125 7.74245 -3827.1 
177 3.74139e-05 199.477 1.77782 86.319 275.811 102110 102128 -7.76007 3141.68 
181 3.82618e-05 199.426 1.77736 85.3878 275.915 102122 102113 7.74748 -1647.33 
185 3.91097e-05 199.48 1.77784 84.3801 275.877 102136 102123 -0.619073 3111.87 
189 3.99576e-05 199.524 1.77823 82.9102 275.753 102112 102123 -0.671338 -1620.39 
193 4.08055e-05 199.604 1.77895 82.1022 275.634 102110 102113 9.33101 -616.102 
197 4.16534e-05 199.559 1.77854 80.7131 275.717 102117 102119 14.6735 -2696.41 
201 4.25013e-05 199.527 1.77826 79.161 275.756 102115 102119 11.1787 2511.78 
205 4.33492e-05 199.517 1.77817 77.5541 275.806 102129 102124 -3.70396 1991.34 
209 4.41971e-05 199.428 1.77738 75.5642 275.866 102105 102121 10.9142 707.62 
213 4.5045e-05 199.451 1.77758 73.6142 275.861 102115 102118 10.8107 2194.91 
217 4.58929e-05 199.464 1.7777 71.4675 275.821 102107 102123 12.3849 -2650.17 
221 4.67409e-05 199.475 1.7778 69.3803 275.881 102135 102116 4.34533 3684.75 
225 4.75888e-05 199.613 1.77903 66.9268 275.645 102118 102126 10.6644 -33.3494 
154 3.25384e-05 199.474 1.77779 89.5385 275.836 102118 102124 3.69891 3355.56 
158 3.33863e-05 199.498 1.778 89.3489 275.816 102122 102119 5.39254 -780.549 
162 3.42342e-05 199.505 1.77806 89.1288 275.765 102107 102118 -0.261278 1919.81 
166 3.50821e-05 199.625 1.77914 88.2226 275.665 102132 102131 -11.0594 -2673.56 
170 3.593e-05 199.502 1.77804 87.5846 275.763 102105 102124 8.44417 1804.87 
174 3.6778e-05 199.525 1.77825 86.8163 275.703 102095 102116 2.87329 2919.66 
178 3.76259e-05 199.472 1.77778 86.0731 275.868 102129 102118 8.40273 404.673 
182 3.84738e-05 199.465 1.77771 85.1576 275.824 102109 102114 9.20811 -1066.91 
186 3.93217e-05 199.456 1.77763 83.9 275.89 102128 102123 -4.45388 -5718.07 
190 4.01696e-05 199.593 1.77885 82.6153 275.693 102126 102124 12.2333 2039.8 
194 4.10175e-05 199.581 1.77875 81.6292 275.7 102122 102131 3.87872 1733.49 
198 4.18654e-05 199.558 1.77854 80.2867 275.691 102107 102117 5.98241 1277.86 
202 4.27133e-05 199.542 1.7784 78.8573 275.766 102127 102130 7.44697 901.676 
206 4.35612e-05 199.5 1.77802 77.0192 275.786 102113 102129 14.0295 428.64 
210 4.44091e-05 199.455 1.77762 75.119 275.87 102120 102121 2.35391 2860.05 
214 4.5257e-05 199.491 1.77794 73.1404 275.905 102152 102127 19.4496 377.05 
218 4.61049e-05 199.485 1.77789 70.9933 275.821 102118 102117 12.8021 -3585.54 
222 4.69528e-05 199.415 1.77726 68.8928 275.87 102100 102116 5.4925 -2592.7 
152 3.21145e-05 199.483 1.77787 89.4231 275.826 102119 102125 1.5656 2976.1 
156 3.29624e-05 199.458 1.77765 89.5971 275.821 102104 102118 -2.71875 -2378.3 
160 3.38103e-05 199.573 1.77867 89.2833 275.785 102150 102130 2.05659 -333.96 
164 3.46582e-05 199.57 1.77865 88.7241 275.678 102108 102113 -0.614701 -514.569 
168 3.55061e-05 199.574 1.77868 87.9185 275.709 102122 102125 -3.20903 2649.35 
172 3.6354e-05 199.482 1.77786 87.317 275.79 102105 102117 -8.83091 5231.23 
176 3.72019e-05 199.502 1.77804 86.49 275.802 102120 102113 -4.70504 4723.01 
180 3.80498e-05 199.409 1.77721 85.5768 275.923 102117 102123 8.89392 997.861 
184 3.88977e-05 199.508 1.77809 84.7023 275.805 102123 102117 -2.34744 -3252.96 
188 3.97456e-05 199.471 1.77776 83.323 275.865 102127 102119 8.39213 -4433.49 
192 4.05935e-05 199.629 1.77917 82.3737 275.66 102132 102142 3.1027 -97.9628 
196 4.14414e-05 199.539 1.77837 81.0521 275.787 102133 102136 0.642812 -3470.22 
200 4.22893e-05 199.534 1.77833 79.532 275.78 102128 102120 2.08066 -7216.97 
204 4.31373e-05 199.56 1.77856 77.9599 275.777 102140 102122 6.4009 3781.78 
208 4.39852e-05 199.53 1.77829 76.1358 275.769 102122 102104 -3.02768 2670.72 
212 4.48331e-05 199.461 1.77767 74.1091 275.826 102107 102118 5.61549 1739.87 
216 4.5681e-05 199.437 1.77746 71.9601 275.89 102119 102118 12.8123 -2013.99 
220 4.65289e-05 199.498 1.77801 69.9838 275.818 102124 102112 18.6496 -555.04 
224 4.73768e-05 199.572 1.77867 67.5758 275.673 102107 102113 7.90307 646.051 
228 4.82247e-05 199.633 1.77921 65.0812 275.583 102106 102116 17.0526 1622.29 
232 4.90726e-05 199.689 1.77971 62.6747 275.53 102115 102123 6.94608 5144.34 
236 4.99205e-05 199.881 1.78142 60.0932 275.278 102119 102116 12.5045 5633.34 
240 5.07684e-05 199.917 1.78174 57.4187 275.226 102118 102112 14.539 1737.05 
244 5.16163e-05 199.953 1.78206 54.5202 275.132 102102 102112 23.8374 4160.68 
248 5.24642e-05 200.013 1.78259 51.4235 275.139 102135 102123 18.0547 6102.69 
252 5.33121e-05 199.922 1.78178 48.3058 275.147 102091 102107 -1.9685 2362.83 
256 5.416e-05 200.09 1.78328 45.0837 275.043 102138 102123 11.1082 1422.75 
260 5.50079e-05 200.041 1.78285 41.4747 275.065 102122 102131 13.388 2514.63 
264 5.58559e-05 200.149 1.78381 37.9479 274.915 102121 102126 17.3742 4304.24 
268 5.67038e-05 200.362 1.7857 34.114 274.637 102126 102117 22.9783 2538.83 
272 5.75517e-05 200.407 1.7861 30.5072 274.546 102115 102121 21.026 4577.17 
276 5.83996e-05 200.621 1.78801 26.7707 274.265 102120 102129 24.1087 690.77 
280 5.92475e-05 200.686 1.78859 22.6909 274.195 102127 102132 7.15428 -1201.18 
284 6.00954e-05 200.732 1.789 18.8095 274.103 102116 102136 43.5456 -2637.68 
288 6.09433e-05 200.908 1.79057 14.4393 273.893 102127 102114 16.1759 4945.62 
292 6.17912e-05 201.073 1.79205 9.90736 273.632 102114 102120 21.5283 580.545 
296 6.26391e-05 201.408 1.79502 5.53793 273.204 102124 102125 30.5458 1237.88 
300 6.3487e-05 201.559 1.79637 0.971048 272.987 102120 102132 22.1515 5047.83 
229 4.84367e-05 199.69 1.77972 64.5687 275.542 102120 102119 16.6211 -2797.54 
233 4.92846e-05 199.758 1.78032 62.0171 275.462 102124 102123 10.9148 -1422.76 
237 5.01325e-05 199.842 1.78107 59.4097 275.324 102116 102115 16.3976 3724.1 
241 5.09804e-05 200 1.78248 56.697 275.124 102123 102136 4.14749 -1998.88 
245 5.18283e-05 199.933 1.78188 53.808 275.21 102120 102112 12.8042 -1501.06 
249 5.26762e-05 200.026 1.78271 50.7123 275.092 102124 102124 19.8155 7171.46 
253 5.35241e-05 200.045 1.78288 47.3691 275.076 102128 102143 13.0839 -376.857 
257 5.4372e-05 200.052 1.78294 44.0788 275.07 102129 102127 6.96462 2212.47 
261 5.52199e-05 200.024 1.78269 40.6439 275.076 102117 102111 21.3863 1553.62 
265 5.60678e-05 200.205 1.7843 37.0036 274.814 102112 102114 8.3615 -0.542323 
269 5.69157e-05 200.43 1.78631 33.2467 274.557 102131 102131 20.0667 1551.76 
273 5.77636e-05 200.48 1.78676 29.566 274.456 102119 102117 21.2472 -3027.92 
277 5.86115e-05 200.67 1.78845 25.8171 274.185 102115 102131 28.3218 -576.725 
281 5.94595e-05 200.69 1.78863 21.6274 274.146 102111 102123 23.0666 4654.86 
285 6.03074e-05 200.821 1.78979 17.8897 274.022 102131 102115 10.101 2003.82 
289 6.11553e-05 200.921 1.79069 13.2687 273.842 102115 102132 5.52676 1392.19 
293 6.20032e-05 201.166 1.79287 8.73496 273.527 102122 102124 21.5407 4309.07 
297 6.28511e-05 201.429 1.79522 4.46685 273.161 102119 102116 28.3362 2164.31 
226 4.78007e-05 199.531 1.7783 66.33 275.755 102117 102121 7.08059 3101.76 
230 4.86486e-05 199.731 1.78008 63.9932 275.513 102130 102126 6.53593 1586.52 
234 4.94966e-05 199.8 1.78069 61.4758 275.407 102125 102121 11.5701 -705.088 
238 5.03445e-05 199.942 1.78196 58.7592 275.219 102128 102139 24.7337 1770.48 
242 5.11924e-05 199.999 1.78247 56.0031 275.118 102120 102117 13.916 3589.45 
246 5.20403e-05 199.977 1.78228 52.9699 275.159 102124 102131 14.4907 -1734.97 
250 5.28882e-05 199.956 1.78209 49.9923 275.13 102103 102108 12.8353 3985.36 
254 5.37361e-05 200.059 1.783 46.5675 274.996 102105 102114 26.0831 -528.055 
258 5.4584e-05 200.04 1.78284 43.2097 275.071 102124 102116 20.3206 1989.29 
262 5.54319e-05 200.115 1.7835 39.7756 274.962 102121 102114 21.2005 -1893.98 
266 5.62798e-05 200.232 1.78454 36.0769 274.772 102110 102115 22.2962 4820.54 
270 5.71277e-05 200.388 1.78594 32.3159 274.549 102107 102137 26.063 6013.21 
274 5.79756e-05 200.54 1.78729 28.5342 274.397 102128 102127 24.3734 3810.27 
278 5.88235e-05 200.675 1.78849 24.8766 274.196 102122 102120 19.422 5184.06 
282 5.96714e-05 200.713 1.78884 20.677 274.157 102127 102125 28.3866 3620.27 
286 6.05193e-05 200.81 1.78969 16.7051 274.004 102119 102109 20.1037 3837.47 
290 6.13672e-05 200.936 1.79082 12.161 273.826 102117 102120 23.3246 7770.18 
294 6.22152e-05 201.261 1.79371 7.66745 273.382 102116 102123 32.3234 -215.324 
298 6.30631e-05 201.448 1.79538 3.44515 273.173 102132 102127 15.991 8803 
227 4.80127e-05 199.557 1.77853 65.6327 275.715 102115 102129 21.8216 -3686.04 
231 4.88606e-05 199.735 1.78011 63.2822 275.48 102119 102115 18.8022 -1407.73 
235 4.97085e-05 199.806 1.78075 60.813 275.346 102106 102102 18.2634 -4457.78 
239 5.05564e-05 199.94 1.78194 58.1072 275.244 102136 102133 16.9979 1158.19 
243 5.14043e-05 200.019 1.78265 55.2447 275.052 102106 102122 1.42722 -1996 
247 5.22522e-05 199.972 1.78223 52.1609 275.174 102127 102123 20.0936 316.677 
251 5.31002e-05 199.953 1.78206 49.2289 275.23 102138 102139 13.4474 3948.3 
255 5.39481e-05 200.066 1.78307 45.7931 275.01 102114 102118 23.0962 4061.88 
259 5.4796e-05 200.05 1.78292 42.3367 275.06 102124 102130 26.4499 4464.47 
263 5.56439e-05 200.184 1.78412 38.9084 274.9 102133 102128 10.4608 1867.92 
267 5.64918e-05 200.296 1.78511 35.1106 274.697 102115 102124 2.60681 1218.38 
271 5.73397e-05 200.398 1.78603 31.4165 274.547 102112 102117 1.32127 2863.28 
275 5.81876e-05 200.564 1.7875 27.5958 274.346 102121 102124 22.6036 -544.789 
279 5.90355e-05 200.591 1.78775 23.8152 274.272 102107 102109 9.41809 5668.77 
283 5.98834e-05 200.687 1.7886 19.6483 274.176 102120 102114 19.4941 5537.39 
287 6.07313e-05 200.888 1.79039 15.5604 273.902 102120 102129 19.691 796.147 
291 6.15792e-05 201.027 1.79163 11.0489 273.716 102122 102119 20.141 3548.67 
295 6.24271e-05 201.365 1.79464 6.5957 273.236 102114 102118 27.9026 3051.05 
299 6.3275e-05 201.508 1.79591 2.1387 273.032 102110 102112 15.1502 4094.35 
