ITEM: TIMESTEP
800000
ITEM: NUMBER OF CELLS
300
ITEM: BOX BOUNDS pp ss pp
0 1
0 6.3593e-05
-0.5 0.5
ITEM: CELLS id yc f_1[1] f_1[2] f_1[3] f_1[4] f_1[5] f_1[6] f_1[7] f_1[8] 
1 1.05988e-07 201.835 1.79883 1.17507 273.049 102282 102290 -22.2844 -14102.8 
5 9.53895e-07 201.746 1.79804 6.18294 273.104 102258 102283 -31.0516 758.67 
9 1.8018e-06 201.6 1.79674 10.2449 273.388 102290 102294 -50.7912 -7122.54 
13 2.64971e-06 201.575 1.79651 14.446 273.397 102281 102260 -35.4365 -8240.49 
17 3.49762e-06 201.342 1.79444 18.3917 273.74 102291 102297 -17.9052 -1442.07 
21 4.34552e-06 201.217 1.79332 22.4286 273.924 102296 102284 -40.9215 228.006 
25 5.19343e-06 201.088 1.79217 26.5168 274.051 102278 102268 -21.0867 4676.89 
29 6.04133e-06 201.035 1.7917 30.2392 274.135 102282 102282 -7.45526 -69.0349 
33 6.88924e-06 200.494 1.78688 33.6491 274.812 102259 102267 -27.7891 826.717 
37 7.73715e-06 200.4 1.78604 37.1285 274.937 102257 102280 -26.7121 -11008.7 
41 8.58506e-06 200.337 1.78548 40.4876 275.097 102285 102276 -27.4535 1233.84 
45 9.43296e-06 200.427 1.78628 43.7822 274.949 102276 102271 -32.5868 -7263.29 
49 1.02809e-05 200.325 1.78538 47.4116 275.104 102281 102276 -9.46227 793.285 
53 1.11288e-05 200.198 1.78424 50.3261 275.331 102301 102265 -20.0167 -1155.98 
57 1.19767e-05 200.211 1.78436 53.0879 275.281 102289 102290 -23.5766 -467.099 
61 1.28246e-05 200.16 1.7839 56.0944 275.357 102291 102272 -8.58396 3477.06 
65 1.36725e-05 200.143 1.78375 58.7583 275.325 102270 102281 -25.305 -6747.3 
69 1.45204e-05 200.036 1.7828 61.0725 275.535 102294 102287 -13.1147 4152.57 
73 1.53683e-05 200.187 1.78415 63.1877 275.306 102286 102264 -16.2911 -6841.63 
2 3.17965e-07 201.835 1.79883 2.58237 272.966 102251 102265 3.11959 -6532.8 
6 1.16587e-06 201.688 1.79752 7.30765 273.259 102286 102291 -19.3601 -2832.58 
10 2.01378e-06 201.571 1.79648 11.2153 273.384 102274 102272 -25.6353 -3972.51 
14 2.86168e-06 201.551 1.7963 15.2061 273.463 102294 102286 -38.0241 1999.03 
18 3.70959e-06 201.244 1.79356 19.3436 273.916 102306 102265 -22.076 -5690.94 
22 4.5575e-06 201.225 1.79339 23.4686 273.824 102263 102260 -2.28672 -6812.68 
26 5.4054e-06 201.017 1.79154 27.4183 274.117 102266 102277 -26.3293 -6252.77 
30 6.25331e-06 200.911 1.79059 31.1661 274.254 102263 102286 -43.9028 10475.6 
34 7.10122e-06 200.556 1.78743 34.307 274.812 102290 102307 -27.3785 -1596.79 
38 7.94912e-06 200.448 1.78647 37.9428 274.953 102288 102294 -25.07 -1042.61 
42 8.79703e-06 200.277 1.78495 41.312 275.115 102261 102278 -6.08823 -6354.41 
46 9.64494e-06 200.409 1.78612 44.5897 274.954 102268 102276 -24.3458 -2489.09 
50 1.04928e-05 200.348 1.78558 48.1127 275.108 102295 102285 -26.6791 -1886.92 
54 1.13408e-05 200.107 1.78343 50.9588 275.374 102270 102275 -19.1247 2903.74 
58 1.21887e-05 200.175 1.78404 53.7057 275.313 102283 102272 6.65989 2129.44 
62 1.30366e-05 200.16 1.7839 56.8167 275.356 102290 102271 -18.9069 -1291.4 
66 1.38845e-05 200.01 1.78257 59.4018 275.414 102236 102254 -16.394 5111.04 
70 1.47324e-05 200.066 1.78306 61.6072 275.421 102266 102258 -2.12861 -9590.86 
74 1.55803e-05 200.322 1.78535 63.8825 275.145 102295 102282 -8.81283 -3403.1 
3 5.29942e-07 201.921 1.79959 3.9414 272.927 102280 102281 -34.1346 -6721.1 
7 1.37785e-06 201.582 1.79658 8.3225 273.379 102278 102292 -35.6049 -4322.43 
11 2.22576e-06 201.619 1.79691 12.3596 273.318 102274 102275 -26.2516 -5315.72 
15 3.07366e-06 201.518 1.796 16.2484 273.444 102269 102273 -25.0079 1960.06 
19 3.92157e-06 201.323 1.79427 20.3244 273.784 102298 102290 -17.7245 -4727.97 
23 4.76947e-06 201.299 1.79406 24.5211 273.794 102289 102293 -23.4809 -8165.12 
27 5.61738e-06 201.029 1.79164 28.3435 274.231 102315 102296 -22.964 -11159.2 
31 6.46529e-06 200.699 1.78871 32.0182 274.596 102283 102283 -32.3574 6721.68 
35 7.31319e-06 200.358 1.78566 35.1139 274.937 102236 102268 -29.12 3277.86 
39 8.1611e-06 200.43 1.78631 38.8695 274.948 102277 102269 -16.7236 -4991.86 
43 9.00901e-06 200.361 1.78569 42.2451 275.028 102271 102257 -19.8852 -3283.41 
47 9.85691e-06 200.502 1.78695 45.4753 274.842 102274 102284 -3.67317 -1993.16 
51 1.07048e-05 200.244 1.78465 48.8123 275.211 102279 102275 -26.0484 -1531.63 
55 1.15527e-05 200.129 1.78362 51.6615 275.334 102266 102288 -18.1662 1757.62 
59 1.24006e-05 200.199 1.78425 54.6737 275.325 102299 102284 -10.6613 -2837.32 
63 1.32485e-05 200.245 1.78466 57.3582 275.262 102299 102302 -41.8025 -2115.9 
67 1.40964e-05 199.998 1.78246 59.9238 275.523 102270 102275 -22.0349 -2591.73 
71 1.49444e-05 200.172 1.78401 62.1863 275.332 102288 102280 -34.0677 -8551.87 
75 1.57923e-05 200.262 1.78481 64.3915 275.199 102284 102283 -7.34939 -822.594 
4 7.41918e-07 201.824 1.79873 4.97846 272.962 102244 102274 -24.1492 3128.04 
8 1.58983e-06 201.501 1.79585 9.37166 273.456 102265 102267 -43.8254 -428.51 
12 2.43773e-06 201.575 1.79651 13.356 273.356 102265 102269 -26.7081 -2188.17 
16 3.28564e-06 201.44 1.79531 17.2628 273.625 102298 102285 -14.5992 328.478 
20 4.13355e-06 201.187 1.79306 21.3921 273.839 102249 102256 -14.1479 -9728.01 
24 4.98145e-06 201.238 1.79351 25.5095 273.854 102280 102298 -20.2739 -4675.48 
28 5.82936e-06 200.923 1.7907 29.2886 274.174 102240 102264 -25.3717 -279.828 
32 6.67727e-06 200.533 1.78723 32.8981 274.792 102271 102272 -27.4194 -8350.27 
36 7.52517e-06 200.38 1.78587 36.1577 274.931 102245 102253 -4.22414 -538.055 
40 8.37308e-06 200.472 1.78668 39.7512 274.974 102308 102287 -38.1358 2785.22 
44 9.22099e-06 200.365 1.78573 42.942 275.014 102268 102289 -13.4583 -5001.09 
48 1.00689e-05 200.373 1.78581 46.3971 275.08 102297 102286 -7.07952 9270.18 
52 1.09168e-05 200.246 1.78467 49.6793 275.157 102261 102271 -2.2395 944.165 
56 1.17647e-05 200.202 1.78428 52.4153 275.24 102269 102292 -12.5729 -4300.54 
60 1.26126e-05 200.246 1.78467 55.4234 275.259 102298 102288 -6.83477 -2633.42 
64 1.34605e-05 200.181 1.78409 58.0754 275.288 102276 102276 -4.67782 1202.34 
68 1.43084e-05 200.083 1.78322 60.4635 275.49 102301 102283 -17.5886 -1343.41 
72 1.51563e-05 200.222 1.78445 62.5271 275.335 102314 102279 -15.3211 4544.26 
78 1.64282e-05 200.208 1.78434 66.0695 275.321 102302 102277 -28.3874 -4677.64 
82 1.72761e-05 200.09 1.78328 68.2924 275.452 102290 102280 -9.30432 1466.48 
86 1.8124e-05 199.81 1.78079 70.3735 275.819 102284 102271 4.89235 2575.86 
90 1.89719e-05 199.904 1.78163 72.7856 275.589 102246 102285 -20.4881 -849.246 
94 1.98198e-05 199.744 1.7802 74.627 275.819 102250 102272 -4.49959 3868.71 
98 2.06677e-05 199.663 1.77948 76.1511 276.03 102287 102275 3.58362 -4036.75 
102 2.15156e-05 199.904 1.78163 77.2819 275.751 102306 102292 5.9291 -1401.32 
106 2.23635e-05 199.908 1.78166 78.6366 275.615 102258 102264 -20.0354 3223.66 
110 2.32114e-05 199.707 1.77987 80.0504 275.894 102259 102256 -0.821791 689.842 
114 2.40594e-05 199.448 1.77756 81.1239 276.296 102275 102275 -20.8958 4672.89 
118 2.49073e-05 199.321 1.77642 81.9767 276.49 102281 102291 11.0774 1242.36 
122 2.57552e-05 199.17 1.77508 83.4589 276.674 102272 102277 0.681384 3964.26 
126 2.66031e-05 199.063 1.77413 84.6892 276.825 102273 102274 -2.73961 2138.48 
130 2.7451e-05 199.274 1.77601 85.3785 276.6 102298 102284 -8.18678 -2497.43 
134 2.82989e-05 199.189 1.77525 86.0448 276.699 102291 102300 0.659682 5137.66 
138 2.91468e-05 199.091 1.77437 86.6082 276.829 102288 102282 2.05716 3223.73 
142 2.99947e-05 199.119 1.77462 87.0667 276.772 102282 102274 -25.4876 4030.54 
146 3.08426e-05 199.266 1.77594 87.7544 276.535 102270 102278 24.6219 -4197.92 
150 3.16905e-05 199.221 1.77554 88.3599 276.595 102269 102275 -4.99822 3507.55 
77 1.62162e-05 200.227 1.7845 65.7155 275.247 102284 102274 -7.66399 10795.4 
81 1.70641e-05 200.121 1.78356 67.6862 275.348 102268 102268 -15.7925 -3768.78 
85 1.7912e-05 199.757 1.78031 69.8683 275.852 102269 102285 -28.088 403.483 
89 1.87599e-05 199.95 1.78203 72.37 275.572 102263 102258 -14.579 -4540.21 
93 1.96078e-05 199.801 1.7807 74.2609 275.866 102296 102278 -1.10677 1729.08 
97 2.04557e-05 199.746 1.78021 75.7406 275.918 102287 102282 -15.8566 -1511.77 
101 2.13037e-05 199.768 1.78041 76.8975 275.843 102271 102275 -0.481603 -6855.93 
105 2.21516e-05 199.987 1.78236 78.4065 275.571 102282 102277 -21.296 67.3552 
109 2.29995e-05 199.758 1.78032 79.6098 275.946 102304 102282 5.92508 -4918.13 
113 2.38474e-05 199.612 1.77902 80.8836 276.113 102291 102275 -8.97263 1809.17 
117 2.46953e-05 199.383 1.77698 81.7232 276.421 102287 102273 -24.9038 5844.41 
121 2.55432e-05 199.244 1.77574 83.2891 276.647 102300 102276 -8.36066 3925.79 
125 2.63911e-05 199.132 1.77475 84.4298 276.742 102278 102272 3.15684 6350.99 
129 2.7239e-05 199.141 1.77482 85.3225 276.681 102260 102280 1.83117 1984.92 
133 2.80869e-05 199.266 1.77594 85.7573 276.505 102259 102280 9.92849 5804.49 
137 2.89348e-05 199.091 1.77437 86.6254 276.783 102271 102271 -11.5894 -8421.84 
141 2.97827e-05 199.188 1.77524 87.0208 276.718 102297 102289 3.50682 -3631.79 
145 3.06306e-05 199.238 1.77569 87.5279 276.609 102283 102271 0.206792 -1057.95 
149 3.14785e-05 199.329 1.7765 88.1427 276.487 102284 102278 4.83274 -1399.82 
79 1.66402e-05 200.043 1.78286 66.6701 275.501 102284 102268 -15.4954 -4658.06 
83 1.74881e-05 199.946 1.782 68.8728 275.537 102248 102258 -13.4071 -1284.47 
87 1.8336e-05 199.932 1.78187 71.1116 275.602 102265 102267 -8.90664 -5584.3 
91 1.91839e-05 199.804 1.78073 73.1806 275.738 102250 102267 -0.475448 1307.07 
95 2.00318e-05 199.778 1.7805 75.1101 275.922 102306 102300 -13.4529 -3154.73 
99 2.08797e-05 199.761 1.78035 76.5811 275.905 102290 102265 -20.4037 3185.84 
103 2.17276e-05 199.822 1.78089 77.9684 275.765 102270 102278 12.0635 -3264.35 
107 2.25755e-05 199.909 1.78167 78.8393 275.66 102275 102276 -19.7367 6765.23 
111 2.34234e-05 199.719 1.77997 80.2698 275.939 102281 102282 -2.72202 934.853 
115 2.42713e-05 199.475 1.7778 81.4629 276.314 102295 102273 -24.8396 -1124.32 
119 2.51192e-05 199.332 1.77653 82.5275 276.513 102296 102281 5.33197 2467.3 
123 2.59671e-05 199.187 1.77523 83.7098 276.673 102280 102280 12.3427 -2307.92 
127 2.6815e-05 199.041 1.77393 84.9883 276.883 102283 102279 7.99827 -1244.13 
131 2.7663e-05 199.271 1.77598 85.5218 276.582 102290 102292 5.62784 -6425.83 
135 2.85109e-05 199.107 1.77452 86.3358 276.775 102277 102262 3.14592 -2165.46 
139 2.93588e-05 199.159 1.77498 86.7538 276.651 102257 102274 0.987911 603.066 
143 3.02067e-05 199.158 1.77498 87.2858 276.697 102275 102280 24.0996 1239.38 
147 3.10546e-05 199.183 1.7752 88.0555 276.637 102265 102262 2.48805 962.637 
76 1.60042e-05 200.281 1.78498 65.0015 275.201 102295 102272 0.558238 2308.6 
80 1.68521e-05 200.082 1.7832 67.1368 275.481 102297 102275 -1.09449 807.444 
84 1.77001e-05 199.942 1.78196 69.3733 275.556 102253 102280 -5.28044 1001.59 
88 1.8548e-05 199.92 1.78176 71.689 275.607 102261 102261 -2.39524 215.029 
92 1.93959e-05 199.839 1.78104 73.7306 275.787 102286 102275 -15.0765 4651.06 
96 2.02438e-05 199.715 1.77994 75.4025 275.883 102258 102258 -6.75658 -1878.75 
100 2.10917e-05 199.755 1.78029 76.6715 275.844 102264 102270 -16.5375 -10183.7 
104 2.19396e-05 199.938 1.78193 78.3365 275.721 102313 102286 -21.2796 1469.39 
108 2.27875e-05 199.768 1.78041 79.1266 275.877 102283 102290 9.5637 4045.65 
112 2.36354e-05 199.686 1.77968 80.7064 275.995 102285 102278 0.888753 68.5866 
116 2.44833e-05 199.496 1.77798 81.5548 276.339 102315 102294 -25.4145 1563.74 
120 2.53312e-05 199.243 1.77573 82.716 276.596 102281 102263 3.62752 1360.67 
124 2.61791e-05 199.148 1.77488 84.1695 276.676 102261 102287 -4.4287 -647.933 
128 2.7027e-05 199.083 1.77431 85.181 276.799 102273 102273 -12.4372 -6559.4 
132 2.78749e-05 199.289 1.77614 85.5534 276.53 102279 102273 -4.03392 -1943.29 
136 2.87228e-05 199.05 1.77401 86.4987 276.802 102258 102272 -2.22473 3617.04 
140 2.95707e-05 199.216 1.77549 86.9247 276.688 102301 102287 -12.6352 394.417 
144 3.04187e-05 199.194 1.7753 87.3811 276.632 102269 102269 -2.14245 -735.764 
148 3.12666e-05 199.285 1.77611 88.0384 276.527 102277 102299 -1.18533 4100.8 
151 3.19025e-05 199.25 1.77579 88.3307 276.653 102305 102277 4.59546 -1939.59 
155 3.27504e-05 199.237 1.77568 88.424 276.589 102275 102259 2.82441 6118.37 
159 3.35983e-05 199.428 1.77738 88.3307 276.344 102282 102265 0.248793 -3282.1 
163 3.44462e-05 199.512 1.77813 88.0229 276.182 102266 102278 -28.6976 438.743 
167 3.52941e-05 199.374 1.7769 87.1741 276.333 102251 102276 21.3335 5385.2 
171 3.6142e-05 199.383 1.77698 86.8795 276.347 102261 102273 -4.00869 1505.34 
175 3.69899e-05 199.593 1.77885 86.0682 276.074 102267 102280 15.7707 6.3134 
179 3.78378e-05 199.479 1.77783 85.0777 276.324 102301 102289 10.5424 -1848.31 
183 3.86857e-05 199.672 1.77956 84.3645 276.029 102291 102273 1.90513 -978.98 
187 3.95336e-05 199.819 1.78086 82.9351 275.813 102286 102264 16.3121 -5157.44 
191 4.03816e-05 199.876 1.78137 82.0953 275.705 102275 102280 20.4741 -6473.37 
195 4.12295e-05 199.834 1.781 80.9882 275.676 102243 102254 11.8525 -155.504 
199 4.20774e-05 199.625 1.77914 79.281 276.025 102265 102262 -5.2567 7587.2 
203 4.29253e-05 199.528 1.77827 77.7886 276.22 102288 102283 0.535301 -4111.79 
207 4.37732e-05 199.356 1.77674 75.7392 276.423 102275 102264 5.39313 6198.1 
211 4.46211e-05 199.472 1.77777 73.8753 276.254 102271 102279 12.8117 -3628.97 
215 4.5469e-05 199.414 1.77726 72.0368 276.391 102293 102281 -3.78448 6488.49 
219 4.63169e-05 199.469 1.77775 70.2702 276.228 102260 102284 20.5932 2660.7 
223 4.71648e-05 199.456 1.77763 68.0504 276.266 102268 102280 9.60972 6667.27 
153 3.23264e-05 199.209 1.77542 88.3484 276.671 102291 102281 0.67878 9264.58 
157 3.31743e-05 199.312 1.77635 88.351 276.537 102294 102300 -16.2498 -4818.4 
161 3.40223e-05 199.479 1.77784 88.3121 276.206 102257 102275 -0.172721 5010.99 
165 3.48702e-05 199.548 1.77845 87.3141 276.13 102265 102245 -2.18201 2518.29 
169 3.57181e-05 199.527 1.77826 86.8368 276.174 102270 102274 -11.4729 1516.38 
173 3.6566e-05 199.498 1.778 86.4644 276.177 102256 102279 5.42405 -10858.1 
177 3.74139e-05 199.489 1.77793 85.6824 276.268 102286 102289 -12.0663 8613.74 
181 3.82618e-05 199.625 1.77913 84.8061 276.097 102292 102279 17.9567 -2094.46 
185 3.91097e-05 199.605 1.77895 83.7949 276.12 102290 102284 -0.388507 -1962.18 
189 3.99576e-05 199.827 1.78093 82.4663 275.747 102265 102284 3.15847 -3305.17 
193 4.08055e-05 200.028 1.78273 81.8667 275.452 102259 102258 10.4301 -1726.75 
197 4.16534e-05 199.784 1.78055 80.0457 275.826 102273 102259 13.8575 -817.521 
201 4.25013e-05 199.638 1.77925 78.6414 276.044 102279 102270 18.0867 7703.15 
205 4.33492e-05 199.488 1.77791 76.8874 276.214 102265 102283 -11.3912 3495.89 
209 4.41971e-05 199.348 1.77667 74.8231 276.419 102269 102285 11.1501 4290.47 
213 4.5045e-05 199.464 1.7777 73.0947 276.273 102275 102266 15.3937 -3887.74 
217 4.58929e-05 199.439 1.77748 71.1455 276.271 102261 102273 29.628 -6041.39 
221 4.67409e-05 199.468 1.77773 69.2343 276.295 102285 102264 -1.37371 7455.21 
225 4.75888e-05 199.37 1.77686 66.7058 276.345 102253 102274 -8.77033 1097.01 
154 3.25384e-05 199.23 1.77561 88.418 276.619 102282 102287 2.51999 -215.05 
158 3.33863e-05 199.346 1.77665 88.3238 276.506 102300 102285 16.0249 2357.93 
162 3.42342e-05 199.476 1.7778 88.2056 276.248 102271 102273 -0.742818 -1952.28 
166 3.50821e-05 199.534 1.77832 87.1569 276.207 102285 102303 -12.149 -6480.27 
170 3.593e-05 199.509 1.7781 86.7404 276.181 102263 102291 17.7859 7400.46 
174 3.6778e-05 199.515 1.77815 86.2602 276.143 102252 102273 -8.85667 3871.41 
178 3.76259e-05 199.412 1.77723 85.3776 276.368 102283 102272 -0.874708 -7555.22 
182 3.84738e-05 199.649 1.77935 84.5824 276.049 102286 102271 5.49616 291.936 
186 3.93217e-05 199.697 1.77978 83.2369 276.037 102307 102286 -12.4435 -13705.6 
190 4.01696e-05 199.909 1.78166 82.1316 275.724 102299 102274 14.4146 7957.55 
194 4.10175e-05 199.946 1.782 81.331 275.59 102268 102280 -3.84303 1611.13 
198 4.18654e-05 199.707 1.77986 79.5669 275.884 102255 102290 -0.274495 -189.471 
202 4.27133e-05 199.633 1.77921 78.4019 276.094 102295 102291 4.9688 3795.36 
206 4.35612e-05 199.421 1.77732 76.2718 276.275 102253 102293 8.6017 2101.76 
210 4.44091e-05 199.37 1.77687 74.3658 276.374 102264 102273 9.97297 3800.6 
214 4.5257e-05 199.496 1.77799 72.595 276.326 102311 102289 8.75644 5097.67 
218 4.61049e-05 199.485 1.77789 70.7696 276.205 102260 102273 18.9248 -7250.08 
222 4.69528e-05 199.328 1.77649 68.6721 276.345 102231 102250 17.9294 -1799.42 
152 3.21145e-05 199.171 1.77509 88.445 276.666 102269 102285 8.23285 1022.09 
156 3.29624e-05 199.267 1.77595 88.3724 276.511 102261 102292 -8.02336 -613.167 
160 3.38103e-05 199.482 1.77786 88.3583 276.339 102308 102304 -5.56225 -1172.36 
164 3.46582e-05 199.585 1.77878 87.7117 276.093 102270 102275 -7.75036 -3430.2 
168 3.55061e-05 199.48 1.77784 86.9351 276.283 102286 102284 -2.07894 -2093.05 
172 3.6354e-05 199.348 1.77666 86.6364 276.387 102257 102252 0.514716 8620.16 
176 3.72019e-05 199.413 1.77725 85.827 276.285 102253 102257 -2.96371 6768.48 
180 3.80498e-05 199.516 1.77817 84.8643 276.199 102274 102264 9.73457 -3413.03 
184 3.88977e-05 199.617 1.77907 84.1973 276.075 102280 102267 -2.68965 -4918.87 
188 3.97456e-05 199.809 1.78077 82.8699 275.862 102299 102287 13.9069 -5187.91 
192 4.05935e-05 200.035 1.78279 82.0447 275.519 102287 102300 7.90332 -1067.44 
196 4.14414e-05 199.831 1.78097 80.461 275.771 102277 102288 -1.20877 -4582.98 
200 4.22893e-05 199.648 1.77934 78.8858 276.056 102288 102272 1.23473 -7652.31 
204 4.31373e-05 199.609 1.77899 77.3415 276.119 102291 102288 8.04648 4937.63 
208 4.39852e-05 199.459 1.77766 75.3908 276.335 102295 102277 6.89018 -864.079 
212 4.48331e-05 199.416 1.77728 73.5381 276.269 102248 102279 1.33217 -1491.16 
216 4.5681e-05 199.365 1.77682 71.4808 276.407 102273 102280 15.9317 -6708.98 
220 4.65289e-05 199.392 1.77706 69.8312 276.348 102265 102256 18.6991 -488.332 
224 4.73768e-05 199.444 1.77752 67.4448 276.224 102246 102268 6.98171 7906.57 
228 4.82247e-05 199.344 1.77663 65.0021 276.398 102259 102261 21.8891 -5728.67 
232 4.90726e-05 199.402 1.77715 62.5082 276.413 102295 102288 4.21617 1662.21 
236 4.99205e-05 199.547 1.77844 59.8188 276.128 102263 102256 14.054 5143.79 
240 5.07684e-05 199.539 1.77837 57.5184 276.194 102284 102289 9.73691 -1965.79 
244 5.16163e-05 199.611 1.77902 54.4538 275.987 102244 102261 33.8115 1691.26 
248 5.24642e-05 199.67 1.77954 51.7559 276.041 102294 102292 4.16675 9399.3 
252 5.33121e-05 199.634 1.77922 48.4702 275.984 102254 102264 -12.4617 -5640.89 
256 5.416e-05 199.913 1.7817 45.3153 275.732 102304 102279 17.829 -672.011 
260 5.50079e-05 199.841 1.78106 41.5729 275.775 102283 102282 8.15206 99.5031 
264 5.58559e-05 199.995 1.78244 37.9747 275.54 102275 102290 1.90391 6406.14 
268 5.67038e-05 200.212 1.78436 33.8364 275.29 102293 102285 18.8429 -2522.31 
272 5.75517e-05 200.192 1.78419 30.5043 275.232 102261 102265 21.9904 3086.39 
276 5.83996e-05 200.439 1.78639 27.0607 274.97 102289 102279 36.5459 -578.041 
280 5.92475e-05 200.643 1.78821 23.4394 274.648 102274 102288 6.62498 -1927.48 
284 6.00954e-05 200.699 1.78871 19.5322 274.54 102262 102282 41.9744 -7657.74 
288 6.09433e-05 200.925 1.79073 15.1547 274.212 102255 102267 15.8716 4398.14 
292 6.17912e-05 201.174 1.79294 10.2385 273.9 102265 102286 27.8129 -3204.22 
296 6.26391e-05 201.554 1.79633 5.50672 273.448 102290 102289 22.6048 -4817.16 
300 6.3487e-05 201.756 1.79813 1.06177 273.131 102273 102298 23.7352 1300.74 
229 4.84367e-05 199.433 1.77743 64.5768 276.357 102290 102278 11.0302 34.6368 
233 4.92846e-05 199.36 1.77678 61.9678 276.439 102283 102286 12.6547 -2735.57 
237 5.01325e-05 199.468 1.77774 59.2248 276.285 102281 102275 9.67729 10369.6 
241 5.09804e-05 199.628 1.77916 56.872 276.067 102282 102291 -1.59437 -2518.76 
245 5.18283e-05 199.6 1.77892 53.8503 276.072 102270 102268 18.5767 -1087.67 
249 5.26762e-05 199.687 1.77969 50.8996 275.959 102273 102270 9.18465 5161.07 
253 5.35241e-05 199.783 1.78054 47.4978 275.894 102298 102295 6.47893 -3629.86 
257 5.4372e-05 199.898 1.78157 44.3286 275.751 102303 102296 13.6921 -3346.35 
261 5.52199e-05 199.92 1.78176 40.7075 275.659 102280 102267 21.4852 249.523 
265 5.60678e-05 200.015 1.78261 36.8678 275.481 102263 102266 -4.66278 3601.97 
269 5.69157e-05 200.222 1.78445 33.0626 275.226 102274 102292 23.3355 3555.3 
273 5.77636e-05 200.41 1.78613 29.5846 275.022 102294 102283 21.5224 -3630.01 
277 5.86115e-05 200.533 1.78722 26.3075 274.872 102301 102304 32.382 -6956.54 
281 5.94595e-05 200.641 1.78819 22.1978 274.581 102248 102277 22.7654 1183.68 
285 6.03074e-05 200.786 1.78948 18.5999 274.546 102309 102286 10.3451 2824.52 
289 6.11553e-05 200.998 1.79138 13.9227 274.156 102271 102283 -4.21992 1144.11 
293 6.20032e-05 201.299 1.79406 9.18413 273.765 102278 102283 8.59119 4789.03 
297 6.28511e-05 201.649 1.79718 4.36102 273.27 102271 102269 26.713 4050.58 
226 4.78007e-05 199.263 1.77591 66.1352 276.52 102262 102275 14.5821 3956.51 
230 4.86486e-05 199.416 1.77727 63.8939 276.398 102296 102291 -3.89176 -207.447 
234 4.94966e-05 199.448 1.77756 61.3842 276.339 102291 102285 7.7166 -6630.03 
238 5.03445e-05 199.494 1.77797 58.6013 276.228 102273 102295 27.2141 -1552.41 
242 5.11924e-05 199.663 1.77947 56.2496 276.024 102284 102269 15.6033 1890.37 
246 5.20403e-05 199.728 1.78006 53.1636 275.975 102299 102291 12.8762 -3011.91 
250 5.28882e-05 199.534 1.77833 50.1439 276.134 102259 102253 24.3828 9026.94 
254 5.37361e-05 199.812 1.78081 46.6602 275.791 102274 102261 27.1621 -2440.19 
258 5.4584e-05 199.89 1.7815 43.5006 275.666 102268 102269 23.123 1938.02 
262 5.54319e-05 199.984 1.78234 39.8086 275.611 102295 102278 24.228 -719.349 
266 5.62798e-05 200.135 1.78368 35.8241 275.383 102288 102280 12.4733 2682.7 
270 5.71277e-05 200.161 1.78392 32.1571 275.281 102263 102295 23.9459 7305.06 
274 5.79756e-05 200.381 1.78588 28.5615 275.014 102276 102285 24.7592 6141.47 
278 5.88235e-05 200.559 1.78746 25.4838 274.803 102289 102289 6.24676 6240.43 
282 5.96714e-05 200.687 1.7886 21.1742 274.613 102283 102292 24.3005 6209.16 
286 6.05193e-05 200.775 1.78939 17.3584 274.431 102260 102255 24.8767 3609.94 
290 6.13672e-05 201.02 1.79157 12.6089 274.12 102269 102276 16.3525 4974.43 
294 6.22152e-05 201.383 1.7948 7.90338 273.64 102274 102269 25.525 2518.05 
298 6.30631e-05 201.718 1.79779 3.42316 273.2 102280 102280 15.406 5681.96 
227 4.80127e-05 199.25 1.7758 65.4772 276.565 102273 102295 23.98 -5074.3 
231 4.88606e-05 199.413 1.77725 63.141 276.34 102273 102267 19.1389 5303.53 
235 4.97085e-05 199.589 1.77881 60.623 276.156 102295 102263 2.83355 3904.7 
239 5.05564e-05 199.529 1.77828 58.0736 276.217 102287 102288 34.6955 -329.726 
243 5.14043e-05 199.721 1.77999 55.2389 275.905 102270 102281 -5.7187 -4387.58 
247 5.22522e-05 199.602 1.77893 52.4081 276.036 102257 102264 23.2566 2494.77 
251 5.31002e-05 199.6 1.77891 49.4879 276.163 102303 102289 11.3831 5853.03 
255 5.39481e-05 199.835 1.78101 45.9579 275.758 102274 102274 23.3216 3343.78 
259 5.4796e-05 199.871 1.78133 42.513 275.73 102282 102290 19.5687 5655.38 
263 5.56439e-05 200.043 1.78286 39.0322 275.575 102312 102295 19.4819 4196.25 
267 5.64918e-05 200.156 1.78387 34.9154 275.275 102258 102270 -2.73833 4633.17 
271 5.73397e-05 200.147 1.78379 31.3014 275.272 102253 102285 10.5339 5689.12 
275 5.81876e-05 200.4 1.78605 27.6225 275.005 102283 102277 46.2849 815.169 
279 5.90355e-05 200.422 1.78624 24.5065 274.855 102238 102249 21.6549 3184.37 
283 5.98834e-05 200.71 1.7888 20.2838 274.607 102292 102286 42.3509 4237.04 
287 6.07313e-05 200.879 1.79031 16.236 274.267 102252 102287 26.4094 -3514.46 
291 6.15792e-05 201.12 1.79246 11.5461 273.943 102254 102268 11.0602 3572.88 
295 6.24271e-05 201.444 1.79535 6.69584 273.493 102250 102271 24.3318 -512.356 
299 6.3275e-05 201.772 1.79827 2.16508 273.09 102266 102270 23.5154 1366.12 
