ITEM: TIMESTEP
600000
ITEM: NUMBER OF CELLS
300
ITEM: BOX BOUNDS pp ss pp
0 1
0 6.3593e-05
-0.5 0.5
ITEM: CELLS id yc f_1[1] f_1[2] f_1[3] f_1[4] f_1[5] f_1[6] f_1[7] f_1[8] 
1 1.05988e-07 201.476 1.79563 0.943295 273.105 102121 102093 -13.5525 -13550.6 
5 9.53895e-07 201.377 1.79475 6.23388 273.022 102040 102089 -58.9122 -4119.63 
9 1.8018e-06 201.528 1.79609 10.6765 273.096 102144 102128 -35.1684 -3369.81 
13 2.64971e-06 201.354 1.79454 15.2063 273.145 102074 102078 -32.1638 -10811.6 
17 3.49762e-06 201.155 1.79277 19.4005 273.464 102093 102122 -28.4956 9028.82 
21 4.34552e-06 201.289 1.79396 23.9123 273.386 102132 102121 -42.6577 1759.84 
25 5.19343e-06 201.32 1.79424 28.4889 273.138 102054 102105 -17.8897 -5341.46 
29 6.04133e-06 201.184 1.79303 32.2826 273.393 102081 102095 12.9499 6504.23 
33 6.88924e-06 200.561 1.78748 36.3416 274.077 102019 102045 -35.6575 1138.31 
37 7.73715e-06 200.555 1.78742 39.3417 274.322 102108 102125 -63.7202 -11690.3 
41 8.58506e-06 200.348 1.78558 41.9959 274.497 102067 102069 -39.023 -1514.74 
45 9.43296e-06 200.328 1.7854 45.3708 274.612 102100 102091 -2.62965 -6387.4 
49 1.02809e-05 200.305 1.7852 49.0697 274.524 102055 102061 -25.4965 -14231 
53 1.11288e-05 200.332 1.78544 51.3188 274.56 102083 102061 -32.6688 3844.97 
57 1.19767e-05 200.502 1.78695 53.9848 274.481 102140 102150 -35.0446 3913.7 
61 1.28246e-05 200.233 1.78456 57.541 274.637 102061 102052 -14.5748 2070.77 
65 1.36725e-05 200.418 1.7862 60.1027 274.462 102090 102073 -16.2803 -12270.4 
69 1.45204e-05 200.155 1.78386 62.0787 274.969 102144 102131 -31.1412 13370.9 
73 1.53683e-05 200.183 1.78411 63.518 274.79 102092 102064 -10.4381 -18673.6 
2 3.17965e-07 201.222 1.79337 2.39344 273.223 102037 102060 1.51524 -6000.37 
6 1.16587e-06 201.467 1.79555 7.40193 273.059 102100 102116 -27.0107 -1270.07 
10 2.01378e-06 201.455 1.79544 11.6726 273.154 102129 102108 -26.3227 -5506.53 
14 2.86168e-06 201.356 1.79456 16.0762 273.261 102119 102100 -32.2571 -187.352 
18 3.70959e-06 201.014 1.79152 20.4869 273.807 102149 102085 -24.2672 -12239.9 
22 4.5575e-06 201.331 1.79434 25.0343 273.196 102082 102094 -1.29221 -632.624 
26 5.4054e-06 201.294 1.79401 29.6704 273.274 102092 102100 -0.870606 -2845.27 
30 6.25331e-06 200.945 1.7909 33.3564 273.663 102060 102084 -31.1954 19219.4 
34 7.10122e-06 200.606 1.78788 37.2376 274.195 102086 102103 -26.8792 -4356.88 
38 7.94912e-06 200.472 1.78669 40.0506 274.296 102056 102073 -23.8286 -6323.88 
42 8.79703e-06 200.28 1.78497 42.6634 274.528 102044 102092 -16.4911 5959.13 
46 9.64494e-06 200.142 1.78375 46.4832 274.667 102026 102053 -2.60259 -8697.64 
50 1.04928e-05 200.442 1.78641 49.4999 274.425 102088 102096 -32.5319 -8420.44 
54 1.13408e-05 200.236 1.78458 52.0101 274.649 102067 102082 -31.3954 -3137.24 
58 1.21887e-05 200.371 1.78578 54.6748 274.497 102079 102076 31.6409 -3857.16 
62 1.30366e-05 200.488 1.78682 58.4525 274.462 102125 102109 -17.8874 -1055.98 
66 1.38845e-05 200.332 1.78544 60.9159 274.448 102041 102076 -12.8553 366.433 
70 1.47324e-05 200.099 1.78336 62.2935 274.88 102083 102079 -16.6396 -4361.74 
74 1.55803e-05 200.294 1.78509 64.3984 274.609 102081 102089 -0.877773 7577.24 
3 5.29942e-07 201.453 1.79543 3.78914 273.125 102117 102129 -25.2172 -19646.2 
7 1.37785e-06 201.475 1.79562 8.3574 273.028 102092 102118 -62.7653 -5969.78 
11 2.22576e-06 201.378 1.79476 12.8234 273.135 102083 102090 -35.1575 -4454.5 
15 3.07366e-06 201.375 1.79473 17.2143 273.168 102094 102095 -49.8774 -1162.81 
19 3.92157e-06 201.093 1.79222 21.451 273.575 102102 102094 -12.1762 -8694.48 
23 4.76947e-06 201.256 1.79368 25.8186 273.349 102101 102097 -31.5423 -8697.82 
27 5.61738e-06 201.148 1.79271 30.7027 273.53 102114 102100 -44.7426 -4626.17 
31 6.46529e-06 200.881 1.79033 34.4326 273.936 102130 102125 -7.23977 -6152.86 
35 7.31319e-06 200.45 1.78648 37.7887 274.288 102041 102117 -45.9944 10132.7 
39 8.1611e-06 200.534 1.78724 40.7747 274.271 102078 102090 -33.0218 -10522.1 
43 9.00901e-06 200.226 1.78449 43.6524 274.638 102057 102064 -20.5666 969.479 
47 9.85691e-06 200.397 1.78602 47.3302 274.498 102093 102122 -20.7324 -23360.6 
51 1.07048e-05 200.42 1.78622 50.1793 274.373 102058 102084 -43.7688 6313.45 
55 1.15527e-05 200.253 1.78473 52.6343 274.646 102074 102101 -3.24304 3357.83 
59 1.24006e-05 200.349 1.78559 55.8868 274.68 102136 102108 11.9863 1804.27 
63 1.32485e-05 200.402 1.78606 59.2377 274.455 102079 102119 -17.8991 2241.49 
67 1.40964e-05 200.351 1.78561 61.5415 274.528 102080 102093 -32.697 4122.78 
71 1.49444e-05 200.185 1.78413 62.8379 274.777 102088 102112 -48.0018 -6629.85 
75 1.57923e-05 200.166 1.78396 65.0056 274.758 102072 102126 14.6537 -11167.5 
4 7.41918e-07 201.473 1.79561 4.97878 272.986 102076 102108 -14.237 -7148.51 
8 1.58983e-06 201.357 1.79457 9.61992 273.156 102080 102095 -24.6407 -747.637 
12 2.43773e-06 201.312 1.79417 13.8455 273.179 102066 102085 -2.45443 -7859.2 
16 3.28564e-06 201.325 1.79428 18.2308 273.243 102096 102071 3.46954 -1632.83 
20 4.13355e-06 201.138 1.79262 22.7844 273.424 102069 102072 11.7178 -13428.5 
24 4.98145e-06 201.339 1.79441 27.0656 273.267 102112 102113 -1.18025 -13896.4 
28 5.82936e-06 200.974 1.79116 31.3064 273.466 102001 102066 -65.8361 -7985.79 
32 6.67727e-06 200.678 1.78852 35.3612 274.051 102069 102070 -23.2408 452.416 
36 7.52517e-06 200.281 1.78499 38.6038 274.368 101986 102032 -17.71 -5718.97 
40 8.37308e-06 200.578 1.78763 41.3986 274.223 102082 102100 -48.3014 1355.59 
44 9.22099e-06 200.134 1.78368 44.2288 274.812 102075 102105 -25.6687 -1085.1 
48 1.00689e-05 200.434 1.78634 48.1589 274.568 102137 102133 -7.91674 13698.9 
52 1.09168e-05 200.537 1.78727 50.8308 274.339 102105 102125 7.66126 -3348.15 
56 1.17647e-05 200.323 1.78536 53.3487 274.49 102052 102101 -4.29598 -19462.9 
60 1.26126e-05 200.36 1.78569 56.7823 274.598 102111 102100 18.0714 -878.724 
64 1.34605e-05 200.409 1.78612 59.813 274.524 102108 102093 -41.486 -7380.69 
68 1.43084e-05 200.265 1.78484 61.9968 274.752 102120 102074 -37.916 -4470.9 
72 1.51563e-05 200.165 1.78395 63.069 274.892 102121 102091 -28.6902 7823.75 
78 1.64282e-05 200.309 1.78523 66.7908 274.709 102126 102063 -23.1301 -8063.79 
82 1.72761e-05 200.2 1.78426 69.1224 274.695 102065 102067 -14.758 5607.92 
86 1.8124e-05 199.891 1.7815 71.0694 275.192 102092 102106 11.9588 7084.44 
90 1.89719e-05 199.83 1.78096 73.09 275.235 102077 102122 -33.2125 -1250.66 
94 1.98198e-05 199.439 1.77748 75.0016 275.775 102077 102078 -13.5572 4839.85 
98 2.06677e-05 199.654 1.77939 76.1354 275.499 102085 102080 7.98858 -407.375 
102 2.15156e-05 200.019 1.78265 77.619 275.002 102087 102117 -13.9567 -3727.87 
106 2.23635e-05 200.224 1.78447 79.1401 274.704 102081 102089 15.5718 8229.89 
110 2.32114e-05 200.149 1.78381 81.0297 274.777 102070 102083 -20.7778 6768.34 
114 2.40594e-05 199.656 1.77941 81.701 275.44 102064 102076 1.43803 16000.1 
118 2.49073e-05 199.508 1.7781 82.5401 275.702 102086 102121 -15.5945 -7388.81 
122 2.57552e-05 199.658 1.77943 84.4154 275.502 102088 102076 29.0514 6132.39 
126 2.66031e-05 199.673 1.77956 85.7328 275.414 102063 102060 -19.3133 -1178.94 
130 2.7451e-05 200.044 1.78287 86.2492 274.969 102088 102109 -18.4612 -2999.52 
134 2.82989e-05 200.014 1.78261 86.6138 275.121 102129 102125 15.8686 8830.36 
138 2.91468e-05 200.01 1.78257 86.9359 275.027 102092 102104 -17.1914 12883.2 
142 2.99947e-05 199.876 1.78137 86.7837 275.255 102108 102095 -31.4501 13711.4 
146 3.08426e-05 199.893 1.78152 87.6741 275.24 102111 102094 24.801 -7225.07 
150 3.16905e-05 199.964 1.78216 88.4534 275.051 102077 102070 -1.54671 9078.54 
77 1.62162e-05 200.219 1.78443 66.5411 274.633 102052 102069 -1.12871 -1441.21 
81 1.70641e-05 200.17 1.78399 68.6505 274.734 102065 102079 -11.7936 -15554.2 
85 1.7912e-05 199.802 1.78071 70.6931 275.255 102070 102115 -12.3025 1617.37 
89 1.87599e-05 199.879 1.7814 72.7503 275.05 102033 102071 -20.9217 -1838.09 
93 1.96078e-05 199.533 1.77832 74.6871 275.698 102097 102108 14.4926 8573.13 
97 2.04557e-05 199.814 1.78082 75.5637 275.375 102121 102130 -9.20445 -4061.39 
101 2.13037e-05 199.887 1.78147 77.0358 275.049 102037 102073 10.4982 -4350.66 
105 2.21516e-05 200.383 1.78589 78.6981 274.499 102086 102085 -8.07225 3570.72 
109 2.29995e-05 200.205 1.7843 80.6614 274.833 102119 102106 10.2007 -15276.9 
113 2.38474e-05 199.986 1.78235 81.3771 275.002 102070 102105 -29.6952 6959.96 
117 2.46953e-05 199.571 1.77866 82.3652 275.606 102082 102075 -33.8752 15018.3 
121 2.55432e-05 199.568 1.77863 83.8722 275.624 102088 102079 4.94455 -3339.69 
125 2.63911e-05 199.633 1.77921 85.6378 275.473 102065 102070 0.107035 4903.12 
129 2.7239e-05 199.897 1.78156 86.2878 275.118 102068 102048 -12.1978 11095.5 
133 2.80869e-05 200.052 1.78294 86.2741 274.909 102069 102074 -6.40841 8022.57 
137 2.89348e-05 199.973 1.78224 87.0928 274.944 102042 102063 -12.0278 -12716.4 
141 2.97827e-05 200.021 1.78266 86.6362 275.135 102137 102119 -12.3892 4005.11 
145 3.06306e-05 199.925 1.78181 87.3072 275.235 102126 102087 14.1539 -434.907 
149 3.14785e-05 200.138 1.78371 88.1199 274.908 102113 102101 11.6217 -1927.58 
79 1.66402e-05 200.216 1.7844 67.4682 274.753 102095 102106 -7.91425 1522.34 
83 1.74881e-05 200.083 1.78322 69.8006 274.901 102082 102092 12.5564 7409.57 
87 1.8336e-05 200.06 1.78301 71.5232 274.851 102052 102075 -51.1643 -4146.35 
91 1.91839e-05 199.684 1.77966 73.2305 275.326 102036 102075 -19.5708 2285.27 
95 2.00318e-05 199.636 1.77923 75.2142 275.646 102130 102111 -27.2183 -7374.28 
99 2.08797e-05 199.791 1.78061 76.6571 275.5 102155 102100 -14.164 2480.33 
103 2.17276e-05 200.03 1.78275 78.1587 274.893 102052 102070 34.8103 -6033.57 
107 2.25755e-05 200.129 1.78363 79.1916 274.805 102070 102092 -48.7167 6443.95 
111 2.34234e-05 200.102 1.78339 81.2592 274.886 102087 102088 12.7987 2971.24 
115 2.42713e-05 199.659 1.77944 82.0242 275.484 102082 102092 -33.222 -1187.57 
119 2.51192e-05 199.676 1.77959 82.9703 275.551 102115 102116 0.129524 -6378.26 
123 2.59671e-05 199.62 1.7791 85.0157 275.627 102115 102095 12.2671 -11317.8 
127 2.6815e-05 199.775 1.78048 85.9321 275.428 102121 102086 19.146 -1922.58 
131 2.7663e-05 200.016 1.78262 86.2883 275.019 102092 102123 -0.258584 -4550.38 
135 2.85109e-05 200.008 1.78254 86.7204 275.114 102123 102102 11.3597 -7362.91 
139 2.93588e-05 199.838 1.78103 87.0996 275.044 102010 102079 1.49095 6253.97 
143 3.02067e-05 199.84 1.78106 87.1962 275.101 102033 102075 42.0593 4987.86 
147 3.10546e-05 199.766 1.78039 88.0893 275.252 102051 102065 12.8108 -982.239 
76 1.60042e-05 200.248 1.78469 65.8285 274.702 102093 102070 -5.71091 -5061.04 
80 1.68521e-05 200.205 1.78431 68.0138 274.78 102099 102094 1.44777 2431.69 
84 1.77001e-05 199.975 1.78225 70.3815 274.958 102048 102101 -11.9479 -1355.61 
88 1.8548e-05 200.002 1.78249 71.9698 274.942 102056 102084 7.30774 1961.82 
92 1.93959e-05 199.643 1.7793 73.7047 275.531 102091 102076 8.82889 6617.32 
96 2.02438e-05 199.633 1.77921 75.4031 275.435 102050 102070 -27.9947 -12961.7 
100 2.10917e-05 199.887 1.78147 76.9572 275.07 102045 102074 -18.3491 -17739.9 
104 2.19396e-05 200.22 1.78444 78.4053 274.878 102144 102114 -33.2149 148.815 
108 2.27875e-05 199.992 1.78241 79.7045 274.997 102072 102105 40.2238 -1981.36 
112 2.36354e-05 200.082 1.78321 81.4364 274.964 102105 102111 -9.69313 -11075.8 
116 2.44833e-05 199.689 1.77971 81.9567 275.504 102105 102117 -21.9195 9258.26 
120 2.53312e-05 199.626 1.77915 83.3413 275.559 102093 102078 -2.22446 9216.19 
124 2.61791e-05 199.627 1.77915 85.4017 275.488 102067 102097 -33.2335 997.421 
128 2.7027e-05 200.028 1.78273 86.1498 275.06 102113 102111 -8.98481 -7677.69 
132 2.78749e-05 200.007 1.78254 86.2021 274.963 102066 102063 -9.77316 -5377.17 
136 2.87228e-05 200.005 1.78253 86.8603 275.017 102086 102112 -7.93134 -6239.67 
140 2.95707e-05 199.841 1.78106 86.9635 275.253 102089 102094 -33.0621 -10072.4 
144 3.04187e-05 199.877 1.78138 87.1215 275.117 102057 102071 -3.55543 2723.71 
148 3.12666e-05 199.964 1.78216 88.1327 275.07 102084 102104 -1.70865 -10322.2 
151 3.19025e-05 199.944 1.78198 88.5374 275.203 102123 102118 3.38783 12825 
155 3.27504e-05 199.621 1.7791 88.6393 275.505 102071 102059 4.50929 4321.66 
159 3.35983e-05 199.471 1.77776 88.2122 275.733 102078 102077 19.6109 1316.88 
163 3.44462e-05 199.365 1.77682 87.9749 275.803 102050 102101 -6.77672 5217.32 
167 3.52941e-05 199.263 1.77591 87.3818 275.894 102031 102086 50.9115 4193.74 
171 3.6142e-05 199.2 1.77535 86.6168 276.006 102041 102091 12.7915 2906.87 
175 3.69899e-05 199.34 1.77659 85.7837 275.834 102048 102069 6.42848 -1477.04 
179 3.78378e-05 199.439 1.77748 85.4052 275.874 102114 102125 10.419 -4932.81 
183 3.86857e-05 199.703 1.77983 85.4985 275.347 102054 102069 -0.682448 -4024.42 
187 3.95336e-05 199.573 1.77868 84.1693 275.613 102086 102063 7.00218 1295.37 
191 4.03816e-05 199.394 1.77708 82.9162 275.851 102082 102108 -7.20802 -16165.1 
195 4.12295e-05 199.798 1.78067 81.8841 275.35 102103 102092 54.7444 4699.65 
199 4.20774e-05 199.501 1.77803 79.5201 275.687 102076 102099 -36.3981 6725.01 
203 4.29253e-05 199.523 1.77823 77.461 275.873 102156 102115 -16.5221 -6595.13 
207 4.37732e-05 199.174 1.77512 75.3678 276.179 102091 102079 -6.65342 16222.3 
211 4.46211e-05 199.167 1.77506 72.8994 276.178 102087 102104 25.9355 -5534.68 
215 4.5469e-05 199.203 1.77537 70.7901 276.221 102121 102100 6.05456 6440.51 
219 4.63169e-05 199.036 1.77389 69.9667 276.343 102081 102119 47.1675 8134.69 
223 4.71648e-05 199.21 1.77544 67.9566 276.092 102077 102105 -4.39071 -9401.69 
153 3.23264e-05 199.713 1.77992 88.5576 275.444 102095 102088 19.1315 7353.01 
157 3.31743e-05 199.546 1.77843 88.2326 275.722 102113 102132 -50.1687 -3651.83 
161 3.40223e-05 199.478 1.77783 88.2468 275.674 102060 102085 -3.13502 6026.21 
165 3.48702e-05 199.476 1.77781 87.2272 275.585 102026 102034 -6.04839 11848.6 
169 3.57181e-05 199.464 1.7777 86.8311 275.781 102092 102097 -18.3368 2499.7 
173 3.6566e-05 199.365 1.77682 86.2048 275.814 102054 102066 -14.8574 -7262.32 
177 3.74139e-05 199.434 1.77744 85.4505 275.931 102132 102101 -5.24823 -2290.82 
181 3.82618e-05 199.724 1.78002 85.5441 275.513 102126 102115 41.1188 2859.68 
185 3.91097e-05 199.504 1.77806 84.7191 275.793 102117 102098 13.3687 780.872 
189 3.99576e-05 199.51 1.77811 83.5646 275.697 102084 102090 -3.78468 -8200.79 
193 4.08055e-05 199.76 1.78034 82.5409 275.261 102051 102048 23.6174 -9347.58 
197 4.16534e-05 199.629 1.77917 80.6384 275.604 102111 102060 27.0414 2125.67 
201 4.25013e-05 199.438 1.77747 78.4634 275.851 102105 102082 15.9692 17885.9 
205 4.33492e-05 199.483 1.77787 76.9014 275.802 102110 102107 -16.6475 11266.3 
209 4.41971e-05 199.096 1.77442 74.0009 276.276 102087 102120 -15.71 3783.23 
213 4.5045e-05 199.056 1.77406 71.9138 276.246 102055 102062 31.8613 -9518.71 
217 4.58929e-05 199.418 1.77729 70.3374 275.809 102079 102085 74.159 -5224.99 
221 4.67409e-05 199.11 1.77455 69.2475 276.234 102079 102102 -2.46053 957.061 
225 4.75888e-05 199.12 1.77464 66.6835 276.225 102080 102091 -21.0153 -4582.43 
154 3.25384e-05 199.671 1.77955 88.6987 275.516 102100 102113 3.18881 4325.62 
158 3.33863e-05 199.523 1.77823 88.0372 275.707 102095 102058 31.0906 2006.23 
162 3.42342e-05 199.423 1.77733 88.214 275.842 102094 102099 2.50201 -282.386 
166 3.50821e-05 199.509 1.7781 87.1951 275.69 102082 102121 -4.34427 -8291.13 
170 3.593e-05 199.382 1.77697 86.6414 275.803 102059 102070 -19.0258 -1531.55 
174 3.6778e-05 199.47 1.77775 85.8009 275.712 102070 102103 2.24458 -744.195 
178 3.76259e-05 199.243 1.77574 85.3345 276.043 102076 102063 12.0014 -4059.87 
182 3.84738e-05 199.682 1.77964 85.4507 275.377 102054 102085 2.93293 6517.54 
186 3.93217e-05 199.525 1.77824 84.3814 275.706 102095 102102 -5.18251 -9090.26 
190 4.01696e-05 199.474 1.77779 83.2952 275.853 102124 102096 9.66539 14746.3 
194 4.10175e-05 199.694 1.77975 81.9538 275.355 102052 102096 -16.2158 3773.01 
198 4.18654e-05 199.484 1.77788 79.9953 275.691 102069 102097 3.20647 1669.85 
202 4.27133e-05 199.485 1.77789 78.0805 275.794 102108 102102 13.8121 698.799 
206 4.35612e-05 199.243 1.77573 76.2713 275.992 102057 102101 -17.851 -2146.43 
210 4.44091e-05 199.105 1.7745 73.6205 276.283 102094 102094 5.9028 6454.82 
214 4.5257e-05 199.233 1.77564 71.2555 276.252 102148 102107 -1.08673 3765.56 
218 4.61049e-05 199.256 1.77584 70.1946 276.004 102068 102066 17.0816 3812.02 
222 4.69528e-05 198.941 1.77304 68.392 276.304 102017 102042 17.6046 -1532.14 
152 3.21145e-05 199.741 1.78017 88.5017 275.339 102070 102075 12.1077 10112 
156 3.29624e-05 199.508 1.7781 88.6184 275.651 102067 102077 -8.00524 6829.73 
160 3.38103e-05 199.56 1.77856 88.2015 275.816 102154 102134 -14.2297 8924.73 
164 3.46582e-05 199.526 1.77825 87.5332 275.728 102104 102076 -5.36466 -3835.59 
168 3.55061e-05 199.401 1.77714 86.9827 275.871 102093 102100 -8.49102 -5541.36 
172 3.6354e-05 199.102 1.77448 86.5234 276.196 102061 102061 5.99447 6233.76 
176 3.72019e-05 199.223 1.77556 85.583 276.033 102062 102103 5.20094 -2617.07 
180 3.80498e-05 199.57 1.77864 85.4095 275.584 102073 102067 8.48832 -12045.8 
184 3.88977e-05 199.543 1.7784 85.3622 275.628 102076 102074 -0.218611 5472.73 
188 3.97456e-05 199.432 1.77742 84.0491 275.924 102129 102104 17.583 -5195.79 
192 4.05935e-05 199.737 1.78014 82.6274 275.459 102113 102126 -3.72511 -5923.75 
196 4.14414e-05 199.608 1.77899 81.3147 275.522 102070 102082 -25.274 -7015.19 
200 4.22893e-05 199.474 1.77779 78.9583 275.859 102126 102097 -12.7403 -11322.3 
204 4.31373e-05 199.527 1.77826 77.2006 275.677 102086 102088 37.2491 5797.64 
208 4.39852e-05 199.259 1.77587 74.7827 276.159 102127 102076 2.32923 2601.7 
212 4.48331e-05 198.969 1.77329 72.2781 276.323 102039 102089 3.40082 215.83 
216 4.5681e-05 199.239 1.7757 70.3459 276.139 102110 102070 18.5229 -13610.8 
220 4.65289e-05 198.955 1.77317 69.8106 276.437 102074 102057 33.1314 2453.66 
224 4.73768e-05 199.269 1.77596 67.4128 275.94 102051 102043 -2.73938 12401.7 
228 4.82247e-05 198.81 1.77187 64.7259 276.506 102025 102058 22.5088 6185.15 
232 4.90726e-05 198.809 1.77186 62.4296 276.669 102085 102087 16.4799 8721.37 
236 4.99205e-05 199.215 1.77549 59.7036 276.113 102088 102057 22.3667 3813.37 
240 5.07684e-05 199.424 1.77735 58.2676 275.776 102070 102107 -1.60516 -1383.38 
244 5.16163e-05 199.745 1.78021 55.272 275.469 102120 102117 35.2498 3103.5 
248 5.24642e-05 199.68 1.77962 53.2499 275.458 102083 102089 -18.2221 5900.76 
252 5.33121e-05 199.707 1.77987 49.5123 275.366 102063 102062 -19.679 4459.63 
256 5.416e-05 199.715 1.77994 46.5203 275.483 102111 102082 29.3381 -1901.79 
260 5.50079e-05 199.702 1.77982 42.4873 275.472 102100 102115 0.736734 11960.4 
264 5.58559e-05 199.828 1.78094 39.011 275.284 102094 102101 -18.0113 4656.09 
268 5.67038e-05 200.037 1.78281 34.4695 274.959 102081 102090 18.3271 7536.24 
272 5.75517e-05 199.866 1.78128 31.0479 275.049 102026 102059 34.4499 1143.05 
276 5.83996e-05 200.259 1.78478 27.7306 274.609 102063 102088 34.2941 -14025 
280 5.92475e-05 200.575 1.7876 23.564 274.266 102097 102118 6.66159 -1904.52 
284 6.00954e-05 200.3 1.78515 19.607 274.49 102040 102083 21.8004 -3025.1 
288 6.09433e-05 200.399 1.78604 15.08 274.438 102071 102055 29.206 3770.84 
292 6.17912e-05 200.609 1.78791 10.2194 274.046 102033 102080 32.5393 -5301.41 
296 6.26391e-05 201.178 1.79298 5.72893 273.483 102112 102101 7.3642 -6002.16 
300 6.3487e-05 201.4 1.79496 1.03351 273.125 102090 102101 28.7642 4320.73 
229 4.84367e-05 198.944 1.77307 64.3977 276.56 102114 102085 8.06688 650.859 
233 4.92846e-05 198.88 1.77249 61.9504 276.55 102077 102091 5.06206 -8514.23 
237 5.01325e-05 199.089 1.77436 59.3615 276.194 102053 102083 22.2988 17365.3 
241 5.09804e-05 199.558 1.77854 57.7187 275.664 102097 102085 8.13779 -9839.42 
245 5.18283e-05 199.627 1.77916 54.6619 275.437 102048 102059 42.507 7187.65 
249 5.26762e-05 199.708 1.77988 52.2976 275.378 102068 102082 18.5574 11871.2 
253 5.35241e-05 199.897 1.78156 48.2254 275.221 102106 102086 -20.3168 -1191.21 
257 5.4372e-05 199.753 1.78027 45.5311 275.498 102135 102121 13.9304 -27.9544 
261 5.52199e-05 199.694 1.77975 41.7354 275.43 102080 102063 60.4958 2784.5 
265 5.60678e-05 199.922 1.78179 37.7139 275.158 102096 102069 -13.6538 6147.86 
269 5.69157e-05 200.066 1.78307 33.6024 274.93 102084 102088 20.3701 -251.616 
273 5.77636e-05 200.181 1.78409 30.5051 274.843 102111 102085 24.606 -3696.59 
277 5.86115e-05 200.547 1.78735 26.6672 274.467 102157 102137 19.4425 -8169.69 
281 5.94595e-05 200.624 1.78804 22.4709 274.235 102110 102107 29.982 6633.84 
285 6.03074e-05 200.242 1.78463 18.7297 274.732 102100 102112 26.8499 3687.59 
289 6.11553e-05 200.453 1.78652 13.7927 274.423 102093 102105 5.97088 -1077.79 
293 6.20032e-05 200.851 1.79006 9.24924 273.926 102110 102082 4.45831 -1273.18 
297 6.28511e-05 201.247 1.79359 4.34338 273.325 102087 102088 -0.765444 10626 
226 4.78007e-05 198.819 1.77195 66.1024 276.556 102048 102060 -9.70721 6136.94 
230 4.86486e-05 198.811 1.77188 63.6439 276.709 102101 102091 -6.1098 2035.94 
234 4.94966e-05 198.98 1.77339 61.2289 276.475 102101 102104 13.4651 -7107.08 
238 5.03445e-05 199.145 1.77486 59.0592 276.034 102023 102072 22.9128 -5914.49 
242 5.11924e-05 199.66 1.77945 57.0178 275.454 102071 102068 0.222381 3051.65 
246 5.20403e-05 199.719 1.77998 54.1298 275.368 102070 102077 32.3296 -698.69 
250 5.28882e-05 199.467 1.77773 51.5645 275.758 102085 102093 14.9867 8966.94 
254 5.37361e-05 199.898 1.78157 47.254 275.103 102063 102075 39.7936 5248.7 
258 5.4584e-05 199.756 1.78031 44.7163 275.296 102062 102083 15.6787 -796.546 
262 5.54319e-05 199.727 1.78005 41.1315 275.46 102108 102103 35.6389 -3594.55 
266 5.62798e-05 200.094 1.78331 36.5695 275.113 102166 102108 6.21922 2641.57 
270 5.71277e-05 199.938 1.78193 32.5348 275.052 102064 102095 -5.7568 4747.96 
274 5.79756e-05 200.166 1.78396 29.4352 274.863 102110 102096 27.1281 16380.6 
278 5.88235e-05 200.367 1.78575 25.611 274.461 102064 102066 10.3283 11803.1 
282 5.96714e-05 200.679 1.78853 21.1043 274.145 102105 102098 26.3557 6889.88 
286 6.05193e-05 200.333 1.78545 17.2812 274.567 102086 102074 -6.79904 3064.22 
290 6.13672e-05 200.44 1.7864 12.5905 274.424 102087 102088 20.2823 8137.47 
294 6.22152e-05 200.997 1.79136 7.99761 273.695 102099 102091 31.0077 3095.95 
298 6.30631e-05 201.185 1.79304 3.42909 273.297 102046 102077 38.0415 2382.45 
227 4.80127e-05 198.809 1.77186 65.2245 276.725 102105 102114 45.8128 4939.72 
231 4.88606e-05 198.804 1.77182 62.9597 276.628 102067 102051 30.1953 8159.7 
235 4.97085e-05 199.271 1.77598 60.315 276.088 102107 102086 9.53544 6854.51 
239 5.05564e-05 199.349 1.77667 58.7339 275.935 102090 102112 42.8541 -5375.37 
243 5.14043e-05 199.743 1.78019 56.0139 275.403 102095 102113 -0.404852 -12634.3 
247 5.22522e-05 199.542 1.77839 53.6791 275.546 102045 102080 42.1049 4102.18 
251 5.31002e-05 199.632 1.7792 50.7466 275.61 102115 102099 1.34463 -3936.81 
255 5.39481e-05 199.859 1.78122 46.8123 275.158 102063 102090 33.6044 17834 
259 5.4796e-05 199.676 1.77959 43.6278 275.33 102034 102064 17.5776 3800.59 
263 5.56439e-05 199.79 1.78061 40.192 275.393 102115 102117 8.55026 7393.48 
267 5.64918e-05 200.064 1.78305 35.6569 274.856 102056 102064 -25.0161 6169.42 
271 5.73397e-05 199.934 1.78189 31.6037 274.965 102030 102089 21.7481 6782.15 
275 5.81876e-05 200.073 1.78313 28.4407 274.813 102045 102068 43.3505 -7210.51 
279 5.90355e-05 200.242 1.78464 24.5842 274.522 102023 102058 32.9544 5601.64 
283 5.98834e-05 200.457 1.78655 20.4153 274.377 102078 102092 53.0662 7666.59 
287 6.07313e-05 200.46 1.78658 16.029 274.405 102090 102112 47.7445 -3590.52 
291 6.15792e-05 200.555 1.78742 11.4215 274.185 102057 102064 11.4782 4924.55 
295 6.24271e-05 200.893 1.79043 6.83555 273.704 102049 102075 33.5069 5174.4 
299 6.3275e-05 201.413 1.79507 2.04908 273.058 102072 102084 28.0316 -4454.28 
