ITEM: TIMESTEP
1000000
ITEM: NUMBER OF CELLS
5184
ITEM: BOX BOUNDS ss ss pp
-1.7202e-05 1.7202e-05
-1.7202e-05 1.7202e-05
-0.5 0.5
ITEM: CELLS xc yc f_1[1] f_1[2] f_1[3] f_1[4] 
-1.69631e-05 -1.69631e-05 2.68319e+25 0.0250057 -0.0132495 273 
-1.50517e-05 -1.69631e-05 2.68357e+25 0.0559333 -0.0122506 272.839 
-1.31404e-05 -1.69631e-05 2.68351e+25 0.0144796 0.0222821 272.895 
-1.12291e-05 -1.69631e-05 2.68399e+25 -0.0451733 0.0235048 272.809 
-9.31775e-06 -1.69631e-05 2.68432e+25 -0.123306 0.0118375 272.829 
-7.40642e-06 -1.69631e-05 2.68509e+25 -0.0871494 -0.0312925 272.793 
-5.49508e-06 -1.69631e-05 2.68421e+25 -0.159152 -0.0136988 272.853 
-3.58375e-06 -1.69631e-05 2.68459e+25 -0.151726 0.0107733 272.878 
-1.67242e-06 -1.69631e-05 2.68419e+25 -0.220434 -0.00972973 272.842 
-1.69631e-05 -1.64852e-05 2.68406e+25 -0.00633996 -0.0237125 272.822 
-1.50517e-05 -1.64852e-05 2.68653e+25 0.0668374 0.0107025 272.543 
-1.31404e-05 -1.64852e-05 2.68613e+25 0.0306172 0.0383449 272.522 
-1.12291e-05 -1.64852e-05 2.68558e+25 -0.0714401 0.0218336 272.565 
-9.31775e-06 -1.64852e-05 2.687e+25 -0.247761 -0.0261072 272.551 
-7.40642e-06 -1.64852e-05 2.68789e+25 -0.189852 -0.0757732 272.431 
-5.49508e-06 -1.64852e-05 2.6869e+25 -0.432917 0.0478102 272.461 
-3.58375e-06 -1.64852e-05 2.6864e+25 -0.439501 0.0503088 272.583 
-1.67242e-06 -1.64852e-05 2.68674e+25 -0.464864 -0.0428342 272.623 
-1.69631e-05 -1.60074e-05 2.68507e+25 -0.00961659 -0.019935 272.768 
-1.50517e-05 -1.60074e-05 2.68843e+25 0.0212713 0.0703044 272.458 
-1.31404e-05 -1.60074e-05 2.68947e+25 -0.0288701 0.0423127 272.295 
-1.12291e-05 -1.60074e-05 2.68912e+25 0.0266236 0.023148 272.355 
-9.31775e-06 -1.60074e-05 2.68816e+25 -0.351952 -0.0608256 272.391 
-7.40642e-06 -1.60074e-05 2.68949e+25 -0.43086 -0.0427207 272.223 
-5.49508e-06 -1.60074e-05 2.68967e+25 -0.691435 0.076105 272.227 
-3.58375e-06 -1.60074e-05 2.68805e+25 -0.77099 0.0696631 272.431 
-1.67242e-06 -1.60074e-05 2.68863e+25 -0.791315 -0.0317304 272.424 
-1.69631e-05 -1.55296e-05 2.68442e+25 -0.0165526 0.0172652 272.808 
-1.50517e-05 -1.55296e-05 2.68981e+25 -0.0169874 0.0845166 272.275 
-1.31404e-05 -1.55296e-05 2.68985e+25 -0.0575434 0.0440942 272.222 
-1.12291e-05 -1.55296e-05 2.68877e+25 -0.173415 0.0684878 272.318 
-9.31775e-06 -1.55296e-05 2.68893e+25 -0.352287 -0.00499788 272.309 
-7.40642e-06 -1.55296e-05 2.69076e+25 -0.603535 0.0463092 272.165 
-5.49508e-06 -1.55296e-05 2.68948e+25 -0.991363 0.0844091 272.16 
-3.58375e-06 -1.55296e-05 2.68899e+25 -1.06723 0.0850219 272.257 
-1.67242e-06 -1.55296e-05 2.68931e+25 -1.11958 0.0146453 272.3 
-1.69631e-05 -1.50517e-05 2.68489e+25 0.0167257 0.00811652 272.821 
-1.50517e-05 -1.50517e-05 2.69054e+25 0.0924403 0.0949385 272.176 
-1.31404e-05 -1.50517e-05 2.691e+25 0.0255058 0.0985323 272.122 
-1.12291e-05 -1.50517e-05 2.68998e+25 -0.292623 0.0805206 272.165 
-9.31775e-06 -1.50517e-05 2.68986e+25 -0.425712 0.11115 272.201 
-7.40642e-06 -1.50517e-05 2.69038e+25 -0.821836 0.193347 272.124 
-5.49508e-06 -1.50517e-05 2.69086e+25 -1.22725 0.135553 272.124 
-3.58375e-06 -1.50517e-05 2.69087e+25 -1.23116 0.0604825 272.09 
-1.67242e-06 -1.50517e-05 2.68931e+25 -1.49757 0.056581 272.273 
-1.69631e-05 -1.45739e-05 2.68588e+25 0.0122508 -0.0282083 272.739 
-1.50517e-05 -1.45739e-05 2.69071e+25 0.0318345 0.102415 272.127 
-1.31404e-05 -1.45739e-05 2.69224e+25 -0.142178 0.154439 271.961 
-1.12291e-05 -1.45739e-05 2.69004e+25 -0.398134 0.1375 272.155 
-9.31775e-06 -1.45739e-05 2.69142e+25 -0.56245 0.259685 272.087 
-7.40642e-06 -1.45739e-05 2.69048e+25 -1.07243 0.271302 272.151 
-5.49508e-06 -1.45739e-05 2.69221e+25 -1.42466 0.264745 271.997 
-3.58375e-06 -1.45739e-05 2.69156e+25 -1.57563 0.0367748 272.068 
-1.67242e-06 -1.45739e-05 2.68996e+25 -1.7426 0.0755103 272.167 
-1.69631e-05 -1.40961e-05 2.6849e+25 0.0356269 -0.0803846 272.786 
-1.50517e-05 -1.40961e-05 2.69114e+25 -0.0691557 0.0988727 272.125 
-1.31404e-05 -1.40961e-05 2.69274e+25 -0.319977 0.218944 271.892 
-1.12291e-05 -1.40961e-05 2.69012e+25 -0.471804 0.241729 272.142 
-9.31775e-06 -1.40961e-05 2.69078e+25 -0.677548 0.394204 272.011 
-7.40642e-06 -1.40961e-05 2.69029e+25 -1.19932 0.308633 272.142 
-5.49508e-06 -1.40961e-05 2.69149e+25 -1.50989 0.373579 271.935 
-3.58375e-06 -1.40961e-05 2.69104e+25 -1.93729 0.0185407 272.127 
-1.67242e-06 -1.40961e-05 2.69123e+25 -1.95278 0.0717711 272.083 
-1.69631e-05 -1.36182e-05 2.68461e+25 -0.0163538 -0.0809458 272.771 
-1.50517e-05 -1.36182e-05 2.68995e+25 -0.145916 0.110527 272.234 
-1.31404e-05 -1.36182e-05 2.69327e+25 -0.449864 0.270057 271.927 
-1.12291e-05 -1.36182e-05 2.69205e+25 -0.561119 0.330876 271.958 
-9.31775e-06 -1.36182e-05 2.69219e+25 -0.867855 0.456892 271.926 
-7.40642e-06 -1.36182e-05 2.69285e+25 -1.42327 0.425162 271.915 
-5.49508e-06 -1.36182e-05 2.69185e+25 -1.62921 0.492631 271.99 
-3.58375e-06 -1.36182e-05 2.69191e+25 -2.13923 0.0433771 272.047 
-1.67242e-06 -1.36182e-05 2.69115e+25 -2.10072 0.0987195 272.086 
-1.69631e-05 -1.31404e-05 2.68469e+25 -0.00433194 -0.0463994 272.824 
-1.50517e-05 -1.31404e-05 2.69047e+25 -0.188602 0.19205 272.158 
-1.31404e-05 -1.31404e-05 2.69236e+25 -0.406904 0.305999 271.981 
-1.12291e-05 -1.31404e-05 2.69267e+25 -0.650683 0.390674 271.826 
-9.31775e-06 -1.31404e-05 2.69312e+25 -1.07367 0.508621 271.898 
-7.40642e-06 -1.31404e-05 2.69326e+25 -1.53535 0.575553 271.92 
-5.49508e-06 -1.31404e-05 2.69212e+25 -1.82819 0.566579 271.929 
-3.58375e-06 -1.31404e-05 2.69142e+25 -2.15978 0.0973579 272.069 
-1.67242e-06 -1.31404e-05 2.69125e+25 -2.34533 0.199063 272.022 
-1.69631e-05 -1.26626e-05 2.68419e+25 0.00417541 -0.0440639 272.804 
-1.50517e-05 -1.26626e-05 2.68982e+25 -0.188907 0.236332 272.18 
-1.31404e-05 -1.26626e-05 2.69158e+25 -0.339959 0.353659 272.053 
-1.12291e-05 -1.26626e-05 2.69273e+25 -0.731741 0.504386 271.911 
-9.31775e-06 -1.26626e-05 2.69275e+25 -1.19466 0.602481 271.92 
-7.40642e-06 -1.26626e-05 2.69224e+25 -1.65962 0.697036 271.924 
-5.49508e-06 -1.26626e-05 2.69187e+25 -2.05674 0.630205 271.98 
-3.58375e-06 -1.26626e-05 2.69207e+25 -2.3363 0.216934 271.962 
-1.67242e-06 -1.26626e-05 2.69152e+25 -2.58543 0.282404 272.077 
-1.69631e-05 -1.21847e-05 2.68492e+25 0.0105167 -0.0514059 272.808 
-1.50517e-05 -1.21847e-05 2.69165e+25 -0.0836205 0.262524 272.035 
-1.31404e-05 -1.21847e-05 2.69167e+25 -0.376945 0.419491 271.979 
-1.12291e-05 -1.21847e-05 2.69229e+25 -0.837448 0.642087 271.948 
-9.31775e-06 -1.21847e-05 2.69346e+25 -1.46452 0.739009 271.841 
-7.40642e-06 -1.21847e-05 2.69246e+25 -1.84081 0.824796 271.899 
-5.49508e-06 -1.21847e-05 2.69245e+25 -2.21457 0.668912 271.973 
-3.58375e-06 -1.21847e-05 2.69354e+25 -2.44597 0.327235 271.96 
-1.67242e-06 -1.21847e-05 2.69052e+25 -2.71312 0.277237 272.118 
-1.69631e-05 -1.17069e-05 2.68474e+25 0.0285148 -0.0869751 272.826 
-1.50517e-05 -1.17069e-05 2.69289e+25 -0.102646 0.393204 271.904 
-1.31404e-05 -1.17069e-05 2.69277e+25 -0.40183 0.501387 271.949 
-1.12291e-05 -1.17069e-05 2.69223e+25 -0.952298 0.790554 272.009 
-9.31775e-06 -1.17069e-05 2.69388e+25 -1.58572 0.830148 271.776 
-7.40642e-06 -1.17069e-05 2.69174e+25 -2.03318 0.926203 271.97 
-5.49508e-06 -1.17069e-05 2.69212e+25 -2.39059 0.701673 272.011 
-3.58375e-06 -1.17069e-05 2.69297e+25 -2.71111 0.42821 271.96 
-1.67242e-06 -1.17069e-05 2.69191e+25 -2.94342 0.274863 272.018 
-1.69631e-05 -1.12291e-05 2.68507e+25 -0.028714 -0.0773521 272.742 
-1.50517e-05 -1.12291e-05 2.6924e+25 -0.197211 0.462264 271.975 
-1.31404e-05 -1.12291e-05 2.69268e+25 -0.554147 0.617019 271.91 
-1.12291e-05 -1.12291e-05 2.6917e+25 -0.987092 0.889052 272.013 
-9.31775e-06 -1.12291e-05 2.69292e+25 -1.60615 0.988198 271.897 
-7.40642e-06 -1.12291e-05 2.6925e+25 -2.12726 1.03277 272.004 
-5.49508e-06 -1.12291e-05 2.69224e+25 -2.56274 0.814773 271.975 
-3.58375e-06 -1.12291e-05 2.69225e+25 -2.90758 0.487696 272.057 
-1.67242e-06 -1.12291e-05 2.69207e+25 -3.19072 0.288319 271.984 
-1.69631e-05 -1.07512e-05 2.68448e+25 0.0145679 -0.0720876 272.752 
-1.50517e-05 -1.07512e-05 2.69212e+25 -0.226417 0.454386 271.958 
-1.31404e-05 -1.07512e-05 2.69312e+25 -0.547896 0.724076 271.906 
-1.12291e-05 -1.07512e-05 2.69207e+25 -1.07583 1.01168 271.96 
-9.31775e-06 -1.07512e-05 2.69275e+25 -1.65763 1.26014 271.872 
-7.40642e-06 -1.07512e-05 2.69164e+25 -2.37976 1.12324 272.014 
-5.49508e-06 -1.07512e-05 2.69208e+25 -2.64445 0.975069 271.958 
-3.58375e-06 -1.07512e-05 2.69212e+25 -3.14613 0.552213 272.005 
-1.67242e-06 -1.07512e-05 2.69175e+25 -3.51668 0.333443 272.006 
-1.69631e-05 -1.02734e-05 2.68421e+25 -0.0359615 -0.0262973 272.803 
-1.50517e-05 -1.02734e-05 2.69282e+25 -0.15859 0.501505 271.993 
-1.31404e-05 -1.02734e-05 2.69234e+25 -0.657702 0.793016 271.974 
-1.12291e-05 -1.02734e-05 2.69208e+25 -1.12768 1.192 272.007 
-9.31775e-06 -1.02734e-05 2.6919e+25 -1.87502 1.45589 271.981 
-7.40642e-06 -1.02734e-05 2.69125e+25 -2.49076 1.17167 272.007 
-5.49508e-06 -1.02734e-05 2.69207e+25 -2.80465 1.07532 272 
-3.58375e-06 -1.02734e-05 2.6923e+25 -3.35174 0.694996 271.905 
-1.67242e-06 -1.02734e-05 2.69137e+25 -3.78802 0.417816 272.019 
-1.69631e-05 -9.79558e-06 2.68534e+25 -0.0243244 0.040449 272.762 
-1.50517e-05 -9.79558e-06 2.69165e+25 -0.186358 0.615286 272.033 
-1.31404e-05 -9.79558e-06 2.69344e+25 -0.670743 0.931604 271.84 
-1.12291e-05 -9.79558e-06 2.69267e+25 -1.23594 1.30598 271.899 
-9.31775e-06 -9.79558e-06 2.6921e+25 -2.00903 1.65751 272.011 
-7.40642e-06 -9.79558e-06 2.69091e+25 -2.56032 1.29576 272.016 
-5.49508e-06 -9.79558e-06 2.69265e+25 -3.15571 1.16529 271.935 
-3.58375e-06 -9.79558e-06 2.69239e+25 -3.66697 0.926737 271.971 
-1.67242e-06 -9.79558e-06 2.69022e+25 -3.99337 0.510581 272.094 
-1.69631e-05 -9.31775e-06 2.68571e+25 -0.000484217 0.0606843 272.707 
-1.50517e-05 -9.31775e-06 2.69061e+25 -0.165328 0.716308 272.121 
-1.31404e-05 -9.31775e-06 2.69279e+25 -0.604467 1.11049 271.881 
-1.12291e-05 -9.31775e-06 2.69426e+25 -1.33328 1.4846 271.776 
-9.31775e-06 -9.31775e-06 2.69161e+25 -2.02235 1.79684 271.99 
-7.40642e-06 -9.31775e-06 2.69137e+25 -2.67843 1.46617 272.042 
-5.49508e-06 -9.31775e-06 2.69386e+25 -3.42755 1.31358 271.831 
-3.58375e-06 -9.31775e-06 2.69218e+25 -4.01195 1.05705 271.989 
-1.67242e-06 -9.31775e-06 2.69143e+25 -4.25257 0.476993 272.07 
-1.69631e-05 -8.83992e-06 2.68374e+25 -0.00847211 0.0961594 272.824 
-1.50517e-05 -8.83992e-06 2.69044e+25 -0.192206 0.785106 272.097 
-1.31404e-05 -8.83992e-06 2.69371e+25 -0.581877 1.27505 271.842 
-1.12291e-05 -8.83992e-06 2.69438e+25 -1.35091 1.70781 271.774 
-9.31775e-06 -8.83992e-06 2.69294e+25 -2.1111 1.92016 271.959 
-7.40642e-06 -8.83992e-06 2.69118e+25 -2.82272 1.75141 272.06 
-5.49508e-06 -8.83992e-06 2.69436e+25 -3.59565 1.4396 271.75 
-3.58375e-06 -8.83992e-06 2.69229e+25 -4.21144 1.14282 271.96 
-1.67242e-06 -8.83992e-06 2.69025e+25 -4.54949 0.475853 272.162 
-1.69631e-05 -8.36208e-06 2.68443e+25 -0.0100973 0.126483 272.872 
-1.50517e-05 -8.36208e-06 2.69086e+25 -0.251276 0.824708 272.11 
-1.31404e-05 -8.36208e-06 2.69305e+25 -0.71856 1.42575 271.858 
-1.12291e-05 -8.36208e-06 2.69354e+25 -1.48332 1.92221 271.846 
-9.31775e-06 -8.36208e-06 2.69326e+25 -2.13199 2.12757 271.85 
-7.40642e-06 -8.36208e-06 2.69132e+25 -3.03573 2.0265 272.021 
-5.49508e-06 -8.36208e-06 2.69257e+25 -3.69314 1.60888 271.88 
-3.58375e-06 -8.36208e-06 2.69287e+25 -4.44412 1.23236 272.022 
-1.67242e-06 -8.36208e-06 2.69116e+25 -4.89153 0.524381 272.07 
-1.69631e-05 -7.88425e-06 2.68515e+25 -0.0144345 0.147201 272.815 
-1.50517e-05 -7.88425e-06 2.69004e+25 -0.24494 0.909955 272.116 
-1.31404e-05 -7.88425e-06 2.69285e+25 -0.809877 1.61738 271.906 
-1.12291e-05 -7.88425e-06 2.6927e+25 -1.54831 2.09489 271.889 
-9.31775e-06 -7.88425e-06 2.6931e+25 -2.32002 2.34586 271.871 
-7.40642e-06 -7.88425e-06 2.69303e+25 -3.15118 2.21046 271.939 
-5.49508e-06 -7.88425e-06 2.69159e+25 -3.85095 1.81417 271.964 
-3.58375e-06 -7.88425e-06 2.69211e+25 -4.53885 1.44312 271.991 
-1.67242e-06 -7.88425e-06 2.69137e+25 -5.03038 0.613875 272.053 
-1.69631e-05 -7.40642e-06 2.68517e+25 0.0274408 0.131721 272.805 
-1.50517e-05 -7.40642e-06 2.69166e+25 -0.24312 1.04426 272.028 
-1.31404e-05 -7.40642e-06 2.69253e+25 -0.854742 1.75749 271.915 
-1.12291e-05 -7.40642e-06 2.6924e+25 -1.58509 2.27137 271.991 
-9.31775e-06 -7.40642e-06 2.69307e+25 -2.39668 2.55722 271.89 
-7.40642e-06 -7.40642e-06 2.69287e+25 -3.2584 2.39673 271.92 
-5.49508e-06 -7.40642e-06 2.6924e+25 -3.9375 1.96304 271.922 
-3.58375e-06 -7.40642e-06 2.69216e+25 -4.61082 1.63056 271.942 
-1.67242e-06 -7.40642e-06 2.69098e+25 -5.21823 0.668089 272.021 
-1.69631e-05 -6.92858e-06 2.68544e+25 0.0207256 0.0935862 272.764 
-1.50517e-05 -6.92858e-06 2.69171e+25 -0.212824 1.23473 271.996 
-1.31404e-05 -6.92858e-06 2.693e+25 -0.827134 1.90977 271.873 
-1.12291e-05 -6.92858e-06 2.6928e+25 -1.58092 2.47658 271.894 
-9.31775e-06 -6.92858e-06 2.69285e+25 -2.5398 2.72478 271.93 
-7.40642e-06 -6.92858e-06 2.69215e+25 -3.32633 2.60927 271.987 
-5.49508e-06 -6.92858e-06 2.69187e+25 -4.01801 2.11119 272.023 
-3.58375e-06 -6.92858e-06 2.6928e+25 -4.65436 1.77015 271.867 
-1.67242e-06 -6.92858e-06 2.69131e+25 -5.30024 0.796049 271.987 
-1.69631e-05 -6.45075e-06 2.6853e+25 -0.0283413 0.138915 272.738 
-1.50517e-05 -6.45075e-06 2.69208e+25 -0.289104 1.33569 271.937 
-1.31404e-05 -6.45075e-06 2.6938e+25 -0.90456 2.05181 271.821 
-1.12291e-05 -6.45075e-06 2.69142e+25 -1.69274 2.68529 271.87 
-9.31775e-06 -6.45075e-06 2.69247e+25 -2.64574 2.94501 271.912 
-7.40642e-06 -6.45075e-06 2.69193e+25 -3.31421 2.79062 271.953 
-5.49508e-06 -6.45075e-06 2.69144e+25 -4.24388 2.27893 272.033 
-3.58375e-06 -6.45075e-06 2.69221e+25 -4.85998 1.93088 271.93 
-1.67242e-06 -6.45075e-06 2.69049e+25 -5.45623 0.97727 272.057 
-1.69631e-05 -5.97292e-06 2.68528e+25 -0.0253536 0.187457 272.782 
-1.50517e-05 -5.97292e-06 2.69154e+25 -0.338523 1.4581 271.996 
-1.31404e-05 -5.97292e-06 2.69308e+25 -0.935941 2.24626 271.849 
-1.12291e-05 -5.97292e-06 2.69259e+25 -1.85552 2.93386 271.865 
-9.31775e-06 -5.97292e-06 2.69344e+25 -2.72882 3.19674 271.851 
-7.40642e-06 -5.97292e-06 2.69275e+25 -3.51347 2.98856 271.86 
-5.49508e-06 -5.97292e-06 2.69094e+25 -4.46414 2.49631 272.016 
-3.58375e-06 -5.97292e-06 2.69289e+25 -5.01487 2.08217 271.899 
-1.67242e-06 -5.97292e-06 2.69304e+25 -5.61607 1.11647 271.912 
-1.69631e-05 -5.49508e-06 2.68389e+25 0.0347039 0.192733 272.824 
-1.50517e-05 -5.49508e-06 2.69097e+25 -0.295129 1.58073 272.109 
-1.31404e-05 -5.49508e-06 2.69225e+25 -0.955287 2.42225 271.926 
-1.12291e-05 -5.49508e-06 2.69239e+25 -2.0221 3.18042 271.868 
-9.31775e-06 -5.49508e-06 2.6929e+25 -2.83134 3.40476 271.831 
-7.40642e-06 -5.49508e-06 2.6935e+25 -3.66027 3.20069 271.781 
-5.49508e-06 -5.49508e-06 2.69241e+25 -4.56095 2.67458 271.973 
-3.58375e-06 -5.49508e-06 2.69313e+25 -5.22646 2.23282 271.851 
-1.67242e-06 -5.49508e-06 2.69224e+25 -5.7833 1.23851 271.917 
-1.69631e-05 -5.01725e-06 2.68497e+25 -0.000658262 0.174388 272.785 
-1.50517e-05 -5.01725e-06 2.69082e+25 -0.353276 1.68972 272.117 
-1.31404e-05 -5.01725e-06 2.69275e+25 -1.11331 2.67004 271.91 
-1.12291e-05 -5.01725e-06 2.69258e+25 -1.98082 3.39712 271.882 
-9.31775e-06 -5.01725e-06 2.69364e+25 -2.81447 3.58589 271.757 
-7.40642e-06 -5.01725e-06 2.6921e+25 -3.77689 3.39655 271.9 
-5.49508e-06 -5.01725e-06 2.69035e+25 -4.70181 2.83192 272.024 
-3.58375e-06 -5.01725e-06 2.69194e+25 -5.42591 2.37615 271.863 
-1.67242e-06 -5.01725e-06 2.69219e+25 -5.95723 1.41269 271.878 
-1.69631e-05 -4.53942e-06 2.68446e+25 -0.00711563 0.185159 272.784 
-1.50517e-05 -4.53942e-06 2.69055e+25 -0.432822 1.75345 272.139 
-1.31404e-05 -4.53942e-06 2.69235e+25 -1.03833 2.86465 271.918 
-1.12291e-05 -4.53942e-06 2.69257e+25 -2.02168 3.66719 271.923 
-9.31775e-06 -4.53942e-06 2.69373e+25 -2.85411 3.73503 271.737 
-7.40642e-06 -4.53942e-06 2.69278e+25 -3.87915 3.66161 271.904 
-5.49508e-06 -4.53942e-06 2.69181e+25 -4.7358 3.0187 271.923 
-3.58375e-06 -4.53942e-06 2.69243e+25 -5.49691 2.52487 271.92 
-1.67242e-06 -4.53942e-06 2.69106e+25 -6.06821 1.54053 271.937 
-1.69631e-05 -4.06158e-06 2.6843e+25 0.0148856 0.185442 272.812 
-1.50517e-05 -4.06158e-06 2.69196e+25 -0.450422 1.89759 272.042 
-1.31404e-05 -4.06158e-06 2.69219e+25 -1.01221 3.05797 271.911 
-1.12291e-05 -4.06158e-06 2.6928e+25 -2.01568 3.94761 271.858 
-9.31775e-06 -4.06158e-06 2.69394e+25 -2.84194 3.98139 271.719 
-7.40642e-06 -4.06158e-06 2.69163e+25 -3.84316 3.90862 271.935 
-5.49508e-06 -4.06158e-06 2.69178e+25 -4.68577 3.30152 272.03 
-3.58375e-06 -4.06158e-06 2.69255e+25 -5.56312 2.71302 271.926 
-1.67242e-06 -4.06158e-06 2.69154e+25 -6.18189 1.66714 271.86 
-1.69631e-05 -3.58375e-06 2.68537e+25 -0.0326033 0.209824 272.745 
-1.50517e-05 -3.58375e-06 2.69172e+25 -0.425141 2.06166 272.02 
-1.31404e-05 -3.58375e-06 2.69216e+25 -0.956286 3.27 271.922 
-1.12291e-05 -3.58375e-06 2.69245e+25 -1.91551 4.20181 271.853 
-9.31775e-06 -3.58375e-06 2.69317e+25 -2.84794 4.27156 271.783 
-7.40642e-06 -3.58375e-06 2.69172e+25 -3.83679 4.05154 271.985 
-5.49508e-06 -3.58375e-06 2.69092e+25 -4.74917 3.5934 272.072 
-3.58375e-06 -3.58375e-06 2.69229e+25 -5.7369 2.91402 271.871 
-1.67242e-06 -3.58375e-06 2.69226e+25 -6.32811 1.83064 271.914 
-1.69631e-05 -3.10592e-06 2.68379e+25 -0.0153455 0.288092 272.852 
-1.50517e-05 -3.10592e-06 2.69238e+25 -0.40522 2.20567 272.005 
-1.31404e-05 -3.10592e-06 2.69128e+25 -1.00228 3.45252 272.069 
-1.12291e-05 -3.10592e-06 2.6918e+25 -1.92784 4.34777 271.893 
-9.31775e-06 -3.10592e-06 2.69288e+25 -2.87585 4.53661 271.838 
-7.40642e-06 -3.10592e-06 2.69126e+25 -3.80048 4.29771 271.991 
-5.49508e-06 -3.10592e-06 2.69137e+25 -4.80045 3.85023 272.02 
-3.58375e-06 -3.10592e-06 2.69133e+25 -5.75258 3.13518 271.914 
-1.67242e-06 -3.10592e-06 2.69133e+25 -6.39264 1.92328 271.933 
-1.69631e-05 -2.62808e-06 2.68437e+25 0.00596714 0.334019 272.749 
-1.50517e-05 -2.62808e-06 2.69142e+25 -0.362208 2.37007 272.065 
-1.31404e-05 -2.62808e-06 2.69068e+25 -1.15598 3.72539 272.098 
-1.12291e-05 -2.62808e-06 2.69287e+25 -1.86958 4.50767 271.792 
-9.31775e-06 -2.62808e-06 2.69149e+25 -2.84 4.82465 271.938 
-7.40642e-06 -2.62808e-06 2.69208e+25 -3.83353 4.52099 271.923 
-5.49508e-06 -2.62808e-06 2.69058e+25 -4.91558 4.17738 272.046 
-3.58375e-06 -2.62808e-06 2.69145e+25 -5.77474 3.28073 271.935 
-1.67242e-06 -2.62808e-06 2.69153e+25 -6.39276 2.0775 271.931 
-1.69631e-05 -2.15025e-06 2.68422e+25 0.00142225 0.349078 272.809 
-1.50517e-05 -2.15025e-06 2.69046e+25 -0.34003 2.48562 272.127 
-1.31404e-05 -2.15025e-06 2.69109e+25 -1.10668 3.94288 272.003 
-1.12291e-05 -2.15025e-06 2.69262e+25 -1.99745 4.66673 271.852 
-9.31775e-06 -2.15025e-06 2.69219e+25 -2.81977 5.02855 271.87 
-7.40642e-06 -2.15025e-06 2.69163e+25 -3.86438 4.77778 271.939 
-5.49508e-06 -2.15025e-06 2.69053e+25 -5.01565 4.4199 271.954 
-3.58375e-06 -2.15025e-06 2.69016e+25 -5.77523 3.42883 271.997 
-1.67242e-06 -2.15025e-06 2.69177e+25 -6.43457 2.25358 271.869 
-1.69631e-05 -1.67242e-06 2.68468e+25 -0.0230864 0.376838 272.809 
-1.50517e-05 -1.67242e-06 2.68935e+25 -0.228023 2.57707 272.161 
-1.31404e-05 -1.67242e-06 2.69232e+25 -1.1483 4.16832 271.952 
-1.12291e-05 -1.67242e-06 2.69251e+25 -2.03834 4.92368 271.827 
-9.31775e-06 -1.67242e-06 2.69279e+25 -2.77745 5.1604 271.82 
-7.40642e-06 -1.67242e-06 2.69121e+25 -3.89092 5.01211 271.921 
-5.49508e-06 -1.67242e-06 2.69182e+25 -4.86964 4.58996 271.952 
-3.58375e-06 -1.67242e-06 2.68968e+25 -5.7107 3.64536 272.049 
-1.67242e-06 -1.67242e-06 2.69147e+25 -6.61325 2.48079 271.911 
-1.69631e-05 -1.19458e-06 2.68404e+25 0.0307841 0.353931 272.775 
-1.50517e-05 -1.19458e-06 2.68961e+25 -0.198154 2.73145 272.146 
-1.31404e-05 -1.19458e-06 2.69179e+25 -1.17599 4.37348 271.955 
-1.12291e-05 -1.19458e-06 2.69223e+25 -2.02039 5.19991 271.857 
-9.31775e-06 -1.19458e-06 2.69231e+25 -2.79565 5.38167 271.857 
-7.40642e-06 -1.19458e-06 2.69192e+25 -3.78707 5.31244 271.859 
-5.49508e-06 -1.19458e-06 2.69162e+25 -4.80285 4.73319 271.88 
-3.58375e-06 -1.19458e-06 2.69035e+25 -5.78717 3.8956 271.961 
-1.67242e-06 -1.19458e-06 2.69077e+25 -6.7808 2.73458 271.895 
-1.69631e-05 -7.1675e-07 2.68416e+25 -0.021518 0.366409 272.783 
-1.50517e-05 -7.1675e-07 2.69091e+25 -0.243287 2.91782 272.059 
-1.31404e-05 -7.1675e-07 2.69285e+25 -1.19056 4.57032 271.876 
-1.12291e-05 -7.1675e-07 2.69097e+25 -1.99185 5.45923 271.966 
-9.31775e-06 -7.1675e-07 2.69197e+25 -2.79685 5.66227 271.833 
-7.40642e-06 -7.1675e-07 2.6914e+25 -3.77755 5.61196 271.915 
-5.49508e-06 -7.1675e-07 2.69079e+25 -4.80893 4.97815 271.943 
-3.58375e-06 -7.1675e-07 2.69088e+25 -5.8311 4.14478 271.898 
-1.67242e-06 -7.1675e-07 2.69007e+25 -6.85461 2.93885 271.968 
-1.69631e-05 -2.38917e-07 2.6821e+25 0.0133622 0.396399 272.796 
-1.50517e-05 -2.38917e-07 2.68927e+25 -0.353949 3.10759 271.965 
-1.31404e-05 -2.38917e-07 2.69022e+25 -1.11086 4.81116 271.891 
-1.12291e-05 -2.38917e-07 2.68791e+25 -1.92697 5.60734 272.033 
-9.31775e-06 -2.38917e-07 2.69025e+25 -2.88113 5.89079 271.8 
-7.40642e-06 -2.38917e-07 2.68941e+25 -3.72907 5.86727 271.929 
-5.49508e-06 -2.38917e-07 2.68972e+25 -4.84384 5.31451 271.901 
-3.58375e-06 -2.38917e-07 2.68792e+25 -5.7621 4.39608 271.965 
-1.67242e-06 -2.38917e-07 2.68697e+25 -6.68993 3.16827 272.079 
-1.64852e-05 -1.69631e-05 2.68408e+25 0.002553 -0.00190553 272.93 
-1.45739e-05 -1.69631e-05 2.68458e+25 0.0706245 0.0146876 272.777 
-1.26626e-05 -1.69631e-05 2.68501e+25 -0.0164963 0.00959414 272.783 
-1.07512e-05 -1.69631e-05 2.68481e+25 -0.081904 0.0213249 272.825 
-8.83992e-06 -1.69631e-05 2.68347e+25 -0.150351 0.0182383 272.919 
-6.92858e-06 -1.69631e-05 2.68489e+25 -0.0464092 0.00950504 272.786 
-5.01725e-06 -1.69631e-05 2.68411e+25 -0.17029 0.00285395 272.799 
-3.10592e-06 -1.69631e-05 2.68417e+25 -0.19958 0.0311568 272.819 
-1.19458e-06 -1.69631e-05 2.68455e+25 -0.173529 -0.00773487 272.832 
-1.64852e-05 -1.64852e-05 2.68673e+25 0.028542 4.10661e-05 272.646 
-1.45739e-05 -1.64852e-05 2.68722e+25 0.0357119 -0.00634203 272.544 
-1.26626e-05 -1.64852e-05 2.68703e+25 -0.00769993 0.0293559 272.501 
-1.07512e-05 -1.64852e-05 2.68709e+25 -0.101513 0.0559035 272.528 
-8.83992e-06 -1.64852e-05 2.6868e+25 -0.17682 0.0366036 272.551 
-6.92858e-06 -1.64852e-05 2.68701e+25 -0.220465 0.032351 272.448 
-5.01725e-06 -1.64852e-05 2.6867e+25 -0.482539 0.00744846 272.539 
-3.10592e-06 -1.64852e-05 2.68667e+25 -0.465944 0.0570293 272.593 
-1.19458e-06 -1.64852e-05 2.68706e+25 -0.453396 -0.0330005 272.566 
-1.64852e-05 -1.60074e-05 2.68808e+25 -0.00401222 -0.0447481 272.456 
-1.45739e-05 -1.60074e-05 2.68862e+25 -0.0274949 0.0119435 272.432 
-1.26626e-05 -1.60074e-05 2.68906e+25 -0.00221865 0.0717494 272.374 
-1.07512e-05 -1.60074e-05 2.68843e+25 -0.0263194 0.154744 272.405 
-8.83992e-06 -1.60074e-05 2.68842e+25 -0.314543 -0.00932659 272.329 
-6.92858e-06 -1.60074e-05 2.68963e+25 -0.476136 0.0821934 272.229 
-5.01725e-06 -1.60074e-05 2.68966e+25 -0.689889 0.0402519 272.292 
-3.10592e-06 -1.60074e-05 2.6888e+25 -0.783863 0.0860807 272.337 
-1.19458e-06 -1.60074e-05 2.68818e+25 -0.802606 -0.0509425 272.425 
-1.64852e-05 -1.55296e-05 2.68696e+25 -0.0136224 -0.103357 272.567 
-1.45739e-05 -1.55296e-05 2.69008e+25 -0.0284164 0.0203212 272.228 
-1.26626e-05 -1.55296e-05 2.68897e+25 -0.0664405 0.0674699 272.307 
-1.07512e-05 -1.55296e-05 2.68929e+25 -0.17158 0.159976 272.301 
-8.83992e-06 -1.55296e-05 2.68918e+25 -0.404326 -0.0682686 272.254 
-6.92858e-06 -1.55296e-05 2.69086e+25 -0.75386 0.155538 272.032 
-5.01725e-06 -1.55296e-05 2.68972e+25 -1.02067 0.0895374 272.224 
-3.10592e-06 -1.55296e-05 2.68973e+25 -1.04794 0.0885084 272.164 
-1.19458e-06 -1.55296e-05 2.68917e+25 -1.17208 -0.0152093 272.388 
-1.64852e-05 -1.50517e-05 2.68663e+25 0.0355352 -0.122205 272.59 
-1.45739e-05 -1.50517e-05 2.69184e+25 0.10332 0.028208 272.009 
-1.26626e-05 -1.50517e-05 2.68978e+25 -0.0599002 0.11673 272.253 
-1.07512e-05 -1.50517e-05 2.69009e+25 -0.295017 0.177229 272.113 
-8.83992e-06 -1.50517e-05 2.69012e+25 -0.5737 0.00448536 272.123 
-6.92858e-06 -1.50517e-05 2.69136e+25 -0.944286 0.293511 272.093 
-5.01725e-06 -1.50517e-05 2.68956e+25 -1.2714 0.109096 272.229 
-3.10592e-06 -1.50517e-05 2.69028e+25 -1.23894 0.0995287 272.171 
-1.19458e-06 -1.50517e-05 2.6905e+25 -1.49069 -0.0348165 272.208 
-1.64852e-05 -1.45739e-05 2.68669e+25 0.0377392 -0.100807 272.576 
-1.45739e-05 -1.45739e-05 2.69099e+25 0.00842675 0.0327685 272.075 
-1.26626e-05 -1.45739e-05 2.69135e+25 -0.17586 0.179336 272.084 
-1.07512e-05 -1.45739e-05 2.69093e+25 -0.472112 0.176501 272.106 
-8.83992e-06 -1.45739e-05 2.68995e+25 -0.767546 0.204312 272.132 
-6.92858e-06 -1.45739e-05 2.69038e+25 -1.10425 0.374326 272.137 
-5.01725e-06 -1.45739e-05 2.6905e+25 -1.50991 0.149163 272.121 
-3.10592e-06 -1.45739e-05 2.69012e+25 -1.57684 0.129894 272.173 
-1.19458e-06 -1.45739e-05 2.69042e+25 -1.7934 0.00151509 272.235 
-1.64852e-05 -1.40961e-05 2.68735e+25 0.0486743 -0.0956202 272.552 
-1.45739e-05 -1.40961e-05 2.69225e+25 -0.0882943 0.0968313 271.996 
-1.26626e-05 -1.40961e-05 2.69188e+25 -0.365912 0.202439 271.981 
-1.07512e-05 -1.40961e-05 2.69077e+25 -0.575108 0.212944 272.098 
-8.83992e-06 -1.40961e-05 2.69047e+25 -0.794607 0.363486 272.085 
-6.92858e-06 -1.40961e-05 2.69111e+25 -1.24775 0.419205 272.023 
-5.01725e-06 -1.40961e-05 2.69241e+25 -1.65313 0.21423 272 
-3.10592e-06 -1.40961e-05 2.69044e+25 -1.92741 0.157239 272.169 
-1.19458e-06 -1.40961e-05 2.69225e+25 -1.9621 0.0304608 272.076 
-1.64852e-05 -1.36182e-05 2.68706e+25 -0.0599126 -0.0570502 272.555 
-1.45739e-05 -1.36182e-05 2.69177e+25 -0.219116 0.144058 272.086 
-1.26626e-05 -1.36182e-05 2.69206e+25 -0.503596 0.248387 271.943 
-1.07512e-05 -1.36182e-05 2.69195e+25 -0.616449 0.333701 272.021 
-8.83992e-06 -1.36182e-05 2.6926e+25 -0.968075 0.513793 271.96 
-6.92858e-06 -1.36182e-05 2.69131e+25 -1.54142 0.492026 271.974 
-5.01725e-06 -1.36182e-05 2.69189e+25 -1.78641 0.362904 271.962 
-3.10592e-06 -1.36182e-05 2.69019e+25 -2.10995 0.0953024 272.138 
-1.19458e-06 -1.36182e-05 2.69053e+25 -2.15598 0.0801815 272.124 
-1.64852e-05 -1.31404e-05 2.68694e+25 -0.0207226 -0.0380087 272.546 
-1.45739e-05 -1.31404e-05 2.69208e+25 -0.255099 0.217026 272.053 
-1.26626e-05 -1.31404e-05 2.69224e+25 -0.472501 0.310808 271.94 
-1.07512e-05 -1.31404e-05 2.69263e+25 -0.741093 0.40037 271.924 
-8.83992e-06 -1.31404e-05 2.6927e+25 -1.16139 0.60279 271.869 
-6.92858e-06 -1.31404e-05 2.69384e+25 -1.65597 0.555455 271.85 
-5.01725e-06 -1.31404e-05 2.69343e+25 -1.89882 0.506582 271.835 
-3.10592e-06 -1.31404e-05 2.69034e+25 -2.26248 0.107905 272.076 
-1.19458e-06 -1.31404e-05 2.6907e+25 -2.43293 0.139154 272.1 
-1.64852e-05 -1.26626e-05 2.68902e+25 0.00393209 -0.0166927 272.417 
-1.45739e-05 -1.26626e-05 2.69105e+25 -0.210323 0.240759 272.066 
-1.26626e-05 -1.26626e-05 2.69247e+25 -0.374385 0.361905 271.965 
-1.07512e-05 -1.26626e-05 2.69284e+25 -0.876531 0.537216 271.916 
-8.83992e-06 -1.26626e-05 2.69322e+25 -1.29487 0.707987 271.882 
-6.92858e-06 -1.26626e-05 2.69255e+25 -1.78877 0.697226 271.94 
-5.01725e-06 -1.26626e-05 2.69234e+25 -2.06066 0.522276 271.922 
-3.10592e-06 -1.26626e-05 2.69179e+25 -2.44496 0.184934 271.963 
-1.19458e-06 -1.26626e-05 2.69127e+25 -2.57643 0.13514 272.07 
-1.64852e-05 -1.21847e-05 2.68703e+25 0.0405131 -0.0332046 272.454 
-1.45739e-05 -1.21847e-05 2.69266e+25 -0.194279 0.339498 272.006 
-1.26626e-05 -1.21847e-05 2.69134e+25 -0.460714 0.417279 272.018 
-1.07512e-05 -1.21847e-05 2.6917e+25 -1.00444 0.712371 272.02 
-8.83992e-06 -1.21847e-05 2.69218e+25 -1.55549 0.775552 271.899 
-6.92858e-06 -1.21847e-05 2.691e+25 -1.94078 0.845093 271.993 
-5.01725e-06 -1.21847e-05 2.69238e+25 -2.26842 0.574759 271.97 
-3.10592e-06 -1.21847e-05 2.69178e+25 -2.5601 0.302341 272.007 
-1.19458e-06 -1.21847e-05 2.69166e+25 -2.74827 0.150382 272.073 
-1.64852e-05 -1.17069e-05 2.68627e+25 0.00370079 -0.00501327 272.494 
-1.45739e-05 -1.17069e-05 2.69242e+25 -0.195871 0.402683 271.954 
-1.26626e-05 -1.17069e-05 2.69249e+25 -0.527864 0.559817 271.958 
-1.07512e-05 -1.17069e-05 2.69155e+25 -1.09299 0.87048 272.097 
-8.83992e-06 -1.17069e-05 2.69349e+25 -1.68976 0.8412 271.845 
-6.92858e-06 -1.17069e-05 2.69255e+25 -2.09846 0.892042 271.983 
-5.01725e-06 -1.17069e-05 2.69262e+25 -2.45143 0.642411 271.945 
-3.10592e-06 -1.17069e-05 2.69231e+25 -2.74597 0.382381 271.978 
-1.19458e-06 -1.17069e-05 2.69172e+25 -2.96601 0.207574 272.025 
-1.64852e-05 -1.12291e-05 2.68796e+25 -0.0335059 0.0161594 272.46 
-1.45739e-05 -1.12291e-05 2.69261e+25 -0.216027 0.433915 271.961 
-1.26626e-05 -1.12291e-05 2.69238e+25 -0.624648 0.646888 271.951 
-1.07512e-05 -1.12291e-05 2.69219e+25 -1.08343 1.03541 271.964 
-8.83992e-06 -1.12291e-05 2.6927e+25 -1.81092 0.987971 271.888 
-6.92858e-06 -1.12291e-05 2.69241e+25 -2.20301 0.938103 271.973 
-5.01725e-06 -1.12291e-05 2.693e+25 -2.69874 0.733993 271.909 
-3.10592e-06 -1.12291e-05 2.69195e+25 -2.96984 0.437251 272.06 
-1.19458e-06 -1.12291e-05 2.69256e+25 -3.20736 0.249382 271.957 
-1.64852e-05 -1.07512e-05 2.68702e+25 0.00969273 0.0160466 272.432 
-1.45739e-05 -1.07512e-05 2.69246e+25 -0.254462 0.505293 271.955 
-1.26626e-05 -1.07512e-05 2.69242e+25 -0.67122 0.725055 271.924 
-1.07512e-05 -1.07512e-05 2.69315e+25 -1.2201 1.13309 271.901 
-8.83992e-06 -1.07512e-05 2.69367e+25 -1.89946 1.17974 271.864 
-6.92858e-06 -1.07512e-05 2.69237e+25 -2.45399 1.00789 271.898 
-5.01725e-06 -1.07512e-05 2.69277e+25 -2.76833 0.830397 271.922 
-3.10592e-06 -1.07512e-05 2.69236e+25 -3.22358 0.529251 272.009 
-1.19458e-06 -1.07512e-05 2.69204e+25 -3.5634 0.300029 271.936 
-1.64852e-05 -1.02734e-05 2.68811e+25 -0.0987133 0.0331241 272.451 
-1.45739e-05 -1.02734e-05 2.69206e+25 -0.286523 0.640534 271.981 
-1.26626e-05 -1.02734e-05 2.69294e+25 -0.779436 0.874476 271.884 
-1.07512e-05 -1.02734e-05 2.69183e+25 -1.32837 1.2969 271.943 
-8.83992e-06 -1.02734e-05 2.69331e+25 -2.05749 1.42988 271.889 
-6.92858e-06 -1.02734e-05 2.69209e+25 -2.60683 1.10845 271.957 
-5.01725e-06 -1.02734e-05 2.69264e+25 -2.94 0.970627 271.964 
-3.10592e-06 -1.02734e-05 2.69148e+25 -3.56637 0.68324 272.018 
-1.19458e-06 -1.02734e-05 2.69158e+25 -3.82977 0.289306 272.003 
-1.64852e-05 -9.79558e-06 2.68786e+25 -0.0878387 0.0867066 272.46 
-1.45739e-05 -9.79558e-06 2.69196e+25 -0.283566 0.788235 271.997 
-1.26626e-05 -9.79558e-06 2.69366e+25 -0.831004 1.02803 271.807 
-1.07512e-05 -9.79558e-06 2.69116e+25 -1.3842 1.53994 271.964 
-8.83992e-06 -9.79558e-06 2.69326e+25 -2.18833 1.5802 271.934 
-6.92858e-06 -9.79558e-06 2.69087e+25 -2.73664 1.25246 272.027 
-5.01725e-06 -9.79558e-06 2.69336e+25 -3.25335 1.10234 271.871 
-3.10592e-06 -9.79558e-06 2.69223e+25 -3.82878 0.827989 271.984 
-1.19458e-06 -9.79558e-06 2.69246e+25 -4.05164 0.312272 271.962 
-1.64852e-05 -9.31775e-06 2.68742e+25 -0.0521496 0.170591 272.489 
-1.45739e-05 -9.31775e-06 2.69202e+25 -0.271202 0.85839 272.013 
-1.26626e-05 -9.31775e-06 2.69292e+25 -0.756353 1.19119 271.869 
-1.07512e-05 -9.31775e-06 2.69275e+25 -1.48126 1.7003 271.879 
-8.83992e-06 -9.31775e-06 2.69063e+25 -2.16695 1.73242 272.04 
-6.92858e-06 -9.31775e-06 2.69137e+25 -2.87273 1.44185 272.04 
-5.01725e-06 -9.31775e-06 2.69334e+25 -3.54288 1.1842 271.854 
-3.10592e-06 -9.31775e-06 2.69176e+25 -4.1123 0.926135 271.98 
-1.19458e-06 -9.31775e-06 2.69157e+25 -4.1976 0.314866 271.97 
-1.64852e-05 -8.83992e-06 2.68681e+25 -0.0512646 0.202381 272.568 
-1.45739e-05 -8.83992e-06 2.69166e+25 -0.250165 0.934019 272.022 
-1.26626e-05 -8.83992e-06 2.69364e+25 -0.756426 1.32832 271.805 
-1.07512e-05 -8.83992e-06 2.69347e+25 -1.57907 1.83815 271.836 
-8.83992e-06 -8.83992e-06 2.69237e+25 -2.2261 1.88403 271.952 
-6.92858e-06 -8.83992e-06 2.69141e+25 -3.14185 1.66952 272.088 
-5.01725e-06 -8.83992e-06 2.69423e+25 -3.7462 1.30503 271.777 
-3.10592e-06 -8.83992e-06 2.69182e+25 -4.27108 1.01432 271.981 
-1.19458e-06 -8.83992e-06 2.69082e+25 -4.5773 0.310781 272.08 
-1.64852e-05 -8.36208e-06 2.68709e+25 -0.0706757 0.277246 272.52 
-1.45739e-05 -8.36208e-06 2.69091e+25 -0.321772 1.02209 272.107 
-1.26626e-05 -8.36208e-06 2.69302e+25 -0.872206 1.44983 271.865 
-1.07512e-05 -8.36208e-06 2.69291e+25 -1.67314 2.03504 271.844 
-8.83992e-06 -8.36208e-06 2.69304e+25 -2.36652 2.03667 271.884 
-6.92858e-06 -8.36208e-06 2.69143e+25 -3.19564 1.90035 272.038 
-5.01725e-06 -8.36208e-06 2.69252e+25 -3.94157 1.54286 271.943 
-3.10592e-06 -8.36208e-06 2.69195e+25 -4.57685 1.08312 271.969 
-1.19458e-06 -8.36208e-06 2.69098e+25 -4.91133 0.3112 272.103 
-1.64852e-05 -7.88425e-06 2.68803e+25 -0.0278051 0.361652 272.485 
-1.45739e-05 -7.88425e-06 2.69154e+25 -0.372664 1.1124 272.022 
-1.26626e-05 -7.88425e-06 2.69223e+25 -0.99791 1.61038 271.886 
-1.07512e-05 -7.88425e-06 2.69289e+25 -1.70724 2.24039 271.86 
-8.83992e-06 -7.88425e-06 2.69248e+25 -2.54021 2.24456 271.935 
-6.92858e-06 -7.88425e-06 2.69151e+25 -3.32782 2.05042 271.989 
-5.01725e-06 -7.88425e-06 2.69188e+25 -4.02067 1.76016 272.015 
-3.10592e-06 -7.88425e-06 2.69149e+25 -4.7239 1.20359 272.026 
-1.19458e-06 -7.88425e-06 2.69084e+25 -5.13549 0.377007 272.081 
-1.64852e-05 -7.40642e-06 2.68678e+25 0.0664185 0.335162 272.5 
-1.45739e-05 -7.40642e-06 2.69092e+25 -0.428312 1.25639 272.086 
-1.26626e-05 -7.40642e-06 2.69357e+25 -1.0304 1.84197 271.872 
-1.07512e-05 -7.40642e-06 2.69268e+25 -1.76092 2.43969 271.897 
-8.83992e-06 -7.40642e-06 2.69226e+25 -2.58561 2.47932 271.972 
-6.92858e-06 -7.40642e-06 2.69157e+25 -3.44394 2.22989 271.995 
-5.01725e-06 -7.40642e-06 2.69258e+25 -4.11551 1.94261 271.963 
-3.10592e-06 -7.40642e-06 2.69137e+25 -4.78684 1.35707 272.011 
-1.19458e-06 -7.40642e-06 2.69121e+25 -5.2896 0.479477 272.034 
-1.64852e-05 -6.92858e-06 2.68867e+25 -0.0196967 0.368758 272.404 
-1.45739e-05 -6.92858e-06 2.69242e+25 -0.380313 1.47813 271.948 
-1.26626e-05 -6.92858e-06 2.69252e+25 -1.00306 2.01389 271.869 
-1.07512e-05 -6.92858e-06 2.69139e+25 -1.84981 2.65528 272.007 
-8.83992e-06 -6.92858e-06 2.69203e+25 -2.72825 2.67566 271.914 
-6.92858e-06 -6.92858e-06 2.69247e+25 -3.52304 2.39575 271.976 
-5.01725e-06 -6.92858e-06 2.69127e+25 -4.18525 2.12363 272.026 
-3.10592e-06 -6.92858e-06 2.69272e+25 -4.84701 1.5616 271.841 
-1.19458e-06 -6.92858e-06 2.69189e+25 -5.4293 0.583818 271.971 
-1.64852e-05 -6.45075e-06 2.68834e+25 -0.0664065 0.354584 272.389 
-1.45739e-05 -6.45075e-06 2.69198e+25 -0.365651 1.59823 271.959 
-1.26626e-05 -6.45075e-06 2.69437e+25 -1.09241 2.22067 271.815 
-1.07512e-05 -6.45075e-06 2.6919e+25 -1.89307 2.91288 271.95 
-8.83992e-06 -6.45075e-06 2.69292e+25 -2.87698 2.88472 271.899 
-6.92858e-06 -6.45075e-06 2.69246e+25 -3.55702 2.62073 271.949 
-5.01725e-06 -6.45075e-06 2.69234e+25 -4.39042 2.26434 271.951 
-3.10592e-06 -6.45075e-06 2.69267e+25 -5.00147 1.77032 271.934 
-1.19458e-06 -6.45075e-06 2.69205e+25 -5.60235 0.678563 271.904 
-1.64852e-05 -5.97292e-06 2.68741e+25 -0.0737492 0.385383 272.514 
-1.45739e-05 -5.97292e-06 2.69219e+25 -0.482993 1.69941 271.907 
-1.26626e-05 -5.97292e-06 2.6938e+25 -1.14695 2.47046 271.83 
-1.07512e-05 -5.97292e-06 2.69278e+25 -2.14301 3.15917 271.89 
-8.83992e-06 -5.97292e-06 2.69363e+25 -2.94832 3.11201 271.813 
-6.92858e-06 -5.97292e-06 2.693e+25 -3.7429 2.88521 271.82 
-5.01725e-06 -5.97292e-06 2.69201e+25 -4.60311 2.37541 271.94 
-3.10592e-06 -5.97292e-06 2.69156e+25 -5.15208 1.91052 271.972 
-1.19458e-06 -5.97292e-06 2.69342e+25 -5.73672 0.796014 271.851 
-1.64852e-05 -5.49508e-06 2.68713e+25 0.000874243 0.478658 272.539 
-1.45739e-05 -5.49508e-06 2.69208e+25 -0.424658 1.89205 271.955 
-1.26626e-05 -5.49508e-06 2.69378e+25 -1.22013 2.73303 271.842 
-1.07512e-05 -5.49508e-06 2.69319e+25 -2.20353 3.37653 271.813 
-8.83992e-06 -5.49508e-06 2.69323e+25 -3.04093 3.31033 271.827 
-6.92858e-06 -5.49508e-06 2.69221e+25 -3.88807 3.12465 271.817 
-5.01725e-06 -5.49508e-06 2.6936e+25 -4.72952 2.49955 271.812 
-3.10592e-06 -5.49508e-06 2.69288e+25 -5.37199 2.03893 271.833 
-1.19458e-06 -5.49508e-06 2.69228e+25 -5.94947 0.960667 271.927 
-1.64852e-05 -5.01725e-06 2.68793e+25 -0.0482724 0.56073 272.408 
-1.45739e-05 -5.01725e-06 2.6907e+25 -0.437448 1.97423 272.065 
-1.26626e-05 -5.01725e-06 2.69353e+25 -1.30892 2.95548 271.837 
-1.07512e-05 -5.01725e-06 2.69319e+25 -2.21995 3.56451 271.837 
-8.83992e-06 -5.01725e-06 2.69318e+25 -2.99184 3.54369 271.753 
-6.92858e-06 -5.01725e-06 2.69182e+25 -4.01824 3.41609 271.846 
-5.01725e-06 -5.01725e-06 2.69248e+25 -4.90599 2.69008 271.87 
-3.10592e-06 -5.01725e-06 2.69313e+25 -5.56499 2.17319 271.817 
-1.19458e-06 -5.01725e-06 2.69196e+25 -6.12522 1.09391 271.911 
-1.64852e-05 -4.53942e-06 2.6877e+25 0.00230117 0.594845 272.415 
-1.45739e-05 -4.53942e-06 2.69085e+25 -0.502845 2.08045 272.049 
-1.26626e-05 -4.53942e-06 2.69207e+25 -1.18451 3.1178 271.933 
-1.07512e-05 -4.53942e-06 2.69362e+25 -2.23849 3.76143 271.861 
-8.83992e-06 -4.53942e-06 2.69347e+25 -3.03822 3.73708 271.765 
-6.92858e-06 -4.53942e-06 2.69166e+25 -4.12301 3.6472 271.92 
-5.01725e-06 -4.53942e-06 2.69178e+25 -4.90526 2.91264 271.985 
-3.10592e-06 -4.53942e-06 2.69173e+25 -5.65611 2.32491 271.963 
-1.19458e-06 -4.53942e-06 2.69149e+25 -6.17099 1.246 271.969 
-1.64852e-05 -4.06158e-06 2.68773e+25 -0.0119201 0.640015 272.401 
-1.45739e-05 -4.06158e-06 2.69152e+25 -0.597539 2.17978 271.992 
-1.26626e-05 -4.06158e-06 2.69273e+25 -1.27467 3.3406 271.889 
-1.07512e-05 -4.06158e-06 2.69274e+25 -2.26501 3.94215 271.81 
-8.83992e-06 -4.06158e-06 2.69348e+25 -3.16399 3.99177 271.801 
-6.92858e-06 -4.06158e-06 2.69042e+25 -3.99885 3.80206 272.043 
-5.01725e-06 -4.06158e-06 2.69027e+25 -4.98421 3.08431 272.025 
-3.10592e-06 -4.06158e-06 2.69133e+25 -5.7685 2.49805 271.93 
-1.19458e-06 -4.06158e-06 2.69144e+25 -6.31855 1.38643 271.95 
-1.64852e-05 -3.58375e-06 2.68792e+25 -0.111347 0.708968 272.441 
-1.45739e-05 -3.58375e-06 2.69167e+25 -0.557368 2.27843 271.963 
-1.26626e-05 -3.58375e-06 2.69185e+25 -1.18975 3.62291 271.903 
-1.07512e-05 -3.58375e-06 2.69273e+25 -2.08997 4.11423 271.873 
-8.83992e-06 -3.58375e-06 2.69213e+25 -3.11434 4.34368 271.88 
-6.92858e-06 -3.58375e-06 2.6908e+25 -3.96966 3.93688 272.034 
-5.01725e-06 -3.58375e-06 2.6898e+25 -5.0044 3.37585 272.088 
-3.10592e-06 -3.58375e-06 2.6922e+25 -5.90267 2.66106 271.851 
-1.19458e-06 -3.58375e-06 2.69226e+25 -6.4626 1.46898 271.977 
-1.64852e-05 -3.10592e-06 2.6877e+25 -0.126716 0.799193 272.465 
-1.45739e-05 -3.10592e-06 2.6907e+25 -0.599439 2.45891 272.003 
-1.26626e-05 -3.10592e-06 2.69293e+25 -1.2178 3.87325 271.928 
-1.07512e-05 -3.10592e-06 2.69282e+25 -2.08992 4.34202 271.825 
-8.83992e-06 -3.10592e-06 2.69279e+25 -3.11661 4.57949 271.89 
-6.92858e-06 -3.10592e-06 2.69104e+25 -4.05836 4.11073 271.953 
-5.01725e-06 -3.10592e-06 2.6907e+25 -5.14149 3.67465 272.062 
-3.10592e-06 -3.10592e-06 2.69129e+25 -5.90896 2.80396 271.981 
-1.19458e-06 -3.10592e-06 2.69051e+25 -6.50942 1.60503 271.976 
-1.64852e-05 -2.62808e-06 2.688e+25 -0.0387381 0.894406 272.412 
-1.45739e-05 -2.62808e-06 2.69242e+25 -0.513016 2.64745 271.993 
-1.26626e-05 -2.62808e-06 2.69147e+25 -1.37742 4.0208 271.955 
-1.07512e-05 -2.62808e-06 2.69255e+25 -2.10507 4.58589 271.815 
-8.83992e-06 -2.62808e-06 2.69188e+25 -3.02349 4.71516 271.916 
-6.92858e-06 -2.62808e-06 2.69144e+25 -4.11831 4.42716 271.979 
-5.01725e-06 -2.62808e-06 2.69055e+25 -5.20674 3.95573 272.027 
-3.10592e-06 -2.62808e-06 2.691e+25 -5.90997 2.94834 271.97 
-1.19458e-06 -2.62808e-06 2.69207e+25 -6.5637 1.76752 271.887 
-1.64852e-05 -2.15025e-06 2.68769e+25 -0.042494 0.963081 272.459 
-1.45739e-05 -2.15025e-06 2.69124e+25 -0.485038 2.81989 272.087 
-1.26626e-05 -2.15025e-06 2.69205e+25 -1.35828 4.26432 271.895 
-1.07512e-05 -2.15025e-06 2.6919e+25 -2.1956 4.84531 271.875 
-8.83992e-06 -2.15025e-06 2.69306e+25 -3.03355 4.95522 271.808 
-6.92858e-06 -2.15025e-06 2.69182e+25 -4.10221 4.72777 272.016 
-5.01725e-06 -2.15025e-06 2.69144e+25 -5.19914 4.20483 272 
-3.10592e-06 -2.15025e-06 2.6903e+25 -5.94321 3.12435 272.005 
-1.19458e-06 -2.15025e-06 2.69139e+25 -6.66837 1.99293 271.881 
-1.64852e-05 -1.67242e-06 2.68754e+25 -0.0315052 0.979356 272.427 
-1.45739e-05 -1.67242e-06 2.69009e+25 -0.42455 3.05415 272.084 
-1.26626e-05 -1.67242e-06 2.69232e+25 -1.34298 4.49344 271.878 
-1.07512e-05 -1.67242e-06 2.69198e+25 -2.31032 5.0596 271.89 
-8.83992e-06 -1.67242e-06 2.69236e+25 -3.00857 5.23237 271.823 
-6.92858e-06 -1.67242e-06 2.69046e+25 -4.17961 4.97538 271.989 
-5.01725e-06 -1.67242e-06 2.69137e+25 -5.05491 4.41824 271.952 
-3.10592e-06 -1.67242e-06 2.6902e+25 -5.97035 3.31994 272.02 
-1.19458e-06 -1.67242e-06 2.69154e+25 -6.86811 2.26123 271.917 
-1.64852e-05 -1.19458e-06 2.68666e+25 0.00740446 1.0039 272.512 
-1.45739e-05 -1.19458e-06 2.68952e+25 -0.41625 3.29954 272.178 
-1.26626e-05 -1.19458e-06 2.69226e+25 -1.37172 4.68325 271.878 
-1.07512e-05 -1.19458e-06 2.6925e+25 -2.26077 5.27554 271.815 
-8.83992e-06 -1.19458e-06 2.69343e+25 -3.06483 5.49399 271.779 
-6.92858e-06 -1.19458e-06 2.69269e+25 -4.08071 5.26469 271.873 
-5.01725e-06 -1.19458e-06 2.69167e+25 -4.96594 4.60726 271.894 
-3.10592e-06 -1.19458e-06 2.69154e+25 -5.98256 3.54213 271.948 
-1.19458e-06 -1.19458e-06 2.6913e+25 -6.96721 2.44276 271.921 
-1.64852e-05 -7.1675e-07 2.68675e+25 -0.0227325 1.04599 272.483 
-1.45739e-05 -7.1675e-07 2.69062e+25 -0.46484 3.55843 272.082 
-1.26626e-05 -7.1675e-07 2.69247e+25 -1.42081 4.88761 271.917 
-1.07512e-05 -7.1675e-07 2.6913e+25 -2.13749 5.41753 271.944 
-8.83992e-06 -7.1675e-07 2.69294e+25 -3.07323 5.78134 271.774 
-6.92858e-06 -7.1675e-07 2.69153e+25 -4.0603 5.55211 271.851 
-5.01725e-06 -7.1675e-07 2.69083e+25 -5.05464 4.78669 271.959 
-3.10592e-06 -7.1675e-07 2.69186e+25 -6.11241 3.7503 271.873 
-1.19458e-06 -7.1675e-07 2.69e+25 -7.02424 2.6124 271.985 
-1.64852e-05 -2.38917e-07 2.68515e+25 -0.0542668 1.07591 272.482 
-1.45739e-05 -2.38917e-07 2.68934e+25 -0.45564 3.70934 271.952 
-1.26626e-05 -2.38917e-07 2.68899e+25 -1.32575 5.14257 271.952 
-1.07512e-05 -2.38917e-07 2.68911e+25 -2.12639 5.61802 271.924 
-8.83992e-06 -2.38917e-07 2.69021e+25 -3.05862 6.01752 271.85 
-6.92858e-06 -2.38917e-07 2.68859e+25 -3.94767 5.82633 271.874 
-5.01725e-06 -2.38917e-07 2.68965e+25 -5.13174 5.01388 271.898 
-3.10592e-06 -2.38917e-07 2.68945e+25 -6.0309 4.04659 271.916 
-1.19458e-06 -2.38917e-07 2.68743e+25 -6.88973 2.80829 272.091 
-1.60074e-05 -1.69631e-05 2.68452e+25 0.0262796 0.00496139 272.853 
-1.40961e-05 -1.69631e-05 2.68461e+25 0.0611843 -0.0126971 272.799 
-1.21847e-05 -1.69631e-05 2.68412e+25 -0.0432196 0.00728251 272.792 
-1.02734e-05 -1.69631e-05 2.68426e+25 -0.0689621 -0.0311862 272.82 
-8.36208e-06 -1.69631e-05 2.685e+25 -0.185835 0.0191087 272.856 
-6.45075e-06 -1.69631e-05 2.68506e+25 -0.0969725 0.0284317 272.747 
-4.53942e-06 -1.69631e-05 2.68466e+25 -0.15545 -0.0121925 272.805 
-2.62808e-06 -1.69631e-05 2.68431e+25 -0.245943 0.00635318 272.838 
-7.1675e-07 -1.69631e-05 2.68455e+25 -0.158038 0.00302667 272.839 
-1.60074e-05 -1.64852e-05 2.68786e+25 0.0653666 -0.0479307 272.473 
-1.40961e-05 -1.64852e-05 2.68706e+25 0.0480986 -0.0123174 272.547 
-1.21847e-05 -1.64852e-05 2.68738e+25 -0.0254893 0.0297601 272.491 
-1.02734e-05 -1.64852e-05 2.68602e+25 -0.176272 0.000656226 272.618 
-8.36208e-06 -1.64852e-05 2.68735e+25 -0.157923 0.00148422 272.48 
-6.45075e-06 -1.64852e-05 2.68744e+25 -0.272414 0.11954 272.451 
-4.53942e-06 -1.64852e-05 2.68716e+25 -0.464106 -0.0418331 272.496 
-2.62808e-06 -1.64852e-05 2.68679e+25 -0.492547 0.0295027 272.555 
-7.1675e-07 -1.64852e-05 2.68683e+25 -0.429698 -0.0594519 272.521 
-1.60074e-05 -1.60074e-05 2.68961e+25 0.0473953 -0.0785248 272.383 
-1.40961e-05 -1.60074e-05 2.68845e+25 -0.0234844 -0.00301251 272.331 
-1.21847e-05 -1.60074e-05 2.68875e+25 -0.0232181 0.0413422 272.322 
-1.02734e-05 -1.60074e-05 2.68692e+25 -0.140917 0.123126 272.474 
-8.36208e-06 -1.60074e-05 2.68848e+25 -0.26573 -0.024227 272.335 
-6.45075e-06 -1.60074e-05 2.68885e+25 -0.542445 0.187919 272.286 
-4.53942e-06 -1.60074e-05 2.6895e+25 -0.739558 -0.0849188 272.317 
-2.62808e-06 -1.60074e-05 2.68866e+25 -0.820507 0.0166034 272.351 
-7.1675e-07 -1.60074e-05 2.68806e+25 -0.815648 -0.0473062 272.445 
-1.60074e-05 -1.55296e-05 2.68856e+25 0.0215353 -0.0861096 272.339 
-1.40961e-05 -1.55296e-05 2.69063e+25 -0.0278295 -0.00955843 272.14 
-1.21847e-05 -1.55296e-05 2.68861e+25 -0.0832006 0.0505715 272.306 
-1.02734e-05 -1.55296e-05 2.68828e+25 -0.212781 0.236909 272.33 
-8.36208e-06 -1.55296e-05 2.68964e+25 -0.425464 0.00660245 272.234 
-6.45075e-06 -1.55296e-05 2.69015e+25 -0.829538 0.26264 272.167 
-4.53942e-06 -1.55296e-05 2.68955e+25 -1.0733 -0.0288841 272.254 
-2.62808e-06 -1.55296e-05 2.68914e+25 -1.03135 0.042954 272.253 
-7.1675e-07 -1.55296e-05 2.68829e+25 -1.19375 -0.0180838 272.369 
-1.60074e-05 -1.50517e-05 2.68847e+25 0.0414103 -0.114495 272.398 
-1.40961e-05 -1.50517e-05 2.69144e+25 0.0760636 0.00963063 272.12 
-1.21847e-05 -1.50517e-05 2.68916e+25 -0.111149 0.101468 272.221 
-1.02734e-05 -1.50517e-05 2.68944e+25 -0.287684 0.279196 272.274 
-8.36208e-06 -1.50517e-05 2.69085e+25 -0.716398 0.0794446 272.14 
-6.45075e-06 -1.50517e-05 2.69035e+25 -1.07251 0.326202 272.162 
-4.53942e-06 -1.50517e-05 2.68999e+25 -1.29963 0.0101701 272.244 
-2.62808e-06 -1.50517e-05 2.69019e+25 -1.29814 0.0676837 272.162 
-7.1675e-07 -1.50517e-05 2.69022e+25 -1.50843 0.0436045 272.241 
-1.60074e-05 -1.45739e-05 2.68885e+25 0.0346601 -0.16501 272.354 
-1.40961e-05 -1.45739e-05 2.69141e+25 -0.0224102 0.0577959 272.062 
-1.21847e-05 -1.45739e-05 2.69068e+25 -0.239352 0.145731 272.125 
-1.02734e-05 -1.45739e-05 2.6909e+25 -0.463148 0.276824 272.101 
-8.36208e-06 -1.45739e-05 2.68996e+25 -0.896949 0.186636 272.185 
-6.45075e-06 -1.45739e-05 2.69069e+25 -1.19 0.449788 272.074 
-4.53942e-06 -1.45739e-05 2.6902e+25 -1.54989 0.0298 272.22 
-2.62808e-06 -1.45739e-05 2.69149e+25 -1.64514 0.180353 272.102 
-7.1675e-07 -1.45739e-05 2.68904e+25 -1.76849 0.0286271 272.242 
-1.60074e-05 -1.40961e-05 2.68853e+25 -0.0125168 -0.0987081 272.368 
-1.40961e-05 -1.40961e-05 2.69238e+25 -0.156195 0.0797328 272.034 
-1.21847e-05 -1.40961e-05 2.69156e+25 -0.373658 0.2111 272.058 
-1.02734e-05 -1.40961e-05 2.69148e+25 -0.619338 0.289075 271.995 
-8.36208e-06 -1.40961e-05 2.69106e+25 -0.957716 0.325011 272.096 
-6.45075e-06 -1.40961e-05 2.69242e+25 -1.31547 0.565447 271.969 
-4.53942e-06 -1.40961e-05 2.69151e+25 -1.73229 0.129202 272.064 
-2.62808e-06 -1.40961e-05 2.69141e+25 -1.90229 0.223573 272.08 
-7.1675e-07 -1.40961e-05 2.69055e+25 -2.00918 0.0408117 272.139 
-1.60074e-05 -1.36182e-05 2.68819e+25 -0.0926954 -0.0376574 272.369 
-1.40961e-05 -1.36182e-05 2.69227e+25 -0.305458 0.172997 271.959 
-1.21847e-05 -1.36182e-05 2.69221e+25 -0.54547 0.232086 271.945 
-1.02734e-05 -1.36182e-05 2.69188e+25 -0.757835 0.337071 271.988 
-8.36208e-06 -1.36182e-05 2.69137e+25 -1.13415 0.505588 272.024 
-6.45075e-06 -1.36182e-05 2.69241e+25 -1.57297 0.589439 271.934 
-4.53942e-06 -1.36182e-05 2.69208e+25 -1.94157 0.230313 272.045 
-2.62808e-06 -1.36182e-05 2.69096e+25 -2.05505 0.163427 272.091 
-7.1675e-07 -1.36182e-05 2.69014e+25 -2.19676 0.0656359 272.107 
-1.60074e-05 -1.31404e-05 2.6883e+25 -0.0484876 -0.0273574 272.386 
-1.40961e-05 -1.31404e-05 2.69206e+25 -0.302161 0.255562 272.018 
-1.21847e-05 -1.31404e-05 2.69238e+25 -0.504208 0.241949 271.945 
-1.02734e-05 -1.31404e-05 2.69295e+25 -0.808423 0.461084 271.956 
-8.36208e-06 -1.31404e-05 2.6929e+25 -1.25105 0.687894 271.897 
-6.45075e-06 -1.31404e-05 2.69204e+25 -1.73063 0.623426 271.939 
-4.53942e-06 -1.31404e-05 2.69353e+25 -1.97879 0.352752 271.864 
-2.62808e-06 -1.31404e-05 2.6924e+25 -2.27307 0.137083 272.052 
-7.1675e-07 -1.31404e-05 2.69101e+25 -2.41825 0.0496301 272.061 
-1.60074e-05 -1.26626e-05 2.6903e+25 -0.0742864 0.0633769 272.233 
-1.40961e-05 -1.26626e-05 2.69217e+25 -0.245738 0.326213 272.032 
-1.21847e-05 -1.26626e-05 2.69386e+25 -0.489857 0.29428 271.838 
-1.02734e-05 -1.26626e-05 2.69174e+25 -1.06442 0.561699 271.972 
-8.36208e-06 -1.26626e-05 2.69362e+25 -1.41997 0.77395 271.825 
-6.45075e-06 -1.26626e-05 2.69202e+25 -1.94667 0.731241 271.973 
-4.53942e-06 -1.26626e-05 2.69222e+25 -2.14014 0.463288 271.858 
-2.62808e-06 -1.26626e-05 2.69208e+25 -2.54605 0.170815 272.072 
-7.1675e-07 -1.26626e-05 2.69292e+25 -2.52989 0.0100279 271.951 
-1.60074e-05 -1.21847e-05 2.68924e+25 0.0190675 0.169246 272.328 
-1.40961e-05 -1.21847e-05 2.69235e+25 -0.287269 0.356568 272.025 
-1.21847e-05 -1.21847e-05 2.6927e+25 -0.546205 0.461171 271.915 
-1.02734e-05 -1.21847e-05 2.69204e+25 -1.15166 0.749883 271.962 
-8.36208e-06 -1.21847e-05 2.69266e+25 -1.62233 0.901284 271.884 
-6.45075e-06 -1.21847e-05 2.69264e+25 -2.04309 0.831865 271.936 
-4.53942e-06 -1.21847e-05 2.69261e+25 -2.31633 0.500422 271.904 
-2.62808e-06 -1.21847e-05 2.69113e+25 -2.63153 0.220778 272.09 
-7.1675e-07 -1.21847e-05 2.69285e+25 -2.80817 0.002741 271.931 
-1.60074e-05 -1.17069e-05 2.68937e+25 -0.0061157 0.164268 272.257 
-1.40961e-05 -1.17069e-05 2.69234e+25 -0.225604 0.394205 271.923 
-1.21847e-05 -1.17069e-05 2.69165e+25 -0.714716 0.586794 271.995 
-1.02734e-05 -1.17069e-05 2.69192e+25 -1.2968 0.917 271.995 
-8.36208e-06 -1.17069e-05 2.69265e+25 -1.79199 0.969774 271.894 
-6.45075e-06 -1.17069e-05 2.69308e+25 -2.1616 0.937358 271.958 
-4.53942e-06 -1.17069e-05 2.69269e+25 -2.49752 0.538527 271.954 
-2.62808e-06 -1.17069e-05 2.69159e+25 -2.82091 0.313036 272.024 
-7.1675e-07 -1.17069e-05 2.69223e+25 -3.04025 0.0809579 271.991 
-1.60074e-05 -1.12291e-05 2.68953e+25 -0.0815989 0.197199 272.209 
-1.40961e-05 -1.12291e-05 2.69257e+25 -0.286848 0.506009 271.929 
-1.21847e-05 -1.12291e-05 2.69162e+25 -0.697813 0.733366 272.042 
-1.02734e-05 -1.12291e-05 2.69258e+25 -1.22981 1.09684 271.967 
-8.36208e-06 -1.12291e-05 2.69225e+25 -1.94999 1.06558 271.923 
-6.45075e-06 -1.12291e-05 2.6923e+25 -2.30978 1.05762 271.975 
-4.53942e-06 -1.12291e-05 2.69298e+25 -2.78515 0.611204 271.866 
-2.62808e-06 -1.12291e-05 2.69192e+25 -3.08516 0.408207 272.101 
-7.1675e-07 -1.12291e-05 2.69254e+25 -3.27935 0.187997 271.982 
-1.60074e-05 -1.07512e-05 2.68987e+25 -0.0375576 0.257408 272.2 
-1.40961e-05 -1.07512e-05 2.69245e+25 -0.397014 0.6191 271.99 
-1.21847e-05 -1.07512e-05 2.69284e+25 -0.764403 0.853311 271.948 
-1.02734e-05 -1.07512e-05 2.69287e+25 -1.28277 1.22517 271.917 
-8.36208e-06 -1.07512e-05 2.69212e+25 -2.11205 1.21488 271.962 
-6.45075e-06 -1.07512e-05 2.6928e+25 -2.46292 1.1142 271.958 
-4.53942e-06 -1.07512e-05 2.69249e+25 -2.87311 0.711527 271.919 
-2.62808e-06 -1.07512e-05 2.69112e+25 -3.36018 0.523084 272.108 
-7.1675e-07 -1.07512e-05 2.6918e+25 -3.56077 0.211206 271.945 
-1.60074e-05 -1.02734e-05 2.6901e+25 -0.085083 0.307044 272.178 
-1.40961e-05 -1.02734e-05 2.69276e+25 -0.423638 0.737355 272.002 
-1.21847e-05 -1.02734e-05 2.6933e+25 -0.917085 0.938716 271.911 
-1.02734e-05 -1.02734e-05 2.69305e+25 -1.53985 1.30394 271.918 
-8.36208e-06 -1.02734e-05 2.69222e+25 -2.29183 1.42751 271.931 
-6.45075e-06 -1.02734e-05 2.69222e+25 -2.72062 1.11638 271.947 
-4.53942e-06 -1.02734e-05 2.69267e+25 -3.06188 0.83549 271.935 
-2.62808e-06 -1.02734e-05 2.69097e+25 -3.69211 0.647996 272.12 
-7.1675e-07 -1.02734e-05 2.6919e+25 -3.82826 0.215182 271.945 
-1.60074e-05 -9.79558e-06 2.68982e+25 -0.166479 0.260798 272.197 
-1.40961e-05 -9.79558e-06 2.69142e+25 -0.390553 0.826511 271.991 
-1.21847e-05 -9.79558e-06 2.69279e+25 -0.981729 1.04269 271.833 
-1.02734e-05 -9.79558e-06 2.69254e+25 -1.60515 1.53137 271.951 
-8.36208e-06 -9.79558e-06 2.69162e+25 -2.27961 1.59918 271.956 
-6.45075e-06 -9.79558e-06 2.69152e+25 -2.89497 1.24455 272.005 
-4.53942e-06 -9.79558e-06 2.69272e+25 -3.40097 0.938723 271.905 
-2.62808e-06 -9.79558e-06 2.69073e+25 -3.89786 0.683543 272.097 
-7.1675e-07 -9.79558e-06 2.69211e+25 -4.01625 0.167132 271.918 
-1.60074e-05 -9.31775e-06 2.6896e+25 -0.0907111 0.325484 272.266 
-1.40961e-05 -9.31775e-06 2.69195e+25 -0.347674 0.930761 271.946 
-1.21847e-05 -9.31775e-06 2.69377e+25 -0.918413 1.20548 271.816 
-1.02734e-05 -9.31775e-06 2.6939e+25 -1.69493 1.76072 271.857 
-8.36208e-06 -9.31775e-06 2.69296e+25 -2.33951 1.73696 271.988 
-6.45075e-06 -9.31775e-06 2.69219e+25 -3.05646 1.41327 271.975 
-4.53942e-06 -9.31775e-06 2.69281e+25 -3.67164 1.12686 271.847 
-2.62808e-06 -9.31775e-06 2.69186e+25 -4.17259 0.753269 272.01 
-7.1675e-07 -9.31775e-06 2.69226e+25 -4.18738 0.134794 271.98 
-1.60074e-05 -8.83992e-06 2.6883e+25 -0.0877758 0.34146 272.358 
-1.40961e-05 -8.83992e-06 2.69138e+25 -0.353002 1.04395 272.012 
-1.21847e-05 -8.83992e-06 2.69394e+25 -0.907913 1.38939 271.808 
-1.02734e-05 -8.83992e-06 2.69357e+25 -1.74126 1.98585 271.892 
-8.36208e-06 -8.83992e-06 2.6915e+25 -2.37946 1.8754 272.079 
-6.45075e-06 -8.83992e-06 2.69153e+25 -3.34095 1.60725 271.984 
-4.53942e-06 -8.83992e-06 2.69376e+25 -3.94246 1.32328 271.848 
-2.62808e-06 -8.83992e-06 2.69171e+25 -4.39655 0.840147 272.053 
-7.1675e-07 -8.83992e-06 2.69168e+25 -4.56077 0.114076 272.019 
-1.60074e-05 -8.36208e-06 2.68917e+25 -0.168181 0.397677 272.355 
-1.40961e-05 -8.36208e-06 2.69131e+25 -0.454376 1.17635 272.056 
-1.21847e-05 -8.36208e-06 2.69371e+25 -1.02506 1.60649 271.855 
-1.02734e-05 -8.36208e-06 2.69381e+25 -1.82093 2.08952 271.851 
-8.36208e-06 -8.36208e-06 2.69202e+25 -2.52559 2.04886 271.974 
-6.45075e-06 -8.36208e-06 2.69223e+25 -3.39454 1.74876 271.983 
-4.53942e-06 -8.36208e-06 2.69179e+25 -4.12714 1.48152 271.966 
-2.62808e-06 -8.36208e-06 2.69181e+25 -4.65359 0.946207 271.974 
-7.1675e-07 -8.36208e-06 2.69083e+25 -4.97178 0.128138 272.075 
-1.60074e-05 -7.88425e-06 2.68848e+25 -0.0780093 0.453029 272.303 
-1.40961e-05 -7.88425e-06 2.69186e+25 -0.47206 1.31846 272.01 
-1.21847e-05 -7.88425e-06 2.69259e+25 -1.18128 1.78933 271.898 
-1.02734e-05 -7.88425e-06 2.69316e+25 -1.91591 2.23714 271.89 
-8.36208e-06 -7.88425e-06 2.69345e+25 -2.75181 2.23162 271.869 
-6.45075e-06 -7.88425e-06 2.69262e+25 -3.47488 1.94005 271.909 
-4.53942e-06 -7.88425e-06 2.69204e+25 -4.23557 1.65908 271.992 
-2.62808e-06 -7.88425e-06 2.69244e+25 -4.87505 1.07491 272.017 
-7.1675e-07 -7.88425e-06 2.6913e+25 -5.19398 0.20962 272.044 
-1.60074e-05 -7.40642e-06 2.68838e+25 0.0242988 0.554336 272.266 
-1.40961e-05 -7.40642e-06 2.69207e+25 -0.610358 1.49713 272.043 
-1.21847e-05 -7.40642e-06 2.69345e+25 -1.22854 1.93125 271.873 
-1.02734e-05 -7.40642e-06 2.69223e+25 -1.98748 2.45208 271.903 
-8.36208e-06 -7.40642e-06 2.69311e+25 -2.81323 2.44102 271.858 
-6.45075e-06 -7.40642e-06 2.69244e+25 -3.60286 2.07901 271.955 
-4.53942e-06 -7.40642e-06 2.69148e+25 -4.25551 1.82926 272.003 
-2.62808e-06 -7.40642e-06 2.69166e+25 -4.94203 1.23586 272.045 
-7.1675e-07 -7.40642e-06 2.69153e+25 -5.43533 0.326228 272.012 
-1.60074e-05 -6.92858e-06 2.69042e+25 -0.0405498 0.601443 272.188 
-1.40961e-05 -6.92858e-06 2.693e+25 -0.506339 1.5981 271.927 
-1.21847e-05 -6.92858e-06 2.6922e+25 -1.21089 2.15786 271.859 
-1.02734e-05 -6.92858e-06 2.6915e+25 -2.07731 2.72129 272.002 
-8.36208e-06 -6.92858e-06 2.69263e+25 -2.91619 2.67754 271.909 
-6.45075e-06 -6.92858e-06 2.69125e+25 -3.72027 2.25156 271.965 
-4.53942e-06 -6.92858e-06 2.69216e+25 -4.37238 1.98407 271.909 
-2.62808e-06 -6.92858e-06 2.69153e+25 -5.03284 1.37549 271.977 
-7.1675e-07 -6.92858e-06 2.69111e+25 -5.49302 0.406762 272.008 
-1.60074e-05 -6.45075e-06 2.69037e+25 -0.065933 0.658195 272.181 
-1.40961e-05 -6.45075e-06 2.69166e+25 -0.501522 1.76 271.96 
-1.21847e-05 -6.45075e-06 2.69281e+25 -1.34294 2.39467 271.912 
-1.02734e-05 -6.45075e-06 2.69254e+25 -2.18806 2.95283 271.931 
-8.36208e-06 -6.45075e-06 2.69297e+25 -3.05012 2.80928 271.832 
-6.45075e-06 -6.45075e-06 2.69262e+25 -3.81268 2.46391 271.942 
-4.53942e-06 -6.45075e-06 2.69224e+25 -4.51129 2.1453 271.89 
-2.62808e-06 -6.45075e-06 2.69091e+25 -5.20813 1.52022 272.027 
-7.1675e-07 -6.45075e-06 2.69199e+25 -5.67141 0.466685 271.945 
-1.60074e-05 -5.97292e-06 2.6896e+25 -0.13346 0.692263 272.239 
-1.40961e-05 -5.97292e-06 2.69286e+25 -0.652258 1.92917 271.893 
-1.21847e-05 -5.97292e-06 2.69173e+25 -1.39449 2.62484 271.907 
-1.02734e-05 -5.97292e-06 2.69317e+25 -2.34596 3.1797 271.857 
-8.36208e-06 -5.97292e-06 2.69272e+25 -3.15395 2.94177 271.819 
-6.45075e-06 -5.97292e-06 2.69213e+25 -3.99438 2.72694 271.923 
-4.53942e-06 -5.97292e-06 2.69217e+25 -4.72358 2.2547 271.866 
-2.62808e-06 -5.97292e-06 2.69096e+25 -5.29603 1.68314 271.986 
-7.1675e-07 -5.97292e-06 2.69259e+25 -5.86102 0.552367 271.891 
-1.60074e-05 -5.49508e-06 2.68918e+25 -0.155372 0.780875 272.278 
-1.40961e-05 -5.49508e-06 2.69232e+25 -0.59188 2.07827 271.963 
-1.21847e-05 -5.49508e-06 2.69245e+25 -1.45298 2.85214 271.929 
-1.02734e-05 -5.49508e-06 2.69373e+25 -2.38596 3.37069 271.783 
-8.36208e-06 -5.49508e-06 2.69368e+25 -3.2653 3.17675 271.768 
-6.45075e-06 -5.49508e-06 2.69182e+25 -4.15009 2.96474 271.924 
-4.53942e-06 -5.49508e-06 2.69292e+25 -4.82993 2.37566 271.861 
-2.62808e-06 -5.49508e-06 2.69141e+25 -5.47957 1.83227 271.913 
-7.1675e-07 -5.49508e-06 2.69265e+25 -6.05265 0.626244 271.943 
-1.60074e-05 -5.01725e-06 2.69048e+25 -0.0988595 0.907569 272.18 
-1.40961e-05 -5.01725e-06 2.69074e+25 -0.577049 2.29839 272.098 
-1.21847e-05 -5.01725e-06 2.69197e+25 -1.50277 3.07125 271.9 
-1.02734e-05 -5.01725e-06 2.69385e+25 -2.43774 3.57691 271.745 
-8.36208e-06 -5.01725e-06 2.69363e+25 -3.26942 3.4387 271.741 
-6.45075e-06 -5.01725e-06 2.69162e+25 -4.28094 3.21883 271.922 
-4.53942e-06 -5.01725e-06 2.69297e+25 -5.12896 2.54834 271.867 
-2.62808e-06 -5.01725e-06 2.69271e+25 -5.70751 1.93468 271.845 
-7.1675e-07 -5.01725e-06 2.693e+25 -6.25049 0.741886 271.892 
-1.60074e-05 -4.53942e-06 2.69054e+25 -0.0869256 1.02381 272.135 
-1.40961e-05 -4.53942e-06 2.69161e+25 -0.613853 2.47781 272.026 
-1.21847e-05 -4.53942e-06 2.6925e+25 -1.44705 3.38116 271.901 
-1.02734e-05 -4.53942e-06 2.69397e+25 -2.45329 3.82456 271.728 
-8.36208e-06 -4.53942e-06 2.6928e+25 -3.27785 3.74088 271.834 
-6.45075e-06 -4.53942e-06 2.69224e+25 -4.30612 3.43981 271.94 
-4.53942e-06 -4.53942e-06 2.69255e+25 -5.14625 2.78647 271.816 
-2.62808e-06 -4.53942e-06 2.69196e+25 -5.78476 2.05981 271.899 
-7.1675e-07 -4.53942e-06 2.69148e+25 -6.36476 0.931232 271.955 
-1.60074e-05 -4.06158e-06 2.68977e+25 -0.14718 1.18847 272.203 
-1.40961e-05 -4.06158e-06 2.69167e+25 -0.697107 2.59257 272.018 
-1.21847e-05 -4.06158e-06 2.69203e+25 -1.49476 3.61928 271.91 
-1.02734e-05 -4.06158e-06 2.69373e+25 -2.40846 4.00924 271.776 
-8.36208e-06 -4.06158e-06 2.69351e+25 -3.45191 3.99938 271.795 
-6.45075e-06 -4.06158e-06 2.69064e+25 -4.1724 3.63151 271.971 
-4.53942e-06 -4.06158e-06 2.69072e+25 -5.19018 3.04268 271.929 
-2.62808e-06 -4.06158e-06 2.69303e+25 -5.92644 2.16652 271.823 
-7.1675e-07 -4.06158e-06 2.69189e+25 -6.38734 1.04331 271.94 
-1.60074e-05 -3.58375e-06 2.68856e+25 -0.191111 1.31361 272.273 
-1.40961e-05 -3.58375e-06 2.69141e+25 -0.663881 2.69476 271.981 
-1.21847e-05 -3.58375e-06 2.69235e+25 -1.45288 3.83758 271.843 
-1.02734e-05 -3.58375e-06 2.69347e+25 -2.28769 4.1915 271.825 
-8.36208e-06 -3.58375e-06 2.69307e+25 -3.40901 4.25206 271.86 
-6.45075e-06 -3.58375e-06 2.69139e+25 -4.15449 3.8609 271.986 
-4.53942e-06 -3.58375e-06 2.69114e+25 -5.26657 3.23797 271.995 
-2.62808e-06 -3.58375e-06 2.69225e+25 -6.03028 2.29471 271.873 
-7.1675e-07 -3.58375e-06 2.69195e+25 -6.55426 1.13272 271.989 
-1.60074e-05 -3.10592e-06 2.68912e+25 -0.225601 1.40127 272.212 
-1.40961e-05 -3.10592e-06 2.69167e+25 -0.791519 2.80799 271.956 
-1.21847e-05 -3.10592e-06 2.69269e+25 -1.4281 4.09464 271.884 
-1.02734e-05 -3.10592e-06 2.69275e+25 -2.33015 4.40945 271.798 
-8.36208e-06 -3.10592e-06 2.69264e+25 -3.30859 4.48731 271.86 
-6.45075e-06 -3.10592e-06 2.69071e+25 -4.31141 4.13979 272.046 
-4.53942e-06 -3.10592e-06 2.69136e+25 -5.42369 3.45614 272.032 
-2.62808e-06 -3.10592e-06 2.69139e+25 -6.08797 2.46774 271.95 
-7.1675e-07 -3.10592e-06 2.69093e+25 -6.63304 1.2366 271.983 
-1.60074e-05 -2.62808e-06 2.68976e+25 -0.111325 1.46917 272.213 
-1.40961e-05 -2.62808e-06 2.69147e+25 -0.701061 2.99149 271.942 
-1.21847e-05 -2.62808e-06 2.69118e+25 -1.54711 4.33534 271.986 
-1.02734e-05 -2.62808e-06 2.69233e+25 -2.33519 4.61102 271.918 
-8.36208e-06 -2.62808e-06 2.69193e+25 -3.21762 4.738 271.861 
-6.45075e-06 -2.62808e-06 2.69083e+25 -4.40848 4.34348 272.007 
-4.53942e-06 -2.62808e-06 2.69104e+25 -5.41868 3.69946 272.016 
-2.62808e-06 -2.62808e-06 2.6918e+25 -6.10556 2.67219 271.942 
-7.1675e-07 -2.62808e-06 2.69196e+25 -6.78197 1.3982 271.95 
-1.60074e-05 -2.15025e-06 2.6882e+25 -0.164923 1.57817 272.33 
-1.40961e-05 -2.15025e-06 2.6903e+25 -0.699731 3.18899 272.057 
-1.21847e-05 -2.15025e-06 2.69182e+25 -1.59041 4.49431 271.886 
-1.02734e-05 -2.15025e-06 2.6929e+25 -2.45318 4.85366 271.876 
-8.36208e-06 -2.15025e-06 2.69301e+25 -3.32164 4.98809 271.774 
-6.45075e-06 -2.15025e-06 2.69065e+25 -4.39375 4.63037 272.048 
-4.53942e-06 -2.15025e-06 2.69029e+25 -5.42646 3.86605 272.071 
-2.62808e-06 -2.15025e-06 2.69134e+25 -6.12864 2.84659 271.928 
-7.1675e-07 -2.15025e-06 2.69153e+25 -6.92947 1.64769 271.894 
-1.60074e-05 -1.67242e-06 2.688e+25 -0.0274226 1.67836 272.291 
-1.40961e-05 -1.67242e-06 2.69078e+25 -0.666378 3.39935 272.075 
-1.21847e-05 -1.67242e-06 2.69151e+25 -1.56144 4.72364 271.933 
-1.02734e-05 -1.67242e-06 2.69252e+25 -2.50334 5.08131 271.84 
-8.36208e-06 -1.67242e-06 2.69283e+25 -3.27466 5.29815 271.829 
-6.45075e-06 -1.67242e-06 2.68999e+25 -4.44231 4.94831 272.074 
-4.53942e-06 -1.67242e-06 2.6895e+25 -5.24065 4.07307 272.087 
-2.62808e-06 -1.67242e-06 2.6907e+25 -6.17522 3.01778 272.01 
-7.1675e-07 -1.67242e-06 2.69186e+25 -7.08271 1.88055 271.845 
-1.60074e-05 -1.19458e-06 2.68801e+25 0.0213927 1.66582 272.312 
-1.40961e-05 -1.19458e-06 2.68992e+25 -0.696313 3.65466 272.108 
-1.21847e-05 -1.19458e-06 2.69181e+25 -1.57385 4.95015 271.874 
-1.02734e-05 -1.19458e-06 2.69309e+25 -2.44666 5.2576 271.764 
-8.36208e-06 -1.19458e-06 2.69277e+25 -3.34767 5.55282 271.785 
-6.45075e-06 -1.19458e-06 2.6916e+25 -4.39692 5.21506 271.969 
-4.53942e-06 -1.19458e-06 2.69037e+25 -5.22087 4.33846 272.002 
-2.62808e-06 -1.19458e-06 2.69119e+25 -6.18331 3.23967 271.841 
-7.1675e-07 -1.19458e-06 2.69088e+25 -7.1728 2.12512 271.968 
-1.60074e-05 -7.1675e-07 2.68883e+25 -0.0626502 1.67701 272.221 
-1.40961e-05 -7.1675e-07 2.69072e+25 -0.679025 3.9178 272.018 
-1.21847e-05 -7.1675e-07 2.69105e+25 -1.6136 5.14059 271.987 
-1.02734e-05 -7.1675e-07 2.6921e+25 -2.28919 5.48789 271.917 
-8.36208e-06 -7.1675e-07 2.69163e+25 -3.29532 5.77261 271.751 
-6.45075e-06 -7.1675e-07 2.6915e+25 -4.25588 5.44265 271.899 
-4.53942e-06 -7.1675e-07 2.68958e+25 -5.25896 4.6155 271.997 
-2.62808e-06 -7.1675e-07 2.69239e+25 -6.35203 3.48279 271.8 
-7.1675e-07 -7.1675e-07 2.69037e+25 -7.1544 2.32883 271.935 
-1.60074e-05 -2.38917e-07 2.68569e+25 -0.128299 1.75112 272.283 
-1.40961e-05 -2.38917e-07 2.68823e+25 -0.657923 4.20129 271.942 
-1.21847e-05 -2.38917e-07 2.68909e+25 -1.5357 5.32493 271.997 
-1.02734e-05 -2.38917e-07 2.68996e+25 -2.35771 5.67585 271.841 
-8.36208e-06 -2.38917e-07 2.69052e+25 -3.29329 5.99839 271.812 
-6.45075e-06 -2.38917e-07 2.68821e+25 -4.26257 5.70806 271.913 
-4.53942e-06 -2.38917e-07 2.68886e+25 -5.31213 4.8094 271.886 
-2.62808e-06 -2.38917e-07 2.68895e+25 -6.31562 3.77282 271.888 
-7.1675e-07 -2.38917e-07 2.6876e+25 -7.06514 2.45659 272.046 
-1.55296e-05 -1.69631e-05 2.68486e+25 0.0322457 -0.0108983 272.769 
-1.36182e-05 -1.69631e-05 2.68318e+25 0.0460036 0.038463 272.891 
-1.17069e-05 -1.69631e-05 2.68463e+25 -0.0151514 -0.00280071 272.834 
-9.79558e-06 -1.69631e-05 2.68446e+25 -0.0808478 0.0309838 272.779 
-7.88425e-06 -1.69631e-05 2.68519e+25 -0.159112 -0.0254689 272.788 
-5.97292e-06 -1.69631e-05 2.68567e+25 -0.154846 0.00638577 272.705 
-4.06158e-06 -1.69631e-05 2.6844e+25 -0.155016 0.00778238 272.801 
-2.15025e-06 -1.69631e-05 2.68416e+25 -0.234996 -0.0175748 272.862 
-2.38917e-07 -1.69631e-05 2.68271e+25 -0.117269 -0.050831 272.809 
-1.55296e-05 -1.64852e-05 2.68699e+25 0.103586 -0.0197987 272.541 
-1.36182e-05 -1.64852e-05 2.68612e+25 0.0413486 0.0580448 272.604 
-1.17069e-05 -1.64852e-05 2.68667e+25 -0.0821384 0.028224 272.561 
-9.79558e-06 -1.64852e-05 2.68589e+25 -0.256308 0.0789495 272.585 
-7.88425e-06 -1.64852e-05 2.68681e+25 -0.166822 -0.0493393 272.522 
-5.97292e-06 -1.64852e-05 2.68703e+25 -0.347129 0.0455903 272.501 
-4.06158e-06 -1.64852e-05 2.68653e+25 -0.426615 -0.0151141 272.557 
-2.15025e-06 -1.64852e-05 2.68721e+25 -0.470973 -0.0217226 272.589 
-2.38917e-07 -1.64852e-05 2.68414e+25 -0.396838 -0.02387 272.508 
-1.55296e-05 -1.60074e-05 2.68842e+25 0.0342765 -0.0282203 272.402 
-1.36182e-05 -1.60074e-05 2.68751e+25 -0.0460977 0.0458601 272.39 
-1.17069e-05 -1.60074e-05 2.68915e+25 -0.00341428 -0.00451001 272.355 
-9.79558e-06 -1.60074e-05 2.68823e+25 -0.282803 0.170318 272.442 
-7.88425e-06 -1.60074e-05 2.68804e+25 -0.341902 0.0475716 272.389 
-5.97292e-06 -1.60074e-05 2.68956e+25 -0.622836 0.16534 272.219 
-4.06158e-06 -1.60074e-05 2.68884e+25 -0.739794 0.0162612 272.332 
-2.15025e-06 -1.60074e-05 2.68823e+25 -0.808989 -0.046026 272.407 
-2.38917e-07 -1.60074e-05 2.68576e+25 -0.837639 -0.0191054 272.42 
-1.55296e-05 -1.55296e-05 2.68824e+25 0.011393 0.00521956 272.342 
-1.36182e-05 -1.55296e-05 2.68927e+25 0.00673859 0.0472963 272.242 
-1.17069e-05 -1.55296e-05 2.68938e+25 -0.136298 -0.0183579 272.299 
-9.79558e-06 -1.55296e-05 2.68882e+25 -0.302054 0.261056 272.303 
-7.88425e-06 -1.55296e-05 2.68963e+25 -0.483958 0.153925 272.219 
-5.97292e-06 -1.55296e-05 2.69138e+25 -0.910208 0.250502 272.096 
-4.06158e-06 -1.55296e-05 2.68978e+25 -1.07255 -0.00813771 272.201 
-2.15025e-06 -1.55296e-05 2.6889e+25 -1.0658 -0.050926 272.296 
-2.38917e-07 -1.55296e-05 2.68704e+25 -1.22286 -0.0370123 272.28 
-1.55296e-05 -1.50517e-05 2.68983e+25 0.0747807 0.00651031 272.269 
-1.36182e-05 -1.50517e-05 2.69148e+25 0.0461143 0.0484003 272.089 
-1.17069e-05 -1.50517e-05 2.68971e+25 -0.210181 0.0775176 272.218 
-9.79558e-06 -1.50517e-05 2.68987e+25 -0.312434 0.331435 272.194 
-7.88425e-06 -1.50517e-05 2.69052e+25 -0.759471 0.195652 272.131 
-5.97292e-06 -1.50517e-05 2.69088e+25 -1.13547 0.363285 272.122 
-4.06158e-06 -1.50517e-05 2.69037e+25 -1.31594 -0.0550114 272.169 
-2.15025e-06 -1.50517e-05 2.69058e+25 -1.40713 0.0447122 272.177 
-2.38917e-07 -1.50517e-05 2.68881e+25 -1.51025 -0.0450961 272.168 
-1.55296e-05 -1.45739e-05 2.6892e+25 0.0566363 0.00531563 272.307 
-1.36182e-05 -1.45739e-05 2.69179e+25 -0.0690054 0.0859177 271.95 
-1.17069e-05 -1.45739e-05 2.68993e+25 -0.301947 0.207251 272.159 
-9.79558e-06 -1.45739e-05 2.69195e+25 -0.489875 0.368311 272.078 
-7.88425e-06 -1.45739e-05 2.69039e+25 -1.01844 0.242307 272.13 
-5.97292e-06 -1.45739e-05 2.69155e+25 -1.30731 0.418652 272.037 
-4.06158e-06 -1.45739e-05 2.68997e+25 -1.54996 -0.0708654 272.221 
-2.15025e-06 -1.45739e-05 2.69038e+25 -1.73437 0.144026 272.136 
-2.38917e-07 -1.45739e-05 2.68809e+25 -1.80549 -0.00348182 272.18 
-1.55296e-05 -1.40961e-05 2.68918e+25 -0.0835275 -0.00102086 272.281 
-1.36182e-05 -1.40961e-05 2.69215e+25 -0.230896 0.174943 271.927 
-1.17069e-05 -1.40961e-05 2.69145e+25 -0.422468 0.246469 272.066 
-9.79558e-06 -1.40961e-05 2.69164e+25 -0.623902 0.393151 272.01 
-7.88425e-06 -1.40961e-05 2.69049e+25 -1.09976 0.351558 272.09 
-5.97292e-06 -1.40961e-05 2.69205e+25 -1.44533 0.545045 271.977 
-4.06158e-06 -1.40961e-05 2.6916e+25 -1.87648 -0.00415407 272.085 
-2.15025e-06 -1.40961e-05 2.69159e+25 -1.90883 0.185892 272.064 
-2.38917e-07 -1.40961e-05 2.68827e+25 -2.03119 0.0588384 272.093 
-1.55296e-05 -1.36182e-05 2.69004e+25 -0.113547 0.0358178 272.223 
-1.36182e-05 -1.36182e-05 2.69177e+25 -0.39233 0.26634 271.968 
-1.17069e-05 -1.36182e-05 2.69181e+25 -0.522279 0.237626 272.003 
-9.79558e-06 -1.36182e-05 2.69272e+25 -0.836663 0.423913 271.915 
-7.88425e-06 -1.36182e-05 2.69193e+25 -1.268 0.472021 272.077 
-5.97292e-06 -1.36182e-05 2.69097e+25 -1.53682 0.588471 272.055 
-4.06158e-06 -1.36182e-05 2.69133e+25 -2.06763 0.13419 272.042 
-2.15025e-06 -1.36182e-05 2.69073e+25 -2.03995 0.259301 272.1 
-2.38917e-07 -1.36182e-05 2.68977e+25 -2.14583 0.043487 272.057 
-1.55296e-05 -1.31404e-05 2.68928e+25 -0.0973118 0.0814116 272.286 
-1.36182e-05 -1.31404e-05 2.69179e+25 -0.372875 0.337668 272.026 
-1.17069e-05 -1.31404e-05 2.69299e+25 -0.553176 0.27819 271.895 
-9.79558e-06 -1.31404e-05 2.6928e+25 -0.947813 0.539043 271.908 
-7.88425e-06 -1.31404e-05 2.69207e+25 -1.41244 0.603807 272.027 
-5.97292e-06 -1.31404e-05 2.69195e+25 -1.80664 0.62439 271.968 
-4.06158e-06 -1.31404e-05 2.69245e+25 -2.07667 0.217292 272.001 
-2.15025e-06 -1.31404e-05 2.6913e+25 -2.27931 0.266757 272.034 
-2.38917e-07 -1.31404e-05 2.69014e+25 -2.35339 -0.0525774 272.07 
-1.55296e-05 -1.26626e-05 2.68966e+25 -0.182094 0.14117 272.225 
-1.36182e-05 -1.26626e-05 2.69174e+25 -0.292223 0.369219 272.042 
-1.17069e-05 -1.26626e-05 2.69265e+25 -0.61232 0.402433 271.877 
-9.79558e-06 -1.26626e-05 2.69204e+25 -1.12101 0.629652 271.922 
-7.88425e-06 -1.26626e-05 2.6924e+25 -1.53356 0.741649 271.897 
-5.97292e-06 -1.26626e-05 2.69208e+25 -2.00208 0.630648 272.019 
-4.06158e-06 -1.26626e-05 2.69134e+25 -2.2033 0.31032 272.012 
-2.15025e-06 -1.26626e-05 2.69216e+25 -2.55858 0.261411 272.029 
-2.38917e-07 -1.26626e-05 2.69026e+25 -2.52089 -0.0867266 271.989 
-1.55296e-05 -1.21847e-05 2.69013e+25 -0.0383886 0.178248 272.155 
-1.36182e-05 -1.21847e-05 2.69178e+25 -0.335132 0.423863 272.009 
-1.17069e-05 -1.21847e-05 2.69298e+25 -0.711474 0.517596 271.958 
-9.79558e-06 -1.21847e-05 2.69305e+25 -1.34014 0.69039 271.888 
-7.88425e-06 -1.21847e-05 2.69311e+25 -1.69537 0.852839 271.907 
-5.97292e-06 -1.21847e-05 2.69168e+25 -2.1504 0.700515 271.985 
-4.06158e-06 -1.21847e-05 2.693e+25 -2.35801 0.402156 271.924 
-2.15025e-06 -1.21847e-05 2.69134e+25 -2.6854 0.29767 272.108 
-2.38917e-07 -1.21847e-05 2.69075e+25 -2.82392 -0.0595862 271.897 
-1.55296e-05 -1.17069e-05 2.69098e+25 0.00931061 0.238309 272.1 
-1.36182e-05 -1.17069e-05 2.69168e+25 -0.297952 0.487328 272.008 
-1.17069e-05 -1.17069e-05 2.69112e+25 -0.797058 0.653637 272.005 
-9.79558e-06 -1.17069e-05 2.69342e+25 -1.47166 0.859365 271.861 
-7.88425e-06 -1.17069e-05 2.6914e+25 -1.90036 0.992697 271.984 
-5.97292e-06 -1.17069e-05 2.69192e+25 -2.31912 0.830332 271.991 
-4.06158e-06 -1.17069e-05 2.69269e+25 -2.58882 0.486964 271.937 
-2.15025e-06 -1.17069e-05 2.69153e+25 -2.923 0.357847 272.043 
-2.38917e-07 -1.17069e-05 2.69054e+25 -3.12298 -0.0339852 271.962 
-1.55296e-05 -1.12291e-05 2.69111e+25 -0.158035 0.278715 272.04 
-1.36182e-05 -1.12291e-05 2.69233e+25 -0.425474 0.595704 272.025 
-1.17069e-05 -1.12291e-05 2.69119e+25 -0.886137 0.787236 272.072 
-9.79558e-06 -1.12291e-05 2.6933e+25 -1.40294 1.02847 271.866 
-7.88425e-06 -1.12291e-05 2.69216e+25 -2.05125 1.12317 271.978 
-5.97292e-06 -1.12291e-05 2.69258e+25 -2.39991 0.949047 271.951 
-4.06158e-06 -1.12291e-05 2.69203e+25 -2.87023 0.57074 271.983 
-2.15025e-06 -1.12291e-05 2.69198e+25 -3.15167 0.409604 272.012 
-2.38917e-07 -1.12291e-05 2.69023e+25 -3.33588 0.00446789 271.981 
-1.55296e-05 -1.07512e-05 2.6911e+25 -0.153634 0.424095 272.065 
-1.36182e-05 -1.07512e-05 2.6919e+25 -0.491487 0.690997 271.993 
-1.17069e-05 -1.07512e-05 2.69177e+25 -0.884099 0.95628 272.006 
-9.79558e-06 -1.07512e-05 2.69384e+25 -1.42503 1.23185 271.882 
-7.88425e-06 -1.07512e-05 2.69198e+25 -2.27472 1.2115 272.002 
-5.97292e-06 -1.07512e-05 2.69297e+25 -2.51615 1.07154 271.927 
-4.06158e-06 -1.07512e-05 2.69262e+25 -3.00606 0.670834 271.914 
-2.15025e-06 -1.07512e-05 2.69039e+25 -3.44854 0.469533 272.107 
-2.38917e-07 -1.07512e-05 2.69074e+25 -3.54964 0.0527155 271.975 
-1.55296e-05 -1.02734e-05 2.69167e+25 -0.0654073 0.482227 272.026 
-1.36182e-05 -1.02734e-05 2.69191e+25 -0.540862 0.813309 272.008 
-1.17069e-05 -1.02734e-05 2.69291e+25 -1.0149 1.08267 271.97 
-9.79558e-06 -1.02734e-05 2.69304e+25 -1.67325 1.42194 271.927 
-7.88425e-06 -1.02734e-05 2.69181e+25 -2.44838 1.32806 272.007 
-5.97292e-06 -1.02734e-05 2.69249e+25 -2.74969 1.13552 271.875 
-4.06158e-06 -1.02734e-05 2.69237e+25 -3.17159 0.819754 271.917 
-2.15025e-06 -1.02734e-05 2.69081e+25 -3.7468 0.500379 272.068 
-2.38917e-07 -1.02734e-05 2.69026e+25 -3.81015 0.00657756 271.97 
-1.55296e-05 -9.79558e-06 2.6909e+25 -0.146993 0.531606 272.094 
-1.36182e-05 -9.79558e-06 2.6917e+25 -0.492366 0.948053 272.007 
-1.17069e-05 -9.79558e-06 2.69377e+25 -1.082 1.20722 271.82 
-9.79558e-06 -9.79558e-06 2.69235e+25 -1.8476 1.57006 271.983 
-7.88425e-06 -9.79558e-06 2.69175e+25 -2.40092 1.43369 272.041 
-5.97292e-06 -9.79558e-06 2.69193e+25 -3.0369 1.22467 271.967 
-4.06158e-06 -9.79558e-06 2.69313e+25 -3.50074 0.95391 271.889 
-2.15025e-06 -9.79558e-06 2.68965e+25 -3.93814 0.542905 272.144 
-2.38917e-07 -9.79558e-06 2.69012e+25 -3.95907 -0.0153747 271.945 
-1.55296e-05 -9.31775e-06 2.69043e+25 -0.135006 0.500595 272.144 
-1.36182e-05 -9.31775e-06 2.69203e+25 -0.461368 1.06231 271.968 
-1.17069e-05 -9.31775e-06 2.6945e+25 -1.1022 1.3567 271.758 
-9.79558e-06 -9.31775e-06 2.69239e+25 -1.87299 1.76493 271.915 
-7.88425e-06 -9.31775e-06 2.69187e+25 -2.4928 1.56864 272.03 
-5.97292e-06 -9.31775e-06 2.69312e+25 -3.26039 1.36587 271.861 
-4.06158e-06 -9.31775e-06 2.69206e+25 -3.87425 1.08863 271.915 
-2.15025e-06 -9.31775e-06 2.69085e+25 -4.25418 0.605018 272.101 
-2.38917e-07 -9.31775e-06 2.68981e+25 -4.2138 0.00671799 271.982 
-1.55296e-05 -8.83992e-06 2.68886e+25 -0.124479 0.545066 272.199 
-1.36182e-05 -8.83992e-06 2.69207e+25 -0.473211 1.18278 271.929 
-1.17069e-05 -8.83992e-06 2.69371e+25 -1.15669 1.60119 271.811 
-9.79558e-06 -8.83992e-06 2.69219e+25 -1.9301 1.94898 271.911 
-7.88425e-06 -8.83992e-06 2.69078e+25 -2.54329 1.76227 272.094 
-5.97292e-06 -8.83992e-06 2.6933e+25 -3.46327 1.53158 271.848 
-4.06158e-06 -8.83992e-06 2.69229e+25 -4.10659 1.24997 271.937 
-2.15025e-06 -8.83992e-06 2.69185e+25 -4.49365 0.665615 272 
-2.38917e-07 -8.83992e-06 2.69e+25 -4.56138 0.0604936 271.954 
-1.55296e-05 -8.36208e-06 2.69047e+25 -0.212549 0.596912 272.154 
-1.36182e-05 -8.36208e-06 2.6927e+25 -0.578488 1.29786 271.969 
-1.17069e-05 -8.36208e-06 2.69432e+25 -1.2469 1.83345 271.799 
-9.79558e-06 -8.36208e-06 2.69179e+25 -1.93886 2.12425 271.95 
-7.88425e-06 -8.36208e-06 2.6909e+25 -2.7696 1.99663 271.998 
-5.97292e-06 -8.36208e-06 2.69311e+25 -3.53171 1.66123 271.904 
-4.06158e-06 -8.36208e-06 2.69211e+25 -4.30723 1.41108 272.015 
-2.15025e-06 -8.36208e-06 2.69091e+25 -4.76993 0.794607 272.045 
-2.38917e-07 -8.36208e-06 2.68938e+25 -4.98111 0.0664641 271.995 
-1.55296e-05 -7.88425e-06 2.689e+25 -0.168913 0.664627 272.258 
-1.36182e-05 -7.88425e-06 2.69186e+25 -0.634541 1.44701 271.999 
-1.17069e-05 -7.88425e-06 2.69305e+25 -1.36957 2.04905 271.885 
-9.79558e-06 -7.88425e-06 2.69316e+25 -2.11454 2.3068 271.869 
-7.88425e-06 -7.88425e-06 2.69304e+25 -2.95499 2.25894 271.861 
-5.97292e-06 -7.88425e-06 2.69316e+25 -3.65764 1.81595 271.906 
-4.06158e-06 -7.88425e-06 2.69063e+25 -4.36462 1.53172 272.055 
-2.15025e-06 -7.88425e-06 2.69145e+25 -4.97778 0.873614 272.021 
-2.38917e-07 -7.88425e-06 2.68977e+25 -5.25392 0.0298553 271.956 
-1.55296e-05 -7.40642e-06 2.6895e+25 -0.0708971 0.776456 272.191 
-1.36182e-05 -7.40642e-06 2.69267e+25 -0.747373 1.55603 271.975 
-1.17069e-05 -7.40642e-06 2.692e+25 -1.38748 2.22113 271.959 
-9.79558e-06 -7.40642e-06 2.69331e+25 -2.20705 2.48751 271.894 
-7.88425e-06 -7.40642e-06 2.69234e+25 -3.06724 2.48171 271.873 
-5.97292e-06 -7.40642e-06 2.69282e+25 -3.77159 2.01833 271.96 
-4.06158e-06 -7.40642e-06 2.6913e+25 -4.47081 1.69068 272.037 
-2.15025e-06 -7.40642e-06 2.69059e+25 -5.09605 0.982076 272.06 
-2.38917e-07 -7.40642e-06 2.68885e+25 -5.51514 0.0721686 272.085 
-1.55296e-05 -6.92858e-06 2.69116e+25 -0.109886 0.857622 272.091 
-1.36182e-05 -6.92858e-06 2.6926e+25 -0.682551 1.71122 271.953 
-1.17069e-05 -6.92858e-06 2.69255e+25 -1.42228 2.40378 271.869 
-9.79558e-06 -6.92858e-06 2.69124e+25 -2.32131 2.70001 271.99 
-7.88425e-06 -6.92858e-06 2.69248e+25 -3.09513 2.68995 271.946 
-5.97292e-06 -6.92858e-06 2.69059e+25 -3.88389 2.16633 272.068 
-4.06158e-06 -6.92858e-06 2.69113e+25 -4.49284 1.87482 271.944 
-2.15025e-06 -6.92858e-06 2.6902e+25 -5.16124 1.12116 272.039 
-2.38917e-07 -6.92858e-06 2.6889e+25 -5.55745 0.10964 272.009 
-1.55296e-05 -6.45075e-06 2.69208e+25 -0.150405 0.978467 272.024 
-1.36182e-05 -6.45075e-06 2.69252e+25 -0.707555 1.92229 271.884 
-1.17069e-05 -6.45075e-06 2.69365e+25 -1.51635 2.53945 271.854 
-9.79558e-06 -6.45075e-06 2.69249e+25 -2.41409 2.95788 271.902 
-7.88425e-06 -6.45075e-06 2.69307e+25 -3.18794 2.86639 271.892 
-5.97292e-06 -6.45075e-06 2.69168e+25 -4.03823 2.35974 271.973 
-4.06158e-06 -6.45075e-06 2.69206e+25 -4.69574 2.02941 271.905 
-2.15025e-06 -6.45075e-06 2.69033e+25 -5.30668 1.22091 272.134 
-2.38917e-07 -6.45075e-06 2.69036e+25 -5.75563 0.229744 271.913 
-1.55296e-05 -5.97292e-06 2.69051e+25 -0.215757 1.12182 272.16 
-1.36182e-05 -5.97292e-06 2.69336e+25 -0.777005 2.06791 271.865 
-1.17069e-05 -5.97292e-06 2.69265e+25 -1.61566 2.72264 271.885 
-9.79558e-06 -5.97292e-06 2.69245e+25 -2.54266 3.13883 271.91 
-7.88425e-06 -5.97292e-06 2.69345e+25 -3.33507 3.00404 271.867 
-5.97292e-06 -5.97292e-06 2.69231e+25 -4.2316 2.57318 271.936 
-4.06158e-06 -5.97292e-06 2.69287e+25 -4.84324 2.22095 271.807 
-2.15025e-06 -5.97292e-06 2.69166e+25 -5.46924 1.35176 271.952 
-2.38917e-07 -5.97292e-06 2.69108e+25 -5.93376 0.301091 271.928 
-1.55296e-05 -5.49508e-06 2.69043e+25 -0.224143 1.17298 272.198 
-1.36182e-05 -5.49508e-06 2.69272e+25 -0.785313 2.25112 271.953 
-1.17069e-05 -5.49508e-06 2.69291e+25 -1.7461 2.99378 271.848 
-9.79558e-06 -5.49508e-06 2.69348e+25 -2.6116 3.34253 271.755 
-7.88425e-06 -5.49508e-06 2.6938e+25 -3.4596 3.17761 271.805 
-5.97292e-06 -5.49508e-06 2.69171e+25 -4.38527 2.80995 271.994 
-4.06158e-06 -5.49508e-06 2.6927e+25 -5.04918 2.41459 271.812 
-2.15025e-06 -5.49508e-06 2.69212e+25 -5.61051 1.54123 271.918 
-2.38917e-07 -5.49508e-06 2.69044e+25 -6.09418 0.351079 271.923 
-1.55296e-05 -5.01725e-06 2.69067e+25 -0.240727 1.2651 272.153 
-1.36182e-05 -5.01725e-06 2.69192e+25 -0.834598 2.46843 272.004 
-1.17069e-05 -5.01725e-06 2.69294e+25 -1.74623 3.29725 271.859 
-9.79558e-06 -5.01725e-06 2.69463e+25 -2.63015 3.5624 271.711 
-7.88425e-06 -5.01725e-06 2.694e+25 -3.54153 3.38871 271.754 
-5.97292e-06 -5.01725e-06 2.6914e+25 -4.5075 3.00212 271.969 
-4.06158e-06 -5.01725e-06 2.69198e+25 -5.28766 2.60263 271.857 
-2.15025e-06 -5.01725e-06 2.69288e+25 -5.81997 1.68551 271.848 
-2.38917e-07 -5.01725e-06 2.68907e+25 -6.41443 0.428299 271.982 
-1.55296e-05 -4.53942e-06 2.68941e+25 -0.277406 1.45025 272.168 
-1.36182e-05 -4.53942e-06 2.69109e+25 -0.826288 2.7362 272.103 
-1.17069e-05 -4.53942e-06 2.69268e+25 -1.76248 3.50128 271.85 
-9.79558e-06 -4.53942e-06 2.69382e+25 -2.66829 3.75038 271.779 
-7.88425e-06 -4.53942e-06 2.69261e+25 -3.57293 3.68058 271.841 
-5.97292e-06 -4.53942e-06 2.69205e+25 -4.52548 3.20937 271.91 
-4.06158e-06 -4.53942e-06 2.69291e+25 -5.34783 2.7137 271.866 
-2.15025e-06 -4.53942e-06 2.69135e+25 -5.94432 1.8035 271.884 
-2.38917e-07 -4.53942e-06 2.6884e+25 -6.45124 0.470462 272.004 
-1.55296e-05 -4.06158e-06 2.69099e+25 -0.288486 1.628 272.047 
-1.36182e-05 -4.06158e-06 2.6915e+25 -0.829423 2.94675 272.02 
-1.17069e-05 -4.06158e-06 2.69276e+25 -1.72081 3.81632 271.873 
-9.79558e-06 -4.06158e-06 2.69388e+25 -2.59228 3.93936 271.721 
-7.88425e-06 -4.06158e-06 2.69274e+25 -3.67064 3.91357 271.845 
-5.97292e-06 -4.06158e-06 2.69174e+25 -4.36381 3.44876 271.916 
-4.06158e-06 -4.06158e-06 2.69231e+25 -5.38168 2.8751 271.843 
-2.15025e-06 -4.06158e-06 2.69354e+25 -6.01904 1.96429 271.772 
-2.38917e-07 -4.06158e-06 2.68974e+25 -6.52271 0.591409 271.933 
-1.55296e-05 -3.58375e-06 2.69052e+25 -0.303743 1.75282 272.085 
-1.36182e-05 -3.58375e-06 2.69112e+25 -0.777484 3.11393 272.024 
-1.17069e-05 -3.58375e-06 2.69249e+25 -1.69317 4.05517 271.862 
-9.79558e-06 -3.58375e-06 2.69364e+25 -2.58205 4.19404 271.789 
-7.88425e-06 -3.58375e-06 2.69195e+25 -3.66378 4.11656 271.939 
-5.97292e-06 -3.58375e-06 2.69076e+25 -4.49085 3.73141 272.033 
-4.06158e-06 -3.58375e-06 2.69219e+25 -5.46596 3.08767 271.88 
-2.15025e-06 -3.58375e-06 2.69233e+25 -6.19099 2.09079 271.852 
-2.38917e-07 -3.58375e-06 2.68957e+25 -6.64292 0.71138 271.912 
-1.55296e-05 -3.10592e-06 2.69019e+25 -0.294714 1.83152 272.137 
-1.36182e-05 -3.10592e-06 2.69179e+25 -0.860286 3.20863 271.98 
-1.17069e-05 -3.10592e-06 2.69241e+25 -1.7317 4.32029 271.85 
-9.79558e-06 -3.10592e-06 2.69183e+25 -2.54465 4.52147 271.9 
-7.88425e-06 -3.10592e-06 2.69279e+25 -3.53595 4.31395 271.857 
-5.97292e-06 -3.10592e-06 2.68986e+25 -4.5341 4.0231 272.046 
-4.06158e-06 -3.10592e-06 2.69137e+25 -5.60565 3.28654 272.005 
-2.15025e-06 -3.10592e-06 2.69151e+25 -6.26423 2.26811 271.902 
-2.38917e-07 -3.10592e-06 2.68945e+25 -6.78448 0.841801 271.95 
-1.55296e-05 -2.62808e-06 2.6903e+25 -0.216266 1.94634 272.132 
-1.36182e-05 -2.62808e-06 2.69043e+25 -0.94121 3.32049 272.056 
-1.17069e-05 -2.62808e-06 2.69282e+25 -1.71263 4.52871 271.84 
-9.79558e-06 -2.62808e-06 2.6919e+25 -2.57106 4.80417 271.94 
-7.88425e-06 -2.62808e-06 2.69248e+25 -3.53329 4.64351 271.856 
-5.97292e-06 -2.62808e-06 2.69098e+25 -4.63967 4.24558 272.009 
-4.06158e-06 -2.62808e-06 2.69134e+25 -5.62275 3.43502 271.939 
-2.15025e-06 -2.62808e-06 2.69076e+25 -6.25551 2.38632 271.941 
-2.38917e-07 -2.62808e-06 2.68895e+25 -6.99462 1.0509 271.889 
-1.55296e-05 -2.15025e-06 2.69006e+25 -0.278197 2.05228 272.205 
-1.36182e-05 -2.15025e-06 2.69107e+25 -0.885457 3.56035 272.042 
-1.17069e-05 -2.15025e-06 2.69174e+25 -1.80226 4.72582 271.849 
-9.79558e-06 -2.15025e-06 2.69206e+25 -2.65894 5.0076 271.94 
-7.88425e-06 -2.15025e-06 2.69351e+25 -3.61533 4.93762 271.833 
-5.97292e-06 -2.15025e-06 2.68998e+25 -4.7146 4.54345 271.96 
-4.06158e-06 -2.15025e-06 2.69081e+25 -5.5967 3.61704 271.979 
-2.15025e-06 -2.15025e-06 2.69043e+25 -6.26505 2.50833 271.981 
-2.38917e-07 -2.15025e-06 2.68999e+25 -7.15083 1.28692 271.829 
-1.55296e-05 -1.67242e-06 2.68922e+25 -0.106643 2.15568 272.276 
-1.36182e-05 -1.67242e-06 2.69064e+25 -0.891594 3.78634 272.035 
-1.17069e-05 -1.67242e-06 2.6923e+25 -1.79454 4.92895 271.879 
-9.79558e-06 -1.67242e-06 2.69313e+25 -2.66093 5.14845 271.834 
-7.88425e-06 -1.67242e-06 2.69254e+25 -3.57316 5.25829 271.85 
-5.97292e-06 -1.67242e-06 2.69043e+25 -4.70544 4.83223 272.019 
-4.06158e-06 -1.67242e-06 2.68979e+25 -5.47343 3.8357 272.089 
-2.15025e-06 -1.67242e-06 2.69037e+25 -6.39501 2.6897 272.014 
-2.38917e-07 -1.67242e-06 2.6899e+25 -7.32494 1.5134 271.933 
-1.55296e-05 -1.19458e-06 2.68946e+25 -0.047317 2.29995 272.219 
-1.36182e-05 -1.19458e-06 2.69097e+25 -0.951764 4.04427 272.031 
-1.17069e-05 -1.19458e-06 2.69234e+25 -1.76969 5.15406 271.857 
-9.79558e-06 -1.19458e-06 2.69237e+25 -2.59274 5.26335 271.86 
-7.88425e-06 -1.19458e-06 2.6932e+25 -3.54016 5.51962 271.791 
-5.97292e-06 -1.19458e-06 2.69103e+25 -4.62114 5.02787 271.958 
-4.06158e-06 -1.19458e-06 2.69031e+25 -5.52332 4.07105 272.059 
-2.15025e-06 -1.19458e-06 2.6911e+25 -6.46489 2.97492 271.902 
-2.38917e-07 -1.19458e-06 2.68792e+25 -7.38344 1.697 271.967 
-1.55296e-05 -7.1675e-07 2.69094e+25 -0.122238 2.39349 272.061 
-1.36182e-05 -7.1675e-07 2.69144e+25 -0.957643 4.30292 271.935 
-1.17069e-05 -7.1675e-07 2.69101e+25 -1.78853 5.35466 271.974 
-9.79558e-06 -7.1675e-07 2.6927e+25 -2.54344 5.44117 271.841 
-7.88425e-06 -7.1675e-07 2.69267e+25 -3.48963 5.7176 271.833 
-5.97292e-06 -7.1675e-07 2.69213e+25 -4.49715 5.28621 271.85 
-4.06158e-06 -7.1675e-07 2.69031e+25 -5.54319 4.40439 271.976 
-2.15025e-06 -7.1675e-07 2.69094e+25 -6.61924 3.29229 271.899 
-2.38917e-07 -7.1675e-07 2.68674e+25 -7.33285 1.89668 271.995 
-1.55296e-05 -2.38917e-07 2.68827e+25 -0.19059 2.48906 272.144 
-1.36182e-05 -2.38917e-07 2.68908e+25 -0.89897 4.56484 271.913 
-1.17069e-05 -2.38917e-07 2.68711e+25 -1.77527 5.58169 272.083 
-9.79558e-06 -2.38917e-07 2.69014e+25 -2.62508 5.76807 271.873 
-7.88425e-06 -2.38917e-07 2.68998e+25 -3.5427 5.97299 271.853 
-5.97292e-06 -2.38917e-07 2.69039e+25 -4.54327 5.56727 271.798 
-4.06158e-06 -2.38917e-07 2.68808e+25 -5.53162 4.70041 271.969 
-2.15025e-06 -2.38917e-07 2.68774e+25 -6.51024 3.46031 271.996 
-2.38917e-07 -2.38917e-07 2.6852e+25 -7.23093 2.08734 272.079 
-1.64852e-05 2.38917e-07 2.68469e+25 -0.111612 1.16748 272.447 
-1.45739e-05 2.38917e-07 2.68845e+25 -0.557532 3.84417 271.96 
-1.26626e-05 2.38917e-07 2.6892e+25 -1.23453 5.30696 271.934 
-1.07512e-05 2.38917e-07 2.69038e+25 -2.14266 5.83667 271.873 
-8.83992e-06 2.38917e-07 2.68895e+25 -3.13003 6.2097 271.906 
-6.92858e-06 2.38917e-07 2.69057e+25 -3.91653 6.0667 271.833 
-5.01725e-06 2.38917e-07 2.68964e+25 -4.96428 5.25893 271.844 
-3.10592e-06 2.38917e-07 2.68867e+25 -5.90374 4.32532 271.935 
-1.19458e-06 2.38917e-07 2.68647e+25 -6.85449 3.00441 272.121 
-1.64852e-05 7.1675e-07 2.68631e+25 -0.0168933 1.21442 272.404 
-1.45739e-05 7.1675e-07 2.69154e+25 -0.599488 3.92562 271.924 
-1.26626e-05 7.1675e-07 2.69091e+25 -1.28616 5.51359 271.897 
-1.07512e-05 7.1675e-07 2.69278e+25 -2.33701 6.1288 271.791 
-8.83992e-06 7.1675e-07 2.69125e+25 -3.07071 6.41459 271.904 
-6.92858e-06 7.1675e-07 2.69175e+25 -3.9409 6.28819 271.852 
-5.01725e-06 7.1675e-07 2.69378e+25 -4.82696 5.55778 271.699 
-3.10592e-06 7.1675e-07 2.69076e+25 -5.75454 4.56189 271.922 
-1.19458e-06 7.1675e-07 2.6886e+25 -6.64456 3.22259 272.08 
-1.64852e-05 1.19458e-06 2.68723e+25 -0.0869052 1.28665 272.381 
-1.45739e-05 1.19458e-06 2.69171e+25 -0.549597 4.03626 271.938 
-1.26626e-05 1.19458e-06 2.69187e+25 -1.30442 5.83346 271.897 
-1.07512e-05 1.19458e-06 2.69202e+25 -2.18872 6.41225 271.812 
-8.83992e-06 1.19458e-06 2.69116e+25 -2.9456 6.63883 271.906 
-6.92858e-06 1.19458e-06 2.69197e+25 -3.81275 6.48524 271.841 
-5.01725e-06 1.19458e-06 2.69262e+25 -4.81299 5.84557 271.742 
-3.10592e-06 1.19458e-06 2.68999e+25 -5.70325 4.72019 271.949 
-1.19458e-06 1.19458e-06 2.68859e+25 -6.44154 3.41182 272.134 
-1.64852e-05 1.67242e-06 2.68689e+25 -0.0133797 1.35839 272.469 
-1.45739e-05 1.67242e-06 2.69098e+25 -0.464167 4.24816 272.031 
-1.26626e-05 1.67242e-06 2.69166e+25 -1.22789 6.09174 271.859 
-1.07512e-05 1.67242e-06 2.69237e+25 -1.97036 6.67799 271.875 
-8.83992e-06 1.67242e-06 2.69113e+25 -2.94376 6.79728 271.852 
-6.92858e-06 1.67242e-06 2.69164e+25 -3.76331 6.70517 271.846 
-5.01725e-06 1.67242e-06 2.69103e+25 -4.61773 6.08537 271.835 
-3.10592e-06 1.67242e-06 2.68898e+25 -5.49001 4.82669 272.024 
-1.19458e-06 1.67242e-06 2.68818e+25 -6.24042 3.54147 272.09 
-1.64852e-05 2.15025e-06 2.68655e+25 -0.0336637 1.34768 272.404 
-1.45739e-05 2.15025e-06 2.68996e+25 -0.344868 4.3696 272.073 
-1.26626e-05 2.15025e-06 2.69129e+25 -1.11141 6.31403 271.837 
-1.07512e-05 2.15025e-06 2.69185e+25 -1.96049 6.85423 271.881 
-8.83992e-06 2.15025e-06 2.6926e+25 -2.82362 6.92453 271.757 
-6.92858e-06 2.15025e-06 2.69265e+25 -3.86622 7.00972 271.763 
-5.01725e-06 2.15025e-06 2.69072e+25 -4.51494 6.24289 271.845 
-3.10592e-06 2.15025e-06 2.68856e+25 -5.33228 5.02616 272.059 
-1.19458e-06 2.15025e-06 2.68854e+25 -6.04854 3.7196 272.088 
-1.64852e-05 2.62808e-06 2.68542e+25 -0.0340735 1.3627 272.491 
-1.45739e-05 2.62808e-06 2.69085e+25 -0.256514 4.51692 271.958 
-1.26626e-05 2.62808e-06 2.6923e+25 -0.937264 6.45245 271.788 
-1.07512e-05 2.62808e-06 2.69105e+25 -1.87655 6.9977 271.949 
-8.83992e-06 2.62808e-06 2.69155e+25 -2.7583 7.10755 271.79 
-6.92858e-06 2.62808e-06 2.69166e+25 -3.75692 7.27881 271.802 
-5.01725e-06 2.62808e-06 2.6905e+25 -4.45414 6.35179 271.876 
-3.10592e-06 2.62808e-06 2.68843e+25 -5.10302 5.30667 272.017 
-1.19458e-06 2.62808e-06 2.6872e+25 -5.73425 3.95177 272.198 
-1.64852e-05 3.10592e-06 2.68488e+25 -0.00283813 1.39761 272.596 
-1.45739e-05 3.10592e-06 2.69033e+25 -0.282992 4.69719 272.007 
-1.26626e-05 3.10592e-06 2.69155e+25 -0.952369 6.62801 271.839 
-1.07512e-05 3.10592e-06 2.69243e+25 -1.76271 7.17918 271.827 
-8.83992e-06 3.10592e-06 2.69203e+25 -2.70946 7.34714 271.811 
-6.92858e-06 3.10592e-06 2.69133e+25 -3.48338 7.54697 271.902 
-5.01725e-06 3.10592e-06 2.69082e+25 -4.26281 6.49529 271.824 
-3.10592e-06 3.10592e-06 2.68941e+25 -4.81548 5.4564 271.967 
-1.19458e-06 3.10592e-06 2.687e+25 -5.41408 4.11717 272.102 
-1.64852e-05 3.58375e-06 2.68542e+25 0.0366197 1.43569 272.534 
-1.45739e-05 3.58375e-06 2.69033e+25 -0.339641 4.9 271.961 
-1.26626e-05 3.58375e-06 2.69155e+25 -0.931252 6.8054 271.843 
-1.07512e-05 3.58375e-06 2.69206e+25 -1.65858 7.44872 271.812 
-8.83992e-06 3.58375e-06 2.6911e+25 -2.66314 7.60607 271.853 
-6.92858e-06 3.58375e-06 2.68979e+25 -3.34932 7.65044 271.915 
-5.01725e-06 3.58375e-06 2.6902e+25 -3.9526 6.62121 271.843 
-3.10592e-06 3.58375e-06 2.6878e+25 -4.51427 5.61751 272.078 
-1.19458e-06 3.58375e-06 2.68698e+25 -5.18455 4.27326 272.106 
-1.64852e-05 4.06158e-06 2.68516e+25 -0.0419128 1.45627 272.511 
-1.45739e-05 4.06158e-06 2.68969e+25 -0.317068 5.00956 272.039 
-1.26626e-05 4.06158e-06 2.69122e+25 -0.92116 6.97391 271.863 
-1.07512e-05 4.06158e-06 2.69255e+25 -1.60448 7.68286 271.796 
-8.83992e-06 4.06158e-06 2.69086e+25 -2.50456 7.80963 271.886 
-6.92858e-06 4.06158e-06 2.69091e+25 -3.19617 7.6857 271.9 
-5.01725e-06 4.06158e-06 2.68923e+25 -3.65231 6.73541 271.927 
-3.10592e-06 4.06158e-06 2.68872e+25 -4.18174 5.82898 272.024 
-1.19458e-06 4.06158e-06 2.68811e+25 -4.78805 4.38205 272.067 
-1.64852e-05 4.53942e-06 2.68363e+25 0.0125924 1.47026 272.561 
-1.45739e-05 4.53942e-06 2.68884e+25 -0.335911 5.09511 272.139 
-1.26626e-05 4.53942e-06 2.69037e+25 -0.941776 7.12649 271.901 
-1.07512e-05 4.53942e-06 2.69262e+25 -1.55797 7.83083 271.804 
-8.83992e-06 4.53942e-06 2.69126e+25 -2.33236 8.08895 271.795 
-6.92858e-06 4.53942e-06 2.6891e+25 -2.98169 7.80863 271.961 
-5.01725e-06 4.53942e-06 2.68855e+25 -3.40261 6.88544 272.037 
-3.10592e-06 4.53942e-06 2.68896e+25 -3.95071 5.99947 271.929 
-1.19458e-06 4.53942e-06 2.68869e+25 -4.3529 4.4486 272.001 
-1.64852e-05 5.01725e-06 2.68454e+25 -0.044635 1.52427 272.525 
-1.45739e-05 5.01725e-06 2.68848e+25 -0.420245 5.20992 272.122 
-1.26626e-05 5.01725e-06 2.69025e+25 -0.866762 7.24669 271.923 
-1.07512e-05 5.01725e-06 2.69062e+25 -1.56543 7.99174 271.842 
-8.83992e-06 5.01725e-06 2.69087e+25 -2.24306 8.28143 271.773 
-6.92858e-06 5.01725e-06 2.68895e+25 -2.82373 7.95995 272.038 
-5.01725e-06 5.01725e-06 2.68892e+25 -3.19185 7.01932 271.994 
-3.10592e-06 5.01725e-06 2.69026e+25 -3.51446 6.15013 271.878 
-1.19458e-06 5.01725e-06 2.68904e+25 -4.12085 4.60107 271.863 
-1.64852e-05 5.49508e-06 2.68482e+25 -0.116572 1.60215 272.526 
-1.45739e-05 5.49508e-06 2.68764e+25 -0.508137 5.28202 272.092 
-1.26626e-05 5.49508e-06 2.69125e+25 -0.945712 7.40337 271.804 
-1.07512e-05 5.49508e-06 2.69073e+25 -1.66358 8.20036 271.814 
-8.83992e-06 5.49508e-06 2.69004e+25 -2.1438 8.36283 271.869 
-6.92858e-06 5.49508e-06 2.6893e+25 -2.60846 8.08458 271.987 
-5.01725e-06 5.49508e-06 2.68914e+25 -2.91035 7.1558 271.914 
-3.10592e-06 5.49508e-06 2.68964e+25 -3.16293 6.25813 271.875 
-1.19458e-06 5.49508e-06 2.69037e+25 -3.73574 4.72471 271.712 
-1.64852e-05 5.97292e-06 2.68561e+25 -0.126874 1.69848 272.373 
-1.45739e-05 5.97292e-06 2.68891e+25 -0.54353 5.37943 272.035 
-1.26626e-05 5.97292e-06 2.69034e+25 -1.00538 7.59703 271.855 
-1.07512e-05 5.97292e-06 2.69081e+25 -1.69045 8.37406 271.879 
-8.83992e-06 5.97292e-06 2.69004e+25 -2.12816 8.42813 271.816 
-6.92858e-06 5.97292e-06 2.68894e+25 -2.40708 8.09688 271.881 
-5.01725e-06 5.97292e-06 2.68878e+25 -2.62428 7.27376 271.94 
-3.10592e-06 5.97292e-06 2.68817e+25 -2.85044 6.29208 271.944 
-1.19458e-06 5.97292e-06 2.68973e+25 -3.27495 4.77725 271.8 
-1.64852e-05 6.45075e-06 2.68513e+25 -0.0336867 1.75106 272.385 
-1.45739e-05 6.45075e-06 2.68763e+25 -0.569804 5.5723 272.094 
-1.26626e-05 6.45075e-06 2.68999e+25 -1.15978 7.68925 271.917 
-1.07512e-05 6.45075e-06 2.69017e+25 -1.66278 8.56702 271.861 
-8.83992e-06 6.45075e-06 2.68982e+25 -2.08261 8.53494 271.913 
-6.92858e-06 6.45075e-06 2.68888e+25 -2.19505 8.08351 271.917 
-5.01725e-06 6.45075e-06 2.68907e+25 -2.40646 7.33716 271.915 
-3.10592e-06 6.45075e-06 2.68924e+25 -2.61002 6.32773 271.983 
-1.19458e-06 6.45075e-06 2.6899e+25 -2.635 4.80901 271.76 
-1.64852e-05 6.92858e-06 2.68468e+25 0.0324874 1.76584 272.51 
-1.45739e-05 6.92858e-06 2.68743e+25 -0.562871 5.8111 272.072 
-1.26626e-05 6.92858e-06 2.68942e+25 -1.22473 7.77099 271.909 
-1.07512e-05 6.92858e-06 2.68971e+25 -1.66592 8.67197 271.906 
-8.83992e-06 6.92858e-06 2.68903e+25 -1.90425 8.58393 271.936 
-6.92858e-06 6.92858e-06 2.69038e+25 -1.96442 8.0701 271.786 
-5.01725e-06 6.92858e-06 2.68991e+25 -1.965 7.401 271.798 
-3.10592e-06 6.92858e-06 2.6888e+25 -2.11904 6.33396 271.983 
-1.19458e-06 6.92858e-06 2.68843e+25 -2.08341 4.8448 271.916 
-1.64852e-05 7.40642e-06 2.68414e+25 -0.0278614 1.84882 272.554 
-1.45739e-05 7.40642e-06 2.68899e+25 -0.577612 5.94279 272.066 
-1.26626e-05 7.40642e-06 2.68989e+25 -1.27322 7.92364 271.939 
-1.07512e-05 7.40642e-06 2.69e+25 -1.54072 8.69747 271.852 
-8.83992e-06 7.40642e-06 2.68955e+25 -1.76375 8.59246 271.831 
-6.92858e-06 7.40642e-06 2.69146e+25 -1.70592 8.07654 271.734 
-5.01725e-06 7.40642e-06 2.68872e+25 -1.61417 7.37379 271.904 
-3.10592e-06 7.40642e-06 2.68935e+25 -1.63121 6.33765 271.838 
-1.19458e-06 7.40642e-06 2.68809e+25 -1.44864 4.82559 271.94 
-1.64852e-05 7.88425e-06 2.68404e+25 -0.0604078 1.92106 272.534 
-1.45739e-05 7.88425e-06 2.68924e+25 -0.581592 6.074 271.935 
-1.26626e-05 7.88425e-06 2.68856e+25 -1.35731 8.09863 272.05 
-1.07512e-05 7.88425e-06 2.68987e+25 -1.56272 8.68718 271.873 
-8.83992e-06 7.88425e-06 2.68898e+25 -1.65757 8.61982 271.978 
-6.92858e-06 7.88425e-06 2.69032e+25 -1.49558 8.07145 271.802 
-5.01725e-06 7.88425e-06 2.68837e+25 -1.25141 7.33916 271.913 
-3.10592e-06 7.88425e-06 2.6893e+25 -1.0953 6.28756 271.855 
-1.19458e-06 7.88425e-06 2.68902e+25 -0.672197 4.77017 271.888 
-1.64852e-05 8.36208e-06 2.68535e+25 -0.0755425 2.0385 272.408 
-1.45739e-05 8.36208e-06 2.68897e+25 -0.676566 6.25523 271.972 
-1.26626e-05 8.36208e-06 2.68858e+25 -1.46255 8.29283 272.014 
-1.07512e-05 8.36208e-06 2.69069e+25 -1.67633 8.69377 271.803 
-8.83992e-06 8.36208e-06 2.68959e+25 -1.64644 8.6572 271.942 
-6.92858e-06 8.36208e-06 2.69006e+25 -1.28612 8.02628 271.818 
-5.01725e-06 8.36208e-06 2.68866e+25 -0.894615 7.22598 271.888 
-3.10592e-06 8.36208e-06 2.68873e+25 -0.446995 6.17776 271.883 
-1.19458e-06 8.36208e-06 2.68822e+25 0.0429012 4.65953 271.902 
-1.64852e-05 8.83992e-06 2.6843e+25 -0.154955 2.18052 272.461 
-1.45739e-05 8.83992e-06 2.689e+25 -0.839739 6.42405 271.955 
-1.26626e-05 8.83992e-06 2.68885e+25 -1.55245 8.46402 271.921 
-1.07512e-05 8.83992e-06 2.69056e+25 -1.82853 8.67069 271.874 
-8.83992e-06 8.83992e-06 2.6899e+25 -1.66364 8.64562 271.878 
-6.92858e-06 8.83992e-06 2.68816e+25 -1.06688 7.88594 272.015 
-5.01725e-06 8.83992e-06 2.68884e+25 -0.498131 7.05182 271.945 
-3.10592e-06 8.83992e-06 2.6876e+25 0.222866 6.09066 271.981 
-1.19458e-06 8.83992e-06 2.68778e+25 0.726746 4.5511 271.911 
-1.64852e-05 9.31775e-06 2.68317e+25 -0.110871 2.30102 272.49 
-1.45739e-05 9.31775e-06 2.68626e+25 -0.993199 6.66167 272.03 
-1.26626e-05 9.31775e-06 2.68743e+25 -1.63956 8.61605 271.967 
-1.07512e-05 9.31775e-06 2.6899e+25 -1.85248 8.70581 271.868 
-8.83992e-06 9.31775e-06 2.69002e+25 -1.56183 8.49865 271.881 
-6.92858e-06 9.31775e-06 2.68782e+25 -0.912982 7.63018 272.035 
-5.01725e-06 9.31775e-06 2.69012e+25 -0.0741402 6.86279 271.83 
-3.10592e-06 9.31775e-06 2.68725e+25 0.765727 5.95755 272.008 
-1.19458e-06 9.31775e-06 2.68799e+25 1.49962 4.47502 271.96 
-1.64852e-05 9.79558e-06 2.68304e+25 -0.123569 2.41429 272.505 
-1.45739e-05 9.79558e-06 2.68685e+25 -1.01779 6.9179 272.105 
-1.26626e-05 9.79558e-06 2.68933e+25 -1.71445 8.74206 271.893 
-1.07512e-05 9.79558e-06 2.69002e+25 -2.06194 8.66835 271.805 
-8.83992e-06 9.79558e-06 2.68954e+25 -1.40866 8.35004 271.893 
-6.92858e-06 9.79558e-06 2.6897e+25 -0.633409 7.46808 271.925 
-5.01725e-06 9.79558e-06 2.68992e+25 0.377276 6.65761 271.84 
-3.10592e-06 9.79558e-06 2.68919e+25 1.48417 5.68391 271.933 
-1.19458e-06 9.79558e-06 2.68712e+25 2.34711 4.31975 271.971 
-1.64852e-05 1.02734e-05 2.68214e+25 -0.290805 2.56346 272.601 
-1.45739e-05 1.02734e-05 2.68655e+25 -1.24266 7.126 272.075 
-1.26626e-05 1.02734e-05 2.68832e+25 -1.89431 8.78307 271.895 
-1.07512e-05 1.02734e-05 2.68884e+25 -1.93419 8.58746 271.907 
-8.83992e-06 1.02734e-05 2.68967e+25 -1.29399 8.14396 271.926 
-6.92858e-06 1.02734e-05 2.68917e+25 -0.351264 7.24502 271.887 
-5.01725e-06 1.02734e-05 2.69037e+25 0.930842 6.36708 271.837 
-3.10592e-06 1.02734e-05 2.68832e+25 2.29159 5.34101 271.915 
-1.19458e-06 1.02734e-05 2.68635e+25 3.33479 4.17567 272.07 
-1.64852e-05 1.07512e-05 2.68106e+25 -0.213974 2.77142 272.638 
-1.45739e-05 1.07512e-05 2.68653e+25 -1.44627 7.38305 272.084 
-1.26626e-05 1.07512e-05 2.68855e+25 -2.15336 8.76584 271.876 
-1.07512e-05 1.07512e-05 2.68855e+25 -1.9358 8.4669 271.914 
-8.83992e-06 1.07512e-05 2.68909e+25 -1.11989 7.86974 271.957 
-6.92858e-06 1.07512e-05 2.68874e+25 0.122015 6.90122 271.936 
-5.01725e-06 1.07512e-05 2.6896e+25 1.59792 6.0058 271.866 
-3.10592e-06 1.07512e-05 2.68715e+25 3.14737 4.94431 272.01 
-1.19458e-06 1.07512e-05 2.68586e+25 4.32648 3.93339 272.073 
-1.64852e-05 1.12291e-05 2.68151e+25 -0.202582 3.00323 272.538 
-1.45739e-05 1.12291e-05 2.68558e+25 -1.69924 7.7599 272.137 
-1.26626e-05 1.12291e-05 2.68837e+25 -2.31619 8.80981 271.889 
-1.07512e-05 1.12291e-05 2.68849e+25 -1.96185 8.27191 271.942 
-8.83992e-06 1.12291e-05 2.68938e+25 -0.809374 7.55218 271.974 
-6.92858e-06 1.12291e-05 2.6895e+25 0.740415 6.54609 271.963 
-5.01725e-06 1.12291e-05 2.68859e+25 2.32181 5.62646 271.953 
-3.10592e-06 1.12291e-05 2.68813e+25 3.89921 4.55511 272.049 
-1.19458e-06 1.12291e-05 2.68693e+25 5.29703 3.70169 272.063 
-1.64852e-05 1.17069e-05 2.6817e+25 -0.219869 3.2719 272.467 
-1.45739e-05 1.17069e-05 2.68516e+25 -1.90118 8.1018 272.11 
-1.26626e-05 1.17069e-05 2.68782e+25 -2.42044 8.84865 271.969 
-1.07512e-05 1.17069e-05 2.68823e+25 -1.81838 8.07191 271.978 
-8.83992e-06 1.17069e-05 2.68899e+25 -0.330118 7.18799 271.95 
-6.92858e-06 1.17069e-05 2.68883e+25 1.57054 6.17454 272.034 
-5.01725e-06 1.17069e-05 2.68759e+25 3.1544 5.20436 272.021 
-3.10592e-06 1.17069e-05 2.68763e+25 4.95745 4.1711 272.035 
-1.19458e-06 1.17069e-05 2.68731e+25 6.54258 3.4223 271.987 
-1.64852e-05 1.21847e-05 2.68059e+25 -0.266013 3.57997 272.525 
-1.45739e-05 1.21847e-05 2.68537e+25 -2.12463 8.4446 272.061 
-1.26626e-05 1.21847e-05 2.68639e+25 -2.53363 8.85584 272.039 
-1.07512e-05 1.21847e-05 2.68768e+25 -1.57569 7.80103 272.022 
-8.83992e-06 1.21847e-05 2.68913e+25 0.28323 6.69075 272.037 
-6.92858e-06 1.21847e-05 2.68742e+25 2.33152 5.68304 272.086 
-5.01725e-06 1.21847e-05 2.68786e+25 4.28766 4.76086 272.038 
-3.10592e-06 1.21847e-05 2.68727e+25 6.18835 3.72655 272.053 
-1.19458e-06 1.21847e-05 2.68706e+25 7.8612 3.10402 272.022 
-1.64852e-05 1.26626e-05 2.68148e+25 -0.402649 4.02839 272.4 
-1.45739e-05 1.26626e-05 2.68433e+25 -2.38345 8.77677 272.067 
-1.26626e-05 1.26626e-05 2.68595e+25 -2.70338 8.65713 272.04 
-1.07512e-05 1.26626e-05 2.68783e+25 -1.16925 7.46577 272.082 
-8.83992e-06 1.26626e-05 2.68802e+25 1.07643 6.11328 272.041 
-6.92858e-06 1.26626e-05 2.68755e+25 3.35268 5.17339 272.11 
-5.01725e-06 1.26626e-05 2.68591e+25 5.58227 4.30935 272.218 
-3.10592e-06 1.26626e-05 2.68751e+25 7.5816 3.15516 272.066 
-1.19458e-06 1.26626e-05 2.6867e+25 9.34996 2.7654 272.022 
-1.64852e-05 1.31404e-05 2.68185e+25 -0.539621 4.51313 272.389 
-1.45739e-05 1.31404e-05 2.68552e+25 -2.87946 9.08901 271.979 
-1.26626e-05 1.31404e-05 2.68602e+25 -2.6397 8.31735 272.066 
-1.07512e-05 1.31404e-05 2.68746e+25 -0.384043 6.91172 272.086 
-8.83992e-06 1.31404e-05 2.68891e+25 2.23581 5.45855 271.993 
-6.92858e-06 1.31404e-05 2.68656e+25 4.81755 4.56653 272.229 
-5.01725e-06 1.31404e-05 2.68636e+25 7.13796 3.76395 272.219 
-3.10592e-06 1.31404e-05 2.68711e+25 9.27907 2.65666 272.141 
-1.19458e-06 1.31404e-05 2.68667e+25 11.1362 2.33454 272.074 
-1.64852e-05 1.36182e-05 2.67915e+25 -0.757081 5.20349 272.415 
-1.45739e-05 1.36182e-05 2.68481e+25 -3.15658 9.31773 272.007 
-1.26626e-05 1.36182e-05 2.68657e+25 -2.18257 7.83324 272.055 
-1.07512e-05 1.36182e-05 2.68599e+25 0.746424 6.15028 272.207 
-8.83992e-06 1.36182e-05 2.68844e+25 3.77218 4.71539 272.074 
-6.92858e-06 1.36182e-05 2.6872e+25 6.66593 3.95995 272.198 
-5.01725e-06 1.36182e-05 2.68657e+25 9.05138 3.15268 272.188 
-3.10592e-06 1.36182e-05 2.68654e+25 11.2505 2.18597 272.151 
-1.19458e-06 1.36182e-05 2.68641e+25 13.0344 1.8808 272.141 
-1.64852e-05 1.40961e-05 2.67805e+25 -0.949446 6.02741 272.457 
-1.45739e-05 1.40961e-05 2.68257e+25 -3.22604 9.34177 272.067 
-1.26626e-05 1.40961e-05 2.68612e+25 -1.22566 7.18408 272.073 
-1.07512e-05 1.40961e-05 2.68632e+25 2.34801 5.23746 272.207 
-8.83992e-06 1.40961e-05 2.68865e+25 5.72812 3.96709 272.14 
-6.92858e-06 1.40961e-05 2.68712e+25 8.76159 3.27475 272.229 
-5.01725e-06 1.40961e-05 2.68729e+25 11.457 2.56037 272.257 
-3.10592e-06 1.40961e-05 2.68657e+25 13.5868 1.78873 272.164 
-1.19458e-06 1.40961e-05 2.6866e+25 15.1808 1.46902 272.143 
-1.64852e-05 1.45739e-05 2.6755e+25 -1.36798 7.07514 272.449 
-1.45739e-05 1.45739e-05 2.68116e+25 -3.01859 9.07416 272.128 
-1.26626e-05 1.45739e-05 2.68548e+25 0.459596 6.21509 272.125 
-1.07512e-05 1.45739e-05 2.68626e+25 4.72877 4.25068 272.313 
-8.83992e-06 1.45739e-05 2.68782e+25 8.2955 3.15426 272.173 
-6.92858e-06 1.45739e-05 2.68483e+25 11.5008 2.53607 272.415 
-5.01725e-06 1.45739e-05 2.68701e+25 14.23 1.97702 272.214 
-3.10592e-06 1.45739e-05 2.68648e+25 16.0701 1.38578 272.167 
-1.19458e-06 1.45739e-05 2.68561e+25 17.5936 1.09744 272.222 
-1.64852e-05 1.50518e-05 2.67107e+25 -1.74544 8.34811 272.524 
-1.45739e-05 1.50518e-05 2.68014e+25 -1.92454 8.39618 272.177 
-1.26626e-05 1.50518e-05 2.68382e+25 3.28786 4.99602 272.307 
-1.07512e-05 1.50518e-05 2.68464e+25 7.95144 3.31888 272.4 
-8.83992e-06 1.50518e-05 2.68663e+25 11.6614 2.3068 272.382 
-6.92858e-06 1.50518e-05 2.68529e+25 14.6351 1.79958 272.406 
-5.01725e-06 1.50518e-05 2.68625e+25 17.1738 1.42161 272.275 
-3.10592e-06 1.50518e-05 2.68666e+25 19.0254 1.06744 272.175 
-1.19458e-06 1.50518e-05 2.68496e+25 20.2871 0.766237 272.342 
-1.64852e-05 1.55296e-05 2.66593e+25 -2.06892 9.651 272.5 
-1.45739e-05 1.55296e-05 2.67757e+25 0.803951 7.05291 272.411 
-1.26626e-05 1.55296e-05 2.6813e+25 7.45434 3.59453 272.556 
-1.07512e-05 1.55296e-05 2.68296e+25 12.2997 2.29618 272.59 
-8.83992e-06 1.55296e-05 2.68471e+25 15.8248 1.45386 272.469 
-6.92858e-06 1.55296e-05 2.68568e+25 18.4992 1.16151 272.492 
-5.01725e-06 1.55296e-05 2.68559e+25 20.5923 0.874219 272.434 
-3.10592e-06 1.55296e-05 2.68518e+25 22.1093 0.748197 272.363 
-1.19458e-06 1.55296e-05 2.6841e+25 23.2878 0.484417 272.436 
-1.64852e-05 1.60074e-05 2.65799e+25 -1.88662 10.4769 272.622 
-1.45739e-05 1.60074e-05 2.67538e+25 6.04885 5.06312 272.661 
-1.26626e-05 1.60074e-05 2.6815e+25 13.3495 2.18473 272.658 
-1.07512e-05 1.60074e-05 2.68282e+25 17.6696 1.30897 272.709 
-8.83992e-06 1.60074e-05 2.68527e+25 20.617 0.731452 272.488 
-6.92858e-06 1.60074e-05 2.68323e+25 22.7525 0.641712 272.693 
-5.01725e-06 1.60074e-05 2.68423e+25 24.457 0.424508 272.539 
-3.10592e-06 1.60074e-05 2.685e+25 25.5651 0.462221 272.456 
-1.19458e-06 1.60074e-05 2.68395e+25 26.432 0.234326 272.478 
-1.64852e-05 1.64852e-05 2.64595e+25 0.786003 9.22037 272.828 
-1.45739e-05 1.64852e-05 2.67338e+25 14.5298 2.55601 272.985 
-1.26626e-05 1.64852e-05 2.68033e+25 20.8329 0.896474 272.818 
-1.07512e-05 1.64852e-05 2.68329e+25 24.0209 0.559842 272.741 
-8.83992e-06 1.64852e-05 2.68372e+25 26.0938 0.276819 272.744 
-6.92858e-06 1.64852e-05 2.68353e+25 27.4999 0.285493 272.831 
-5.01725e-06 1.64852e-05 2.68208e+25 28.4856 0.147522 272.716 
-3.10592e-06 1.64852e-05 2.68311e+25 29.2196 0.224428 272.662 
-1.19458e-06 1.64852e-05 2.6832e+25 29.8301 0.100658 272.622 
-1.64852e-05 1.69631e-05 2.62325e+25 12.4475 3.48004 273.416 
-1.45739e-05 1.69631e-05 2.67489e+25 25.9891 0.57414 273.123 
-1.26626e-05 1.69631e-05 2.68064e+25 29.1845 0.156536 272.935 
-1.07512e-05 1.69631e-05 2.68351e+25 30.5443 0.0872827 272.889 
-8.83992e-06 1.69631e-05 2.68245e+25 31.3882 0.0547798 272.904 
-6.92858e-06 1.69631e-05 2.6819e+25 31.8694 0.0483839 272.969 
-5.01725e-06 1.69631e-05 2.68186e+25 32.2134 0.00765616 272.895 
-3.10592e-06 1.69631e-05 2.68186e+25 32.5477 0.0536522 272.844 
-1.19458e-06 1.69631e-05 2.68215e+25 32.8256 0.0294453 272.787 
-1.69631e-05 2.38917e-07 2.68195e+25 -0.0510334 0.403506 272.779 
-1.50517e-05 2.38917e-07 2.68823e+25 -0.439447 3.19982 272.033 
-1.31404e-05 2.38917e-07 2.68965e+25 -1.05699 4.98247 271.861 
-1.12291e-05 2.38917e-07 2.68945e+25 -1.91632 5.77854 271.887 
-9.31775e-06 2.38917e-07 2.69015e+25 -2.92622 6.06382 271.806 
-7.40642e-06 2.38917e-07 2.69002e+25 -3.68788 6.02498 271.84 
-5.49508e-06 2.38917e-07 2.68918e+25 -4.68666 5.59345 271.81 
-3.58375e-06 2.38917e-07 2.68833e+25 -5.65556 4.62738 271.981 
-1.67242e-06 2.38917e-07 2.68642e+25 -6.60868 3.34866 272.076 
-1.69631e-05 7.1675e-07 2.68466e+25 -6.02907e-05 0.462438 272.737 
-1.50517e-05 7.1675e-07 2.69002e+25 -0.50807 3.34262 272.021 
-1.31404e-05 7.1675e-07 2.69119e+25 -1.01825 5.23986 271.856 
-1.12291e-05 7.1675e-07 2.69232e+25 -2.01632 6.03169 271.807 
-9.31775e-06 7.1675e-07 2.69149e+25 -2.8358 6.28017 271.857 
-7.40642e-06 7.1675e-07 2.6923e+25 -3.68522 6.27489 271.787 
-5.49508e-06 7.1675e-07 2.69235e+25 -4.56298 5.83411 271.778 
-3.58375e-06 7.1675e-07 2.6898e+25 -5.58324 4.80048 271.982 
-1.67242e-06 7.1675e-07 2.68817e+25 -6.45401 3.59761 272.133 
-1.69631e-05 1.19458e-06 2.68439e+25 -0.0110967 0.490013 272.755 
-1.50517e-05 1.19458e-06 2.69097e+25 -0.38601 3.49485 271.983 
-1.31404e-05 1.19458e-06 2.69175e+25 -1.01335 5.4677 271.884 
-1.12291e-05 1.19458e-06 2.69221e+25 -1.9403 6.34708 271.823 
-9.31775e-06 1.19458e-06 2.69151e+25 -2.76328 6.45694 271.921 
-7.40642e-06 1.19458e-06 2.69091e+25 -3.56806 6.55545 271.855 
-5.49508e-06 1.19458e-06 2.6924e+25 -4.51783 6.12096 271.776 
-3.58375e-06 1.19458e-06 2.69053e+25 -5.54587 4.9875 271.933 
-1.67242e-06 1.19458e-06 2.68839e+25 -6.26418 3.7925 272.089 
-1.69631e-05 1.67242e-06 2.68298e+25 0.00750296 0.498084 272.794 
-1.50517e-05 1.67242e-06 2.69066e+25 -0.297175 3.61071 271.955 
-1.31404e-05 1.67242e-06 2.69135e+25 -1.01915 5.70135 271.895 
-1.12291e-05 1.67242e-06 2.69168e+25 -1.7657 6.52623 271.86 
-9.31775e-06 1.67242e-06 2.69226e+25 -2.7611 6.66587 271.865 
-7.40642e-06 1.67242e-06 2.69241e+25 -3.54045 6.7961 271.764 
-5.49508e-06 1.67242e-06 2.69204e+25 -4.43937 6.36742 271.763 
-3.58375e-06 1.67242e-06 2.69025e+25 -5.32557 5.20866 271.917 
-1.67242e-06 1.67242e-06 2.6884e+25 -6.11064 3.99284 272.042 
-1.69631e-05 2.15025e-06 2.68297e+25 -0.0133152 0.523447 272.797 
-1.50517e-05 2.15025e-06 2.69073e+25 -0.225605 3.78209 272.033 
-1.31404e-05 2.15025e-06 2.69207e+25 -0.952732 5.89741 271.842 
-1.12291e-05 2.15025e-06 2.69158e+25 -1.77999 6.72961 271.88 
-9.31775e-06 2.15025e-06 2.69218e+25 -2.65326 6.89341 271.772 
-7.40642e-06 2.15025e-06 2.69294e+25 -3.56785 7.03125 271.7 
-5.49508e-06 2.15025e-06 2.69025e+25 -4.41105 6.49151 271.864 
-3.58375e-06 2.15025e-06 2.6903e+25 -5.0787 5.41195 271.909 
-1.67242e-06 2.15025e-06 2.68836e+25 -5.79182 4.16247 272.083 
-1.69631e-05 2.62808e-06 2.68288e+25 -0.0250326 0.568905 272.818 
-1.50517e-05 2.62808e-06 2.69128e+25 -0.156389 3.84641 271.945 
-1.31404e-05 2.62808e-06 2.69191e+25 -0.79857 6.08023 271.843 
-1.12291e-05 2.62808e-06 2.69219e+25 -1.69282 6.94689 271.832 
-9.31775e-06 2.62808e-06 2.69095e+25 -2.54128 7.08844 271.878 
-7.40642e-06 2.62808e-06 2.69228e+25 -3.42685 7.39338 271.712 
-5.49508e-06 2.62808e-06 2.69111e+25 -4.29144 6.62596 271.914 
-3.58375e-06 2.62808e-06 2.68992e+25 -4.89781 5.59361 272.005 
-1.67242e-06 2.62808e-06 2.68789e+25 -5.57652 4.34622 272.084 
-1.69631e-05 3.10592e-06 2.68173e+25 0.0208958 0.566706 272.901 
-1.50517e-05 3.10592e-06 2.69005e+25 -0.10911 3.98567 272.046 
-1.31404e-05 3.10592e-06 2.69136e+25 -0.76739 6.2137 271.895 
-1.12291e-05 3.10592e-06 2.69196e+25 -1.57391 7.13949 271.866 
-9.31775e-06 3.10592e-06 2.69163e+25 -2.41854 7.35837 271.83 
-7.40642e-06 3.10592e-06 2.69239e+25 -3.31869 7.63688 271.771 
-5.49508e-06 3.10592e-06 2.69062e+25 -4.11314 6.76277 271.877 
-3.58375e-06 3.10592e-06 2.68975e+25 -4.64587 5.80023 271.968 
-1.67242e-06 3.10592e-06 2.68837e+25 -5.26775 4.4868 272.061 
-1.69631e-05 3.58375e-06 2.68246e+25 0.0276756 0.51754 272.846 
-1.50517e-05 3.58375e-06 2.69067e+25 -0.180553 4.10176 272.075 
-1.31404e-05 3.58375e-06 2.69021e+25 -0.770094 6.36266 271.902 
-1.12291e-05 3.58375e-06 2.69006e+25 -1.39317 7.32478 271.908 
-9.31775e-06 3.58375e-06 2.69239e+25 -2.42606 7.6212 271.764 
-7.40642e-06 3.58375e-06 2.69162e+25 -3.2808 7.75105 271.779 
-5.49508e-06 3.58375e-06 2.69153e+25 -3.8194 6.94777 271.813 
-3.58375e-06 3.58375e-06 2.68971e+25 -4.34379 5.94785 271.951 
-1.67242e-06 3.58375e-06 2.68765e+25 -5.04771 4.59593 272.106 
-1.69631e-05 4.06158e-06 2.68318e+25 -0.0221493 0.53178 272.774 
-1.50517e-05 4.06158e-06 2.68924e+25 -0.196883 4.25437 272.077 
-1.31404e-05 4.06158e-06 2.69043e+25 -0.806106 6.50229 271.948 
-1.12291e-05 4.06158e-06 2.69106e+25 -1.44704 7.49269 271.868 
-9.31775e-06 4.06158e-06 2.69164e+25 -2.3011 7.87415 271.823 
-7.40642e-06 4.06158e-06 2.69029e+25 -3.10906 7.86372 271.883 
-5.49508e-06 4.06158e-06 2.6908e+25 -3.5194 7.08381 271.909 
-3.58375e-06 4.06158e-06 2.68981e+25 -4.02663 6.06411 271.947 
-1.67242e-06 4.06158e-06 2.68732e+25 -4.67641 4.74258 272.067 
-1.69631e-05 4.53942e-06 2.68155e+25 0.0246114 0.540049 272.875 
-1.50517e-05 4.53942e-06 2.68752e+25 -0.283362 4.3573 272.189 
-1.31404e-05 4.53942e-06 2.68971e+25 -0.777223 6.64804 271.943 
-1.12291e-05 4.53942e-06 2.69153e+25 -1.35207 7.69287 271.822 
-9.31775e-06 4.53942e-06 2.69163e+25 -2.09592 8.06638 271.832 
-7.40642e-06 4.53942e-06 2.68957e+25 -2.87243 7.97614 271.948 
-5.49508e-06 4.53942e-06 2.68931e+25 -3.28005 7.173 272.009 
-3.58375e-06 4.53942e-06 2.68989e+25 -3.77408 6.21779 271.891 
-1.67242e-06 4.53942e-06 2.68802e+25 -4.28355 4.84337 271.996 
-1.69631e-05 5.01725e-06 2.68176e+25 0.00310561 0.526902 272.873 
-1.50517e-05 5.01725e-06 2.68732e+25 -0.332465 4.39115 272.194 
-1.31404e-05 5.01725e-06 2.69063e+25 -0.726825 6.81198 271.925 
-1.12291e-05 5.01725e-06 2.69172e+25 -1.42384 7.89493 271.841 
-9.31775e-06 5.01725e-06 2.69041e+25 -2.12819 8.20563 271.84 
-7.40642e-06 5.01725e-06 2.68941e+25 -2.65722 8.10749 271.967 
-5.49508e-06 5.01725e-06 2.68764e+25 -3.04771 7.28825 271.989 
-3.58375e-06 5.01725e-06 2.68977e+25 -3.40523 6.34628 271.803 
-1.67242e-06 5.01725e-06 2.68807e+25 -3.93691 4.95548 271.913 
-1.69631e-05 5.49508e-06 2.68298e+25 -0.0307246 0.571082 272.791 
-1.50517e-05 5.49508e-06 2.68829e+25 -0.39602 4.4971 272.134 
-1.31404e-05 5.49508e-06 2.68982e+25 -0.795769 6.96091 271.942 
-1.12291e-05 5.49508e-06 2.69041e+25 -1.47919 8.0378 271.913 
-9.31775e-06 5.49508e-06 2.68995e+25 -2.06961 8.33216 271.929 
-7.40642e-06 5.49508e-06 2.69044e+25 -2.52747 8.2193 271.9 
-5.49508e-06 5.49508e-06 2.68905e+25 -2.80638 7.39892 271.969 
-3.58375e-06 5.49508e-06 2.68977e+25 -3.08619 6.42669 271.855 
-1.67242e-06 5.49508e-06 2.68939e+25 -3.59243 5.14178 271.841 
-1.69631e-05 5.97292e-06 2.68322e+25 -0.03515 0.660543 272.71 
-1.50517e-05 5.97292e-06 2.68725e+25 -0.413476 4.64174 272.202 
-1.31404e-05 5.97292e-06 2.68962e+25 -0.861109 7.06042 271.943 
-1.12291e-05 5.97292e-06 2.69031e+25 -1.49002 8.25682 271.948 
-9.31775e-06 5.97292e-06 2.69119e+25 -2.03773 8.43676 271.866 
-7.40642e-06 5.97292e-06 2.68928e+25 -2.39836 8.27986 271.877 
-5.49508e-06 5.97292e-06 2.68786e+25 -2.55179 7.45551 271.998 
-3.58375e-06 5.97292e-06 2.68926e+25 -2.85319 6.44683 271.963 
-1.67242e-06 5.97292e-06 2.68996e+25 -3.2418 5.26773 271.77 
-1.69631e-05 6.45075e-06 2.68197e+25 -0.0106735 0.718992 272.739 
-1.50517e-05 6.45075e-06 2.68754e+25 -0.380481 4.77853 272.183 
-1.31404e-05 6.45075e-06 2.69105e+25 -1.08323 7.16079 271.901 
-1.12291e-05 6.45075e-06 2.69013e+25 -1.5246 8.4387 271.903 
-9.31775e-06 6.45075e-06 2.69114e+25 -1.99805 8.50405 271.872 
-7.40642e-06 6.45075e-06 2.69022e+25 -2.23049 8.28667 271.848 
-5.49508e-06 6.45075e-06 2.68968e+25 -2.35749 7.52193 271.919 
-3.58375e-06 6.45075e-06 2.68878e+25 -2.56008 6.46111 271.942 
-1.67242e-06 6.45075e-06 2.6904e+25 -2.60689 5.30838 271.762 
-1.69631e-05 6.92858e-06 2.68193e+25 0.0197783 0.691101 272.783 
-1.50517e-05 6.92858e-06 2.68715e+25 -0.393841 4.91892 272.22 
-1.31404e-05 6.92858e-06 2.68905e+25 -1.08666 7.32347 271.976 
-1.12291e-05 6.92858e-06 2.69026e+25 -1.58447 8.53022 271.897 
-9.31775e-06 6.92858e-06 2.69039e+25 -1.86748 8.57245 271.841 
-7.40642e-06 6.92858e-06 2.69053e+25 -1.94326 8.31257 271.787 
-5.49508e-06 6.92858e-06 2.68969e+25 -1.95441 7.5453 271.836 
-3.58375e-06 6.92858e-06 2.68729e+25 -2.08212 6.49845 272.005 
-1.67242e-06 6.92858e-06 2.68871e+25 -2.06756 5.31976 271.772 
-1.69631e-05 7.40642e-06 2.68137e+25 0.0214289 0.672642 272.798 
-1.50517e-05 7.40642e-06 2.68742e+25 -0.429912 5.09392 272.155 
-1.31404e-05 7.40642e-06 2.68936e+25 -1.09818 7.45454 272.027 
-1.12291e-05 7.40642e-06 2.6899e+25 -1.53157 8.58096 271.885 
-9.31775e-06 7.40642e-06 2.69116e+25 -1.72918 8.64443 271.781 
-7.40642e-06 7.40642e-06 2.69224e+25 -1.70023 8.30781 271.685 
-5.49508e-06 7.40642e-06 2.68968e+25 -1.67336 7.52021 271.876 
-3.58375e-06 7.40642e-06 2.6883e+25 -1.68715 6.51356 271.924 
-1.67242e-06 7.40642e-06 2.68947e+25 -1.47065 5.32887 271.852 
-1.69631e-05 7.88425e-06 2.68082e+25 -0.0199668 0.673128 272.822 
-1.50517e-05 7.88425e-06 2.68856e+25 -0.44094 5.24646 272.05 
-1.31404e-05 7.88425e-06 2.68761e+25 -1.13599 7.67182 272.09 
-1.12291e-05 7.88425e-06 2.68987e+25 -1.54764 8.61183 271.908 
-9.31775e-06 7.88425e-06 2.69057e+25 -1.58847 8.72193 271.853 
-7.40642e-06 7.88425e-06 2.69052e+25 -1.53176 8.32109 271.828 
-5.49508e-06 7.88425e-06 2.68878e+25 -1.29164 7.47744 271.829 
-3.58375e-06 7.88425e-06 2.68934e+25 -1.12198 6.52404 271.877 
-1.67242e-06 7.88425e-06 2.68955e+25 -0.774607 5.25885 271.796 
-1.69631e-05 8.36208e-06 2.68132e+25 0.020776 0.690545 272.751 
-1.50517e-05 8.36208e-06 2.68855e+25 -0.503458 5.38033 271.959 
-1.31404e-05 8.36208e-06 2.68829e+25 -1.27672 7.91066 272.019 
-1.12291e-05 8.36208e-06 2.6893e+25 -1.70647 8.63294 271.913 
-9.31775e-06 8.36208e-06 2.69054e+25 -1.64089 8.7496 271.827 
-7.40642e-06 8.36208e-06 2.69003e+25 -1.38602 8.19442 271.863 
-5.49508e-06 8.36208e-06 2.69003e+25 -1.02398 7.37495 271.816 
-3.58375e-06 8.36208e-06 2.68929e+25 -0.53108 6.52033 271.892 
-1.67242e-06 8.36208e-06 2.6888e+25 -0.0884745 5.16121 271.827 
-1.69631e-05 8.83992e-06 2.68257e+25 -0.0430432 0.746497 272.704 
-1.50517e-05 8.83992e-06 2.6876e+25 -0.613248 5.56246 272.023 
-1.31404e-05 8.83992e-06 2.68904e+25 -1.36134 8.10297 271.976 
-1.12291e-05 8.83992e-06 2.68926e+25 -1.79293 8.64976 271.958 
-9.31775e-06 8.83992e-06 2.68978e+25 -1.72521 8.68526 271.822 
-7.40642e-06 8.83992e-06 2.68856e+25 -1.25266 8.02851 271.947 
-5.49508e-06 8.83992e-06 2.68903e+25 -0.61772 7.30649 271.865 
-3.58375e-06 8.83992e-06 2.68831e+25 0.0944161 6.38261 271.934 
-1.67242e-06 8.83992e-06 2.68874e+25 0.61932 5.03004 271.874 
-1.69631e-05 9.31775e-06 2.68111e+25 -0.0269452 0.827233 272.692 
-1.50517e-05 9.31775e-06 2.68572e+25 -0.7429 5.81234 272.141 
-1.31404e-05 9.31775e-06 2.68901e+25 -1.53076 8.22853 271.948 
-1.12291e-05 9.31775e-06 2.68985e+25 -1.87876 8.61307 271.869 
-9.31775e-06 9.31775e-06 2.68967e+25 -1.68561 8.64885 271.832 
-7.40642e-06 9.31775e-06 2.68875e+25 -1.13291 7.89026 272.001 
-5.49508e-06 9.31775e-06 2.68882e+25 -0.256755 7.19691 271.908 
-3.58375e-06 9.31775e-06 2.68796e+25 0.557819 6.17503 271.961 
-1.67242e-06 9.31775e-06 2.68884e+25 1.35014 4.83325 271.892 
-1.69631e-05 9.79558e-06 2.68096e+25 -0.0232327 0.883826 272.724 
-1.50517e-05 9.79558e-06 2.68581e+25 -0.792291 6.05674 272.172 
-1.31404e-05 9.79558e-06 2.68817e+25 -1.59521 8.33506 272.008 
-1.12291e-05 9.79558e-06 2.68971e+25 -2.04591 8.63793 271.893 
-9.31775e-06 9.79558e-06 2.6899e+25 -1.58045 8.49875 271.874 
-7.40642e-06 9.79558e-06 2.68916e+25 -0.773255 7.69426 271.961 
-5.49508e-06 9.79558e-06 2.69061e+25 0.106325 6.95134 271.845 
-3.58375e-06 9.79558e-06 2.68884e+25 1.16269 5.90591 271.899 
-1.67242e-06 9.79558e-06 2.6897e+25 2.17074 4.64807 271.852 
-1.69631e-05 1.02734e-05 2.68037e+25 -0.0893588 1.01425 272.807 
-1.50517e-05 1.02734e-05 2.68559e+25 -1.01761 6.30249 272.176 
-1.31404e-05 1.02734e-05 2.68755e+25 -1.86499 8.45149 272.066 
-1.12291e-05 1.02734e-05 2.68795e+25 -2.01759 8.66081 271.958 
-9.31775e-06 1.02734e-05 2.68996e+25 -1.51408 8.31227 271.873 
-7.40642e-06 1.02734e-05 2.68849e+25 -0.659087 7.5004 271.977 
-5.49508e-06 1.02734e-05 2.68963e+25 0.598114 6.62106 271.854 
-3.58375e-06 1.02734e-05 2.6894e+25 1.91121 5.56632 271.875 
-1.67242e-06 1.02734e-05 2.68776e+25 3.13709 4.43784 272.021 
-1.69631e-05 1.07512e-05 2.68058e+25 -0.0430768 1.18669 272.823 
-1.50517e-05 1.07512e-05 2.68578e+25 -1.10516 6.60925 272.087 
-1.31404e-05 1.07512e-05 2.689e+25 -2.08947 8.57098 271.92 
-1.12291e-05 1.07512e-05 2.68828e+25 -2.05246 8.57543 271.964 
-9.31775e-06 1.07512e-05 2.69003e+25 -1.40802 8.08771 271.81 
-7.40642e-06 1.07512e-05 2.6879e+25 -0.235767 7.21556 272.06 
-5.49508e-06 1.07512e-05 2.68986e+25 1.18925 6.27428 271.864 
-3.58375e-06 1.07512e-05 2.68844e+25 2.73601 5.22688 271.956 
-1.67242e-06 1.07512e-05 2.68795e+25 4.05842 4.23536 271.978 
-1.69631e-05 1.12291e-05 2.67998e+25 -0.0255205 1.27677 272.766 
-1.50517e-05 1.12291e-05 2.68483e+25 -1.31114 6.97641 272.168 
-1.31404e-05 1.12291e-05 2.68746e+25 -2.22164 8.69586 272.016 
-1.12291e-05 1.12291e-05 2.6887e+25 -2.08079 8.52319 271.983 
-9.31775e-06 1.12291e-05 2.68991e+25 -1.13878 7.79607 271.902 
-7.40642e-06 1.12291e-05 2.68893e+25 0.391024 6.80699 272.018 
-5.49508e-06 1.12291e-05 2.6893e+25 1.92558 5.86271 271.864 
-3.58375e-06 1.12291e-05 2.6879e+25 3.52281 4.80001 272.029 
-1.67242e-06 1.12291e-05 2.68741e+25 5.03601 3.95956 271.954 
-1.69631e-05 1.17069e-05 2.6796e+25 -0.0526208 1.36894 272.767 
-1.50517e-05 1.17069e-05 2.68436e+25 -1.49817 7.40759 272.263 
-1.31404e-05 1.17069e-05 2.68573e+25 -2.34855 8.80999 272.134 
-1.12291e-05 1.17069e-05 2.68817e+25 -2.04078 8.38249 271.941 
-9.31775e-06 1.17069e-05 2.6884e+25 -0.753853 7.4254 271.991 
-7.40642e-06 1.17069e-05 2.68848e+25 1.06589 6.37928 272.083 
-5.49508e-06 1.17069e-05 2.68911e+25 2.77057 5.49886 271.953 
-3.58375e-06 1.17069e-05 2.68764e+25 4.51009 4.35428 272.039 
-1.67242e-06 1.17069e-05 2.68736e+25 6.17079 3.63625 271.984 
-1.69631e-05 1.21847e-05 2.67884e+25 -0.0166238 1.48065 272.761 
-1.50517e-05 1.21847e-05 2.68452e+25 -1.72394 7.88224 272.113 
-1.31404e-05 1.21847e-05 2.68534e+25 -2.63718 8.81989 272.168 
-1.12291e-05 1.21847e-05 2.68796e+25 -1.86635 8.12605 271.954 
-9.31775e-06 1.21847e-05 2.68907e+25 -0.274717 6.93123 271.938 
-7.40642e-06 1.21847e-05 2.68761e+25 1.81399 5.85467 272.14 
-5.49508e-06 1.21847e-05 2.68799e+25 3.76881 5.05849 272.057 
-3.58375e-06 1.21847e-05 2.68722e+25 5.68993 3.8513 272.103 
-1.67242e-06 1.21847e-05 2.68764e+25 7.55928 3.27023 272.024 
-1.69631e-05 1.26626e-05 2.67896e+25 -0.0876003 1.60284 272.755 
-1.50517e-05 1.26626e-05 2.68387e+25 -2.03031 8.31042 272.153 
-1.31404e-05 1.26626e-05 2.68701e+25 -2.85223 8.74643 272.013 
-1.12291e-05 1.26626e-05 2.68759e+25 -1.56072 7.77657 271.996 
-9.31775e-06 1.26626e-05 2.68878e+25 0.453219 6.37024 272.019 
-7.40642e-06 1.26626e-05 2.68811e+25 2.81986 5.32608 272.095 
-5.49508e-06 1.26626e-05 2.68629e+25 5.07005 4.51585 272.248 
-3.58375e-06 1.26626e-05 2.68815e+25 7.08454 3.4131 272.082 
-1.67242e-06 1.26626e-05 2.68755e+25 8.8932 2.8452 272.058 
-1.69631e-05 1.31404e-05 2.6785e+25 -0.0927696 1.8515 272.689 
-1.50517e-05 1.31404e-05 2.68395e+25 -2.4154 8.78828 272.027 
-1.31404e-05 1.31404e-05 2.68581e+25 -2.97101 8.61152 271.992 
-1.12291e-05 1.31404e-05 2.68753e+25 -1.02736 7.27674 272.095 
-9.31775e-06 1.31404e-05 2.68967e+25 1.55921 5.72173 271.955 
-7.40642e-06 1.31404e-05 2.6866e+25 4.22446 4.81486 272.119 
-5.49508e-06 1.31404e-05 2.68699e+25 6.54154 3.91758 272.245 
-3.58375e-06 1.31404e-05 2.68699e+25 8.776 2.89487 272.099 
-1.67242e-06 1.31404e-05 2.68785e+25 10.7426 2.43843 272.024 
-1.69631e-05 1.36182e-05 2.67733e+25 -0.185733 2.17748 272.694 
-1.50517e-05 1.36182e-05 2.68384e+25 -2.8802 9.28496 272.026 
-1.31404e-05 1.36182e-05 2.6864e+25 -2.64313 8.31575 272.021 
-1.12291e-05 1.36182e-05 2.68638e+25 -0.132513 6.52559 272.244 
-9.31775e-06 1.36182e-05 2.68864e+25 3.03684 5.02716 272.073 
-7.40642e-06 1.36182e-05 2.6882e+25 6.0076 4.16634 272.06 
-5.49508e-06 1.36182e-05 2.68687e+25 8.42775 3.28761 272.203 
-3.58375e-06 1.36182e-05 2.68675e+25 10.7913 2.38182 272.187 
-1.67242e-06 1.36182e-05 2.68769e+25 12.5734 2.01925 272.079 
-1.69631e-05 1.40961e-05 2.67584e+25 -0.208922 2.61784 272.778 
-1.50517e-05 1.40961e-05 2.68281e+25 -3.20434 9.5973 272.033 
-1.31404e-05 1.40961e-05 2.68621e+25 -1.99528 7.76884 271.994 
-1.12291e-05 1.40961e-05 2.68495e+25 1.39433 5.62732 272.304 
-9.31775e-06 1.40961e-05 2.68857e+25 4.94131 4.26188 272.152 
-7.40642e-06 1.40961e-05 2.68831e+25 8.03313 3.44861 272.135 
-5.49508e-06 1.40961e-05 2.68745e+25 10.8641 2.67453 272.236 
-3.58375e-06 1.40961e-05 2.68634e+25 13.1736 1.92487 272.238 
-1.67242e-06 1.40961e-05 2.68594e+25 14.7607 1.57195 272.228 
-1.69631e-05 1.45739e-05 2.67287e+25 -0.335938 3.27117 272.791 
-1.50517e-05 1.45739e-05 2.6817e+25 -3.28657 9.67616 272.083 
-1.31404e-05 1.45739e-05 2.68559e+25 -0.602819 6.92871 272.033 
-1.12291e-05 1.45739e-05 2.68526e+25 3.71069 4.61925 272.331 
-9.31775e-06 1.45739e-05 2.6881e+25 7.44651 3.43301 272.149 
-7.40642e-06 1.45739e-05 2.68633e+25 10.725 2.67009 272.285 
-5.49508e-06 1.45739e-05 2.68676e+25 13.6276 2.05062 272.274 
-3.58375e-06 1.45739e-05 2.68565e+25 15.6937 1.51526 272.29 
-1.67242e-06 1.45739e-05 2.68658e+25 17.1829 1.11836 272.195 
-1.69631e-05 1.50518e-05 2.66985e+25 -0.463941 4.19795 272.806 
-1.50517e-05 1.50518e-05 2.67821e+25 -2.73994 9.3845 272.237 
-1.31404e-05 1.50518e-05 2.68395e+25 1.91164 5.72153 272.202 
-1.12291e-05 1.50518e-05 2.68498e+25 6.95788 3.53051 272.364 
-9.31775e-06 1.50518e-05 2.6868e+25 10.8094 2.6047 272.293 
-7.40642e-06 1.50518e-05 2.68523e+25 13.936 1.94151 272.466 
-5.49508e-06 1.50518e-05 2.68566e+25 16.5769 1.44217 272.352 
-3.58375e-06 1.50518e-05 2.68583e+25 18.6421 1.09146 272.276 
-1.67242e-06 1.50518e-05 2.68549e+25 20.0104 0.774051 272.348 
-1.69631e-05 1.55296e-05 2.66215e+25 -0.650691 5.45784 272.8 
-1.50517e-05 1.55296e-05 2.67539e+25 -0.793649 8.34895 272.437 
-1.31404e-05 1.55296e-05 2.68142e+25 5.93957 4.19977 272.529 
-1.12291e-05 1.55296e-05 2.68236e+25 11.2812 2.50733 272.66 
-9.31775e-06 1.55296e-05 2.68668e+25 14.9718 1.74614 272.424 
-7.40642e-06 1.55296e-05 2.68413e+25 17.9234 1.29904 272.584 
-5.49508e-06 1.55296e-05 2.68564e+25 20.1237 0.933789 272.444 
-3.58375e-06 1.55296e-05 2.68515e+25 21.7803 0.700906 272.406 
-1.67242e-06 1.55296e-05 2.68441e+25 22.9829 0.480641 272.446 
-1.69631e-05 1.60074e-05 2.65075e+25 -0.826617 7.04935 272.801 
-1.50517e-05 1.60074e-05 2.67305e+25 3.59835 6.3108 272.683 
-1.31404e-05 1.60074e-05 2.6799e+25 11.8456 2.54674 272.714 
-1.12291e-05 1.60074e-05 2.68198e+25 16.7623 1.52317 272.813 
-9.31775e-06 1.60074e-05 2.68453e+25 19.9804 0.973335 272.544 
-7.40642e-06 1.60074e-05 2.68346e+25 22.2585 0.733941 272.668 
-5.49508e-06 1.60074e-05 2.68408e+25 24.0698 0.478485 272.577 
-3.58375e-06 1.60074e-05 2.68461e+25 25.3395 0.40598 272.539 
-1.67242e-06 1.60074e-05 2.68333e+25 26.2503 0.233965 272.559 
-1.69631e-05 1.64852e-05 2.628e+25 -0.391339 8.53685 272.805 
-1.50517e-05 1.64852e-05 2.67076e+25 11.8186 3.51471 272.972 
-1.31404e-05 1.64852e-05 2.67958e+25 19.7083 1.12331 272.853 
-1.12291e-05 1.64852e-05 2.68136e+25 23.3436 0.665584 272.857 
-9.31775e-06 1.64852e-05 2.68407e+25 25.7021 0.393827 272.671 
-7.40642e-06 1.64852e-05 2.68273e+25 27.166 0.267781 272.787 
-5.49508e-06 1.64852e-05 2.68257e+25 28.247 0.17842 272.756 
-3.58375e-06 1.64852e-05 2.68363e+25 29.0054 0.21427 272.68 
-1.67242e-06 1.64852e-05 2.68318e+25 29.7278 0.0749409 272.57 
-1.69631e-05 1.69631e-05 2.5528e+25 4.06098 6.24226 273.068 
-1.50517e-05 1.69631e-05 2.67148e+25 24.3603 0.865699 273.197 
-1.31404e-05 1.69631e-05 2.6795e+25 28.7181 0.247635 273.105 
-1.12291e-05 1.69631e-05 2.68115e+25 30.2839 0.140035 272.992 
-9.31775e-06 1.69631e-05 2.68251e+25 31.2439 0.0715742 272.902 
-7.40642e-06 1.69631e-05 2.68199e+25 31.7617 0.0316916 272.982 
-5.49508e-06 1.69631e-05 2.68116e+25 32.1798 0.0372426 272.935 
-3.58375e-06 1.69631e-05 2.68179e+25 32.4209 0.03782 272.931 
-1.67242e-06 1.69631e-05 2.68128e+25 32.7939 -0.00728823 272.852 
-1.60074e-05 2.38917e-07 2.6867e+25 -0.226499 1.83085 272.228 
-1.40961e-05 2.38917e-07 2.68964e+25 -0.710161 4.37539 271.915 
-1.21847e-05 2.38917e-07 2.68857e+25 -1.46394 5.54154 272.034 
-1.02734e-05 2.38917e-07 2.68886e+25 -2.43825 5.96854 271.857 
-8.36208e-06 2.38917e-07 2.68998e+25 -3.33517 6.21405 271.846 
-6.45075e-06 2.38917e-07 2.6897e+25 -4.20458 5.98669 271.859 
-4.53942e-06 2.38917e-07 2.68895e+25 -5.29521 5.03742 271.873 
-2.62808e-06 2.38917e-07 2.68758e+25 -6.15297 3.96318 271.975 
-7.1675e-07 2.38917e-07 2.68804e+25 -7.05686 2.61217 272.048 
-1.60074e-05 7.1675e-07 2.68928e+25 -0.12157 2.00656 272.212 
-1.40961e-05 7.1675e-07 2.69148e+25 -0.670841 4.51005 271.87 
-1.21847e-05 7.1675e-07 2.69104e+25 -1.51681 5.80121 271.993 
-1.02734e-05 7.1675e-07 2.69144e+25 -2.56423 6.16453 271.864 
-8.36208e-06 7.1675e-07 2.69124e+25 -3.28909 6.44088 271.873 
-6.45075e-06 7.1675e-07 2.69167e+25 -4.11388 6.21781 271.798 
-4.53942e-06 7.1675e-07 2.6921e+25 -5.11191 5.31338 271.822 
-2.62808e-06 7.1675e-07 2.69048e+25 -5.98498 4.19829 271.934 
-7.1675e-07 7.1675e-07 2.68985e+25 -6.85078 2.81532 272.023 
-1.60074e-05 1.19458e-06 2.68958e+25 -0.179248 2.16894 272.138 
-1.40961e-05 1.19458e-06 2.69074e+25 -0.700625 4.64405 271.927 
-1.21847e-05 1.19458e-06 2.69183e+25 -1.56884 5.99163 271.889 
-1.02734e-05 1.19458e-06 2.6928e+25 -2.42446 6.35168 271.811 
-8.36208e-06 1.19458e-06 2.6908e+25 -3.12469 6.61458 271.893 
-6.45075e-06 1.19458e-06 2.69261e+25 -3.9761 6.38745 271.799 
-4.53942e-06 1.19458e-06 2.69164e+25 -5.05028 5.58539 271.822 
-2.62808e-06 1.19458e-06 2.69015e+25 -5.84482 4.42753 272 
-7.1675e-07 1.19458e-06 2.69015e+25 -6.61222 3.00614 272.049 
-1.60074e-05 1.67242e-06 2.68951e+25 -0.0476517 2.2152 272.137 
-1.40961e-05 1.67242e-06 2.69103e+25 -0.634536 4.75949 271.934 
-1.21847e-05 1.67242e-06 2.69279e+25 -1.4806 6.22383 271.885 
-1.02734e-05 1.67242e-06 2.69102e+25 -2.22856 6.60712 271.916 
-8.36208e-06 1.67242e-06 2.69192e+25 -3.07866 6.78253 271.774 
-6.45075e-06 1.67242e-06 2.69136e+25 -4.05152 6.63238 271.837 
-4.53942e-06 1.67242e-06 2.69115e+25 -4.8249 5.80913 271.841 
-2.62808e-06 1.67242e-06 2.69001e+25 -5.64008 4.6106 272.042 
-7.1675e-07 1.67242e-06 2.68821e+25 -6.41221 3.21824 272.076 
-1.60074e-05 2.15025e-06 2.68848e+25 0.00162221 2.22395 272.201 
-1.40961e-05 2.15025e-06 2.69082e+25 -0.47491 4.94485 271.904 
-1.21847e-05 2.15025e-06 2.69231e+25 -1.28802 6.40838 271.817 
-1.02734e-05 2.15025e-06 2.6916e+25 -2.11792 6.83508 271.853 
-8.36208e-06 2.15025e-06 2.69232e+25 -3.00841 6.98675 271.73 
-6.45075e-06 2.15025e-06 2.69235e+25 -4.14965 6.8636 271.777 
-4.53942e-06 2.15025e-06 2.69125e+25 -4.67846 6.0395 271.847 
-2.62808e-06 2.15025e-06 2.68903e+25 -5.5593 4.80051 272.007 
-7.1675e-07 2.15025e-06 2.68821e+25 -6.21464 3.39706 272.076 
-1.60074e-05 2.62808e-06 2.68818e+25 -0.0686505 2.24811 272.246 
-1.40961e-05 2.62808e-06 2.69124e+25 -0.457171 5.14379 271.953 
-1.21847e-05 2.62808e-06 2.69292e+25 -1.16272 6.66461 271.775 
-1.02734e-05 2.62808e-06 2.69101e+25 -2.06079 7.07372 271.861 
-8.36208e-06 2.62808e-06 2.69135e+25 -2.9318 7.17764 271.796 
-6.45075e-06 2.62808e-06 2.69165e+25 -3.96707 7.06033 271.784 
-4.53942e-06 2.62808e-06 2.68944e+25 -4.56384 6.2017 271.92 
-2.62808e-06 2.62808e-06 2.68953e+25 -5.27449 4.96122 272.045 
-7.1675e-07 2.62808e-06 2.6881e+25 -5.9338 3.5502 272.092 
-1.60074e-05 3.10592e-06 2.68758e+25 -0.0363758 2.26363 272.263 
-1.40961e-05 3.10592e-06 2.69158e+25 -0.510049 5.34509 271.916 
-1.21847e-05 3.10592e-06 2.6921e+25 -1.10139 6.87666 271.821 
-1.02734e-05 3.10592e-06 2.69166e+25 -1.96774 7.2764 271.821 
-8.36208e-06 3.10592e-06 2.69094e+25 -2.95977 7.37643 271.86 
-6.45075e-06 3.10592e-06 2.6912e+25 -3.68367 7.23625 271.883 
-4.53942e-06 3.10592e-06 2.68941e+25 -4.39526 6.32154 271.929 
-2.62808e-06 3.10592e-06 2.68889e+25 -4.94645 5.08691 272.005 
-7.1675e-07 3.10592e-06 2.68833e+25 -5.60875 3.78224 272.061 
-1.60074e-05 3.58375e-06 2.68825e+25 -0.039886 2.33198 272.236 
-1.40961e-05 3.58375e-06 2.6897e+25 -0.494037 5.50084 271.992 
-1.21847e-05 3.58375e-06 2.69074e+25 -1.1189 7.0609 271.899 
-1.02734e-05 3.58375e-06 2.6917e+25 -1.94352 7.52585 271.832 
-8.36208e-06 3.58375e-06 2.69102e+25 -2.91214 7.63501 271.877 
-6.45075e-06 3.58375e-06 2.6896e+25 -3.46062 7.44547 271.877 
-4.53942e-06 3.58375e-06 2.69039e+25 -4.06793 6.46258 271.92 
-2.62808e-06 3.58375e-06 2.68817e+25 -4.74441 5.30559 272.076 
-7.1675e-07 3.58375e-06 2.68734e+25 -5.24111 3.90121 272.135 
-1.60074e-05 4.06158e-06 2.68701e+25 -0.0659402 2.41176 272.307 
-1.40961e-05 4.06158e-06 2.68996e+25 -0.453349 5.67955 271.993 
-1.21847e-05 4.06158e-06 2.69183e+25 -1.12529 7.24321 271.79 
-1.02734e-05 4.06158e-06 2.69172e+25 -1.79896 7.7636 271.806 
-8.36208e-06 4.06158e-06 2.69062e+25 -2.73371 7.86749 271.924 
-6.45075e-06 4.06158e-06 2.68961e+25 -3.2721 7.57938 271.963 
-4.53942e-06 4.06158e-06 2.6902e+25 -3.78069 6.5967 271.925 
-2.62808e-06 4.06158e-06 2.68901e+25 -4.35749 5.49923 271.998 
-7.1675e-07 4.06158e-06 2.68786e+25 -4.87791 3.94697 272.086 
-1.60074e-05 4.53942e-06 2.68625e+25 -0.0389444 2.45969 272.365 
-1.40961e-05 4.53942e-06 2.68876e+25 -0.472435 5.86748 272.078 
-1.21847e-05 4.53942e-06 2.69184e+25 -1.0641 7.39806 271.833 
-1.02734e-05 4.53942e-06 2.69066e+25 -1.73371 7.97502 271.857 
-8.36208e-06 4.53942e-06 2.69223e+25 -2.59481 8.07406 271.79 
-6.45075e-06 4.53942e-06 2.68897e+25 -3.12708 7.7035 272.002 
-4.53942e-06 4.53942e-06 2.68845e+25 -3.50778 6.71074 272.043 
-2.62808e-06 4.53942e-06 2.68912e+25 -4.07912 5.64995 271.941 
-7.1675e-07 4.53942e-06 2.68822e+25 -4.49355 4.08336 272.006 
-1.60074e-05 5.01725e-06 2.68757e+25 -0.134347 2.53768 272.275 
-1.40961e-05 5.01725e-06 2.68905e+25 -0.47427 5.93929 272.039 
-1.21847e-05 5.01725e-06 2.69031e+25 -1.01698 7.56341 271.932 
-1.02734e-05 5.01725e-06 2.69141e+25 -1.77703 8.17886 271.801 
-8.36208e-06 5.01725e-06 2.69002e+25 -2.3463 8.24961 271.878 
-6.45075e-06 5.01725e-06 2.68826e+25 -2.93254 7.79519 272.044 
-4.53942e-06 5.01725e-06 2.68929e+25 -3.29949 6.79129 271.977 
-2.62808e-06 5.01725e-06 2.68995e+25 -3.66928 5.77842 271.872 
-7.1675e-07 5.01725e-06 2.68878e+25 -4.2179 4.20526 271.907 
-1.60074e-05 5.49508e-06 2.68702e+25 -0.217768 2.64026 272.242 
-1.40961e-05 5.49508e-06 2.6882e+25 -0.572026 5.99436 272.081 
-1.21847e-05 5.49508e-06 2.69018e+25 -1.14244 7.73091 271.878 
-1.02734e-05 5.49508e-06 2.69123e+25 -1.82684 8.35866 271.816 
-8.36208e-06 5.49508e-06 2.69025e+25 -2.23932 8.37324 271.859 
-6.45075e-06 5.49508e-06 2.68908e+25 -2.67231 7.8546 271.951 
-4.53942e-06 5.49508e-06 2.68918e+25 -3.05465 6.88178 271.932 
-2.62808e-06 5.49508e-06 2.6889e+25 -3.25904 5.88731 271.911 
-7.1675e-07 5.49508e-06 2.68919e+25 -3.8181 4.29298 271.867 
-1.60074e-05 5.97292e-06 2.68685e+25 -0.239482 2.75454 272.256 
-1.40961e-05 5.97292e-06 2.6883e+25 -0.709411 6.13658 272.031 
-1.21847e-05 5.97292e-06 2.68926e+25 -1.15715 7.90602 271.925 
-1.02734e-05 5.97292e-06 2.69061e+25 -1.81623 8.45666 271.867 
-8.36208e-06 5.97292e-06 2.69033e+25 -2.21084 8.5253 271.853 
-6.45075e-06 5.97292e-06 2.68907e+25 -2.41629 7.92116 271.911 
-4.53942e-06 5.97292e-06 2.68878e+25 -2.72425 6.99035 271.972 
-2.62808e-06 5.97292e-06 2.69055e+25 -2.9264 6.05235 271.836 
-7.1675e-07 5.97292e-06 2.68874e+25 -3.25248 4.29303 271.843 
-1.60074e-05 6.45075e-06 2.68609e+25 -0.0775183 2.84919 272.299 
-1.40961e-05 6.45075e-06 2.68786e+25 -0.804508 6.25528 272.065 
-1.21847e-05 6.45075e-06 2.68942e+25 -1.24959 8.06478 271.932 
-1.02734e-05 6.45075e-06 2.6914e+25 -1.83802 8.58296 271.757 
-8.36208e-06 6.45075e-06 2.69001e+25 -2.14912 8.56913 271.897 
-6.45075e-06 6.45075e-06 2.69034e+25 -2.20864 7.95273 271.847 
-4.53942e-06 6.45075e-06 2.68982e+25 -2.46235 7.08595 271.905 
-2.62808e-06 6.45075e-06 2.68945e+25 -2.60619 6.11808 271.894 
-7.1675e-07 6.45075e-06 2.68949e+25 -2.66158 4.23735 271.784 
-1.60074e-05 6.92858e-06 2.68577e+25 -0.0693442 2.98272 272.31 
-1.40961e-05 6.92858e-06 2.68854e+25 -0.707818 6.42576 271.998 
-1.21847e-05 6.92858e-06 2.68971e+25 -1.30382 8.16353 271.974 
-1.02734e-05 6.92858e-06 2.69055e+25 -1.71343 8.70404 271.766 
-8.36208e-06 6.92858e-06 2.69006e+25 -1.92338 8.59011 271.913 
-6.45075e-06 6.92858e-06 2.69003e+25 -1.97359 7.97265 271.812 
-4.53942e-06 6.92858e-06 2.69067e+25 -2.01947 7.147 271.825 
-2.62808e-06 6.92858e-06 2.68906e+25 -2.12114 6.10183 271.856 
-7.1675e-07 6.92858e-06 2.68798e+25 -2.11384 4.27884 271.903 
-1.60074e-05 7.40642e-06 2.68674e+25 -0.115534 3.07663 272.276 
-1.40961e-05 7.40642e-06 2.68848e+25 -0.736402 6.59596 272.062 
-1.21847e-05 7.40642e-06 2.68951e+25 -1.41909 8.2584 271.993 
-1.02734e-05 7.40642e-06 2.69092e+25 -1.56972 8.77348 271.866 
-8.36208e-06 7.40642e-06 2.69008e+25 -1.76852 8.58344 271.817 
-6.45075e-06 7.40642e-06 2.69047e+25 -1.70272 7.99235 271.74 
-4.53942e-06 7.40642e-06 2.68873e+25 -1.57446 7.16375 271.924 
-2.62808e-06 7.40642e-06 2.6898e+25 -1.60168 6.08349 271.848 
-7.1675e-07 7.40642e-06 2.68777e+25 -1.40482 4.28716 271.927 
-1.60074e-05 7.88425e-06 2.68576e+25 -0.166156 3.17881 272.276 
-1.40961e-05 7.88425e-06 2.68798e+25 -0.734723 6.7901 272.022 
-1.21847e-05 7.88425e-06 2.68936e+25 -1.45722 8.35623 271.971 
-1.02734e-05 7.88425e-06 2.69053e+25 -1.53266 8.78247 271.82 
-8.36208e-06 7.88425e-06 2.68888e+25 -1.6647 8.57927 271.937 
-6.45075e-06 7.88425e-06 2.69112e+25 -1.46046 7.94032 271.742 
-4.53942e-06 7.88425e-06 2.68803e+25 -1.15273 7.08959 271.958 
-2.62808e-06 7.88425e-06 2.68905e+25 -0.975597 5.97157 271.814 
-7.1675e-07 7.88425e-06 2.68779e+25 -0.617826 4.26928 271.925 
-1.60074e-05 8.36208e-06 2.68589e+25 -0.243794 3.32363 272.217 
-1.40961e-05 8.36208e-06 2.68893e+25 -0.854683 6.97258 271.974 
-1.21847e-05 8.36208e-06 2.6896e+25 -1.6294 8.40876 271.94 
-1.02734e-05 8.36208e-06 2.69022e+25 -1.6754 8.75903 271.76 
-8.36208e-06 8.36208e-06 2.68983e+25 -1.65372 8.53574 271.9 
-6.45075e-06 8.36208e-06 2.69034e+25 -1.15768 7.84609 271.83 
-4.53942e-06 8.36208e-06 2.68926e+25 -0.739615 6.95708 271.87 
-2.62808e-06 8.36208e-06 2.6882e+25 -0.315704 5.80363 271.846 
-7.1675e-07 8.36208e-06 2.68734e+25 0.0845539 4.25607 272.008 
-1.60074e-05 8.83992e-06 2.68544e+25 -0.274511 3.47181 272.284 
-1.40961e-05 8.83992e-06 2.6879e+25 -1.00027 7.11714 272.002 
-1.21847e-05 8.83992e-06 2.68863e+25 -1.71129 8.54824 271.982 
-1.02734e-05 8.83992e-06 2.6903e+25 -1.79535 8.73534 271.833 
-8.36208e-06 8.83992e-06 2.68857e+25 -1.54615 8.46736 271.947 
-6.45075e-06 8.83992e-06 2.68877e+25 -0.897674 7.72266 271.929 
-4.53942e-06 8.83992e-06 2.68801e+25 -0.301425 6.79421 271.932 
-2.62808e-06 8.83992e-06 2.68785e+25 0.303088 5.6958 271.945 
-7.1675e-07 8.83992e-06 2.68766e+25 0.825186 4.2121 271.978 
-1.60074e-05 9.31775e-06 2.68576e+25 -0.300285 3.64466 272.247 
-1.40961e-05 9.31775e-06 2.68811e+25 -1.24122 7.33471 271.943 
-1.21847e-05 9.31775e-06 2.68824e+25 -1.80984 8.73031 271.868 
-1.02734e-05 9.31775e-06 2.69136e+25 -1.82113 8.68788 271.822 
-8.36208e-06 9.31775e-06 2.68905e+25 -1.41191 8.30039 271.922 
-6.45075e-06 9.31775e-06 2.68964e+25 -0.679264 7.53719 271.888 
-4.53942e-06 9.31775e-06 2.68894e+25 0.104699 6.58914 271.907 
-2.62808e-06 9.31775e-06 2.6873e+25 0.953017 5.56582 271.986 
-7.1675e-07 9.31775e-06 2.68799e+25 1.6315 4.10853 271.95 
-1.60074e-05 9.79558e-06 2.68471e+25 -0.281082 3.86544 272.297 
-1.40961e-05 9.79558e-06 2.68658e+25 -1.26188 7.56871 272.082 
-1.21847e-05 9.79558e-06 2.68864e+25 -1.77577 8.82216 271.916 
-1.02734e-05 9.79558e-06 2.6908e+25 -1.95565 8.60745 271.747 
-8.36208e-06 9.79558e-06 2.6899e+25 -1.21651 8.1475 271.852 
-6.45075e-06 9.79558e-06 2.68957e+25 -0.415311 7.27453 271.888 
-4.53942e-06 9.79558e-06 2.68961e+25 0.630063 6.37103 271.879 
-2.62808e-06 9.79558e-06 2.68838e+25 1.79839 5.35346 271.938 
-7.1675e-07 9.79558e-06 2.68673e+25 2.4797 3.96553 272.027 
-1.60074e-05 1.02734e-05 2.68484e+25 -0.427235 4.04452 272.355 
-1.40961e-05 1.02734e-05 2.68592e+25 -1.49731 7.8299 272.127 
-1.21847e-05 1.02734e-05 2.68908e+25 -1.92385 8.91661 271.885 
-1.02734e-05 1.02734e-05 2.68938e+25 -1.83685 8.46053 271.877 
-8.36208e-06 1.02734e-05 2.68898e+25 -1.05188 7.92052 271.965 
-6.45075e-06 1.02734e-05 2.68955e+25 -0.0717519 6.99725 271.864 
-4.53942e-06 1.02734e-05 2.68987e+25 1.2564 6.07552 271.903 
-2.62808e-06 1.02734e-05 2.688e+25 2.64464 5.03165 271.923 
-7.1675e-07 1.02734e-05 2.68755e+25 3.53709 3.81208 271.991 
-1.60074e-05 1.07512e-05 2.6838e+25 -0.490735 4.23394 272.367 
-1.40961e-05 1.07512e-05 2.68636e+25 -1.71182 8.10254 272.093 
-1.21847e-05 1.07512e-05 2.68938e+25 -2.11968 8.94526 271.848 
-1.02734e-05 1.07512e-05 2.68976e+25 -1.76865 8.32896 271.8 
-8.36208e-06 1.07512e-05 2.68894e+25 -0.830578 7.69422 272.002 
-6.45075e-06 1.07512e-05 2.68957e+25 0.471984 6.68629 271.889 
-4.53942e-06 1.07512e-05 2.68903e+25 1.95493 5.7406 271.938 
-2.62808e-06 1.07512e-05 2.68769e+25 3.50348 4.73258 271.95 
-7.1675e-07 1.07512e-05 2.68718e+25 4.54717 3.62321 272.046 
-1.60074e-05 1.12291e-05 2.68456e+25 -0.527374 4.61167 272.266 
-1.40961e-05 1.12291e-05 2.68548e+25 -1.93162 8.24508 272.121 
-1.21847e-05 1.12291e-05 2.68878e+25 -2.29574 8.85763 271.928 
-1.02734e-05 1.12291e-05 2.68979e+25 -1.73713 8.12799 271.847 
-8.36208e-06 1.12291e-05 2.68891e+25 -0.459713 7.33323 272.017 
-6.45075e-06 1.12291e-05 2.68919e+25 1.12509 6.32217 271.964 
-4.53942e-06 1.12291e-05 2.68847e+25 2.72416 5.35979 271.993 
-2.62808e-06 1.12291e-05 2.68752e+25 4.28956 4.35641 272.027 
-7.1675e-07 1.12291e-05 2.68658e+25 5.55316 3.38794 272.073 
-1.60074e-05 1.17069e-05 2.68377e+25 -0.591296 5.02723 272.284 
-1.40961e-05 1.17069e-05 2.68586e+25 -2.16745 8.39032 272.067 
-1.21847e-05 1.17069e-05 2.68795e+25 -2.39596 8.78394 271.995 
-1.02734e-05 1.17069e-05 2.68802e+25 -1.50667 7.8254 271.975 
-8.36208e-06 1.17069e-05 2.6884e+25 0.110895 6.91416 271.976 
-6.45075e-06 1.17069e-05 2.6881e+25 1.97049 5.90166 272.038 
-4.53942e-06 1.17069e-05 2.68714e+25 3.58604 4.97657 272.05 
-2.62808e-06 1.17069e-05 2.68857e+25 5.37027 3.93724 272.01 
-7.1675e-07 1.17069e-05 2.68767e+25 6.78516 3.14567 272.027 
-1.60074e-05 1.21847e-05 2.68341e+25 -0.739181 5.49119 272.312 
-1.40961e-05 1.21847e-05 2.68597e+25 -2.43412 8.63008 272.044 
-1.21847e-05 1.21847e-05 2.68692e+25 -2.40768 8.63916 271.999 
-1.02734e-05 1.21847e-05 2.6879e+25 -1.19864 7.4453 272.036 
-8.36208e-06 1.21847e-05 2.68851e+25 0.811319 6.45946 272.064 
-6.45075e-06 1.21847e-05 2.68837e+25 2.82641 5.47769 272.05 
-4.53942e-06 1.21847e-05 2.68875e+25 4.71734 4.52947 272.012 
-2.62808e-06 1.21847e-05 2.68767e+25 6.68712 3.49753 272.073 
-7.1675e-07 1.21847e-05 2.68678e+25 8.16768 2.90746 272.046 
-1.60074e-05 1.26626e-05 2.68189e+25 -0.926271 6.01535 272.305 
-1.40961e-05 1.26626e-05 2.6852e+25 -2.6651 8.90473 272.063 
-1.21847e-05 1.26626e-05 2.68719e+25 -2.34931 8.36108 272.007 
-1.02734e-05 1.26626e-05 2.68762e+25 -0.670894 6.94061 272.099 
-8.36208e-06 1.26626e-05 2.68786e+25 1.6418 5.88694 272.068 
-6.45075e-06 1.26626e-05 2.68751e+25 3.92115 4.93677 272.104 
-4.53942e-06 1.26626e-05 2.68787e+25 6.07616 4.05191 272.049 
-2.62808e-06 1.26626e-05 2.68691e+25 8.11396 3.04446 272.108 
-7.1675e-07 1.26626e-05 2.68569e+25 9.76291 2.53992 272.112 
-1.60074e-05 1.31404e-05 2.68352e+25 -1.21406 6.69548 272.138 
-1.40961e-05 1.31404e-05 2.68552e+25 -3.06629 9.08687 271.973 
-1.21847e-05 1.31404e-05 2.68636e+25 -2.19375 7.9324 272.057 
-1.02734e-05 1.31404e-05 2.68638e+25 0.249169 6.37566 272.147 
-8.36208e-06 1.31404e-05 2.6878e+25 2.9643 5.23505 272.114 
-6.45075e-06 1.31404e-05 2.68697e+25 5.38447 4.38094 272.211 
-4.53942e-06 1.31404e-05 2.68632e+25 7.70464 3.52632 272.228 
-2.62808e-06 1.31404e-05 2.68734e+25 9.74901 2.57356 272.072 
-7.1675e-07 1.31404e-05 2.68676e+25 11.5602 2.15766 272.123 
-1.60074e-05 1.36182e-05 2.68085e+25 -1.55072 7.43688 272.252 
-1.40961e-05 1.36182e-05 2.68445e+25 -3.14955 9.07394 272.009 
-1.21847e-05 1.36182e-05 2.68509e+25 -1.59843 7.40172 272.165 
-1.02734e-05 1.36182e-05 2.68618e+25 1.52857 5.71529 272.192 
-8.36208e-06 1.36182e-05 2.68774e+25 4.52704 4.52662 272.184 
-6.45075e-06 1.36182e-05 2.68589e+25 7.25863 3.85912 272.248 
-4.53942e-06 1.36182e-05 2.68609e+25 9.68732 2.92908 272.208 
-2.62808e-06 1.36182e-05 2.68698e+25 11.6864 2.0828 272.089 
-7.1675e-07 1.36182e-05 2.68635e+25 13.4431 1.7926 272.11 
-1.60074e-05 1.40961e-05 2.67965e+25 -1.956 8.33217 272.253 
-1.40961e-05 1.40961e-05 2.68419e+25 -3.02019 8.90742 272.017 
-1.21847e-05 1.40961e-05 2.68522e+25 -0.390433 6.65336 272.234 
-1.02734e-05 1.40961e-05 2.68581e+25 3.25738 4.91107 272.236 
-8.36208e-06 1.40961e-05 2.68744e+25 6.47733 3.76093 272.243 
-6.45075e-06 1.40961e-05 2.68683e+25 9.49698 3.20938 272.279 
-4.53942e-06 1.40961e-05 2.68676e+25 12.0737 2.28226 272.23 
-2.62808e-06 1.40961e-05 2.68734e+25 13.9462 1.651 272.147 
-7.1675e-07 1.40961e-05 2.68644e+25 15.5427 1.42123 272.127 
-1.60074e-05 1.45739e-05 2.67922e+25 -2.38008 9.29381 272.069 
-1.40961e-05 1.45739e-05 2.68205e+25 -2.40934 8.42239 272.173 
-1.21847e-05 1.45739e-05 2.68486e+25 1.56284 5.67568 272.269 
-1.02734e-05 1.45739e-05 2.68606e+25 5.66442 4.02077 272.293 
-8.36208e-06 1.45739e-05 2.68715e+25 9.11531 2.96587 272.267 
-6.45075e-06 1.45739e-05 2.68579e+25 12.2443 2.45412 272.358 
-4.53942e-06 1.45739e-05 2.68631e+25 14.78 1.7112 272.233 
-2.62808e-06 1.45739e-05 2.68646e+25 16.4248 1.34474 272.19 
-7.1675e-07 1.45739e-05 2.6857e+25 17.9316 1.08555 272.197 
-1.60074e-05 1.50518e-05 2.67395e+25 -2.83949 10.1556 272.267 
-1.40961e-05 1.50518e-05 2.6803e+25 -0.778885 7.40468 272.299 
-1.21847e-05 1.50518e-05 2.68304e+25 4.59692 4.47087 272.466 
-1.02734e-05 1.50518e-05 2.68615e+25 8.95076 3.04588 272.353 
-8.36208e-06 1.50518e-05 2.68517e+25 12.5276 2.15067 272.365 
-6.45075e-06 1.50518e-05 2.68642e+25 15.3397 1.73966 272.35 
-4.53942e-06 1.50518e-05 2.68617e+25 17.6767 1.22851 272.259 
-2.62808e-06 1.50518e-05 2.68704e+25 19.3241 0.995444 272.209 
-7.1675e-07 1.50518e-05 2.68539e+25 20.5989 0.800273 272.314 
-1.60074e-05 1.55296e-05 2.67053e+25 -2.67449 10.5811 272.381 
-1.40961e-05 1.55296e-05 2.67894e+25 2.52789 5.88612 272.49 
-1.21847e-05 1.55296e-05 2.68254e+25 8.86513 3.15475 272.606 
-1.02734e-05 1.55296e-05 2.68466e+25 13.2753 2.06534 272.505 
-8.36208e-06 1.55296e-05 2.68448e+25 16.5978 1.38302 272.547 
-6.45075e-06 1.55296e-05 2.68448e+25 19.0541 1.10276 272.455 
-4.53942e-06 1.55296e-05 2.68602e+25 21.0471 0.786691 272.337 
-2.62808e-06 1.55296e-05 2.68493e+25 22.4508 0.657721 272.325 
-7.1675e-07 1.55296e-05 2.68424e+25 23.5721 0.462606 272.419 
-1.60074e-05 1.60074e-05 2.66463e+25 -1.03688 9.82355 272.651 
-1.40961e-05 1.60074e-05 2.67775e+25 8.21401 3.95899 272.645 
-1.21847e-05 1.60074e-05 2.68256e+25 14.6242 1.83926 272.687 
-1.02734e-05 1.60074e-05 2.68379e+25 18.5144 1.19729 272.665 
-8.36208e-06 1.60074e-05 2.68421e+25 21.218 0.757724 272.614 
-6.45075e-06 1.60074e-05 2.68348e+25 23.2159 0.612268 272.615 
-4.53942e-06 1.60074e-05 2.68367e+25 24.7991 0.409177 272.61 
-2.62808e-06 1.60074e-05 2.68503e+25 25.7983 0.371222 272.391 
-7.1675e-07 1.60074e-05 2.68422e+25 26.6133 0.237274 272.457 
-1.60074e-05 1.64852e-05 2.65766e+25 4.66543 6.93347 272.956 
-1.40961e-05 1.64852e-05 2.67688e+25 16.7032 1.95959 272.858 
-1.21847e-05 1.64852e-05 2.68128e+25 21.8003 0.788618 272.831 
-1.02734e-05 1.64852e-05 2.68257e+25 24.6552 0.48095 272.81 
-8.36208e-06 1.64852e-05 2.68386e+25 26.435 0.264229 272.71 
-6.45075e-06 1.64852e-05 2.6828e+25 27.7902 0.224856 272.771 
-4.53942e-06 1.64852e-05 2.68274e+25 28.6606 0.16624 272.71 
-2.62808e-06 1.64852e-05 2.68331e+25 29.3902 0.176699 272.589 
-7.1675e-07 1.64852e-05 2.68216e+25 29.9568 0.0972238 272.599 
-1.60074e-05 1.69631e-05 2.65133e+25 18.2283 2.16202 273.328 
-1.40961e-05 1.69631e-05 2.67787e+25 27.1408 0.424911 273.024 
-1.21847e-05 1.69631e-05 2.68056e+25 29.5845 0.148963 272.977 
-1.02734e-05 1.69631e-05 2.68183e+25 30.784 0.087755 272.953 
-8.36208e-06 1.69631e-05 2.68305e+25 31.4868 0.0252049 272.899 
-6.45075e-06 1.69631e-05 2.68264e+25 31.984 0.0578289 272.936 
-4.53942e-06 1.69631e-05 2.6813e+25 32.3073 0.0458353 272.902 
-2.62808e-06 1.69631e-05 2.681e+25 32.6844 0.0434018 272.825 
-7.1675e-07 1.69631e-05 2.68148e+25 32.8799 0.0114628 272.77 
-1.55296e-05 2.38917e-07 2.68737e+25 -0.358026 2.56799 272.097 
-1.36182e-05 2.38917e-07 2.69009e+25 -0.863771 4.73479 271.906 
-1.17069e-05 2.38917e-07 2.68789e+25 -1.68019 5.78423 272.023 
-9.79558e-06 2.38917e-07 2.68967e+25 -2.71937 5.99834 271.854 
-7.88425e-06 2.38917e-07 2.69034e+25 -3.53466 6.14813 271.851 
-5.97292e-06 2.38917e-07 2.69061e+25 -4.42525 5.79837 271.794 
-4.06158e-06 2.38917e-07 2.68899e+25 -5.48757 4.84457 271.947 
-2.15025e-06 2.38917e-07 2.68759e+25 -6.37695 3.66072 271.998 
-2.38917e-07 2.38917e-07 2.68565e+25 -7.21684 2.2306 272.049 
-1.55296e-05 7.1675e-07 2.69007e+25 -0.315604 2.71128 272.096 
-1.36182e-05 7.1675e-07 2.69217e+25 -0.810544 4.89084 271.922 
-1.17069e-05 7.1675e-07 2.69148e+25 -1.75199 6.01054 271.91 
-9.79558e-06 7.1675e-07 2.69073e+25 -2.7046 6.21867 271.921 
-7.88425e-06 7.1675e-07 2.69209e+25 -3.46609 6.27917 271.863 
-5.97292e-06 7.1675e-07 2.69184e+25 -4.30771 6.03247 271.8 
-4.06158e-06 7.1675e-07 2.69119e+25 -5.37459 5.0464 271.898 
-2.15025e-06 7.1675e-07 2.68997e+25 -6.21499 3.9177 272.006 
-2.38917e-07 7.1675e-07 2.68599e+25 -7.07402 2.43873 272.073 
-1.55296e-05 1.19458e-06 2.69092e+25 -0.308247 2.83537 271.961 
-1.36182e-05 1.19458e-06 2.69163e+25 -0.860463 5.02899 271.93 
-1.17069e-05 1.19458e-06 2.69166e+25 -1.75123 6.20325 271.849 
-9.79558e-06 1.19458e-06 2.69127e+25 -2.59841 6.31956 271.879 
-7.88425e-06 1.19458e-06 2.69208e+25 -3.32097 6.50096 271.797 
-5.97292e-06 1.19458e-06 2.69202e+25 -4.22928 6.30717 271.778 
-4.06158e-06 1.19458e-06 2.6904e+25 -5.30993 5.29828 271.981 
-2.15025e-06 1.19458e-06 2.68909e+25 -6.07186 4.11069 272.021 
-2.38917e-07 1.19458e-06 2.68605e+25 -6.79622 2.68201 272.075 
-1.55296e-05 1.67242e-06 2.69103e+25 -0.0972452 2.98629 271.949 
-1.36182e-05 1.67242e-06 2.69179e+25 -0.795198 5.22696 271.889 
-1.17069e-05 1.67242e-06 2.69009e+25 -1.60622 6.32733 271.96 
-9.79558e-06 1.67242e-06 2.69081e+25 -2.50766 6.53702 271.907 
-7.88425e-06 1.67242e-06 2.69293e+25 -3.29127 6.71947 271.779 
-5.97292e-06 1.67242e-06 2.69223e+25 -4.2623 6.53577 271.774 
-4.06158e-06 1.67242e-06 2.69104e+25 -5.09008 5.56207 271.881 
-2.15025e-06 1.67242e-06 2.6895e+25 -5.87264 4.37085 272.005 
-2.38917e-07 1.67242e-06 2.68607e+25 -6.58209 2.82201 272.058 
-1.55296e-05 2.15025e-06 2.69002e+25 -0.107439 3.14675 272.006 
-1.36182e-05 2.15025e-06 2.69086e+25 -0.710784 5.45612 271.896 
-1.17069e-05 2.15025e-06 2.69129e+25 -1.53873 6.51163 271.859 
-9.79558e-06 2.15025e-06 2.69142e+25 -2.39109 6.82657 271.867 
-7.88425e-06 2.15025e-06 2.69255e+25 -3.26874 7.01546 271.726 
-5.97292e-06 2.15025e-06 2.69155e+25 -4.29519 6.66823 271.79 
-4.06158e-06 2.15025e-06 2.69181e+25 -4.89368 5.7881 271.831 
-2.15025e-06 2.15025e-06 2.68829e+25 -5.67879 4.5607 272.06 
-2.38917e-07 2.15025e-06 2.68608e+25 -6.40597 2.97671 272.072 
-1.55296e-05 2.62808e-06 2.69077e+25 -0.0886944 3.24078 271.987 
-1.36182e-05 2.62808e-06 2.69098e+25 -0.640424 5.66757 271.919 
-1.17069e-05 2.62808e-06 2.69279e+25 -1.46393 6.78123 271.759 
-9.79558e-06 2.62808e-06 2.69089e+25 -2.31247 7.12307 271.893 
-7.88425e-06 2.62808e-06 2.69247e+25 -3.13684 7.27006 271.723 
-5.97292e-06 2.62808e-06 2.69167e+25 -4.14947 6.81184 271.806 
-4.06158e-06 2.62808e-06 2.68996e+25 -4.70226 5.98775 271.968 
-2.15025e-06 2.62808e-06 2.68804e+25 -5.43469 4.63731 272.12 
-2.38917e-07 2.62808e-06 2.68559e+25 -6.08599 3.1917 272.073 
-1.55296e-05 3.10592e-06 2.68964e+25 -0.0612832 3.22797 272.076 
-1.36182e-05 3.10592e-06 2.69187e+25 -0.626797 5.78166 271.925 
-1.17069e-05 3.10592e-06 2.69158e+25 -1.32021 7.10313 271.847 
-9.79558e-06 3.10592e-06 2.69048e+25 -2.16866 7.33679 271.879 
-7.88425e-06 3.10592e-06 2.69164e+25 -3.15775 7.47059 271.774 
-5.97292e-06 3.10592e-06 2.69086e+25 -3.90463 7.05419 271.819 
-4.06158e-06 3.10592e-06 2.69e+25 -4.53096 6.11333 271.935 
-2.15025e-06 3.10592e-06 2.68789e+25 -5.11047 4.81251 272.054 
-2.38917e-07 3.10592e-06 2.68553e+25 -5.78515 3.29517 272.135 
-1.55296e-05 3.58375e-06 2.68941e+25 -0.097816 3.25876 272.166 
-1.36182e-05 3.58375e-06 2.69029e+25 -0.648744 5.92907 271.959 
-1.17069e-05 3.58375e-06 2.69133e+25 -1.26202 7.28319 271.872 
-9.79558e-06 3.58375e-06 2.6913e+25 -2.17961 7.53758 271.858 
-7.88425e-06 3.58375e-06 2.6916e+25 -3.12825 7.652 271.833 
-5.97292e-06 3.58375e-06 2.69107e+25 -3.62729 7.23869 271.785 
-4.06158e-06 3.58375e-06 2.6891e+25 -4.21449 6.2296 271.96 
-2.15025e-06 3.58375e-06 2.68725e+25 -4.92759 4.9704 272.098 
-2.38917e-07 3.58375e-06 2.68455e+25 -5.33811 3.43961 272.19 
-1.55296e-05 4.06158e-06 2.68852e+25 -0.102337 3.29225 272.121 
-1.36182e-05 4.06158e-06 2.68976e+25 -0.646868 6.08593 271.967 
-1.17069e-05 4.06158e-06 2.69186e+25 -1.28789 7.41345 271.813 
-9.79558e-06 4.06158e-06 2.69129e+25 -2.04784 7.79465 271.82 
-7.88425e-06 4.06158e-06 2.68995e+25 -2.94925 7.87584 271.88 
-5.97292e-06 4.06158e-06 2.6899e+25 -3.42675 7.42086 271.949 
-4.06158e-06 4.06158e-06 2.68908e+25 -3.90388 6.361 271.905 
-2.15025e-06 4.06158e-06 2.68825e+25 -4.54174 5.10762 272.064 
-2.38917e-07 4.06158e-06 2.68513e+25 -4.97765 3.57745 272.07 
-1.55296e-05 4.53942e-06 2.68694e+25 -0.168123 3.39443 272.233 
-1.36182e-05 4.53942e-06 2.68976e+25 -0.6189 6.26913 271.972 
-1.17069e-05 4.53942e-06 2.69114e+25 -1.19214 7.53772 271.834 
-9.79558e-06 4.53942e-06 2.69076e+25 -1.92883 8.02001 271.885 
-7.88425e-06 4.53942e-06 2.68943e+25 -2.75128 8.02023 271.959 
-5.97292e-06 4.53942e-06 2.68937e+25 -3.20572 7.49728 272.001 
-4.06158e-06 4.53942e-06 2.68896e+25 -3.62715 6.47104 271.946 
-2.15025e-06 4.53942e-06 2.68713e+25 -4.17913 5.23977 272.035 
-2.38917e-07 4.53942e-06 2.6855e+25 -4.63714 3.7116 272.05 
-1.55296e-05 5.01725e-06 2.68732e+25 -0.239232 3.57819 272.212 
-1.36182e-05 5.01725e-06 2.68926e+25 -0.568302 6.40926 272.037 
-1.17069e-05 5.01725e-06 2.69098e+25 -1.21009 7.70234 271.862 
-9.79558e-06 5.01725e-06 2.69081e+25 -1.9661 8.21043 271.86 
-7.88425e-06 5.01725e-06 2.68915e+25 -2.51646 8.18557 271.976 
-5.97292e-06 5.01725e-06 2.68775e+25 -3.00619 7.55312 272.023 
-4.06158e-06 5.01725e-06 2.68997e+25 -3.3297 6.57849 271.847 
-2.15025e-06 5.01725e-06 2.68902e+25 -3.80016 5.34491 271.902 
-2.38917e-07 5.01725e-06 2.68684e+25 -4.30347 3.81909 271.905 
-1.55296e-05 5.49508e-06 2.68796e+25 -0.308284 3.64846 272.172 
-1.36182e-05 5.49508e-06 2.68908e+25 -0.683758 6.55563 272.03 
-1.17069e-05 5.49508e-06 2.68987e+25 -1.31571 7.91659 271.907 
-9.79558e-06 5.49508e-06 2.68994e+25 -1.93777 8.3637 271.839 
-7.88425e-06 5.49508e-06 2.68987e+25 -2.40684 8.36885 271.885 
-5.97292e-06 5.49508e-06 2.69008e+25 -2.72346 7.5763 271.949 
-4.06158e-06 5.49508e-06 2.68916e+25 -3.0837 6.57407 271.873 
-2.15025e-06 5.49508e-06 2.68962e+25 -3.40768 5.49267 271.859 
-2.38917e-07 5.49508e-06 2.68661e+25 -3.83447 3.83834 271.905 
-1.55296e-05 5.97292e-06 2.68666e+25 -0.322424 3.70159 272.223 
-1.36182e-05 5.97292e-06 2.68982e+25 -0.767007 6.61455 271.956 
-1.17069e-05 5.97292e-06 2.6899e+25 -1.29986 8.0846 271.93 
-9.79558e-06 5.97292e-06 2.69033e+25 -1.95551 8.46856 271.876 
-7.88425e-06 5.97292e-06 2.68972e+25 -2.33895 8.47615 271.877 
-5.97292e-06 5.97292e-06 2.68883e+25 -2.48103 7.65164 271.934 
-4.06158e-06 5.97292e-06 2.68977e+25 -2.81647 6.59468 271.896 
-2.15025e-06 5.97292e-06 2.68977e+25 -3.09742 5.68267 271.839 
-2.38917e-07 5.97292e-06 2.68648e+25 -3.20519 3.84126 271.853 
-1.55296e-05 6.45075e-06 2.68692e+25 -0.211845 3.82289 272.232 
-1.36182e-05 6.45075e-06 2.69023e+25 -0.958796 6.73471 271.936 
-1.17069e-05 6.45075e-06 2.69011e+25 -1.39027 8.20685 271.885 
-9.79558e-06 6.45075e-06 2.6903e+25 -1.94143 8.55971 271.799 
-7.88425e-06 6.45075e-06 2.69e+25 -2.16853 8.57735 271.878 
-5.97292e-06 6.45075e-06 2.68941e+25 -2.28995 7.74923 271.945 
-4.06158e-06 6.45075e-06 2.68824e+25 -2.52692 6.66475 271.976 
-2.15025e-06 6.45075e-06 2.69019e+25 -2.59299 5.76815 271.796 
-2.38917e-07 6.45075e-06 2.6875e+25 -2.69942 3.89316 271.771 
-1.55296e-05 6.92858e-06 2.68609e+25 -0.221427 4.01263 272.258 
-1.36182e-05 6.92858e-06 2.68863e+25 -0.900835 6.9064 272.017 
-1.17069e-05 6.92858e-06 2.68956e+25 -1.45924 8.37194 271.928 
-9.79558e-06 6.92858e-06 2.6915e+25 -1.78788 8.6461 271.729 
-7.88425e-06 6.92858e-06 2.69082e+25 -1.94029 8.59518 271.793 
-5.97292e-06 6.92858e-06 2.68993e+25 -1.93677 7.77998 271.842 
-4.06158e-06 6.92858e-06 2.68934e+25 -2.04419 6.68306 271.862 
-2.15025e-06 6.92858e-06 2.6887e+25 -2.07399 5.74739 271.849 
-2.38917e-07 6.92858e-06 2.68629e+25 -2.09977 3.90332 271.812 
-1.55296e-05 7.40642e-06 2.68663e+25 -0.248291 4.19667 272.249 
-1.36182e-05 7.40642e-06 2.68731e+25 -0.915668 7.1206 272.099 
-1.17069e-05 7.40642e-06 2.68976e+25 -1.4993 8.50345 271.942 
-9.79558e-06 7.40642e-06 2.69093e+25 -1.64608 8.71352 271.808 
-7.88425e-06 7.40642e-06 2.69073e+25 -1.70909 8.5852 271.821 
-5.97292e-06 7.40642e-06 2.6901e+25 -1.70953 7.75417 271.829 
-4.06158e-06 7.40642e-06 2.68882e+25 -1.62502 6.75577 271.963 
-2.15025e-06 7.40642e-06 2.68882e+25 -1.51325 5.66347 271.867 
-2.38917e-07 7.40642e-06 2.68674e+25 -1.35881 3.85281 271.829 
-1.55296e-05 7.88425e-06 2.68768e+25 -0.296451 4.36011 272.116 
-1.36182e-05 7.88425e-06 2.68721e+25 -0.926122 7.28204 272.108 
-1.17069e-05 7.88425e-06 2.69049e+25 -1.51272 8.52485 271.881 
-9.79558e-06 7.88425e-06 2.69114e+25 -1.55221 8.7741 271.793 
-7.88425e-06 7.88425e-06 2.69049e+25 -1.61166 8.48928 271.837 
-5.97292e-06 7.88425e-06 2.68965e+25 -1.37924 7.6918 271.856 
-4.06158e-06 7.88425e-06 2.68775e+25 -1.08505 6.81867 271.967 
-2.15025e-06 7.88425e-06 2.6891e+25 -0.86835 5.58977 271.811 
-2.38917e-07 7.88425e-06 2.68562e+25 -0.595076 3.83079 271.884 
-1.55296e-05 8.36208e-06 2.6874e+25 -0.381434 4.49073 272.096 
-1.36182e-05 8.36208e-06 2.68815e+25 -1.06316 7.4867 272.097 
-1.17069e-05 8.36208e-06 2.68999e+25 -1.64147 8.55593 271.875 
-9.79558e-06 8.36208e-06 2.69065e+25 -1.65419 8.79099 271.812 
-7.88425e-06 8.36208e-06 2.68996e+25 -1.57314 8.39378 271.807 
-5.97292e-06 8.36208e-06 2.68962e+25 -1.07221 7.65103 271.901 
-4.06158e-06 8.36208e-06 2.68838e+25 -0.606183 6.75733 271.969 
-2.15025e-06 8.36208e-06 2.6885e+25 -0.176244 5.49997 271.847 
-2.38917e-07 8.36208e-06 2.68487e+25 0.114617 3.84052 271.991 
-1.55296e-05 8.83992e-06 2.68715e+25 -0.412583 4.61725 272.087 
-1.36182e-05 8.83992e-06 2.68841e+25 -1.18233 7.71437 272.021 
-1.17069e-05 8.83992e-06 2.68903e+25 -1.83618 8.58611 271.986 
-9.79558e-06 8.83992e-06 2.68921e+25 -1.76738 8.78285 271.859 
-7.88425e-06 8.83992e-06 2.68927e+25 -1.40674 8.25618 271.884 
-5.97292e-06 8.83992e-06 2.6885e+25 -0.76538 7.526 271.976 
-4.06158e-06 8.83992e-06 2.68936e+25 -0.122221 6.60704 271.884 
-2.15025e-06 8.83992e-06 2.68904e+25 0.427534 5.37248 271.865 
-2.38917e-07 8.83992e-06 2.68541e+25 0.942524 3.75184 271.888 
-1.55296e-05 9.31775e-06 2.68591e+25 -0.515569 4.81311 272.186 
-1.36182e-05 9.31775e-06 2.68941e+25 -1.42481 7.87384 271.931 
-1.17069e-05 9.31775e-06 2.68826e+25 -1.86562 8.56884 271.926 
-9.79558e-06 9.31775e-06 2.69114e+25 -1.75288 8.72711 271.727 
-7.88425e-06 9.31775e-06 2.68893e+25 -1.24941 8.11732 271.904 
-5.97292e-06 9.31775e-06 2.68974e+25 -0.443498 7.34339 271.958 
-4.06158e-06 9.31775e-06 2.68863e+25 0.325078 6.3984 271.894 
-2.15025e-06 9.31775e-06 2.68806e+25 1.13141 5.17988 271.903 
-2.38917e-07 9.31775e-06 2.68528e+25 1.7516 3.62324 271.906 
-1.55296e-05 9.79558e-06 2.68548e+25 -0.523539 5.05198 272.163 
-1.36182e-05 9.79558e-06 2.686e+25 -1.47529 8.02216 272.069 
-1.17069e-05 9.79558e-06 2.68984e+25 -1.93616 8.70509 271.857 
-9.79558e-06 9.79558e-06 2.68966e+25 -1.79708 8.57621 271.782 
-7.88425e-06 9.79558e-06 2.69023e+25 -1.02359 7.91234 271.9 
-5.97292e-06 9.79558e-06 2.69008e+25 -0.166081 7.10442 271.843 
-4.06158e-06 9.79558e-06 2.68908e+25 0.886501 6.14808 271.87 
-2.15025e-06 9.79558e-06 2.68844e+25 2.00457 5.00038 271.943 
-2.38917e-07 9.79558e-06 2.68379e+25 2.62294 3.51674 272.023 
-1.55296e-05 1.02734e-05 2.6857e+25 -0.698825 5.3665 272.244 
-1.36182e-05 1.02734e-05 2.68607e+25 -1.70962 8.17307 272.166 
-1.17069e-05 1.02734e-05 2.68897e+25 -2.01035 8.82205 271.909 
-9.79558e-06 1.02734e-05 2.6901e+25 -1.68826 8.39967 271.864 
-7.88425e-06 1.02734e-05 2.68803e+25 -0.828744 7.7005 271.961 
-5.97292e-06 1.02734e-05 2.689e+25 0.267685 6.81234 271.897 
-4.06158e-06 1.02734e-05 2.68975e+25 1.57934 5.87936 271.822 
-2.15025e-06 1.02734e-05 2.68773e+25 2.9161 4.81146 271.934 
-2.38917e-07 1.02734e-05 2.68483e+25 3.67 3.41243 271.962 
-1.55296e-05 1.07512e-05 2.68599e+25 -0.790432 5.70017 272.166 
-1.36182e-05 1.07512e-05 2.68682e+25 -1.90334 8.35231 272.11 
-1.17069e-05 1.07512e-05 2.68877e+25 -2.09958 8.8574 271.917 
-9.79558e-06 1.07512e-05 2.6905e+25 -1.59826 8.23828 271.795 
-7.88425e-06 1.07512e-05 2.68759e+25 -0.577476 7.48099 272.063 
-5.97292e-06 1.07512e-05 2.6898e+25 0.817898 6.45725 271.905 
-4.06158e-06 1.07512e-05 2.68842e+25 2.32147 5.48067 271.936 
-2.15025e-06 1.07512e-05 2.68764e+25 3.82007 4.54124 271.982 
-2.38917e-07 1.07512e-05 2.68481e+25 4.72315 3.29757 271.899 
-1.55296e-05 1.12291e-05 2.68518e+25 -0.906707 6.02804 272.185 
-1.36182e-05 1.12291e-05 2.68629e+25 -2.07458 8.55353 272.091 
-1.17069e-05 1.12291e-05 2.68829e+25 -2.188 8.77655 271.957 
-9.79558e-06 1.12291e-05 2.6898e+25 -1.47559 8.01803 271.821 
-7.88425e-06 1.12291e-05 2.68771e+25 -0.00842347 7.13486 272.077 
-5.97292e-06 1.12291e-05 2.68979e+25 1.52977 6.07559 271.953 
-4.06158e-06 1.12291e-05 2.68717e+25 3.11554 5.10033 272.043 
-2.15025e-06 1.12291e-05 2.68772e+25 4.69441 4.18943 272.021 
-2.38917e-07 1.12291e-05 2.68509e+25 5.81249 3.16735 271.963 
-1.55296e-05 1.17069e-05 2.68451e+25 -1.02315 6.45212 272.186 
-1.36182e-05 1.17069e-05 2.68537e+25 -2.29474 8.67524 272.158 
-1.17069e-05 1.17069e-05 2.68944e+25 -2.2383 8.61532 271.881 
-9.79558e-06 1.17069e-05 2.68951e+25 -1.15186 7.69604 271.89 
-7.88425e-06 1.17069e-05 2.68809e+25 0.57557 6.64332 272.067 
-5.97292e-06 1.17069e-05 2.68697e+25 2.37913 5.65658 272.04 
-4.06158e-06 1.17069e-05 2.68781e+25 4.02894 4.67224 272.068 
-2.15025e-06 1.17069e-05 2.68757e+25 5.79811 3.81347 272.023 
-2.38917e-07 1.17069e-05 2.68421e+25 7.01151 2.95354 272.041 
-1.55296e-05 1.21847e-05 2.68351e+25 -1.24732 6.9266 272.187 
-1.36182e-05 1.21847e-05 2.68501e+25 -2.61975 8.72212 272.15 
-1.17069e-05 1.21847e-05 2.6877e+25 -2.15785 8.3885 272.005 
-9.79558e-06 1.21847e-05 2.68848e+25 -0.773687 7.27492 271.994 
-7.88425e-06 1.21847e-05 2.68756e+25 1.29629 6.16951 272.123 
-5.97292e-06 1.21847e-05 2.6876e+25 3.28123 5.25392 272.09 
-4.06158e-06 1.21847e-05 2.6881e+25 5.19717 4.18382 272.012 
-2.15025e-06 1.21847e-05 2.6875e+25 7.11981 3.35491 272.036 
-2.38917e-07 1.21847e-05 2.68387e+25 8.49554 2.71485 272.091 
-1.55296e-05 1.26626e-05 2.6833e+25 -1.54267 7.4732 272.229 
-1.36182e-05 1.26626e-05 2.6864e+25 -2.85829 8.84051 272.032 
-1.17069e-05 1.26626e-05 2.68768e+25 -1.97657 8.06737 272.042 
-9.79558e-06 1.26626e-05 2.688e+25 -0.0994319 6.77497 272.041 
-7.88425e-06 1.26626e-05 2.68797e+25 2.27497 5.62377 272.116 
-5.97292e-06 1.26626e-05 2.68653e+25 4.51302 4.72145 272.206 
-4.06158e-06 1.26626e-05 2.68804e+25 6.58054 3.69086 272.05 
-2.15025e-06 1.26626e-05 2.68781e+25 8.5027 2.97468 272.03 
-2.38917e-07 1.26626e-05 2.68362e+25 10.1545 2.35585 272.133 
-1.55296e-05 1.31404e-05 2.68406e+25 -1.85311 8.03634 272.093 
-1.36182e-05 1.31404e-05 2.68614e+25 -3.06019 8.85826 271.941 
-1.17069e-05 1.31404e-05 2.68614e+25 -1.64775 7.55172 272.123 
-9.79558e-06 1.31404e-05 2.68777e+25 0.863882 6.17457 272.028 
-7.88425e-06 1.31404e-05 2.68735e+25 3.627 5.01394 272.123 
-5.97292e-06 1.31404e-05 2.687e+25 5.91971 4.16474 272.194 
-4.06158e-06 1.31404e-05 2.68743e+25 8.25215 3.15485 272.144 
-2.15025e-06 1.31404e-05 2.68766e+25 10.2753 2.50829 272.004 
-2.38917e-07 1.31404e-05 2.68304e+25 11.9241 2.00818 272.216 
-1.55296e-05 1.36182e-05 2.6825e+25 -2.32162 8.68718 272.085 
-1.36182e-05 1.36182e-05 2.68615e+25 -3.00211 8.7558 271.981 
-1.17069e-05 1.36182e-05 2.68511e+25 -0.922214 6.88011 272.221 
-9.79558e-06 1.36182e-05 2.68642e+25 2.29715 5.45175 272.131 
-7.88425e-06 1.36182e-05 2.68711e+25 5.27468 4.3092 272.173 
-5.97292e-06 1.36182e-05 2.68768e+25 7.83103 3.57574 272.202 
-4.06158e-06 1.36182e-05 2.68664e+25 10.2684 2.63551 272.226 
-2.15025e-06 1.36182e-05 2.68627e+25 12.1682 2.03379 272.121 
-2.38917e-07 1.36182e-05 2.68436e+25 13.8157 1.66933 272.165 
-1.55296e-05 1.40961e-05 2.68116e+25 -2.77053 9.39841 272.118 
-1.36182e-05 1.40961e-05 2.68568e+25 -2.59538 8.35643 271.983 
-1.17069e-05 1.40961e-05 2.68423e+25 0.475303 6.09621 272.338 
-9.79558e-06 1.40961e-05 2.68704e+25 4.09883 4.62719 272.195 
-7.88425e-06 1.40961e-05 2.68726e+25 7.30477 3.53682 272.219 
-5.97292e-06 1.40961e-05 2.68703e+25 10.2299 2.95452 272.251 
-4.06158e-06 1.40961e-05 2.68683e+25 12.6998 2.05923 272.245 
-2.15025e-06 1.40961e-05 2.68704e+25 14.3171 1.62781 272.191 
-2.38917e-07 1.40961e-05 2.6836e+25 15.9124 1.35944 272.167 
-1.55296e-05 1.45739e-05 2.68081e+25 -3.10095 9.96121 272.005 
-1.36182e-05 1.45739e-05 2.68361e+25 -1.57302 7.64717 272.176 
-1.17069e-05 1.45739e-05 2.68464e+25 2.64612 5.12688 272.356 
-9.79558e-06 1.45739e-05 2.68675e+25 6.60759 3.74563 272.271 
-7.88425e-06 1.45739e-05 2.6873e+25 9.89493 2.74648 272.303 
-5.97292e-06 1.45739e-05 2.68661e+25 12.956 2.24964 272.289 
-4.06158e-06 1.45739e-05 2.68577e+25 15.251 1.55249 272.313 
-2.15025e-06 1.45739e-05 2.68626e+25 16.7886 1.25254 272.218 
-2.38917e-07 1.45739e-05 2.68313e+25 18.2791 1.01379 272.237 
-1.55296e-05 1.50518e-05 2.67682e+25 -3.10878 10.1619 272.228 
-1.36182e-05 1.50518e-05 2.68212e+25 0.548514 6.50909 272.294 
-1.17069e-05 1.50518e-05 2.68378e+25 5.82965 4.01044 272.397 
-9.79558e-06 1.50518e-05 2.68576e+25 9.91794 2.81794 272.347 
-7.88425e-06 1.50518e-05 2.68545e+25 13.2744 1.98807 272.448 
-5.97292e-06 1.50518e-05 2.68697e+25 15.9922 1.56461 272.282 
-4.06158e-06 1.50518e-05 2.68609e+25 18.1487 1.0648 272.307 
-2.15025e-06 1.50518e-05 2.6859e+25 19.6712 0.856016 272.306 
-2.38917e-07 1.50518e-05 2.68391e+25 20.9215 0.642851 272.28 
-1.55296e-05 1.55296e-05 2.67222e+25 -2.10824 9.65729 272.496 
-1.36182e-05 1.55296e-05 2.68134e+25 4.25937 4.99697 272.462 
-1.17069e-05 1.55296e-05 2.68197e+25 10.1421 2.76115 272.644 
-9.79558e-06 1.55296e-05 2.68601e+25 14.1472 1.92689 272.443 
-7.88425e-06 1.55296e-05 2.68421e+25 17.2801 1.313 272.575 
-5.97292e-06 1.55296e-05 2.68501e+25 19.6151 0.993256 272.481 
-4.06158e-06 1.55296e-05 2.68583e+25 21.45 0.621711 272.345 
-2.15025e-06 1.55296e-05 2.68416e+25 22.7291 0.568295 272.439 
-2.38917e-07 1.55296e-05 2.68273e+25 23.8617 0.409822 272.314 
-1.55296e-05 1.60074e-05 2.66944e+25 1.09955 7.97027 272.69 
-1.36182e-05 1.60074e-05 2.67973e+25 10.1255 3.20106 272.628 
-1.17069e-05 1.60074e-05 2.6818e+25 15.7724 1.62162 272.818 
-9.79558e-06 1.60074e-05 2.68428e+25 19.2714 1.14398 272.568 
-7.88425e-06 1.60074e-05 2.68393e+25 21.7451 0.712134 272.657 
-5.97292e-06 1.60074e-05 2.68447e+25 23.6442 0.491697 272.551 
-4.06158e-06 1.60074e-05 2.68439e+25 25.099 0.341671 272.535 
-2.15025e-06 1.60074e-05 2.68454e+25 26.0496 0.347939 272.454 
-2.38917e-07 1.60074e-05 2.68221e+25 26.8484 0.200737 272.472 
-1.55296e-05 1.64852e-05 2.66494e+25 8.56644 4.87663 272.995 
-1.36182e-05 1.64852e-05 2.67865e+25 18.3703 1.49987 272.883 
-1.17069e-05 1.64852e-05 2.68144e+25 22.6223 0.696003 272.854 
-9.79558e-06 1.64852e-05 2.68303e+25 25.2044 0.500643 272.74 
-7.88425e-06 1.64852e-05 2.68355e+25 26.8116 0.305199 272.699 
-5.97292e-06 1.64852e-05 2.684e+25 28.0299 0.168572 272.71 
-4.06158e-06 1.64852e-05 2.6836e+25 28.8079 0.10619 272.724 
-2.15025e-06 1.64852e-05 2.68346e+25 29.5689 0.146829 272.571 
-2.38917e-07 1.64852e-05 2.68043e+25 30.0673 0.0684726 272.617 
-1.55296e-05 1.69631e-05 2.66483e+25 21.9153 1.38086 273.26 
-1.36182e-05 1.69631e-05 2.67946e+25 28.0413 0.310302 273.037 
-1.17069e-05 1.69631e-05 2.68197e+25 29.9191 0.147313 272.97 
-9.79558e-06 1.69631e-05 2.68237e+25 31.0172 0.0850812 272.947 
-7.88425e-06 1.69631e-05 2.68218e+25 31.6097 0.0530941 272.869 
-5.97292e-06 1.69631e-05 2.68191e+25 32.0755 -1.02627e-05 272.964 
-4.06158e-06 1.69631e-05 2.68137e+25 32.3688 0.000786872 272.968 
-2.15025e-06 1.69631e-05 2.68044e+25 32.7635 0.0295288 272.867 
-2.38917e-07 1.69631e-05 2.68047e+25 32.944 -0.0166589 272.726 
1.19458e-06 -1.69631e-05 2.68344e+25 -0.109242 -0.00669315 272.88 
3.10592e-06 -1.69631e-05 2.6849e+25 -0.179467 -0.00223035 272.799 
5.01725e-06 -1.69631e-05 2.68582e+25 -0.150585 -0.0281303 272.787 
6.92858e-06 -1.69631e-05 2.68449e+25 -0.0829509 -0.00402948 272.819 
8.83992e-06 -1.69631e-05 2.68513e+25 -0.0586775 -0.0268112 272.822 
1.07512e-05 -1.69631e-05 2.68436e+25 0.0301306 -0.0470035 272.813 
1.26626e-05 -1.69631e-05 2.68489e+25 0.00391025 -0.0236349 272.838 
1.45739e-05 -1.69631e-05 2.68432e+25 0.0282782 0.00583076 272.849 
1.64852e-05 -1.69631e-05 2.68411e+25 -0.0730074 -0.00946851 272.883 
1.19458e-06 -1.64852e-05 2.68687e+25 -0.388927 0.0184959 272.546 
3.10592e-06 -1.64852e-05 2.68612e+25 -0.440521 -0.0575254 272.643 
5.01725e-06 -1.64852e-05 2.68684e+25 -0.265513 -0.0294018 272.573 
6.92858e-06 -1.64852e-05 2.68686e+25 -0.270875 0.00973077 272.582 
8.83992e-06 -1.64852e-05 2.68745e+25 -0.151546 -0.0721545 272.558 
1.07512e-05 -1.64852e-05 2.68787e+25 0.00314239 -0.0861109 272.451 
1.26626e-05 -1.64852e-05 2.68649e+25 -0.00442191 0.0181392 272.586 
1.45739e-05 -1.64852e-05 2.6872e+25 -0.00325058 0.050242 272.623 
1.64852e-05 -1.64852e-05 2.68539e+25 -0.00458181 -0.0492346 272.678 
1.19458e-06 -1.60074e-05 2.68979e+25 -0.805387 -0.0108398 272.233 
3.10592e-06 -1.60074e-05 2.68829e+25 -0.758159 -0.0437776 272.362 
5.01725e-06 -1.60074e-05 2.68835e+25 -0.547421 -0.0189848 272.365 
6.92858e-06 -1.60074e-05 2.68926e+25 -0.471815 -0.0170224 272.458 
8.83992e-06 -1.60074e-05 2.68785e+25 -0.308858 -0.135844 272.457 
1.07512e-05 -1.60074e-05 2.69084e+25 -0.186239 -0.0877482 272.164 
1.26626e-05 -1.60074e-05 2.68786e+25 -0.13983 -0.0323035 272.41 
1.45739e-05 -1.60074e-05 2.68809e+25 0.0504251 0.0365087 272.429 
1.64852e-05 -1.60074e-05 2.68709e+25 0.060976 -0.0088177 272.578 
1.19458e-06 -1.55296e-05 2.69145e+25 -1.14456 -0.0705236 272.151 
3.10592e-06 -1.55296e-05 2.6897e+25 -0.932123 -0.0776168 272.273 
5.01725e-06 -1.55296e-05 2.68918e+25 -0.776176 -0.044357 272.313 
6.92858e-06 -1.55296e-05 2.68882e+25 -0.720246 -0.00223537 272.378 
8.83992e-06 -1.55296e-05 2.68865e+25 -0.488656 -0.192964 272.318 
1.07512e-05 -1.55296e-05 2.69079e+25 -0.218835 -0.0970961 272.233 
1.26626e-05 -1.55296e-05 2.68916e+25 -0.194089 -0.0862648 272.313 
1.45739e-05 -1.55296e-05 2.68961e+25 -0.0501083 0.0273425 272.296 
1.64852e-05 -1.55296e-05 2.68804e+25 0.0747583 0.0129733 272.506 
1.19458e-06 -1.50517e-05 2.69132e+25 -1.49455 -0.0908601 272.033 
3.10592e-06 -1.50517e-05 2.69128e+25 -1.06234 -0.167936 272.16 
5.01725e-06 -1.50517e-05 2.68967e+25 -1.0085 -0.0545338 272.264 
6.92858e-06 -1.50517e-05 2.69006e+25 -0.787689 -0.0137178 272.257 
8.83992e-06 -1.50517e-05 2.69015e+25 -0.613603 -0.283222 272.209 
1.07512e-05 -1.50517e-05 2.68904e+25 -0.329636 -0.0741553 272.3 
1.26626e-05 -1.50517e-05 2.69018e+25 -0.231122 -0.160768 272.19 
1.45739e-05 -1.50517e-05 2.68883e+25 -0.0623319 0.031262 272.326 
1.64852e-05 -1.50517e-05 2.68647e+25 0.0022786 -0.0279046 272.553 
1.19458e-06 -1.45739e-05 2.69295e+25 -1.72233 -0.113137 271.959 
3.10592e-06 -1.45739e-05 2.69058e+25 -1.44441 -0.236921 272.126 
5.01725e-06 -1.45739e-05 2.69062e+25 -1.23046 -0.111166 272.159 
6.92858e-06 -1.45739e-05 2.69094e+25 -1.03515 -0.0832945 272.196 
8.83992e-06 -1.45739e-05 2.69043e+25 -0.694166 -0.313211 272.207 
1.07512e-05 -1.45739e-05 2.69063e+25 -0.456736 -0.115609 272.174 
1.26626e-05 -1.45739e-05 2.6902e+25 -0.111845 -0.263158 272.212 
1.45739e-05 -1.45739e-05 2.68972e+25 -0.0758829 -0.0664701 272.298 
1.64852e-05 -1.45739e-05 2.68656e+25 -0.0181955 -0.0203808 272.519 
1.19458e-06 -1.40961e-05 2.69352e+25 -1.83312 -0.23022 271.882 
3.10592e-06 -1.40961e-05 2.69164e+25 -1.69851 -0.249457 272.013 
5.01725e-06 -1.40961e-05 2.69209e+25 -1.51143 -0.153754 272.031 
6.92858e-06 -1.40961e-05 2.69104e+25 -1.38923 -0.174929 272.186 
8.83992e-06 -1.40961e-05 2.68995e+25 -0.884787 -0.383771 272.184 
1.07512e-05 -1.40961e-05 2.69121e+25 -0.535999 -0.18866 272.091 
1.26626e-05 -1.40961e-05 2.69013e+25 -0.131147 -0.262562 272.181 
1.45739e-05 -1.40961e-05 2.69011e+25 -0.0633729 -0.0490223 272.21 
1.64852e-05 -1.40961e-05 2.68754e+25 -0.0052057 -0.0189825 272.546 
1.19458e-06 -1.36182e-05 2.69455e+25 -2.10281 -0.27689 271.756 
3.10592e-06 -1.36182e-05 2.69244e+25 -1.8796 -0.269288 271.986 
5.01725e-06 -1.36182e-05 2.69111e+25 -1.73998 -0.154549 272.124 
6.92858e-06 -1.36182e-05 2.69213e+25 -1.61905 -0.308135 272.074 
8.83992e-06 -1.36182e-05 2.69081e+25 -0.954358 -0.519683 272.109 
1.07512e-05 -1.36182e-05 2.69154e+25 -0.603359 -0.320279 272.066 
1.26626e-05 -1.36182e-05 2.69132e+25 -0.324769 -0.281796 272.071 
1.45739e-05 -1.36182e-05 2.69047e+25 -0.0221033 -0.0485001 272.204 
1.64852e-05 -1.36182e-05 2.68712e+25 -0.0454978 0.0329476 272.462 
1.19458e-06 -1.31404e-05 2.69293e+25 -2.36999 -0.312594 271.906 
3.10592e-06 -1.31404e-05 2.69235e+25 -2.11392 -0.351763 271.962 
5.01725e-06 -1.31404e-05 2.692e+25 -1.96809 -0.167536 272.047 
6.92858e-06 -1.31404e-05 2.69128e+25 -1.64225 -0.390117 272.054 
8.83992e-06 -1.31404e-05 2.6918e+25 -1.01988 -0.643548 272.037 
1.07512e-05 -1.31404e-05 2.6913e+25 -0.715207 -0.415541 272.074 
1.26626e-05 -1.31404e-05 2.69095e+25 -0.442563 -0.360857 272.078 
1.45739e-05 -1.31404e-05 2.68983e+25 -0.120815 -0.0556476 272.196 
1.64852e-05 -1.31404e-05 2.68671e+25 -0.075434 0.0111099 272.535 
1.19458e-06 -1.26626e-05 2.69315e+25 -2.59885 -0.334459 271.918 
3.10592e-06 -1.26626e-05 2.69178e+25 -2.36354 -0.410845 271.965 
5.01725e-06 -1.26626e-05 2.69242e+25 -2.07645 -0.249061 271.995 
6.92858e-06 -1.26626e-05 2.69223e+25 -1.6081 -0.5019 272.02 
8.83992e-06 -1.26626e-05 2.69224e+25 -1.1295 -0.749716 272.031 
1.07512e-05 -1.26626e-05 2.69212e+25 -0.738095 -0.459227 272.029 
1.26626e-05 -1.26626e-05 2.69076e+25 -0.466682 -0.409495 272.149 
1.45739e-05 -1.26626e-05 2.68927e+25 -0.210097 -0.13465 272.25 
1.64852e-05 -1.26626e-05 2.68586e+25 -0.0737469 -0.0517077 272.595 
1.19458e-06 -1.21847e-05 2.69205e+25 -2.73366 -0.339894 271.951 
3.10592e-06 -1.21847e-05 2.69303e+25 -2.60577 -0.466428 271.919 
5.01725e-06 -1.21847e-05 2.69273e+25 -2.2057 -0.383329 271.913 
6.92858e-06 -1.21847e-05 2.69184e+25 -1.629 -0.696947 271.992 
8.83992e-06 -1.21847e-05 2.69159e+25 -1.19875 -0.869302 272.009 
1.07512e-05 -1.21847e-05 2.69173e+25 -0.703981 -0.503524 272.065 
1.26626e-05 -1.21847e-05 2.69151e+25 -0.544242 -0.465539 272.068 
1.45739e-05 -1.21847e-05 2.68981e+25 -0.241278 -0.194169 272.216 
1.64852e-05 -1.21847e-05 2.68691e+25 0.0544727 -0.0974344 272.506 
1.19458e-06 -1.17069e-05 2.69221e+25 -3.04027 -0.405178 271.959 
3.10592e-06 -1.17069e-05 2.69308e+25 -2.92671 -0.529857 271.946 
5.01725e-06 -1.17069e-05 2.69305e+25 -2.20573 -0.545418 271.949 
6.92858e-06 -1.17069e-05 2.69304e+25 -1.76565 -0.82445 271.911 
8.83992e-06 -1.17069e-05 2.69227e+25 -1.32228 -1.00301 272.049 
1.07512e-05 -1.17069e-05 2.69181e+25 -0.889898 -0.619694 272.048 
1.26626e-05 -1.17069e-05 2.69192e+25 -0.522829 -0.585339 272.065 
1.45739e-05 -1.17069e-05 2.6916e+25 -0.235025 -0.211316 272.09 
1.64852e-05 -1.17069e-05 2.68811e+25 0.0412288 -0.154066 272.456 
1.19458e-06 -1.12291e-05 2.69199e+25 -3.37297 -0.413471 272.018 
3.10592e-06 -1.12291e-05 2.69161e+25 -3.10433 -0.667313 272.036 
5.01725e-06 -1.12291e-05 2.69252e+25 -2.58253 -0.71126 271.975 
6.92858e-06 -1.12291e-05 2.69399e+25 -1.93887 -0.904164 271.844 
8.83992e-06 -1.12291e-05 2.69336e+25 -1.53523 -1.12226 271.935 
1.07512e-05 -1.12291e-05 2.69187e+25 -1.09436 -0.734377 271.954 
1.26626e-05 -1.12291e-05 2.69304e+25 -0.517882 -0.708667 271.918 
1.45739e-05 -1.12291e-05 2.69172e+25 -0.224078 -0.303687 272.031 
1.64852e-05 -1.12291e-05 2.68846e+25 -0.0229025 -0.158806 272.406 
1.19458e-06 -1.07512e-05 2.69215e+25 -3.62212 -0.408545 271.955 
3.10592e-06 -1.07512e-05 2.6918e+25 -3.19159 -0.846873 272.071 
5.01725e-06 -1.07512e-05 2.69272e+25 -2.85043 -0.894149 272.019 
6.92858e-06 -1.07512e-05 2.69335e+25 -2.12089 -1.06668 271.854 
8.83992e-06 -1.07512e-05 2.69336e+25 -1.77169 -1.18147 271.891 
1.07512e-05 -1.07512e-05 2.6925e+25 -1.27088 -0.867114 271.871 
1.26626e-05 -1.07512e-05 2.69291e+25 -0.546303 -0.813861 271.902 
1.45739e-05 -1.07512e-05 2.6914e+25 -0.146203 -0.398917 272.031 
1.64852e-05 -1.07512e-05 2.68828e+25 0.0154972 -0.153903 272.447 
1.19458e-06 -1.02734e-05 2.69117e+25 -3.79312 -0.403917 272.002 
3.10592e-06 -1.02734e-05 2.69213e+25 -3.4754 -0.963894 272.025 
5.01725e-06 -1.02734e-05 2.69121e+25 -3.1076 -1.00497 272.062 
6.92858e-06 -1.02734e-05 2.69271e+25 -2.23259 -1.21424 271.966 
8.83992e-06 -1.02734e-05 2.69143e+25 -1.92373 -1.21194 271.962 
1.07512e-05 -1.02734e-05 2.69349e+25 -1.3651 -1.00334 271.88 
1.26626e-05 -1.02734e-05 2.69274e+25 -0.512905 -0.923647 271.901 
1.45739e-05 -1.02734e-05 2.69081e+25 -0.224303 -0.566134 272.099 
1.64852e-05 -1.02734e-05 2.68781e+25 -0.00348798 -0.189718 272.52 
1.19458e-06 -9.79558e-06 2.69194e+25 -4.00712 -0.366165 272.011 
3.10592e-06 -9.79558e-06 2.69206e+25 -3.8056 -1.07564 272.044 
5.01725e-06 -9.79558e-06 2.69179e+25 -3.31816 -1.18477 272.072 
6.92858e-06 -9.79558e-06 2.69203e+25 -2.54309 -1.39967 271.997 
8.83992e-06 -9.79558e-06 2.69256e+25 -1.96547 -1.30774 271.916 
1.07512e-05 -9.79558e-06 2.69326e+25 -1.36082 -1.20854 271.913 
1.26626e-05 -9.79558e-06 2.69369e+25 -0.550887 -1.01958 271.854 
1.45739e-05 -9.79558e-06 2.6918e+25 -0.230099 -0.667233 271.971 
1.64852e-05 -9.79558e-06 2.68758e+25 -0.00490102 -0.182181 272.495 
1.19458e-06 -9.31775e-06 2.69127e+25 -4.24996 -0.366244 272.037 
3.10592e-06 -9.31775e-06 2.69215e+25 -4.24314 -1.13235 272.008 
5.01725e-06 -9.31775e-06 2.6917e+25 -3.52575 -1.43962 271.969 
6.92858e-06 -9.31775e-06 2.69348e+25 -2.86042 -1.55313 271.925 
8.83992e-06 -9.31775e-06 2.69285e+25 -2.19643 -1.53056 271.92 
1.07512e-05 -9.31775e-06 2.69315e+25 -1.41128 -1.42467 271.902 
1.26626e-05 -9.31775e-06 2.69289e+25 -0.704054 -1.1882 271.985 
1.45739e-05 -9.31775e-06 2.69158e+25 -0.204547 -0.72226 271.999 
1.64852e-05 -9.31775e-06 2.68778e+25 0.00617056 -0.19406 272.469 
1.19458e-06 -8.83992e-06 2.69094e+25 -4.56768 -0.378131 272.067 
3.10592e-06 -8.83992e-06 2.69201e+25 -4.43597 -1.21014 271.946 
5.01725e-06 -8.83992e-06 2.69177e+25 -3.84357 -1.52703 272.018 
6.92858e-06 -8.83992e-06 2.69282e+25 -3.16201 -1.71568 271.951 
8.83992e-06 -8.83992e-06 2.69394e+25 -2.34732 -1.7473 271.874 
1.07512e-05 -8.83992e-06 2.69313e+25 -1.47934 -1.62519 271.899 
1.26626e-05 -8.83992e-06 2.69213e+25 -0.739646 -1.31513 271.967 
1.45739e-05 -8.83992e-06 2.69188e+25 -0.0968274 -0.840534 272.03 
1.64852e-05 -8.83992e-06 2.68782e+25 0.0714465 -0.204678 272.435 
1.19458e-06 -8.36208e-06 2.69195e+25 -4.92094 -0.378405 271.983 
3.10592e-06 -8.36208e-06 2.69211e+25 -4.66051 -1.33235 271.965 
5.01725e-06 -8.36208e-06 2.69115e+25 -4.19058 -1.63904 272.108 
6.92858e-06 -8.36208e-06 2.69176e+25 -3.47013 -1.91249 271.982 
8.83992e-06 -8.36208e-06 2.69285e+25 -2.57966 -1.94303 271.884 
1.07512e-05 -8.36208e-06 2.69294e+25 -1.65087 -1.88528 271.89 
1.26626e-05 -8.36208e-06 2.69349e+25 -0.798641 -1.51578 271.868 
1.45739e-05 -8.36208e-06 2.69101e+25 -0.183203 -0.908614 272.123 
1.64852e-05 -8.36208e-06 2.68744e+25 -0.0555103 -0.194396 272.462 
1.19458e-06 -7.88425e-06 2.69238e+25 -5.21742 -0.419856 271.928 
3.10592e-06 -7.88425e-06 2.69259e+25 -4.88594 -1.45632 271.919 
5.01725e-06 -7.88425e-06 2.6918e+25 -4.46599 -1.82553 272.041 
6.92858e-06 -7.88425e-06 2.69304e+25 -3.78844 -2.14411 272 
8.83992e-06 -7.88425e-06 2.69331e+25 -2.79166 -2.1931 271.858 
1.07512e-05 -7.88425e-06 2.69301e+25 -1.71593 -2.13319 271.917 
1.26626e-05 -7.88425e-06 2.6917e+25 -0.936273 -1.74519 271.984 
1.45739e-05 -7.88425e-06 2.6903e+25 -0.179079 -1.02407 272.158 
1.64852e-05 -7.88425e-06 2.68631e+25 -0.0449381 -0.184606 272.566 
1.19458e-06 -7.40642e-06 2.69236e+25 -5.41079 -0.443627 271.912 
3.10592e-06 -7.40642e-06 2.69224e+25 -5.12948 -1.59706 271.971 
5.01725e-06 -7.40642e-06 2.69148e+25 -4.72943 -1.95505 272.073 
6.92858e-06 -7.40642e-06 2.69267e+25 -4.01161 -2.34613 271.999 
8.83992e-06 -7.40642e-06 2.69339e+25 -3.02276 -2.42568 271.851 
1.07512e-05 -7.40642e-06 2.69359e+25 -1.93115 -2.38455 271.835 
1.26626e-05 -7.40642e-06 2.69308e+25 -0.919238 -1.91883 271.966 
1.45739e-05 -7.40642e-06 2.69035e+25 -0.264153 -1.10776 272.113 
1.64852e-05 -7.40642e-06 2.68575e+25 0.00339631 -0.190878 272.628 
1.19458e-06 -6.92858e-06 2.69313e+25 -5.62931 -0.52996 271.871 
3.10592e-06 -6.92858e-06 2.69158e+25 -5.55016 -1.6299 272.019 
5.01725e-06 -6.92858e-06 2.6921e+25 -5.01525 -2.12122 272.013 
6.92858e-06 -6.92858e-06 2.69283e+25 -4.17985 -2.51392 271.928 
8.83992e-06 -6.92858e-06 2.69267e+25 -3.28431 -2.6761 271.934 
1.07512e-05 -6.92858e-06 2.69316e+25 -2.17289 -2.68677 271.874 
1.26626e-05 -6.92858e-06 2.69287e+25 -0.977789 -2.11384 271.917 
1.45739e-05 -6.92858e-06 2.69154e+25 -0.284511 -1.20099 272.091 
1.64852e-05 -6.92858e-06 2.68703e+25 -0.0287183 -0.257204 272.518 
1.19458e-06 -6.45075e-06 2.6917e+25 -5.90376 -0.552043 271.94 
3.10592e-06 -6.45075e-06 2.69209e+25 -5.78794 -1.63372 272.006 
5.01725e-06 -6.45075e-06 2.69173e+25 -5.28268 -2.28241 271.993 
6.92858e-06 -6.45075e-06 2.69271e+25 -4.42052 -2.7494 271.955 
8.83992e-06 -6.45075e-06 2.69201e+25 -3.4904 -2.97606 272 
1.07512e-05 -6.45075e-06 2.69353e+25 -2.35367 -2.96 271.838 
1.26626e-05 -6.45075e-06 2.69228e+25 -1.21793 -2.3822 271.95 
1.45739e-05 -6.45075e-06 2.69025e+25 -0.492719 -1.37054 272.136 
1.64852e-05 -6.45075e-06 2.68546e+25 -0.00792861 -0.312136 272.611 
1.19458e-06 -5.97292e-06 2.69204e+25 -6.09488 -0.559922 271.966 
3.10592e-06 -5.97292e-06 2.69274e+25 -6.03455 -1.68507 271.9 
5.01725e-06 -5.97292e-06 2.69144e+25 -5.56249 -2.48924 272.053 
6.92858e-06 -5.97292e-06 2.69235e+25 -4.78226 -3.00471 271.99 
8.83992e-06 -5.97292e-06 2.6914e+25 -3.68771 -3.33224 272.029 
1.07512e-05 -5.97292e-06 2.69244e+25 -2.53289 -3.25168 271.944 
1.26626e-05 -5.97292e-06 2.69135e+25 -1.44933 -2.62654 272.066 
1.45739e-05 -5.97292e-06 2.69082e+25 -0.691297 -1.47811 272.127 
1.64852e-05 -5.97292e-06 2.68508e+25 -0.0711176 -0.369595 272.681 
1.19458e-06 -5.49508e-06 2.691e+25 -6.21468 -0.578228 272.025 
3.10592e-06 -5.49508e-06 2.69244e+25 -6.25848 -1.68327 271.939 
5.01725e-06 -5.49508e-06 2.69192e+25 -5.89282 -2.67183 272.015 
6.92858e-06 -5.49508e-06 2.69158e+25 -5.1258 -3.2869 272.049 
8.83992e-06 -5.49508e-06 2.69084e+25 -3.86473 -3.64624 272.027 
1.07512e-05 -5.49508e-06 2.69219e+25 -2.62452 -3.52762 271.997 
1.26626e-05 -5.49508e-06 2.69012e+25 -1.52865 -2.89731 272.183 
1.45739e-05 -5.49508e-06 2.69102e+25 -0.680846 -1.59344 272.096 
1.64852e-05 -5.49508e-06 2.68534e+25 -0.106349 -0.444802 272.638 
1.19458e-06 -5.01725e-06 2.69022e+25 -6.45436 -0.482952 272.052 
3.10592e-06 -5.01725e-06 2.69175e+25 -6.48682 -1.72433 271.947 
5.01725e-06 -5.01725e-06 2.69206e+25 -6.1389 -2.8026 271.992 
6.92858e-06 -5.01725e-06 2.69059e+25 -5.34264 -3.53613 272.113 
8.83992e-06 -5.01725e-06 2.69171e+25 -4.11034 -3.92806 272.048 
1.07512e-05 -5.01725e-06 2.69251e+25 -2.78633 -3.84675 271.978 
1.26626e-05 -5.01725e-06 2.6908e+25 -1.6349 -3.14066 272.113 
1.45739e-05 -5.01725e-06 2.69035e+25 -0.606991 -1.76813 272.15 
1.64852e-05 -5.01725e-06 2.68678e+25 -0.0985201 -0.51468 272.555 
1.19458e-06 -4.53942e-06 2.69093e+25 -6.60559 -0.399493 272.006 
3.10592e-06 -4.53942e-06 2.69157e+25 -6.74511 -1.81217 272.035 
5.01725e-06 -4.53942e-06 2.69251e+25 -6.50332 -2.94015 271.967 
6.92858e-06 -4.53942e-06 2.69005e+25 -5.64706 -3.78526 272.154 
8.83992e-06 -4.53942e-06 2.69231e+25 -4.5024 -4.21753 272.032 
1.07512e-05 -4.53942e-06 2.69118e+25 -2.96839 -4.26721 272.08 
1.26626e-05 -4.53942e-06 2.69163e+25 -1.63683 -3.41791 272.059 
1.45739e-05 -4.53942e-06 2.69036e+25 -0.653514 -1.94456 272.108 
1.64852e-05 -4.53942e-06 2.68687e+25 -0.0519345 -0.618123 272.424 
1.19458e-06 -4.06158e-06 2.69033e+25 -6.83363 -0.370378 272.087 
3.10592e-06 -4.06158e-06 2.69102e+25 -7.13951 -1.82473 272.072 
5.01725e-06 -4.06158e-06 2.69234e+25 -6.81317 -3.07918 272.025 
6.92858e-06 -4.06158e-06 2.69116e+25 -6.03768 -4.04629 272.06 
8.83992e-06 -4.06158e-06 2.69173e+25 -4.73378 -4.52606 272.029 
1.07512e-05 -4.06158e-06 2.69123e+25 -3.12334 -4.60523 272.044 
1.26626e-05 -4.06158e-06 2.68989e+25 -1.7774 -3.75864 272.133 
1.45739e-05 -4.06158e-06 2.69083e+25 -0.667599 -2.22573 272.054 
1.64852e-05 -4.06158e-06 2.68853e+25 -0.0449318 -0.658127 272.359 
1.19458e-06 -3.58375e-06 2.69048e+25 -7.09959 -0.23348 272.101 
3.10592e-06 -3.58375e-06 2.68922e+25 -7.5089 -1.81265 272.096 
5.01725e-06 -3.58375e-06 2.69013e+25 -7.19712 -3.20267 272.108 
6.92858e-06 -3.58375e-06 2.69059e+25 -6.41377 -4.28286 272.08 
8.83992e-06 -3.58375e-06 2.69188e+25 -5.05703 -4.93049 271.98 
1.07512e-05 -3.58375e-06 2.6906e+25 -3.28318 -4.93522 272.102 
1.26626e-05 -3.58375e-06 2.69095e+25 -1.82905 -4.03665 272.122 
1.45739e-05 -3.58375e-06 2.69035e+25 -0.639566 -2.57289 272.114 
1.64852e-05 -3.58375e-06 2.68873e+25 -0.027885 -0.716925 272.365 
1.19458e-06 -3.10592e-06 2.69063e+25 -7.39868 -0.0913623 272.113 
3.10592e-06 -3.10592e-06 2.6907e+25 -7.73745 -1.73735 272.044 
5.01725e-06 -3.10592e-06 2.69019e+25 -7.49189 -3.30544 272.133 
6.92858e-06 -3.10592e-06 2.68966e+25 -6.75444 -4.57488 272.151 
8.83992e-06 -3.10592e-06 2.69232e+25 -5.27296 -5.34031 271.924 
1.07512e-05 -3.10592e-06 2.69052e+25 -3.55276 -5.37924 272.15 
1.26626e-05 -3.10592e-06 2.68972e+25 -1.96124 -4.40498 272.165 
1.45739e-05 -3.10592e-06 2.69147e+25 -0.597573 -2.84435 272.069 
1.64852e-05 -3.10592e-06 2.6884e+25 -0.100969 -0.761809 272.307 
1.19458e-06 -2.62808e-06 2.69122e+25 -7.62792 -0.0096214 271.999 
3.10592e-06 -2.62808e-06 2.68983e+25 -7.82162 -1.72521 272.132 
5.01725e-06 -2.62808e-06 2.68963e+25 -7.63442 -3.387 272.17 
6.92858e-06 -2.62808e-06 2.68991e+25 -7.06952 -4.89386 272.189 
8.83992e-06 -2.62808e-06 2.69174e+25 -5.62181 -5.78327 271.992 
1.07512e-05 -2.62808e-06 2.69104e+25 -3.91351 -5.84789 272.015 
1.26626e-05 -2.62808e-06 2.69083e+25 -2.09834 -4.78277 272.116 
1.45739e-05 -2.62808e-06 2.69016e+25 -0.663379 -3.11287 272.109 
1.64852e-05 -2.62808e-06 2.6866e+25 -0.0199473 -0.76792 272.476 
1.19458e-06 -2.15025e-06 2.69275e+25 -7.75544 0.075701 271.742 
3.10592e-06 -2.15025e-06 2.6886e+25 -7.84538 -1.70826 272.209 
5.01725e-06 -2.15025e-06 2.68908e+25 -7.80951 -3.52383 272.178 
6.92858e-06 -2.15025e-06 2.68956e+25 -7.26124 -5.09091 272.159 
8.83992e-06 -2.15025e-06 2.69074e+25 -5.88097 -6.22565 272.056 
1.07512e-05 -2.15025e-06 2.69084e+25 -4.13763 -6.26602 272.054 
1.26626e-05 -2.15025e-06 2.69183e+25 -2.2743 -5.18883 272.041 
1.45739e-05 -2.15025e-06 2.69227e+25 -0.710276 -3.39784 272.028 
1.64852e-05 -2.15025e-06 2.68622e+25 -0.103367 -0.843762 272.542 
1.19458e-06 -1.67242e-06 2.69337e+25 -7.79622 0.206359 271.762 
3.10592e-06 -1.67242e-06 2.68933e+25 -7.98358 -1.75254 272.174 
5.01725e-06 -1.67242e-06 2.68945e+25 -7.93776 -3.61575 272.124 
6.92858e-06 -1.67242e-06 2.68886e+25 -7.30611 -5.27513 272.208 
8.83992e-06 -1.67242e-06 2.69113e+25 -6.08947 -6.67484 272.06 
1.07512e-05 -1.67242e-06 2.69104e+25 -4.34421 -6.715 272.108 
1.26626e-05 -1.67242e-06 2.69205e+25 -2.53007 -5.67995 272.026 
1.45739e-05 -1.67242e-06 2.69058e+25 -0.859967 -3.68523 272.074 
1.64852e-05 -1.67242e-06 2.68619e+25 -0.0534726 -0.89849 272.598 
1.19458e-06 -1.19458e-06 2.69084e+25 -7.76081 0.351033 271.931 
3.10592e-06 -1.19458e-06 2.6885e+25 -7.96976 -1.76318 272.196 
5.01725e-06 -1.19458e-06 2.68923e+25 -8.01473 -3.66182 272.159 
6.92858e-06 -1.19458e-06 2.68851e+25 -7.41823 -5.54196 272.263 
8.83992e-06 -1.19458e-06 2.69265e+25 -6.21746 -7.05193 271.927 
1.07512e-05 -1.19458e-06 2.69055e+25 -4.577 -7.22091 272.123 
1.26626e-05 -1.19458e-06 2.69184e+25 -2.72499 -6.2147 272.034 
1.45739e-05 -1.19458e-06 2.69032e+25 -0.917156 -3.96186 272.126 
1.64852e-05 -1.19458e-06 2.68591e+25 -0.0910159 -0.987887 272.549 
1.19458e-06 -7.1675e-07 2.69011e+25 -7.8295 0.44905 272.008 
3.10592e-06 -7.1675e-07 2.68784e+25 -8.07528 -1.75256 272.223 
5.01725e-06 -7.1675e-07 2.6882e+25 -7.96632 -3.70028 272.254 
6.92858e-06 -7.1675e-07 2.68949e+25 -7.57517 -5.77222 272.131 
8.83992e-06 -7.1675e-07 2.69182e+25 -6.55908 -7.38835 271.974 
1.07512e-05 -7.1675e-07 2.68967e+25 -4.84452 -7.64545 272.146 
1.26626e-05 -7.1675e-07 2.69067e+25 -2.81537 -6.74873 272.058 
1.45739e-05 -7.1675e-07 2.68986e+25 -1.14243 -4.27365 272.183 
1.64852e-05 -7.1675e-07 2.6867e+25 -0.0735368 -1.11779 272.496 
1.19458e-06 -2.38917e-07 2.68817e+25 -7.77664 0.549522 271.94 
3.10592e-06 -2.38917e-07 2.68708e+25 -8.09407 -1.69078 272.1 
5.01725e-06 -2.38917e-07 2.6862e+25 -7.98531 -3.67125 272.195 
6.92858e-06 -2.38917e-07 2.68828e+25 -7.74625 -5.90033 272.003 
8.83992e-06 -2.38917e-07 2.68905e+25 -6.79263 -7.75865 271.981 
1.07512e-05 -2.38917e-07 2.68817e+25 -5.10236 -8.1459 272.112 
1.26626e-05 -2.38917e-07 2.68814e+25 -2.97341 -7.23718 272.073 
1.45739e-05 -2.38917e-07 2.68693e+25 -1.36444 -4.62541 272.273 
1.64852e-05 -2.38917e-07 2.6838e+25 -0.0941121 -1.25633 272.558 
2.38917e-07 -1.69631e-05 2.68292e+25 -0.0974128 0.0248421 272.806 
2.15025e-06 -1.69631e-05 2.68461e+25 -0.182694 -0.00793938 272.806 
4.06158e-06 -1.69631e-05 2.6847e+25 -0.139384 0.0122869 272.792 
5.97292e-06 -1.69631e-05 2.68449e+25 -0.0985139 -0.0266416 272.88 
7.88425e-06 -1.69631e-05 2.68495e+25 -0.0726642 -0.0273478 272.82 
9.79558e-06 -1.69631e-05 2.68504e+25 -0.0282559 -0.0154044 272.801 
1.17069e-05 -1.69631e-05 2.68636e+25 0.060184 -0.00465484 272.693 
1.36182e-05 -1.69631e-05 2.68431e+25 0.0636225 0.0182588 272.823 
1.55296e-05 -1.69631e-05 2.68443e+25 -0.0689502 0.0277074 272.854 
2.38917e-07 -1.64852e-05 2.6842e+25 -0.460278 0.0126138 272.515 
2.15025e-06 -1.64852e-05 2.68708e+25 -0.400017 -0.00796258 272.614 
4.06158e-06 -1.64852e-05 2.68669e+25 -0.390475 -0.0120226 272.584 
5.97292e-06 -1.64852e-05 2.68681e+25 -0.322439 -0.0220888 272.622 
7.88425e-06 -1.64852e-05 2.68698e+25 -0.168451 -0.0646675 272.612 
9.79558e-06 -1.64852e-05 2.68749e+25 -0.0628989 -0.0190585 272.484 
1.17069e-05 -1.64852e-05 2.68824e+25 -0.0285406 -0.00344678 272.432 
1.36182e-05 -1.64852e-05 2.68652e+25 0.00830432 0.0336715 272.568 
1.55296e-05 -1.64852e-05 2.68727e+25 -0.00986116 0.034657 272.495 
2.38917e-07 -1.60074e-05 2.68698e+25 -0.854443 0.0120624 272.366 
2.15025e-06 -1.60074e-05 2.69004e+25 -0.711185 0.035073 272.213 
4.06158e-06 -1.60074e-05 2.6881e+25 -0.616513 -0.101382 272.412 
5.97292e-06 -1.60074e-05 2.68663e+25 -0.54569 -0.0368021 272.542 
7.88425e-06 -1.60074e-05 2.68722e+25 -0.501434 -0.0801706 272.501 
9.79558e-06 -1.60074e-05 2.68977e+25 -0.21961 0.00708544 272.302 
1.17069e-05 -1.60074e-05 2.68947e+25 -0.1928 0.0194568 272.29 
1.36182e-05 -1.60074e-05 2.6885e+25 -0.0176316 -0.0376569 272.422 
1.55296e-05 -1.60074e-05 2.68837e+25 0.042892 -0.00205732 272.378 
2.38917e-07 -1.55296e-05 2.68788e+25 -1.19417 -0.0065615 272.187 
2.15025e-06 -1.55296e-05 2.691e+25 -1.1032 0.0585829 272.091 
4.06158e-06 -1.55296e-05 2.69015e+25 -0.771965 -0.185905 272.195 
5.97292e-06 -1.55296e-05 2.68958e+25 -0.674757 -0.0392439 272.338 
7.88425e-06 -1.55296e-05 2.68811e+25 -0.630821 -0.107554 272.413 
9.79558e-06 -1.55296e-05 2.68932e+25 -0.326654 -0.0517936 272.309 
1.17069e-05 -1.55296e-05 2.69113e+25 -0.249823 0.0402129 272.163 
1.36182e-05 -1.55296e-05 2.68909e+25 -0.111016 -0.0911544 272.303 
1.55296e-05 -1.55296e-05 2.68907e+25 -0.0116054 -0.0312064 272.282 
2.38917e-07 -1.50517e-05 2.68811e+25 -1.52471 -0.0353296 272.127 
2.15025e-06 -1.50517e-05 2.69159e+25 -1.3111 -0.0320742 271.993 
4.06158e-06 -1.50517e-05 2.69158e+25 -1.0222 -0.216759 272.13 
5.97292e-06 -1.50517e-05 2.6906e+25 -0.915507 -0.0544586 272.174 
7.88425e-06 -1.50517e-05 2.68997e+25 -0.677058 -0.168914 272.283 
9.79558e-06 -1.50517e-05 2.68882e+25 -0.406344 -0.153676 272.263 
1.17069e-05 -1.50517e-05 2.69091e+25 -0.320322 0.0388672 272.155 
1.36182e-05 -1.50517e-05 2.69151e+25 -0.128745 -0.0825466 272.127 
1.55296e-05 -1.50517e-05 2.68925e+25 -0.0243219 -0.0380656 272.25 
2.38917e-07 -1.45739e-05 2.68965e+25 -1.8606 -0.0266863 272.084 
2.15025e-06 -1.45739e-05 2.69384e+25 -1.57606 -0.156725 271.902 
4.06158e-06 -1.45739e-05 2.69055e+25 -1.38614 -0.168646 272.105 
5.97292e-06 -1.45739e-05 2.69132e+25 -1.14232 -0.135947 272.095 
7.88425e-06 -1.45739e-05 2.68988e+25 -0.908788 -0.264323 272.222 
9.79558e-06 -1.45739e-05 2.69011e+25 -0.580314 -0.239894 272.205 
1.17069e-05 -1.45739e-05 2.69043e+25 -0.229397 -0.00558577 272.221 
1.36182e-05 -1.45739e-05 2.69166e+25 -0.0761093 -0.0683611 272.092 
1.55296e-05 -1.45739e-05 2.6887e+25 -0.00730672 -0.0168604 272.342 
2.38917e-07 -1.40961e-05 2.69127e+25 -2.04081 -0.0785556 271.876 
2.15025e-06 -1.40961e-05 2.69354e+25 -1.69065 -0.22255 271.907 
4.06158e-06 -1.40961e-05 2.69111e+25 -1.57934 -0.219304 272.097 
5.97292e-06 -1.40961e-05 2.69159e+25 -1.50041 -0.141569 272.072 
7.88425e-06 -1.40961e-05 2.69031e+25 -1.14519 -0.39379 272.208 
9.79558e-06 -1.40961e-05 2.69079e+25 -0.736277 -0.356802 272.161 
1.17069e-05 -1.40961e-05 2.69133e+25 -0.299047 -0.141037 272.088 
1.36182e-05 -1.40961e-05 2.6902e+25 -0.123546 -0.144962 272.273 
1.55296e-05 -1.40961e-05 2.68888e+25 0.00568861 -0.0306075 272.318 
2.38917e-07 -1.36182e-05 2.69054e+25 -2.12536 -0.130385 271.912 
2.15025e-06 -1.36182e-05 2.69263e+25 -2.02173 -0.222045 271.896 
4.06158e-06 -1.36182e-05 2.69248e+25 -1.8176 -0.300167 272.039 
5.97292e-06 -1.36182e-05 2.69129e+25 -1.69378 -0.191036 272.102 
7.88425e-06 -1.36182e-05 2.69131e+25 -1.28176 -0.557609 272.122 
9.79558e-06 -1.36182e-05 2.69123e+25 -0.811338 -0.412681 272.121 
1.17069e-05 -1.36182e-05 2.6918e+25 -0.444583 -0.25048 272.074 
1.36182e-05 -1.36182e-05 2.68977e+25 -0.191361 -0.219618 272.276 
1.55296e-05 -1.36182e-05 2.68934e+25 -0.00439545 -0.106589 272.252 
2.38917e-07 -1.31404e-05 2.69062e+25 -2.31273 -0.111986 271.878 
2.15025e-06 -1.31404e-05 2.693e+25 -2.26351 -0.297054 271.855 
4.06158e-06 -1.31404e-05 2.69192e+25 -2.01056 -0.375828 272.023 
5.97292e-06 -1.31404e-05 2.69107e+25 -1.79537 -0.230882 272.102 
7.88425e-06 -1.31404e-05 2.69113e+25 -1.34501 -0.745759 272.091 
9.79558e-06 -1.31404e-05 2.6907e+25 -0.798859 -0.436278 272.093 
1.17069e-05 -1.31404e-05 2.6918e+25 -0.510444 -0.2899 272.028 
1.36182e-05 -1.31404e-05 2.6907e+25 -0.250439 -0.333822 272.119 
1.55296e-05 -1.31404e-05 2.68966e+25 -0.0952759 -0.107337 272.211 
2.38917e-07 -1.26626e-05 2.69002e+25 -2.61088 -0.088568 271.938 
2.15025e-06 -1.26626e-05 2.69315e+25 -2.50673 -0.403285 271.889 
4.06158e-06 -1.26626e-05 2.69239e+25 -2.24577 -0.411735 271.935 
5.97292e-06 -1.26626e-05 2.69198e+25 -1.87889 -0.329007 272.032 
7.88425e-06 -1.26626e-05 2.69234e+25 -1.33266 -0.878703 272.049 
9.79558e-06 -1.26626e-05 2.68966e+25 -0.84576 -0.582421 272.161 
1.17069e-05 -1.26626e-05 2.69202e+25 -0.549595 -0.354692 272.005 
1.36182e-05 -1.26626e-05 2.69135e+25 -0.288367 -0.382773 272.11 
1.55296e-05 -1.26626e-05 2.68967e+25 -0.152438 -0.0866772 272.215 
2.38917e-07 -1.21847e-05 2.68985e+25 -2.81212 -0.0627361 271.981 
2.15025e-06 -1.21847e-05 2.69233e+25 -2.7075 -0.482302 271.987 
4.06158e-06 -1.21847e-05 2.69301e+25 -2.44161 -0.505268 271.861 
5.97292e-06 -1.21847e-05 2.69248e+25 -1.90316 -0.458643 271.897 
7.88425e-06 -1.21847e-05 2.69138e+25 -1.43714 -0.950396 271.98 
9.79558e-06 -1.21847e-05 2.69129e+25 -0.920562 -0.68939 272.061 
1.17069e-05 -1.21847e-05 2.69243e+25 -0.661879 -0.413701 271.942 
1.36182e-05 -1.21847e-05 2.69004e+25 -0.342228 -0.474794 272.187 
1.55296e-05 -1.21847e-05 2.69042e+25 -0.110825 -0.121041 272.196 
2.38917e-07 -1.17069e-05 2.68999e+25 -3.14434 -0.122177 272.037 
2.15025e-06 -1.17069e-05 2.69235e+25 -3.01684 -0.500369 271.961 
4.06158e-06 -1.17069e-05 2.69254e+25 -2.60918 -0.62444 271.94 
5.97292e-06 -1.17069e-05 2.69398e+25 -1.9235 -0.582726 271.802 
7.88425e-06 -1.17069e-05 2.69295e+25 -1.48408 -1.05201 271.94 
9.79558e-06 -1.17069e-05 2.69221e+25 -1.1365 -0.796526 272.026 
1.17069e-05 -1.17069e-05 2.69111e+25 -0.787435 -0.466596 272.049 
1.36182e-05 -1.17069e-05 2.69173e+25 -0.363309 -0.554828 272.121 
1.55296e-05 -1.17069e-05 2.68974e+25 -0.11537 -0.18071 272.235 
2.38917e-07 -1.12291e-05 2.69021e+25 -3.36522 -0.107152 271.993 
2.15025e-06 -1.12291e-05 2.69156e+25 -3.32472 -0.534062 271.991 
4.06158e-06 -1.12291e-05 2.69286e+25 -2.79958 -0.758598 271.951 
5.97292e-06 -1.12291e-05 2.69303e+25 -2.19431 -0.714413 271.905 
7.88425e-06 -1.12291e-05 2.69308e+25 -1.71324 -1.17863 271.886 
9.79558e-06 -1.12291e-05 2.69203e+25 -1.38958 -0.940131 271.958 
1.17069e-05 -1.12291e-05 2.69264e+25 -0.835667 -0.541182 271.941 
1.36182e-05 -1.12291e-05 2.69184e+25 -0.399049 -0.615804 272.045 
1.55296e-05 -1.12291e-05 2.68919e+25 -0.0817547 -0.278014 272.286 
2.38917e-07 -1.07512e-05 2.68949e+25 -3.61765 -0.104323 272.055 
2.15025e-06 -1.07512e-05 2.69152e+25 -3.4904 -0.601704 272.026 
4.06158e-06 -1.07512e-05 2.69168e+25 -3.01062 -0.871984 272.054 
5.97292e-06 -1.07512e-05 2.69349e+25 -2.53431 -0.878733 271.856 
7.88425e-06 -1.07512e-05 2.6919e+25 -1.88878 -1.22443 272.01 
9.79558e-06 -1.07512e-05 2.69269e+25 -1.58052 -1.05206 271.951 
1.17069e-05 -1.07512e-05 2.69413e+25 -0.873481 -0.730341 271.871 
1.36182e-05 -1.07512e-05 2.69196e+25 -0.378586 -0.666185 272.038 
1.55296e-05 -1.07512e-05 2.68955e+25 0.0300649 -0.336635 272.314 
2.38917e-07 -1.02734e-05 2.68988e+25 -3.79423 -0.0916304 272.018 
2.15025e-06 -1.02734e-05 2.69152e+25 -3.7023 -0.678651 272.073 
4.06158e-06 -1.02734e-05 2.69128e+25 -3.34375 -0.946881 272.02 
5.97292e-06 -1.02734e-05 2.69237e+25 -2.70128 -1.11442 271.943 
7.88425e-06 -1.02734e-05 2.69279e+25 -2.05648 -1.31894 271.964 
9.79558e-06 -1.02734e-05 2.69336e+25 -1.66672 -1.20385 271.933 
1.17069e-05 -1.02734e-05 2.69295e+25 -0.907127 -0.991261 271.872 
1.36182e-05 -1.02734e-05 2.69248e+25 -0.391982 -0.73274 271.957 
1.55296e-05 -1.02734e-05 2.69058e+25 0.016761 -0.397003 272.192 
2.38917e-07 -9.79558e-06 2.69036e+25 -3.98187 -0.109722 271.991 
2.15025e-06 -9.79558e-06 2.69174e+25 -3.97355 -0.802233 272.051 
4.06158e-06 -9.79558e-06 2.69236e+25 -3.68571 -1.00751 272.067 
5.97292e-06 -9.79558e-06 2.69203e+25 -2.92365 -1.33026 272.006 
7.88425e-06 -9.79558e-06 2.69323e+25 -2.28154 -1.37289 271.88 
9.79558e-06 -9.79558e-06 2.69254e+25 -1.67317 -1.37275 271.959 
1.17069e-05 -9.79558e-06 2.69142e+25 -0.931322 -1.23211 271.984 
1.36182e-05 -9.79558e-06 2.69263e+25 -0.371673 -0.749823 271.934 
1.55296e-05 -9.79558e-06 2.69078e+25 -0.0161822 -0.403248 272.141 
2.38917e-07 -9.31775e-06 2.69028e+25 -4.25288 -0.0811758 271.9 
2.15025e-06 -9.31775e-06 2.69107e+25 -4.25454 -0.790396 272.056 
4.06158e-06 -9.31775e-06 2.69169e+25 -3.90909 -1.1365 272.059 
5.97292e-06 -9.31775e-06 2.6931e+25 -3.16717 -1.53068 271.937 
7.88425e-06 -9.31775e-06 2.69381e+25 -2.55602 -1.52959 271.848 
9.79558e-06 -9.31775e-06 2.69165e+25 -1.74159 -1.49945 271.944 
1.17069e-05 -9.31775e-06 2.69221e+25 -1.01018 -1.4336 271.93 
1.36182e-05 -9.31775e-06 2.69215e+25 -0.373139 -0.88182 272.017 
1.55296e-05 -9.31775e-06 2.69183e+25 -0.0872629 -0.45247 272.094 
2.38917e-07 -8.83992e-06 2.6901e+25 -4.63295 -0.0472325 271.896 
2.15025e-06 -8.83992e-06 2.69112e+25 -4.54368 -0.819612 272.065 
4.06158e-06 -8.83992e-06 2.69243e+25 -4.11479 -1.35775 271.96 
5.97292e-06 -8.83992e-06 2.69208e+25 -3.5362 -1.71726 271.992 
7.88425e-06 -8.83992e-06 2.69369e+25 -2.71967 -1.77104 271.849 
9.79558e-06 -8.83992e-06 2.69341e+25 -1.92871 -1.68298 271.877 
1.17069e-05 -8.83992e-06 2.69357e+25 -1.09638 -1.60108 271.875 
1.36182e-05 -8.83992e-06 2.69188e+25 -0.384398 -1.06115 271.987 
1.55296e-05 -8.83992e-06 2.69129e+25 -0.00232947 -0.509637 272.099 
2.38917e-07 -8.36208e-06 2.69001e+25 -4.95845 -0.0475897 271.984 
2.15025e-06 -8.36208e-06 2.69168e+25 -4.81866 -0.875374 272.029 
4.06158e-06 -8.36208e-06 2.69126e+25 -4.42611 -1.54628 271.999 
5.97292e-06 -8.36208e-06 2.69143e+25 -3.86777 -1.92917 272.021 
7.88425e-06 -8.36208e-06 2.69248e+25 -3.02256 -1.96999 271.93 
9.79558e-06 -8.36208e-06 2.69248e+25 -2.13589 -1.89456 271.884 
1.17069e-05 -8.36208e-06 2.69306e+25 -1.19918 -1.77764 271.876 
1.36182e-05 -8.36208e-06 2.6936e+25 -0.489291 -1.21897 271.889 
1.55296e-05 -8.36208e-06 2.68982e+25 -0.0696916 -0.533636 272.222 
2.38917e-07 -7.88425e-06 2.69029e+25 -5.2648 -0.0727864 271.942 
2.15025e-06 -7.88425e-06 2.6917e+25 -5.13542 -0.974142 272.033 
4.06158e-06 -7.88425e-06 2.69127e+25 -4.71028 -1.61813 272.039 
5.97292e-06 -7.88425e-06 2.69079e+25 -4.14767 -2.07624 272.097 
7.88425e-06 -7.88425e-06 2.6921e+25 -3.31211 -2.20263 271.952 
9.79558e-06 -7.88425e-06 2.69315e+25 -2.24638 -2.19167 271.868 
1.17069e-05 -7.88425e-06 2.69314e+25 -1.29891 -1.94948 271.949 
1.36182e-05 -7.88425e-06 2.69231e+25 -0.512289 -1.38871 271.965 
1.55296e-05 -7.88425e-06 2.69053e+25 -0.150365 -0.595881 272.236 
2.38917e-07 -7.40642e-06 2.68858e+25 -5.49026 -0.143515 272.07 
2.15025e-06 -7.40642e-06 2.69256e+25 -5.31077 -1.05817 271.944 
4.06158e-06 -7.40642e-06 2.69218e+25 -4.98122 -1.66516 271.987 
5.97292e-06 -7.40642e-06 2.6915e+25 -4.31913 -2.26157 272.095 
7.88425e-06 -7.40642e-06 2.69335e+25 -3.56604 -2.4571 271.927 
9.79558e-06 -7.40642e-06 2.69247e+25 -2.5222 -2.45246 271.931 
1.17069e-05 -7.40642e-06 2.69269e+25 -1.38943 -2.18516 271.884 
1.36182e-05 -7.40642e-06 2.69192e+25 -0.53944 -1.62586 271.997 
1.55296e-05 -7.40642e-06 2.68854e+25 -0.115052 -0.622321 272.303 
2.38917e-07 -6.92858e-06 2.68851e+25 -5.68177 -0.136328 272.059 
2.15025e-06 -6.92858e-06 2.69184e+25 -5.57652 -1.06854 271.952 
4.06158e-06 -6.92858e-06 2.69077e+25 -5.39735 -1.79228 272.062 
5.97292e-06 -6.92858e-06 2.6917e+25 -4.63731 -2.4573 272.026 
7.88425e-06 -6.92858e-06 2.69322e+25 -3.79057 -2.72096 271.896 
9.79558e-06 -6.92858e-06 2.69206e+25 -2.72999 -2.75726 272.006 
1.17069e-05 -6.92858e-06 2.69367e+25 -1.55407 -2.46873 271.85 
1.36182e-05 -6.92858e-06 2.69267e+25 -0.606682 -1.76235 271.917 
1.55296e-05 -6.92858e-06 2.68849e+25 -0.127214 -0.651876 272.366 
2.38917e-07 -6.45075e-06 2.68905e+25 -5.85746 -0.0500984 272.013 
2.15025e-06 -6.45075e-06 2.69125e+25 -5.81633 -1.07785 272.062 
4.06158e-06 -6.45075e-06 2.6923e+25 -5.60942 -1.91544 271.943 
5.97292e-06 -6.45075e-06 2.69236e+25 -4.93206 -2.65738 271.999 
7.88425e-06 -6.45075e-06 2.69255e+25 -3.98517 -2.91733 271.996 
9.79558e-06 -6.45075e-06 2.69195e+25 -2.86981 -3.05973 272.006 
1.17069e-05 -6.45075e-06 2.69339e+25 -1.75183 -2.77946 271.793 
1.36182e-05 -6.45075e-06 2.69231e+25 -0.772365 -1.95295 271.954 
1.55296e-05 -6.45075e-06 2.68785e+25 -0.195231 -0.741466 272.416 
2.38917e-07 -5.97292e-06 2.6898e+25 -6.01655 -0.00514449 271.942 
2.15025e-06 -5.97292e-06 2.69036e+25 -6.086 -1.07132 272.053 
4.06158e-06 -5.97292e-06 2.69014e+25 -5.87338 -2.09248 272.091 
5.97292e-06 -5.97292e-06 2.69167e+25 -5.15504 -2.88326 272.028 
7.88425e-06 -5.97292e-06 2.69106e+25 -4.19862 -3.15282 272.053 
9.79558e-06 -5.97292e-06 2.69375e+25 -3.07767 -3.32367 271.892 
1.17069e-05 -5.97292e-06 2.69255e+25 -1.94962 -3.09572 271.925 
1.36182e-05 -5.97292e-06 2.6911e+25 -0.915988 -2.10932 272.063 
1.55296e-05 -5.97292e-06 2.68808e+25 -0.345917 -0.959649 272.326 
2.38917e-07 -5.49508e-06 2.68902e+25 -6.168 0.0706789 271.974 
2.15025e-06 -5.49508e-06 2.69042e+25 -6.2347 -1.06519 272.052 
4.06158e-06 -5.49508e-06 2.69122e+25 -6.10181 -2.16529 272.046 
5.97292e-06 -5.49508e-06 2.69159e+25 -5.51941 -3.0401 272.03 
7.88425e-06 -5.49508e-06 2.69067e+25 -4.42004 -3.48285 272.16 
9.79558e-06 -5.49508e-06 2.69224e+25 -3.22969 -3.58161 271.961 
1.17069e-05 -5.49508e-06 2.69178e+25 -2.04895 -3.35758 272.03 
1.36182e-05 -5.49508e-06 2.69109e+25 -1.10917 -2.30313 272.13 
1.55296e-05 -5.49508e-06 2.68947e+25 -0.399422 -1.13382 272.217 
2.38917e-07 -5.01725e-06 2.68944e+25 -6.42039 0.0604348 271.978 
2.15025e-06 -5.01725e-06 2.68963e+25 -6.55423 -1.07506 272.133 
4.06158e-06 -5.01725e-06 2.69131e+25 -6.37175 -2.21429 272.051 
5.97292e-06 -5.01725e-06 2.6908e+25 -5.82319 -3.21701 272.052 
7.88425e-06 -5.01725e-06 2.69141e+25 -4.79172 -3.845 272.074 
9.79558e-06 -5.01725e-06 2.69241e+25 -3.4888 -3.90127 271.968 
1.17069e-05 -5.01725e-06 2.69133e+25 -2.10521 -3.63489 272.026 
1.36182e-05 -5.01725e-06 2.69114e+25 -1.09175 -2.55064 272.108 
1.55296e-05 -5.01725e-06 2.6905e+25 -0.365075 -1.26296 272.192 
2.38917e-07 -4.53942e-06 2.68942e+25 -6.55683 0.0626796 271.995 
2.15025e-06 -4.53942e-06 2.69097e+25 -6.69727 -1.03351 272.096 
4.06158e-06 -4.53942e-06 2.69152e+25 -6.72087 -2.31836 271.974 
5.97292e-06 -4.53942e-06 2.69132e+25 -6.17912 -3.4642 272.025 
7.88425e-06 -4.53942e-06 2.69065e+25 -5.13874 -4.10609 272.087 
9.79558e-06 -4.53942e-06 2.69319e+25 -3.77774 -4.28451 271.932 
1.17069e-05 -4.53942e-06 2.69174e+25 -2.28495 -3.91757 271.968 
1.36182e-05 -4.53942e-06 2.69167e+25 -1.08517 -2.80903 272.024 
1.55296e-05 -4.53942e-06 2.6901e+25 -0.229034 -1.41874 272.15 
2.38917e-07 -4.06158e-06 2.68852e+25 -6.682 0.160634 272.048 
2.15025e-06 -4.06158e-06 2.6902e+25 -7.07445 -0.945489 272.038 
4.06158e-06 -4.06158e-06 2.69157e+25 -7.04937 -2.40866 272.003 
5.97292e-06 -4.06158e-06 2.69233e+25 -6.50761 -3.65331 271.989 
7.88425e-06 -4.06158e-06 2.69237e+25 -5.49194 -4.4205 271.929 
9.79558e-06 -4.06158e-06 2.69236e+25 -3.93841 -4.71591 272.024 
1.17069e-05 -4.06158e-06 2.69191e+25 -2.49428 -4.259 271.982 
1.36182e-05 -4.06158e-06 2.69133e+25 -1.27009 -3.03525 272.045 
1.55296e-05 -4.06158e-06 2.69129e+25 -0.22694 -1.53481 272.085 
2.38917e-07 -3.58375e-06 2.6891e+25 -6.7654 0.277536 271.977 
2.15025e-06 -3.58375e-06 2.69022e+25 -7.3532 -0.849544 272.052 
4.06158e-06 -3.58375e-06 2.69017e+25 -7.38379 -2.50191 272.133 
5.97292e-06 -3.58375e-06 2.69131e+25 -6.89577 -3.82662 271.972 
7.88425e-06 -3.58375e-06 2.69177e+25 -5.79303 -4.76934 271.955 
9.79558e-06 -3.58375e-06 2.69287e+25 -4.20471 -5.18569 272.018 
1.17069e-05 -3.58375e-06 2.69125e+25 -2.52604 -4.63073 272.084 
1.36182e-05 -3.58375e-06 2.69077e+25 -1.21534 -3.30307 272.087 
1.55296e-05 -3.58375e-06 2.69153e+25 -0.209573 -1.65435 272.043 
2.38917e-07 -3.10592e-06 2.68931e+25 -7.03011 0.491149 272.003 
2.15025e-06 -3.10592e-06 2.69006e+25 -7.58261 -0.75646 272.095 
4.06158e-06 -3.10592e-06 2.68966e+25 -7.6437 -2.63894 272.158 
5.97292e-06 -3.10592e-06 2.68992e+25 -7.15214 -4.03805 272.171 
7.88425e-06 -3.10592e-06 2.69046e+25 -6.08905 -5.13531 272.084 
9.79558e-06 -3.10592e-06 2.69164e+25 -4.47073 -5.62738 272.01 
1.17069e-05 -3.10592e-06 2.6904e+25 -2.73489 -4.97361 272.058 
1.36182e-05 -3.10592e-06 2.69066e+25 -1.2152 -3.67407 272.082 
1.55296e-05 -3.10592e-06 2.69149e+25 -0.170979 -1.78106 272.082 
2.38917e-07 -2.62808e-06 2.68944e+25 -7.25892 0.748906 271.934 
2.15025e-06 -2.62808e-06 2.6906e+25 -7.74142 -0.698861 272.021 
4.06158e-06 -2.62808e-06 2.688e+25 -7.7994 -2.70519 272.261 
5.97292e-06 -2.62808e-06 2.6888e+25 -7.43949 -4.16505 272.243 
7.88425e-06 -2.62808e-06 2.69094e+25 -6.48129 -5.50291 272.075 
9.79558e-06 -2.62808e-06 2.69115e+25 -4.77081 -6.02279 272.088 
1.17069e-05 -2.62808e-06 2.69201e+25 -2.97484 -5.44066 271.975 
1.36182e-05 -2.62808e-06 2.68929e+25 -1.32142 -4.02906 272.21 
1.55296e-05 -2.62808e-06 2.69001e+25 -0.171622 -1.94592 272.146 
2.38917e-07 -2.15025e-06 2.68984e+25 -7.42766 0.996988 271.873 
2.15025e-06 -2.15025e-06 2.69074e+25 -7.87835 -0.627418 271.953 
4.06158e-06 -2.15025e-06 2.68861e+25 -7.88499 -2.66342 272.216 
5.97292e-06 -2.15025e-06 2.68997e+25 -7.53709 -4.28575 272.187 
7.88425e-06 -2.15025e-06 2.69086e+25 -6.69895 -5.81602 272.09 
9.79558e-06 -2.15025e-06 2.6911e+25 -4.94025 -6.46837 272.034 
1.17069e-05 -2.15025e-06 2.69122e+25 -3.21936 -5.89374 272.012 
1.36182e-05 -2.15025e-06 2.68976e+25 -1.42573 -4.42635 272.192 
1.55296e-05 -2.15025e-06 2.68969e+25 -0.258313 -2.1105 272.199 
2.38917e-07 -1.67242e-06 2.6897e+25 -7.50737 1.19829 271.895 
2.15025e-06 -1.67242e-06 2.69125e+25 -7.96775 -0.602557 271.994 
4.06158e-06 -1.67242e-06 2.68789e+25 -7.97727 -2.63838 272.244 
5.97292e-06 -1.67242e-06 2.68926e+25 -7.72454 -4.45343 272.143 
7.88425e-06 -1.67242e-06 2.69024e+25 -6.79763 -6.16031 272.121 
9.79558e-06 -1.67242e-06 2.69233e+25 -5.21026 -6.92337 271.984 
1.17069e-05 -1.67242e-06 2.69198e+25 -3.41525 -6.34745 271.961 
1.36182e-05 -1.67242e-06 2.68985e+25 -1.57404 -4.86289 272.162 
1.55296e-05 -1.67242e-06 2.68746e+25 -0.327024 -2.25829 272.33 
2.38917e-07 -1.19458e-06 2.69005e+25 -7.56862 1.33284 271.882 
2.15025e-06 -1.19458e-06 2.69037e+25 -7.96705 -0.612579 272.018 
4.06158e-06 -1.19458e-06 2.68858e+25 -8.03346 -2.6298 272.19 
5.97292e-06 -1.19458e-06 2.68906e+25 -7.85639 -4.55637 272.072 
7.88425e-06 -1.19458e-06 2.69075e+25 -6.85993 -6.4602 272.123 
9.79558e-06 -1.19458e-06 2.69198e+25 -5.43743 -7.31131 271.951 
1.17069e-05 -1.19458e-06 2.69145e+25 -3.6548 -6.77701 272.043 
1.36182e-05 -1.19458e-06 2.69083e+25 -1.71617 -5.28804 272.106 
1.55296e-05 -1.19458e-06 2.68824e+25 -0.432407 -2.48445 272.283 
2.38917e-07 -7.1675e-07 2.68948e+25 -7.52383 1.44364 271.903 
2.15025e-06 -7.1675e-07 2.68884e+25 -7.92067 -0.609784 272.01 
4.06158e-06 -7.1675e-07 2.68864e+25 -8.04625 -2.6371 272.196 
5.97292e-06 -7.1675e-07 2.68929e+25 -7.91896 -4.70453 272.174 
7.88425e-06 -7.1675e-07 2.69045e+25 -7.13797 -6.71405 272.06 
9.79558e-06 -7.1675e-07 2.69256e+25 -5.79113 -7.7468 271.987 
1.17069e-05 -7.1675e-07 2.69097e+25 -3.80061 -7.23107 272.077 
1.36182e-05 -7.1675e-07 2.69029e+25 -1.85283 -5.66432 272.111 
1.55296e-05 -7.1675e-07 2.689e+25 -0.517656 -2.67226 272.309 
2.38917e-07 -2.38917e-07 2.68595e+25 -7.45061 1.68767 272.015 
2.15025e-06 -2.38917e-07 2.68749e+25 -7.9297 -0.557192 272.029 
4.06158e-06 -2.38917e-07 2.68745e+25 -8.07178 -2.68246 272.104 
5.97292e-06 -2.38917e-07 2.68727e+25 -7.94296 -4.75977 272.154 
7.88425e-06 -2.38917e-07 2.68882e+25 -7.41231 -6.93481 272.024 
9.79558e-06 -2.38917e-07 2.6905e+25 -6.04401 -8.13424 271.961 
1.17069e-05 -2.38917e-07 2.68784e+25 -4.05208 -7.7675 272.137 
1.36182e-05 -2.38917e-07 2.68828e+25 -2.09185 -6.06731 272.118 
1.55296e-05 -2.38917e-07 2.6868e+25 -0.593828 -2.98259 272.287 
7.1675e-07 -1.69631e-05 2.6851e+25 -0.113086 0.00382812 272.834 
2.62808e-06 -1.69631e-05 2.68484e+25 -0.157773 -0.0093227 272.829 
4.53942e-06 -1.69631e-05 2.68549e+25 -0.170309 0.0171179 272.722 
6.45075e-06 -1.69631e-05 2.68554e+25 -0.068096 0.0320712 272.784 
8.36208e-06 -1.69631e-05 2.68392e+25 -0.0515663 0.0222223 272.862 
1.02734e-05 -1.69631e-05 2.6851e+25 -0.013473 0.0165753 272.826 
1.21847e-05 -1.69631e-05 2.68518e+25 0.0398148 0.0458517 272.759 
1.40961e-05 -1.69631e-05 2.6853e+25 0.0290609 0.0025852 272.778 
1.60074e-05 -1.69631e-05 2.68428e+25 -0.0858064 0.00362155 272.901 
7.1675e-07 -1.64852e-05 2.68782e+25 -0.40255 -0.0211087 272.489 
2.62808e-06 -1.64852e-05 2.68663e+25 -0.448506 0.0254193 272.588 
4.53942e-06 -1.64852e-05 2.68697e+25 -0.291713 -0.0111403 272.532 
6.45075e-06 -1.64852e-05 2.68693e+25 -0.313738 -0.0249757 272.657 
8.36208e-06 -1.64852e-05 2.68664e+25 -0.167492 0.0407314 272.59 
1.02734e-05 -1.64852e-05 2.68747e+25 -0.0430822 -0.0476318 272.463 
1.21847e-05 -1.64852e-05 2.68717e+25 -0.0168905 0.0415891 272.526 
1.40961e-05 -1.64852e-05 2.68594e+25 0.0381903 0.0168973 272.642 
1.60074e-05 -1.64852e-05 2.68717e+25 -0.0101354 -0.00244955 272.558 
7.1675e-07 -1.60074e-05 2.69067e+25 -0.846675 -0.0456673 272.227 
2.62808e-06 -1.60074e-05 2.68922e+25 -0.749837 0.0527143 272.337 
4.53942e-06 -1.60074e-05 2.68818e+25 -0.580029 -0.0646273 272.402 
6.45075e-06 -1.60074e-05 2.68757e+25 -0.514871 -0.0667177 272.551 
8.36208e-06 -1.60074e-05 2.68789e+25 -0.440506 -0.0285042 272.455 
1.02734e-05 -1.60074e-05 2.68956e+25 -0.203261 -0.0975014 272.218 
1.21847e-05 -1.60074e-05 2.68878e+25 -0.171619 0.0414032 272.329 
1.40961e-05 -1.60074e-05 2.68779e+25 0.0274222 0.0333022 272.412 
1.60074e-05 -1.60074e-05 2.68803e+25 0.0662335 -0.00658951 272.471 
7.1675e-07 -1.55296e-05 2.69123e+25 -1.15717 -0.0571555 272.088 
2.62808e-06 -1.55296e-05 2.68996e+25 -1.04089 0.00328203 272.203 
4.53942e-06 -1.55296e-05 2.69018e+25 -0.767091 -0.0664413 272.202 
6.45075e-06 -1.55296e-05 2.6893e+25 -0.683452 -0.062647 272.343 
8.36208e-06 -1.55296e-05 2.68781e+25 -0.525517 -0.161051 272.46 
1.02734e-05 -1.55296e-05 2.69013e+25 -0.233716 -0.133604 272.263 
1.21847e-05 -1.55296e-05 2.69017e+25 -0.243042 -0.0249507 272.207 
1.40961e-05 -1.55296e-05 2.68942e+25 -0.0892527 -0.0211376 272.304 
1.60074e-05 -1.55296e-05 2.6878e+25 0.0440572 -0.047404 272.444 
7.1675e-07 -1.50517e-05 2.69097e+25 -1.51556 -0.0577343 272.086 
2.62808e-06 -1.50517e-05 2.69156e+25 -1.17915 -0.130228 272.083 
4.53942e-06 -1.50517e-05 2.69089e+25 -1.02083 -0.0520272 272.21 
6.45075e-06 -1.50517e-05 2.69052e+25 -0.844648 -0.111829 272.212 
8.36208e-06 -1.50517e-05 2.68911e+25 -0.658195 -0.180345 272.329 
1.02734e-05 -1.50517e-05 2.68846e+25 -0.35447 -0.180674 272.322 
1.21847e-05 -1.50517e-05 2.69e+25 -0.295812 -0.074425 272.211 
1.40961e-05 -1.50517e-05 2.68943e+25 -0.126938 -0.0615926 272.196 
1.60074e-05 -1.50517e-05 2.68917e+25 -0.0580796 -0.0950038 272.348 
7.1675e-07 -1.45739e-05 2.69222e+25 -1.7933 -0.132927 271.987 
2.62808e-06 -1.45739e-05 2.69218e+25 -1.49275 -0.217571 272.007 
4.53942e-06 -1.45739e-05 2.69127e+25 -1.32063 -0.130573 272.106 
6.45075e-06 -1.45739e-05 2.691e+25 -1.10767 -0.159179 272.184 
8.36208e-06 -1.45739e-05 2.69036e+25 -0.762751 -0.240677 272.212 
1.02734e-05 -1.45739e-05 2.68942e+25 -0.488769 -0.231037 272.292 
1.21847e-05 -1.45739e-05 2.69132e+25 -0.179334 -0.0963618 272.135 
1.40961e-05 -1.45739e-05 2.69036e+25 -0.0484089 -0.0550615 272.202 
1.60074e-05 -1.45739e-05 2.68875e+25 0.000237104 -0.104871 272.413 
7.1675e-07 -1.40961e-05 2.69281e+25 -1.93943 -0.21169 271.894 
2.62808e-06 -1.40961e-05 2.69315e+25 -1.68363 -0.245742 271.913 
4.53942e-06 -1.40961e-05 2.6916e+25 -1.54546 -0.1992 272.013 
6.45075e-06 -1.40961e-05 2.69018e+25 -1.45407 -0.213444 272.223 
8.36208e-06 -1.40961e-05 2.69072e+25 -1.01584 -0.387244 272.196 
1.02734e-05 -1.40961e-05 2.69063e+25 -0.621378 -0.286719 272.157 
1.21847e-05 -1.40961e-05 2.69181e+25 -0.185693 -0.18226 272.039 
1.40961e-05 -1.40961e-05 2.68984e+25 -0.09016 -0.0515781 272.268 
1.60074e-05 -1.40961e-05 2.68877e+25 0.0503769 -0.0859972 272.362 
7.1675e-07 -1.36182e-05 2.69255e+25 -2.12474 -0.264681 271.877 
2.62808e-06 -1.36182e-05 2.6934e+25 -1.96259 -0.28989 271.89 
4.53942e-06 -1.36182e-05 2.6922e+25 -1.73608 -0.230347 272.067 
6.45075e-06 -1.36182e-05 2.69045e+25 -1.67592 -0.211898 272.076 
8.36208e-06 -1.36182e-05 2.69129e+25 -1.10942 -0.538777 272.116 
1.02734e-05 -1.36182e-05 2.6907e+25 -0.76496 -0.404534 272.115 
1.21847e-05 -1.36182e-05 2.69236e+25 -0.350203 -0.256462 272.025 
1.40961e-05 -1.36182e-05 2.68959e+25 -0.0642493 -0.11989 272.214 
1.60074e-05 -1.36182e-05 2.68877e+25 -0.0156335 -0.0450082 272.332 
7.1675e-07 -1.31404e-05 2.69247e+25 -2.36117 -0.215361 271.95 
2.62808e-06 -1.31404e-05 2.69309e+25 -2.18169 -0.361358 271.927 
4.53942e-06 -1.31404e-05 2.69229e+25 -2.00869 -0.236845 272.051 
6.45075e-06 -1.31404e-05 2.69175e+25 -1.74619 -0.287847 272.051 
8.36208e-06 -1.31404e-05 2.69116e+25 -1.16684 -0.697691 272.075 
1.02734e-05 -1.31404e-05 2.69073e+25 -0.739333 -0.476585 272.129 
1.21847e-05 -1.31404e-05 2.69192e+25 -0.498299 -0.301083 272.048 
1.40961e-05 -1.31404e-05 2.69025e+25 -0.170302 -0.220694 272.145 
1.60074e-05 -1.31404e-05 2.68916e+25 -0.104223 -0.0324606 272.324 
7.1675e-07 -1.26626e-05 2.69103e+25 -2.6066 -0.176266 272.015 
2.62808e-06 -1.26626e-05 2.69219e+25 -2.41378 -0.428686 271.951 
4.53942e-06 -1.26626e-05 2.69179e+25 -2.18518 -0.287725 272.027 
6.45075e-06 -1.26626e-05 2.6919e+25 -1.74511 -0.402237 271.984 
8.36208e-06 -1.26626e-05 2.69292e+25 -1.21541 -0.850109 271.991 
1.02734e-05 -1.26626e-05 2.69121e+25 -0.754551 -0.497336 272.083 
1.21847e-05 -1.26626e-05 2.6923e+25 -0.503793 -0.313779 271.994 
1.40961e-05 -1.26626e-05 2.68991e+25 -0.262467 -0.266852 272.155 
1.60074e-05 -1.26626e-05 2.68853e+25 -0.120754 -0.0593753 272.352 
7.1675e-07 -1.21847e-05 2.69163e+25 -2.79205 -0.21644 271.994 
2.62808e-06 -1.21847e-05 2.69179e+25 -2.67015 -0.483954 272.002 
4.53942e-06 -1.21847e-05 2.69282e+25 -2.30361 -0.377912 271.894 
6.45075e-06 -1.21847e-05 2.69266e+25 -1.78522 -0.513245 271.92 
8.36208e-06 -1.21847e-05 2.69199e+25 -1.34934 -0.9711 271.996 
1.02734e-05 -1.21847e-05 2.69111e+25 -0.827652 -0.574999 272.13 
1.21847e-05 -1.21847e-05 2.69257e+25 -0.603675 -0.375668 272.015 
1.40961e-05 -1.21847e-05 2.69046e+25 -0.256746 -0.259765 272.188 
1.60074e-05 -1.21847e-05 2.68903e+25 -0.0518014 -0.161439 272.34 
7.1675e-07 -1.17069e-05 2.69203e+25 -3.08622 -0.236575 271.964 
2.62808e-06 -1.17069e-05 2.69381e+25 -2.96545 -0.530245 271.943 
4.53942e-06 -1.17069e-05 2.69178e+25 -2.42867 -0.53901 271.998 
6.45075e-06 -1.17069e-05 2.69278e+25 -1.85132 -0.632217 271.85 
8.36208e-06 -1.17069e-05 2.69253e+25 -1.39535 -1.08745 271.973 
1.02734e-05 -1.17069e-05 2.69244e+25 -1.0125 -0.702933 271.996 
1.21847e-05 -1.17069e-05 2.69153e+25 -0.677123 -0.486207 272.034 
1.40961e-05 -1.17069e-05 2.69117e+25 -0.308807 -0.344503 272.092 
1.60074e-05 -1.17069e-05 2.69017e+25 -0.0391499 -0.236313 272.299 
7.1675e-07 -1.12291e-05 2.69165e+25 -3.36426 -0.275818 272.042 
2.62808e-06 -1.12291e-05 2.6914e+25 -3.25031 -0.619973 272.01 
4.53942e-06 -1.12291e-05 2.69203e+25 -2.71525 -0.750812 271.974 
6.45075e-06 -1.12291e-05 2.69308e+25 -2.03267 -0.730055 271.868 
8.36208e-06 -1.12291e-05 2.69194e+25 -1.62062 -1.13866 272.024 
1.02734e-05 -1.12291e-05 2.69233e+25 -1.21087 -0.838694 271.988 
1.21847e-05 -1.12291e-05 2.69067e+25 -0.686947 -0.676176 272.03 
1.40961e-05 -1.12291e-05 2.69061e+25 -0.295796 -0.415691 272.085 
1.60074e-05 -1.12291e-05 2.68843e+25 -0.0161223 -0.302153 272.335 
7.1675e-07 -1.07512e-05 2.69145e+25 -3.60386 -0.27083 272.025 
2.62808e-06 -1.07512e-05 2.69161e+25 -3.36721 -0.734942 272.037 
4.53942e-06 -1.07512e-05 2.69238e+25 -2.94047 -0.766412 271.967 
6.45075e-06 -1.07512e-05 2.69378e+25 -2.32537 -0.909794 271.88 
8.36208e-06 -1.07512e-05 2.69194e+25 -1.80231 -1.23925 272.001 
1.02734e-05 -1.07512e-05 2.69276e+25 -1.42206 -1.02012 271.934 
1.21847e-05 -1.07512e-05 2.69309e+25 -0.659176 -0.807051 271.956 
1.40961e-05 -1.07512e-05 2.69113e+25 -0.280109 -0.538329 272.061 
1.60074e-05 -1.07512e-05 2.68884e+25 0.042641 -0.285016 272.355 
7.1675e-07 -1.02734e-05 2.69153e+25 -3.77516 -0.255306 272.001 
2.62808e-06 -1.02734e-05 2.69126e+25 -3.56981 -0.889528 272.059 
4.53942e-06 -1.02734e-05 2.6909e+25 -3.22302 -0.881999 272.08 
6.45075e-06 -1.02734e-05 2.69289e+25 -2.4351 -1.14417 272.004 
8.36208e-06 -1.02734e-05 2.69275e+25 -2.01216 -1.29894 272.01 
1.02734e-05 -1.02734e-05 2.69334e+25 -1.52703 -1.18369 271.915 
1.21847e-05 -1.02734e-05 2.69338e+25 -0.650183 -0.987129 271.94 
1.40961e-05 -1.02734e-05 2.6922e+25 -0.36503 -0.630508 271.985 
1.60074e-05 -1.02734e-05 2.68904e+25 0.020921 -0.23298 272.329 
7.1675e-07 -9.79558e-06 2.69208e+25 -3.97809 -0.240443 272.021 
2.62808e-06 -9.79558e-06 2.69145e+25 -3.90801 -0.971061 272.037 
4.53942e-06 -9.79558e-06 2.69144e+25 -3.53413 -1.04828 272.139 
6.45075e-06 -9.79558e-06 2.69337e+25 -2.74294 -1.37385 271.962 
8.36208e-06 -9.79558e-06 2.69289e+25 -2.15925 -1.44258 271.922 
1.02734e-05 -9.79558e-06 2.69306e+25 -1.54321 -1.29826 271.921 
1.21847e-05 -9.79558e-06 2.69334e+25 -0.732657 -1.21194 271.885 
1.40961e-05 -9.79558e-06 2.69201e+25 -0.28011 -0.720147 271.985 
1.60074e-05 -9.79558e-06 2.6897e+25 -0.00313591 -0.22104 272.292 
7.1675e-07 -9.31775e-06 2.69075e+25 -4.28637 -0.239426 272.016 
2.62808e-06 -9.31775e-06 2.69154e+25 -4.26523 -1.04193 272.045 
4.53942e-06 -9.31775e-06 2.69168e+25 -3.74301 -1.26343 272.02 
6.45075e-06 -9.31775e-06 2.69346e+25 -3.02478 -1.52444 271.896 
8.36208e-06 -9.31775e-06 2.69304e+25 -2.36144 -1.59773 271.894 
1.02734e-05 -9.31775e-06 2.69244e+25 -1.57603 -1.4592 271.97 
1.21847e-05 -9.31775e-06 2.69239e+25 -0.844798 -1.3795 271.987 
1.40961e-05 -9.31775e-06 2.69257e+25 -0.263667 -0.800539 271.886 
1.60074e-05 -9.31775e-06 2.68929e+25 -0.0249709 -0.248831 272.218 
7.1675e-07 -8.83992e-06 2.69213e+25 -4.5932 -0.287345 271.995 
2.62808e-06 -8.83992e-06 2.69103e+25 -4.53011 -1.0232 272.027 
4.53942e-06 -8.83992e-06 2.69193e+25 -3.91152 -1.42845 272.018 
6.45075e-06 -8.83992e-06 2.69181e+25 -3.30965 -1.69452 271.99 
8.36208e-06 -8.83992e-06 2.69383e+25 -2.52602 -1.73806 271.852 
1.02734e-05 -8.83992e-06 2.69333e+25 -1.73575 -1.6447 271.931 
1.21847e-05 -8.83992e-06 2.69197e+25 -0.913219 -1.54159 271.899 
1.40961e-05 -8.83992e-06 2.69182e+25 -0.240654 -0.871942 271.927 
1.60074e-05 -8.83992e-06 2.68999e+25 0.0374151 -0.305496 272.217 
7.1675e-07 -8.36208e-06 2.69234e+25 -4.93359 -0.320972 271.929 
2.62808e-06 -8.36208e-06 2.69127e+25 -4.728 -1.07068 272.065 
4.53942e-06 -8.36208e-06 2.6908e+25 -4.33638 -1.54623 272.058 
6.45075e-06 -8.36208e-06 2.69187e+25 -3.69398 -1.87472 272.025 
8.36208e-06 -8.36208e-06 2.69289e+25 -2.78649 -1.96145 271.926 
1.02734e-05 -8.36208e-06 2.69316e+25 -1.89212 -1.90635 271.919 
1.21847e-05 -8.36208e-06 2.69217e+25 -1.02603 -1.71785 271.956 
1.40961e-05 -8.36208e-06 2.69182e+25 -0.29774 -1.05437 272.048 
1.60074e-05 -8.36208e-06 2.68903e+25 -0.0402772 -0.327816 272.297 
7.1675e-07 -7.88425e-06 2.69249e+25 -5.23952 -0.315553 271.89 
2.62808e-06 -7.88425e-06 2.69213e+25 -5.01282 -1.17375 271.947 
4.53942e-06 -7.88425e-06 2.69187e+25 -4.59645 -1.65403 272.027 
6.45075e-06 -7.88425e-06 2.69209e+25 -3.95788 -2.05681 271.999 
8.36208e-06 -7.88425e-06 2.6938e+25 -3.07692 -2.18547 271.909 
1.02734e-05 -7.88425e-06 2.69275e+25 -1.94487 -2.13938 271.94 
1.21847e-05 -7.88425e-06 2.69268e+25 -1.12529 -1.87339 271.991 
1.40961e-05 -7.88425e-06 2.6912e+25 -0.321816 -1.22886 272.127 
1.60074e-05 -7.88425e-06 2.68864e+25 -0.0768562 -0.358167 272.327 
7.1675e-07 -7.40642e-06 2.6919e+25 -5.43134 -0.319074 271.982 
2.62808e-06 -7.40642e-06 2.69212e+25 -5.26773 -1.28764 272.006 
4.53942e-06 -7.40642e-06 2.69152e+25 -4.8844 -1.79553 272.022 
6.45075e-06 -7.40642e-06 2.69284e+25 -4.19531 -2.20156 272.004 
8.36208e-06 -7.40642e-06 2.69283e+25 -3.27133 -2.49877 271.907 
1.02734e-05 -7.40642e-06 2.69335e+25 -2.24887 -2.42988 271.886 
1.21847e-05 -7.40642e-06 2.69326e+25 -1.14176 -2.10363 271.901 
1.40961e-05 -7.40642e-06 2.69206e+25 -0.383101 -1.35978 271.998 
1.60074e-05 -7.40642e-06 2.68772e+25 -0.0597818 -0.439785 272.415 
7.1675e-07 -6.92858e-06 2.6905e+25 -5.71663 -0.332646 272.035 
2.62808e-06 -6.92858e-06 2.69175e+25 -5.55674 -1.36183 271.964 
4.53942e-06 -6.92858e-06 2.6912e+25 -5.2143 -1.97959 271.977 
6.45075e-06 -6.92858e-06 2.69222e+25 -4.3901 -2.3954 272.033 
8.36208e-06 -6.92858e-06 2.69308e+25 -3.54605 -2.74349 271.9 
1.02734e-05 -6.92858e-06 2.69237e+25 -2.44854 -2.72368 271.946 
1.21847e-05 -6.92858e-06 2.69377e+25 -1.23767 -2.38302 271.843 
1.40961e-05 -6.92858e-06 2.69248e+25 -0.450615 -1.5501 271.95 
1.60074e-05 -6.92858e-06 2.68804e+25 -0.0823152 -0.495983 272.416 
7.1675e-07 -6.45075e-06 2.69144e+25 -5.87854 -0.352727 271.994 
2.62808e-06 -6.45075e-06 2.6915e+25 -5.80463 -1.38093 271.976 
4.53942e-06 -6.45075e-06 2.69239e+25 -5.44892 -2.18457 271.991 
6.45075e-06 -6.45075e-06 2.69192e+25 -4.70071 -2.67311 271.986 
8.36208e-06 -6.45075e-06 2.69066e+25 -3.80341 -3.00489 272.053 
1.02734e-05 -6.45075e-06 2.6931e+25 -2.60085 -2.97188 271.901 
1.21847e-05 -6.45075e-06 2.69326e+25 -1.48591 -2.66721 271.832 
1.40961e-05 -6.45075e-06 2.69285e+25 -0.640113 -1.65892 271.959 
1.60074e-05 -6.45075e-06 2.68671e+25 -0.09926 -0.56592 272.558 
7.1675e-07 -5.97292e-06 2.69051e+25 -6.08017 -0.279839 272.033 
2.62808e-06 -5.97292e-06 2.69154e+25 -6.05772 -1.40693 271.962 
4.53942e-06 -5.97292e-06 2.69056e+25 -5.74888 -2.30749 272.073 
6.45075e-06 -5.97292e-06 2.69155e+25 -5.01705 -2.87207 272.002 
8.36208e-06 -5.97292e-06 2.69086e+25 -3.96834 -3.19865 272.074 
1.02734e-05 -5.97292e-06 2.69307e+25 -2.83815 -3.22285 271.944 
1.21847e-05 -5.97292e-06 2.69228e+25 -1.68057 -2.89296 272.026 
1.40961e-05 -5.97292e-06 2.6922e+25 -0.784623 -1.78021 272.043 
1.60074e-05 -5.97292e-06 2.68725e+25 -0.129004 -0.650424 272.447 
7.1675e-07 -5.49508e-06 2.69019e+25 -6.18299 -0.253047 272.107 
2.62808e-06 -5.49508e-06 2.69161e+25 -6.23332 -1.42016 272.032 
4.53942e-06 -5.49508e-06 2.69031e+25 -6.03112 -2.43029 272.121 
6.45075e-06 -5.49508e-06 2.6919e+25 -5.31995 -3.04463 272.002 
8.36208e-06 -5.49508e-06 2.69096e+25 -4.09002 -3.4278 272.106 
1.02734e-05 -5.49508e-06 2.69268e+25 -2.93179 -3.53041 271.95 
1.21847e-05 -5.49508e-06 2.6918e+25 -1.78756 -3.14065 272.06 
1.40961e-05 -5.49508e-06 2.69191e+25 -0.875274 -1.94942 272.064 
1.60074e-05 -5.49508e-06 2.68824e+25 -0.241926 -0.817789 272.427 
7.1675e-07 -5.01725e-06 2.69059e+25 -6.4004 -0.246184 272.111 
2.62808e-06 -5.01725e-06 2.69083e+25 -6.56157 -1.41124 272.029 
4.53942e-06 -5.01725e-06 2.69139e+25 -6.29051 -2.56251 272.068 
6.45075e-06 -5.01725e-06 2.69104e+25 -5.60715 -3.28891 272.068 
8.36208e-06 -5.01725e-06 2.69146e+25 -4.45113 -3.74764 272.045 
1.02734e-05 -5.01725e-06 2.69291e+25 -3.13668 -3.85871 271.919 
1.21847e-05 -5.01725e-06 2.69245e+25 -1.85017 -3.37763 272.013 
1.40961e-05 -5.01725e-06 2.6903e+25 -0.837691 -2.2033 272.133 
1.60074e-05 -5.01725e-06 2.68828e+25 -0.228392 -0.999242 272.332 
7.1675e-07 -4.53942e-06 2.69039e+25 -6.58093 -0.220012 272.101 
2.62808e-06 -4.53942e-06 2.69119e+25 -6.74764 -1.40053 272.017 
4.53942e-06 -4.53942e-06 2.69169e+25 -6.5998 -2.6472 271.979 
6.45075e-06 -4.53942e-06 2.69013e+25 -5.90625 -3.5361 272.128 
8.36208e-06 -4.53942e-06 2.69304e+25 -4.81736 -4.10384 272 
1.02734e-05 -4.53942e-06 2.69065e+25 -3.36547 -4.22844 272.086 
1.21847e-05 -4.53942e-06 2.6924e+25 -1.98514 -3.67415 271.995 
1.40961e-05 -4.53942e-06 2.69171e+25 -0.887215 -2.43443 272.05 
1.60074e-05 -4.53942e-06 2.68883e+25 -0.128205 -1.08239 272.226 
7.1675e-07 -4.06158e-06 2.68961e+25 -6.77444 -0.168327 272.111 
2.62808e-06 -4.06158e-06 2.69124e+25 -7.1417 -1.40646 272.033 
4.53942e-06 -4.06158e-06 2.69081e+25 -6.95867 -2.76826 272.094 
6.45075e-06 -4.06158e-06 2.69071e+25 -6.316 -3.8091 272.075 
8.36208e-06 -4.06158e-06 2.69227e+25 -5.12665 -4.47773 271.989 
1.02734e-05 -4.06158e-06 2.69089e+25 -3.47236 -4.63887 272.086 
1.21847e-05 -4.06158e-06 2.69069e+25 -2.10763 -4.01535 272.121 
1.40961e-05 -4.06158e-06 2.69087e+25 -0.982924 -2.71158 272.075 
1.60074e-05 -4.06158e-06 2.69079e+25 -0.116491 -1.18959 272.133 
7.1675e-07 -3.58375e-06 2.68987e+25 -6.93242 -0.0281274 272.082 
2.62808e-06 -3.58375e-06 2.69106e+25 -7.4443 -1.33838 272.015 
4.53942e-06 -3.58375e-06 2.68937e+25 -7.27502 -2.8714 272.159 
6.45075e-06 -3.58375e-06 2.69126e+25 -6.65478 -4.07953 272.049 
8.36208e-06 -3.58375e-06 2.6921e+25 -5.42498 -4.84979 271.929 
1.02734e-05 -3.58375e-06 2.69138e+25 -3.7282 -5.11715 272.071 
1.21847e-05 -3.58375e-06 2.68955e+25 -2.16312 -4.38503 272.209 
1.40961e-05 -3.58375e-06 2.6903e+25 -0.937615 -2.98528 272.172 
1.60074e-05 -3.58375e-06 2.69047e+25 -0.122269 -1.28921 272.156 
7.1675e-07 -3.10592e-06 2.69031e+25 -7.23584 0.149868 272.089 
2.62808e-06 -3.10592e-06 2.68955e+25 -7.65578 -1.26412 272.105 
4.53942e-06 -3.10592e-06 2.68884e+25 -7.55623 -2.94207 272.172 
6.45075e-06 -3.10592e-06 2.68966e+25 -6.98595 -4.28306 272.227 
8.36208e-06 -3.10592e-06 2.69186e+25 -5.70189 -5.2361 271.991 
1.02734e-05 -3.10592e-06 2.6913e+25 -4.02694 -5.5953 272.046 
1.21847e-05 -3.10592e-06 2.68985e+25 -2.35193 -4.77273 272.152 
1.40961e-05 -3.10592e-06 2.69055e+25 -0.858472 -3.27744 272.177 
1.60074e-05 -3.10592e-06 2.68945e+25 -0.102281 -1.33728 272.191 
7.1675e-07 -2.62808e-06 2.69061e+25 -7.49086 0.362513 271.978 
2.62808e-06 -2.62808e-06 2.69031e+25 -7.78706 -1.16382 272.125 
4.53942e-06 -2.62808e-06 2.68907e+25 -7.74867 -2.99967 272.227 
6.45075e-06 -2.62808e-06 2.68981e+25 -7.31059 -4.46534 272.19 
8.36208e-06 -2.62808e-06 2.69206e+25 -6.05664 -5.66829 271.998 
1.02734e-05 -2.62808e-06 2.69099e+25 -4.34033 -6.03424 272.079 
1.21847e-05 -2.62808e-06 2.69106e+25 -2.51434 -5.16194 272.062 
1.40961e-05 -2.62808e-06 2.68937e+25 -0.97188 -3.59208 272.158 
1.60074e-05 -2.62808e-06 2.69028e+25 -0.057893 -1.34953 272.168 
7.1675e-07 -2.15025e-06 2.69285e+25 -7.64292 0.558735 271.816 
2.62808e-06 -2.15025e-06 2.69047e+25 -7.90133 -1.21889 272.073 
4.53942e-06 -2.15025e-06 2.68947e+25 -7.89567 -3.0988 272.179 
6.45075e-06 -2.15025e-06 2.69097e+25 -7.36309 -4.59597 272.093 
8.36208e-06 -2.15025e-06 2.6918e+25 -6.34347 -6.12534 272.024 
1.02734e-05 -2.15025e-06 2.69055e+25 -4.53317 -6.44142 272.071 
1.21847e-05 -2.15025e-06 2.6919e+25 -2.73748 -5.65361 272.011 
1.40961e-05 -2.15025e-06 2.69023e+25 -1.02743 -3.93684 272.167 
1.60074e-05 -2.15025e-06 2.68816e+25 -0.198109 -1.39005 272.323 
7.1675e-07 -1.67242e-06 2.69205e+25 -7.62968 0.736756 271.837 
2.62808e-06 -1.67242e-06 2.68951e+25 -7.98121 -1.19832 272.114 
4.53942e-06 -1.67242e-06 2.68948e+25 -7.9741 -3.10709 272.105 
6.45075e-06 -1.67242e-06 2.68986e+25 -7.58341 -4.76819 272.152 
8.36208e-06 -1.67242e-06 2.69122e+25 -6.45359 -6.50412 272.045 
1.02734e-05 -1.67242e-06 2.69295e+25 -4.80119 -6.82336 272.017 
1.21847e-05 -1.67242e-06 2.6905e+25 -2.99911 -6.07613 272.06 
1.40961e-05 -1.67242e-06 2.69114e+25 -1.1694 -4.28253 272.062 
1.60074e-05 -1.67242e-06 2.68844e+25 -0.131217 -1.51664 272.372 
7.1675e-07 -1.19458e-06 2.69058e+25 -7.65926 0.868567 271.935 
2.62808e-06 -1.19458e-06 2.69008e+25 -7.97352 -1.20149 272.114 
4.53942e-06 -1.19458e-06 2.69018e+25 -8.03405 -3.12777 272.031 
6.45075e-06 -1.19458e-06 2.68873e+25 -7.66999 -5.02005 272.224 
8.36208e-06 -1.19458e-06 2.69045e+25 -6.5737 -6.83102 272.079 
1.02734e-05 -1.19458e-06 2.69106e+25 -5.01366 -7.25185 272.018 
1.21847e-05 -1.19458e-06 2.69088e+25 -3.20941 -6.50618 272.077 
1.40961e-05 -1.19458e-06 2.69123e+25 -1.29571 -4.68468 272.075 
1.60074e-05 -1.19458e-06 2.68869e+25 -0.247745 -1.66592 272.313 
7.1675e-07 -7.1675e-07 2.69036e+25 -7.68443 1.01482 271.966 
2.62808e-06 -7.1675e-07 2.68825e+25 -7.96064 -1.13651 272.194 
4.53942e-06 -7.1675e-07 2.68782e+25 -8.02527 -3.15495 272.23 
6.45075e-06 -7.1675e-07 2.6904e+25 -7.75899 -5.20195 272.123 
8.36208e-06 -7.1675e-07 2.68996e+25 -6.87759 -7.12847 272.091 
1.02734e-05 -7.1675e-07 2.69136e+25 -5.31349 -7.7144 272.003 
1.21847e-05 -7.1675e-07 2.69147e+25 -3.33571 -6.98764 272.092 
1.40961e-05 -7.1675e-07 2.69063e+25 -1.5045 -5.10057 272.097 
1.60074e-05 -7.1675e-07 2.68758e+25 -0.26573 -1.89726 272.337 
7.1675e-07 -2.38917e-07 2.68815e+25 -7.63808 1.17934 271.936 
2.62808e-06 -2.38917e-07 2.6865e+25 -8.04683 -1.02821 272.097 
4.53942e-06 -2.38917e-07 2.68653e+25 -7.98773 -3.21388 272.183 
6.45075e-06 -2.38917e-07 2.68879e+25 -7.86846 -5.35764 272.026 
8.36208e-06 -2.38917e-07 2.68862e+25 -7.132 -7.41241 272.048 
1.02734e-05 -2.38917e-07 2.68963e+25 -5.60153 -8.22212 271.989 
1.21847e-05 -2.38917e-07 2.68853e+25 -3.47451 -7.50717 272.118 
1.40961e-05 -2.38917e-07 2.68718e+25 -1.69246 -5.43952 272.186 
1.60074e-05 -2.38917e-07 2.68591e+25 -0.28722 -2.12909 272.375 
1.67242e-06 -1.69631e-05 2.68475e+25 -0.143349 0.0454168 272.807 
3.58375e-06 -1.69631e-05 2.68463e+25 -0.12566 -0.00755166 272.783 
5.49508e-06 -1.69631e-05 2.68532e+25 -0.122171 -0.00566055 272.876 
7.40642e-06 -1.69631e-05 2.68437e+25 -0.0943687 0.0152358 272.798 
9.31775e-06 -1.69631e-05 2.685e+25 -0.0321873 0.00956047 272.795 
1.12291e-05 -1.69631e-05 2.68524e+25 0.0776994 -0.00267673 272.806 
1.31404e-05 -1.69631e-05 2.68496e+25 0.0462097 -0.0131046 272.817 
1.50518e-05 -1.69631e-05 2.6839e+25 0.00236562 0.0260159 272.842 
1.69631e-05 -1.69631e-05 2.68417e+25 -0.0125918 -0.0228832 272.968 
1.67242e-06 -1.64852e-05 2.68651e+25 -0.403949 0.0752022 272.591 
3.58375e-06 -1.64852e-05 2.68663e+25 -0.421821 -0.0189471 272.526 
5.49508e-06 -1.64852e-05 2.68715e+25 -0.320171 -0.0138559 272.611 
7.40642e-06 -1.64852e-05 2.68653e+25 -0.246686 -0.0416626 272.604 
9.31775e-06 -1.64852e-05 2.68688e+25 -0.0996592 -0.00739258 272.556 
1.12291e-05 -1.64852e-05 2.68704e+25 -0.00923083 0.0339312 272.452 
1.31404e-05 -1.64852e-05 2.68667e+25 -0.0177356 -0.0937677 272.603 
1.50518e-05 -1.64852e-05 2.68571e+25 -0.0471982 0.0543858 272.662 
1.69631e-05 -1.64852e-05 2.68383e+25 -0.022177 -0.0501184 272.907 
1.67242e-06 -1.60074e-05 2.69009e+25 -0.740251 0.0156964 272.276 
3.58375e-06 -1.60074e-05 2.6892e+25 -0.722503 -0.0749513 272.361 
5.49508e-06 -1.60074e-05 2.68776e+25 -0.532394 0.0179204 272.483 
7.40642e-06 -1.60074e-05 2.68729e+25 -0.479228 -0.0522921 272.502 
9.31775e-06 -1.60074e-05 2.68888e+25 -0.228388 -0.08123 272.374 
1.12291e-05 -1.60074e-05 2.68981e+25 -0.157383 0.0131078 272.249 
1.31404e-05 -1.60074e-05 2.68792e+25 -0.0768759 -0.10253 272.452 
1.50518e-05 -1.60074e-05 2.68768e+25 0.048318 0.0814384 272.433 
1.69631e-05 -1.60074e-05 2.68532e+25 0.013639 -0.043918 272.818 
1.67242e-06 -1.55296e-05 2.69112e+25 -1.0907 -0.0223538 272.145 
3.58375e-06 -1.55296e-05 2.68981e+25 -0.881895 -0.149878 272.234 
5.49508e-06 -1.55296e-05 2.68853e+25 -0.698293 -0.0292533 272.392 
7.40642e-06 -1.55296e-05 2.68794e+25 -0.675184 -0.0933717 272.393 
9.31775e-06 -1.55296e-05 2.69075e+25 -0.422997 -0.142256 272.271 
1.12291e-05 -1.55296e-05 2.69158e+25 -0.246172 0.0288222 272.172 
1.31404e-05 -1.55296e-05 2.68935e+25 -0.153895 -0.13228 272.303 
1.50518e-05 -1.55296e-05 2.68848e+25 -0.0545123 0.0863117 272.31 
1.69631e-05 -1.55296e-05 2.68582e+25 0.0437196 0.0146997 272.843 
1.67242e-06 -1.50517e-05 2.69188e+25 -1.44932 -0.0728441 272.016 
3.58375e-06 -1.50517e-05 2.69109e+25 -1.00931 -0.199652 272.16 
5.49508e-06 -1.50517e-05 2.69031e+25 -0.994739 -0.105855 272.267 
7.40642e-06 -1.50517e-05 2.68971e+25 -0.767008 -0.139861 272.253 
9.31775e-06 -1.50517e-05 2.68929e+25 -0.506454 -0.246889 272.254 
1.12291e-05 -1.50517e-05 2.69008e+25 -0.315429 0.043871 272.206 
1.31404e-05 -1.50517e-05 2.69016e+25 -0.0997963 -0.189297 272.246 
1.50518e-05 -1.50517e-05 2.68805e+25 -0.0241717 0.0406642 272.369 
1.69631e-05 -1.50517e-05 2.68489e+25 -0.00420672 0.0641192 272.853 
1.67242e-06 -1.45739e-05 2.69334e+25 -1.64228 -0.166836 271.872 
3.58375e-06 -1.45739e-05 2.69069e+25 -1.39754 -0.238228 272.103 
5.49508e-06 -1.45739e-05 2.69142e+25 -1.18831 -0.119395 272.063 
7.40642e-06 -1.45739e-05 2.69056e+25 -0.977997 -0.202638 272.191 
9.31775e-06 -1.45739e-05 2.68998e+25 -0.661315 -0.333287 272.199 
1.12291e-05 -1.45739e-05 2.69058e+25 -0.368105 -0.00974298 272.233 
1.31404e-05 -1.45739e-05 2.69089e+25 -0.0976009 -0.232344 272.144 
1.50518e-05 -1.45739e-05 2.68913e+25 -0.0238366 0.0364139 272.305 
1.69631e-05 -1.45739e-05 2.68402e+25 -0.00814826 0.0559831 272.802 
1.67242e-06 -1.40961e-05 2.69273e+25 -1.74816 -0.202504 271.872 
3.58375e-06 -1.40961e-05 2.69166e+25 -1.66287 -0.299161 272.023 
5.49508e-06 -1.40961e-05 2.69096e+25 -1.49654 -0.1423 272.104 
7.40642e-06 -1.40961e-05 2.69035e+25 -1.26916 -0.248551 272.173 
9.31775e-06 -1.40961e-05 2.69086e+25 -0.816964 -0.38262 272.125 
1.12291e-05 -1.40961e-05 2.69128e+25 -0.436512 -0.152307 272.134 
1.31404e-05 -1.40961e-05 2.68978e+25 -0.169383 -0.216159 272.255 
1.50518e-05 -1.40961e-05 2.6896e+25 -0.033821 -0.0326021 272.22 
1.69631e-05 -1.40961e-05 2.68575e+25 -0.0115715 0.035486 272.737 
1.67242e-06 -1.36182e-05 2.69394e+25 -2.06568 -0.299504 271.799 
3.58375e-06 -1.36182e-05 2.69177e+25 -1.86218 -0.339748 272.008 
5.49508e-06 -1.36182e-05 2.69097e+25 -1.74297 -0.164801 272.126 
7.40642e-06 -1.36182e-05 2.69051e+25 -1.47474 -0.406834 272.111 
9.31775e-06 -1.36182e-05 2.69173e+25 -0.821742 -0.442259 272.092 
1.12291e-05 -1.36182e-05 2.69157e+25 -0.501845 -0.229778 272.084 
1.31404e-05 -1.36182e-05 2.68998e+25 -0.267043 -0.236587 272.258 
1.50518e-05 -1.36182e-05 2.69053e+25 -0.0506966 -0.057783 272.195 
1.69631e-05 -1.36182e-05 2.68459e+25 -0.0370116 0.00182511 272.773 
1.67242e-06 -1.31404e-05 2.69385e+25 -2.33417 -0.33979 271.827 
3.58375e-06 -1.31404e-05 2.6918e+25 -2.06634 -0.352331 271.952 
5.49508e-06 -1.31404e-05 2.69104e+25 -1.8965 -0.221687 272.112 
7.40642e-06 -1.31404e-05 2.69127e+25 -1.49607 -0.572273 272.1 
9.31775e-06 -1.31404e-05 2.6914e+25 -0.917652 -0.550124 272.006 
1.12291e-05 -1.31404e-05 2.69235e+25 -0.600217 -0.341059 272.011 
1.31404e-05 -1.31404e-05 2.69032e+25 -0.328354 -0.292043 272.164 
1.50518e-05 -1.31404e-05 2.68947e+25 -0.0881339 -0.0681338 272.214 
1.69631e-05 -1.31404e-05 2.68418e+25 -0.0155886 -0.0526328 272.78 
1.67242e-06 -1.26626e-05 2.69312e+25 -2.59419 -0.377801 271.912 
3.58375e-06 -1.26626e-05 2.69306e+25 -2.29579 -0.401719 271.928 
5.49508e-06 -1.26626e-05 2.69252e+25 -1.97672 -0.319666 271.95 
7.40642e-06 -1.26626e-05 2.69267e+25 -1.46621 -0.742068 271.988 
9.31775e-06 -1.26626e-05 2.69188e+25 -0.991281 -0.64942 272.013 
1.12291e-05 -1.26626e-05 2.69309e+25 -0.661084 -0.476566 271.924 
1.31404e-05 -1.26626e-05 2.69002e+25 -0.393109 -0.443031 272.169 
1.50518e-05 -1.26626e-05 2.68981e+25 -0.156967 -0.0732636 272.203 
1.69631e-05 -1.26626e-05 2.68421e+25 -0.0208395 -0.104262 272.859 
1.67242e-06 -1.21847e-05 2.69141e+25 -2.70455 -0.402391 272.024 
3.58375e-06 -1.21847e-05 2.69298e+25 -2.53626 -0.461172 271.861 
5.49508e-06 -1.21847e-05 2.6932e+25 -2.06139 -0.448345 271.882 
7.40642e-06 -1.21847e-05 2.69158e+25 -1.48227 -0.836496 272.017 
9.31775e-06 -1.21847e-05 2.69247e+25 -1.04481 -0.826983 271.994 
1.12291e-05 -1.21847e-05 2.69289e+25 -0.702956 -0.537738 271.891 
1.31404e-05 -1.21847e-05 2.68967e+25 -0.422187 -0.538842 272.171 
1.50518e-05 -1.21847e-05 2.69065e+25 -0.180165 -0.106547 272.186 
1.69631e-05 -1.21847e-05 2.68438e+25 0.0285444 -0.0849991 272.799 
1.67242e-06 -1.17069e-05 2.69179e+25 -3.04683 -0.393123 272.023 
3.58375e-06 -1.17069e-05 2.69262e+25 -2.78299 -0.630716 271.849 
5.49508e-06 -1.17069e-05 2.69364e+25 -2.04767 -0.573945 271.869 
7.40642e-06 -1.17069e-05 2.69276e+25 -1.66142 -0.949604 271.949 
9.31775e-06 -1.17069e-05 2.69125e+25 -1.22554 -0.918271 272.077 
1.12291e-05 -1.17069e-05 2.69217e+25 -0.785105 -0.505163 271.971 
1.31404e-05 -1.17069e-05 2.69149e+25 -0.429435 -0.626562 272.111 
1.50518e-05 -1.17069e-05 2.68985e+25 -0.181274 -0.195761 272.223 
1.69631e-05 -1.17069e-05 2.68511e+25 0.0403796 -0.0203338 272.78 
1.67242e-06 -1.12291e-05 2.69155e+25 -3.35974 -0.403802 272 
3.58375e-06 -1.12291e-05 2.6932e+25 -2.94062 -0.777933 271.951 
5.49508e-06 -1.12291e-05 2.69305e+25 -2.38977 -0.754379 271.944 
7.40642e-06 -1.12291e-05 2.69269e+25 -1.79497 -1.07394 271.905 
9.31775e-06 -1.12291e-05 2.69231e+25 -1.47251 -0.956172 271.947 
1.12291e-05 -1.12291e-05 2.69127e+25 -0.96855 -0.600786 272.044 
1.31404e-05 -1.12291e-05 2.69304e+25 -0.450238 -0.662253 271.984 
1.50518e-05 -1.12291e-05 2.69009e+25 -0.145387 -0.236006 272.176 
1.69631e-05 -1.12291e-05 2.68565e+25 -0.0220583 -0.00946205 272.713 
1.67242e-06 -1.07512e-05 2.69286e+25 -3.53341 -0.459843 271.939 
3.58375e-06 -1.07512e-05 2.69233e+25 -3.10118 -0.882348 272.047 
5.49508e-06 -1.07512e-05 2.69229e+25 -2.70587 -0.921789 271.978 
7.40642e-06 -1.07512e-05 2.69288e+25 -1.9883 -1.21399 271.934 
9.31775e-06 -1.07512e-05 2.69295e+25 -1.67948 -1.04261 271.899 
1.12291e-05 -1.07512e-05 2.6925e+25 -1.0968 -0.782886 271.927 
1.31404e-05 -1.07512e-05 2.69223e+25 -0.452005 -0.776423 271.956 
1.50518e-05 -1.07512e-05 2.69052e+25 -0.0456184 -0.297151 272.171 
1.69631e-05 -1.07512e-05 2.68558e+25 0.000687562 -0.0313084 272.697 
1.67242e-06 -1.02734e-05 2.69164e+25 -3.79796 -0.547725 272.099 
3.58375e-06 -1.02734e-05 2.69091e+25 -3.38451 -0.949987 272.02 
5.49508e-06 -1.02734e-05 2.6918e+25 -2.92065 -1.10945 272.006 
7.40642e-06 -1.02734e-05 2.69304e+25 -2.11567 -1.31157 271.984 
9.31775e-06 -1.02734e-05 2.69226e+25 -1.83664 -1.16819 271.952 
1.12291e-05 -1.02734e-05 2.69319e+25 -1.16445 -0.999337 271.898 
1.31404e-05 -1.02734e-05 2.69252e+25 -0.448763 -0.827007 271.974 
1.50518e-05 -1.02734e-05 2.69118e+25 -0.0768581 -0.408358 272.173 
1.69631e-05 -1.02734e-05 2.68569e+25 0.0138968 0.00752799 272.709 
1.67242e-06 -9.79558e-06 2.6908e+25 -4.01091 -0.572252 272.062 
3.58375e-06 -9.79558e-06 2.69289e+25 -3.72495 -0.987553 271.967 
5.49508e-06 -9.79558e-06 2.69239e+25 -3.12288 -1.31195 272.001 
7.40642e-06 -9.79558e-06 2.69321e+25 -2.40925 -1.3753 271.911 
9.31775e-06 -9.79558e-06 2.69254e+25 -1.83165 -1.3073 271.93 
1.12291e-05 -9.79558e-06 2.6938e+25 -1.15208 -1.22706 271.882 
1.31404e-05 -9.79558e-06 2.69276e+25 -0.44656 -0.896912 271.94 
1.50518e-05 -9.79558e-06 2.69114e+25 -0.107844 -0.58396 272.15 
1.69631e-05 -9.79558e-06 2.68449e+25 -0.0141793 -0.00655613 272.754 
1.67242e-06 -9.31775e-06 2.69131e+25 -4.2505 -0.584994 272.013 
3.58375e-06 -9.31775e-06 2.69249e+25 -4.13653 -1.12134 271.971 
5.49508e-06 -9.31775e-06 2.69295e+25 -3.30546 -1.44967 271.935 
7.40642e-06 -9.31775e-06 2.69363e+25 -2.73045 -1.52162 271.904 
9.31775e-06 -9.31775e-06 2.69336e+25 -1.92838 -1.49969 271.968 
1.12291e-05 -9.31775e-06 2.69413e+25 -1.17768 -1.43084 271.849 
1.31404e-05 -9.31775e-06 2.69268e+25 -0.549571 -1.00707 271.968 
1.50518e-05 -9.31775e-06 2.69175e+25 -0.121342 -0.682684 272.06 
1.69631e-05 -9.31775e-06 2.68518e+25 -0.00370236 -0.000936896 272.724 
1.67242e-06 -8.83992e-06 2.69099e+25 -4.55839 -0.570702 272.044 
3.58375e-06 -8.83992e-06 2.69304e+25 -4.29926 -1.30408 271.911 
5.49508e-06 -8.83992e-06 2.69202e+25 -3.76468 -1.64026 272.03 
7.40642e-06 -8.83992e-06 2.6939e+25 -2.94885 -1.69809 271.866 
9.31775e-06 -8.83992e-06 2.69346e+25 -2.12594 -1.75452 271.927 
1.12291e-05 -8.83992e-06 2.69381e+25 -1.27674 -1.62481 271.853 
1.31404e-05 -8.83992e-06 2.69251e+25 -0.554275 -1.19763 271.968 
1.50518e-05 -8.83992e-06 2.69151e+25 -0.041557 -0.716072 272.038 
1.69631e-05 -8.83992e-06 2.6854e+25 0.0270275 0.0555017 272.78 
1.67242e-06 -8.36208e-06 2.69262e+25 -4.9096 -0.588191 271.986 
3.58375e-06 -8.36208e-06 2.69242e+25 -4.53865 -1.42859 271.912 
5.49508e-06 -8.36208e-06 2.69022e+25 -4.03405 -1.79221 272.111 
7.40642e-06 -8.36208e-06 2.69322e+25 -3.23436 -1.95531 271.921 
9.31775e-06 -8.36208e-06 2.69348e+25 -2.37483 -1.94636 271.84 
1.12291e-05 -8.36208e-06 2.69358e+25 -1.3894 -1.84501 271.839 
1.31404e-05 -8.36208e-06 2.69329e+25 -0.627742 -1.37406 271.861 
1.50518e-05 -8.36208e-06 2.69038e+25 -0.1113 -0.755252 272.152 
1.69631e-05 -8.36208e-06 2.68533e+25 -0.0178177 0.0390426 272.725 
1.67242e-06 -7.88425e-06 2.6923e+25 -5.17209 -0.634926 271.985 
3.58375e-06 -7.88425e-06 2.69188e+25 -4.76795 -1.53281 272.039 
5.49508e-06 -7.88425e-06 2.6912e+25 -4.30709 -1.95558 272.033 
7.40642e-06 -7.88425e-06 2.69247e+25 -3.57227 -2.175 271.942 
9.31775e-06 -7.88425e-06 2.69421e+25 -2.53694 -2.18324 271.856 
1.12291e-05 -7.88425e-06 2.69322e+25 -1.48436 -2.06762 271.898 
1.31404e-05 -7.88425e-06 2.693e+25 -0.728565 -1.54923 271.97 
1.50518e-05 -7.88425e-06 2.69092e+25 -0.141297 -0.748498 272.185 
1.69631e-05 -7.88425e-06 2.68513e+25 -0.0218148 -0.00620185 272.765 
1.67242e-06 -7.40642e-06 2.69231e+25 -5.35253 -0.664728 271.9 
3.58375e-06 -7.40642e-06 2.69224e+25 -5.0631 -1.60927 271.999 
5.49508e-06 -7.40642e-06 2.69161e+25 -4.53693 -2.14747 272.064 
7.40642e-06 -7.40642e-06 2.6925e+25 -3.81462 -2.41349 271.999 
9.31775e-06 -7.40642e-06 2.69301e+25 -2.78252 -2.46232 271.867 
1.12291e-05 -7.40642e-06 2.69428e+25 -1.67338 -2.27191 271.806 
1.31404e-05 -7.40642e-06 2.69216e+25 -0.7413 -1.76926 271.964 
1.50518e-05 -7.40642e-06 2.69063e+25 -0.196016 -0.798199 272.128 
1.69631e-05 -7.40642e-06 2.68381e+25 -0.0251858 -0.0525764 272.811 
1.67242e-06 -6.92858e-06 2.69237e+25 -5.58931 -0.690972 271.907 
3.58375e-06 -6.92858e-06 2.69113e+25 -5.49398 -1.67853 272.023 
5.49508e-06 -6.92858e-06 2.69243e+25 -4.81799 -2.35221 271.973 
7.40642e-06 -6.92858e-06 2.69212e+25 -3.99641 -2.61848 272 
9.31775e-06 -6.92858e-06 2.69238e+25 -3.02036 -2.69798 271.987 
1.12291e-05 -6.92858e-06 2.69441e+25 -1.84829 -2.56983 271.817 
1.31404e-05 -6.92858e-06 2.6919e+25 -0.772506 -1.94288 271.956 
1.50518e-05 -6.92858e-06 2.68992e+25 -0.165132 -0.894819 272.218 
1.69631e-05 -6.92858e-06 2.68509e+25 0.0156342 -0.0230057 272.767 
1.67242e-06 -6.45075e-06 2.69213e+25 -5.84304 -0.732932 272.003 
3.58375e-06 -6.45075e-06 2.69182e+25 -5.74842 -1.78621 271.949 
5.49508e-06 -6.45075e-06 2.69227e+25 -5.15501 -2.54666 271.982 
7.40642e-06 -6.45075e-06 2.6916e+25 -4.20082 -2.79817 272.026 
9.31775e-06 -6.45075e-06 2.69217e+25 -3.19844 -2.99735 271.961 
1.12291e-05 -6.45075e-06 2.69514e+25 -2.10255 -2.88594 271.796 
1.31404e-05 -6.45075e-06 2.6913e+25 -0.99324 -2.14889 272.032 
1.50518e-05 -6.45075e-06 2.68928e+25 -0.352331 -0.983907 272.314 
1.69631e-05 -6.45075e-06 2.68419e+25 -0.00846215 -0.0131817 272.84 
1.67242e-06 -5.97292e-06 2.69133e+25 -6.09013 -0.794675 272.065 
3.58375e-06 -5.97292e-06 2.69119e+25 -5.97852 -1.83803 272.067 
5.49508e-06 -5.97292e-06 2.69213e+25 -5.3583 -2.7051 272.028 
7.40642e-06 -5.97292e-06 2.69108e+25 -4.49853 -3.07929 272.051 
9.31775e-06 -5.97292e-06 2.69294e+25 -3.32132 -3.30804 271.898 
1.12291e-05 -5.97292e-06 2.69268e+25 -2.22256 -3.17691 271.934 
1.31404e-05 -5.97292e-06 2.6911e+25 -1.15146 -2.42518 272.071 
1.50518e-05 -5.97292e-06 2.69093e+25 -0.550692 -1.16191 272.124 
1.69631e-05 -5.97292e-06 2.68328e+25 -0.00917968 -0.0354432 272.88 
1.67242e-06 -5.49508e-06 2.69157e+25 -6.22303 -0.77389 272.013 
3.58375e-06 -5.49508e-06 2.69178e+25 -6.19243 -1.95565 272.058 
5.49508e-06 -5.49508e-06 2.69188e+25 -5.71215 -2.93324 272.095 
7.40642e-06 -5.49508e-06 2.6908e+25 -4.80745 -3.40382 272.111 
9.31775e-06 -5.49508e-06 2.69217e+25 -3.5572 -3.62224 271.946 
1.12291e-05 -5.49508e-06 2.6916e+25 -2.34784 -3.4871 271.997 
1.31404e-05 -5.49508e-06 2.69089e+25 -1.29445 -2.66899 272.092 
1.50518e-05 -5.49508e-06 2.69095e+25 -0.558389 -1.34801 272.112 
1.69631e-05 -5.49508e-06 2.68498e+25 -0.0282272 -0.0798869 272.783 
1.67242e-06 -5.01725e-06 2.69051e+25 -6.5291 -0.753275 272.045 
3.58375e-06 -5.01725e-06 2.69209e+25 -6.41793 -2.04777 271.971 
5.49508e-06 -5.01725e-06 2.69221e+25 -5.99092 -3.09848 271.992 
7.40642e-06 -5.01725e-06 2.68972e+25 -5.07444 -3.72023 272.205 
9.31775e-06 -5.01725e-06 2.69262e+25 -3.81682 -3.94787 271.976 
1.12291e-05 -5.01725e-06 2.69163e+25 -2.40698 -3.80645 271.985 
1.31404e-05 -5.01725e-06 2.69141e+25 -1.36764 -2.89283 272.064 
1.50518e-05 -5.01725e-06 2.69008e+25 -0.467744 -1.42759 272.123 
1.69631e-05 -5.01725e-06 2.6836e+25 -0.0263554 -0.160108 272.815 
1.67242e-06 -4.53942e-06 2.69138e+25 -6.65375 -0.719112 272.04 
3.58375e-06 -4.53942e-06 2.69124e+25 -6.74123 -2.03813 272.023 
5.49508e-06 -4.53942e-06 2.69099e+25 -6.36832 -3.25846 272.021 
7.40642e-06 -4.53942e-06 2.68979e+25 -5.39907 -4.00471 272.16 
9.31775e-06 -4.53942e-06 2.69303e+25 -4.18188 -4.27594 271.884 
1.12291e-05 -4.53942e-06 2.69249e+25 -2.60392 -4.13841 271.979 
1.31404e-05 -4.53942e-06 2.69151e+25 -1.33058 -3.1486 272.073 
1.50518e-05 -4.53942e-06 2.69106e+25 -0.432449 -1.61904 272.073 
1.69631e-05 -4.53942e-06 2.68307e+25 -0.0188046 -0.184304 272.883 
1.67242e-06 -4.06158e-06 2.69076e+25 -6.96749 -0.621034 272.071 
3.58375e-06 -4.06158e-06 2.69072e+25 -7.11975 -2.03161 272.056 
5.49508e-06 -4.06158e-06 2.69155e+25 -6.68489 -3.41157 272.011 
7.40642e-06 -4.06158e-06 2.69122e+25 -5.78021 -4.24133 272.063 
9.31775e-06 -4.06158e-06 2.69254e+25 -4.35658 -4.66681 271.981 
1.12291e-05 -4.06158e-06 2.69175e+25 -2.80464 -4.4657 272.019 
1.31404e-05 -4.06158e-06 2.69128e+25 -1.50762 -3.41027 272.07 
1.50518e-05 -4.06158e-06 2.69021e+25 -0.383864 -1.83508 272.077 
1.69631e-05 -4.06158e-06 2.68438e+25 -0.00156078 -0.222059 272.747 
1.67242e-06 -3.58375e-06 2.69042e+25 -7.22521 -0.487838 272.075 
3.58375e-06 -3.58375e-06 2.68982e+25 -7.4912 -2.07935 272.136 
5.49508e-06 -3.58375e-06 2.6915e+25 -7.05309 -3.55172 272.063 
7.40642e-06 -3.58375e-06 2.69173e+25 -6.13642 -4.53422 272.022 
9.31775e-06 -3.58375e-06 2.69342e+25 -4.62956 -5.05327 271.968 
1.12291e-05 -3.58375e-06 2.69115e+25 -2.90541 -4.79895 272.094 
1.31404e-05 -3.58375e-06 2.69059e+25 -1.52366 -3.6903 272.111 
1.50518e-05 -3.58375e-06 2.69105e+25 -0.369869 -2.05111 272.065 
1.69631e-05 -3.58375e-06 2.68521e+25 -0.00339715 -0.224092 272.699 
1.67242e-06 -3.10592e-06 2.69046e+25 -7.48287 -0.377067 272.118 
3.58375e-06 -3.10592e-06 2.68998e+25 -7.73085 -2.17814 272.123 
5.49508e-06 -3.10592e-06 2.68968e+25 -7.34411 -3.72217 272.148 
7.40642e-06 -3.10592e-06 2.69025e+25 -6.42997 -4.85219 272.087 
9.31775e-06 -3.10592e-06 2.69204e+25 -4.86581 -5.47694 271.957 
1.12291e-05 -3.10592e-06 2.69094e+25 -3.10729 -5.19563 272.127 
1.31404e-05 -3.10592e-06 2.68969e+25 -1.60438 -3.99843 272.164 
1.50518e-05 -3.10592e-06 2.691e+25 -0.360491 -2.24918 272.071 
1.69631e-05 -3.10592e-06 2.68443e+25 -0.0441813 -0.280443 272.733 
1.67242e-06 -2.62808e-06 2.69128e+25 -7.69945 -0.31531 271.962 
3.58375e-06 -2.62808e-06 2.68946e+25 -7.82327 -2.21588 272.15 
5.49508e-06 -2.62808e-06 2.69007e+25 -7.53704 -3.88622 272.204 
7.40642e-06 -2.62808e-06 2.69103e+25 -6.77936 -5.13126 272.126 
9.31775e-06 -2.62808e-06 2.69153e+25 -5.17511 -5.88508 272.062 
1.12291e-05 -2.62808e-06 2.69102e+25 -3.46682 -5.60539 272.109 
1.31404e-05 -2.62808e-06 2.69029e+25 -1.69538 -4.40213 272.187 
1.50518e-05 -2.62808e-06 2.69054e+25 -0.381559 -2.49366 272.046 
1.69631e-05 -2.62808e-06 2.6845e+25 -0.0279594 -0.343649 272.766 
1.67242e-06 -2.15025e-06 2.69141e+25 -7.83662 -0.276281 271.875 
3.58375e-06 -2.15025e-06 2.68938e+25 -7.84365 -2.22699 272.159 
5.49508e-06 -2.15025e-06 2.6903e+25 -7.65655 -3.98409 272.211 
7.40642e-06 -2.15025e-06 2.69078e+25 -7.02438 -5.44887 272.131 
9.31775e-06 -2.15025e-06 2.6911e+25 -5.40851 -6.3414 272.126 
1.12291e-05 -2.15025e-06 2.69151e+25 -3.67046 -6.10652 272.029 
1.31404e-05 -2.15025e-06 2.69024e+25 -1.84569 -4.82489 272.215 
1.50518e-05 -2.15025e-06 2.69059e+25 -0.451009 -2.7209 272.084 
1.69631e-05 -2.15025e-06 2.6841e+25 -0.0175049 -0.361335 272.788 
1.67242e-06 -1.67242e-06 2.6922e+25 -7.93066 -0.232512 271.8 
3.58375e-06 -1.67242e-06 2.68723e+25 -7.98015 -2.22261 272.255 
5.49508e-06 -1.67242e-06 2.68955e+25 -7.82096 -4.10804 272.111 
7.40642e-06 -1.67242e-06 2.68929e+25 -7.10014 -5.71876 272.258 
9.31775e-06 -1.67242e-06 2.69189e+25 -5.6349 -6.78896 272.044 
1.12291e-05 -1.67242e-06 2.69181e+25 -3.86374 -6.56858 272.079 
1.31404e-05 -1.67242e-06 2.69116e+25 -2.03907 -5.24024 272.07 
1.50518e-05 -1.67242e-06 2.69056e+25 -0.582576 -3.00787 272.113 
1.69631e-05 -1.67242e-06 2.68401e+25 -0.043567 -0.418216 272.791 
1.67242e-06 -1.19458e-06 2.69122e+25 -7.89185 -0.0924141 271.872 
3.58375e-06 -1.19458e-06 2.68823e+25 -7.99549 -2.18286 272.295 
5.49508e-06 -1.19458e-06 2.68934e+25 -7.94645 -4.19983 272.161 
7.40642e-06 -1.19458e-06 2.68951e+25 -7.13345 -5.97442 272.185 
9.31775e-06 -1.19458e-06 2.69222e+25 -5.86274 -7.22554 272.009 
1.12291e-05 -1.19458e-06 2.69162e+25 -4.108 -7.01764 272.06 
1.31404e-05 -1.19458e-06 2.69166e+25 -2.17516 -5.7743 272.001 
1.50518e-05 -1.19458e-06 2.68944e+25 -0.655547 -3.25779 272.149 
1.69631e-05 -1.19458e-06 2.68354e+25 0.0114678 -0.454373 272.809 
1.67242e-06 -7.1675e-07 2.69009e+25 -7.88463 -0.00193857 271.974 
3.58375e-06 -7.1675e-07 2.68898e+25 -8.06741 -2.13573 272.178 
5.49508e-06 -7.1675e-07 2.68834e+25 -7.98291 -4.22413 272.231 
7.40642e-06 -7.1675e-07 2.68951e+25 -7.37584 -6.24367 272.149 
9.31775e-06 -7.1675e-07 2.69264e+25 -6.18844 -7.62686 271.945 
1.12291e-05 -7.1675e-07 2.69057e+25 -4.31926 -7.5496 272.089 
1.31404e-05 -7.1675e-07 2.69166e+25 -2.28443 -6.28179 272.068 
1.50518e-05 -7.1675e-07 2.68933e+25 -0.791901 -3.55636 272.22 
1.69631e-05 -7.1675e-07 2.68388e+25 -0.00348263 -0.468858 272.743 
1.67242e-06 -2.38917e-07 2.68856e+25 -7.86527 0.0866039 271.951 
3.58375e-06 -2.38917e-07 2.687e+25 -8.10273 -2.17129 272.131 
5.49508e-06 -2.38917e-07 2.68627e+25 -7.96819 -4.2404 272.217 
7.40642e-06 -2.38917e-07 2.68768e+25 -7.60407 -6.42781 272.07 
9.31775e-06 -2.38917e-07 2.68924e+25 -6.4068 -8.00172 272.021 
1.12291e-05 -2.38917e-07 2.6882e+25 -4.60527 -8.07334 272.172 
1.31404e-05 -2.38917e-07 2.689e+25 -2.53513 -6.72516 272.106 
1.50518e-05 -2.38917e-07 2.68676e+25 -0.980742 -3.90598 272.262 
1.69631e-05 -2.38917e-07 2.68185e+25 -0.0132436 -0.482452 272.751 
1.67242e-06 2.38917e-07 2.68731e+25 -7.9078 0.124573 272.038 
3.58375e-06 2.38917e-07 2.68729e+25 -8.17696 -2.22898 272.033 
5.49508e-06 2.38917e-07 2.68672e+25 -8.09018 -4.28652 272.155 
7.40642e-06 2.38917e-07 2.68826e+25 -7.78672 -6.62178 272.028 
9.31775e-06 2.38917e-07 2.68799e+25 -6.58161 -8.38053 272.09 
1.12291e-05 2.38917e-07 2.68848e+25 -4.83968 -8.59501 272.14 
1.31404e-05 2.38917e-07 2.68847e+25 -2.74028 -7.25045 272.162 
1.50518e-05 2.38917e-07 2.68674e+25 -0.89963 -4.33159 272.319 
1.69631e-05 2.38917e-07 2.6809e+25 -0.0256721 -0.52144 272.851 
1.67242e-06 7.1675e-07 2.689e+25 -7.76996 0.250398 272.033 
3.58375e-06 7.1675e-07 2.68975e+25 -8.16859 -2.2155 271.966 
5.49508e-06 7.1675e-07 2.68872e+25 -8.14464 -4.28382 272.126 
7.40642e-06 7.1675e-07 2.68988e+25 -7.84494 -6.74332 272.053 
9.31775e-06 7.1675e-07 2.69064e+25 -6.73072 -8.67627 272.144 
1.12291e-05 7.1675e-07 2.69107e+25 -5.16564 -9.1069 272.118 
1.31404e-05 7.1675e-07 2.69009e+25 -2.98479 -7.73727 272.175 
1.50518e-05 7.1675e-07 2.68778e+25 -0.926463 -4.70285 272.343 
1.69631e-05 7.1675e-07 2.68249e+25 -0.0358862 -0.575865 272.962 
1.67242e-06 1.19458e-06 2.68829e+25 -7.53302 0.450172 272.036 
3.58375e-06 1.19458e-06 2.69029e+25 -8.15364 -2.14869 271.892 
5.49508e-06 1.19458e-06 2.68958e+25 -8.19678 -4.33334 272.059 
7.40642e-06 1.19458e-06 2.69002e+25 -7.8208 -6.8988 272.107 
9.31775e-06 1.19458e-06 2.68973e+25 -6.86785 -9.00602 272.137 
1.12291e-05 1.19458e-06 2.69085e+25 -5.34528 -9.61997 272.099 
1.31404e-05 1.19458e-06 2.69045e+25 -3.13258 -8.267 272.132 
1.50518e-05 1.19458e-06 2.68879e+25 -1.02445 -5.04407 272.27 
1.69631e-05 1.19458e-06 2.68268e+25 7.30482e-05 -0.614022 272.861 
1.67242e-06 1.67242e-06 2.68837e+25 -7.35498 0.634801 272.007 
3.58375e-06 1.67242e-06 2.69024e+25 -8.00996 -2.06847 271.92 
5.49508e-06 1.67242e-06 2.6888e+25 -8.12826 -4.43 272.029 
7.40642e-06 1.67242e-06 2.68827e+25 -7.8558 -7.12128 272.176 
9.31775e-06 1.67242e-06 2.68975e+25 -6.96301 -9.32042 272.13 
1.12291e-05 1.67242e-06 2.68982e+25 -5.47205 -10.1081 272.208 
1.31404e-05 1.67242e-06 2.68914e+25 -3.24385 -8.8748 272.24 
1.50518e-05 1.67242e-06 2.68894e+25 -1.12745 -5.46879 272.276 
1.69631e-05 1.67242e-06 2.68377e+25 -0.0427339 -0.688184 272.917 
1.67242e-06 2.15025e-06 2.68789e+25 -7.1 0.903637 272.067 
3.58375e-06 2.15025e-06 2.6896e+25 -7.83778 -1.94438 271.959 
5.49508e-06 2.15025e-06 2.68931e+25 -8.10664 -4.48438 271.972 
7.40642e-06 2.15025e-06 2.6875e+25 -7.77763 -7.27636 272.199 
9.31775e-06 2.15025e-06 2.68869e+25 -7.16796 -9.57263 272.142 
1.12291e-05 2.15025e-06 2.68931e+25 -5.53492 -10.6246 272.169 
1.31404e-05 2.15025e-06 2.68946e+25 -3.40151 -9.42152 272.181 
1.50518e-05 2.15025e-06 2.68944e+25 -1.12169 -5.97862 272.243 
1.69631e-05 2.15025e-06 2.68356e+25 -0.0436352 -0.800118 272.827 
1.67242e-06 2.62808e-06 2.68938e+25 -6.73815 1.12176 271.945 
3.58375e-06 2.62808e-06 2.6894e+25 -7.58888 -1.7205 271.968 
5.49508e-06 2.62808e-06 2.68898e+25 -7.88172 -4.48182 272.043 
7.40642e-06 2.62808e-06 2.68753e+25 -7.844 -7.32056 272.199 
9.31775e-06 2.62808e-06 2.6875e+25 -7.31114 -9.84062 272.306 
1.12291e-05 2.62808e-06 2.68941e+25 -5.79966 -11.0655 272.211 
1.31404e-05 2.62808e-06 2.6904e+25 -3.63629 -9.95393 272.109 
1.50518e-05 2.62808e-06 2.68943e+25 -1.24948 -6.50204 272.244 
1.69631e-05 2.62808e-06 2.68287e+25 0.0231861 -0.824595 272.862 
1.67242e-06 3.10592e-06 2.68991e+25 -6.36584 1.32854 271.884 
3.58375e-06 3.10592e-06 2.68757e+25 -7.20297 -1.47692 272.076 
5.49508e-06 3.10592e-06 2.68825e+25 -7.74932 -4.49104 272.046 
7.40642e-06 3.10592e-06 2.68874e+25 -7.68577 -7.27817 272.131 
9.31775e-06 3.10592e-06 2.68782e+25 -7.30053 -10.0618 272.304 
1.12291e-05 3.10592e-06 2.68802e+25 -5.90897 -11.5198 272.302 
1.31404e-05 3.10592e-06 2.69014e+25 -3.78015 -10.5388 272.156 
1.50518e-05 3.10592e-06 2.68974e+25 -1.30697 -7.02135 272.209 
1.69631e-05 3.10592e-06 2.68263e+25 -0.0246268 -0.872877 272.854 
1.67242e-06 3.58375e-06 2.68816e+25 -5.99227 1.47159 272.013 
3.58375e-06 3.58375e-06 2.68748e+25 -6.69167 -1.22082 272.027 
5.49508e-06 3.58375e-06 2.68619e+25 -7.50864 -4.44737 272.214 
7.40642e-06 3.58375e-06 2.68738e+25 -7.47665 -7.29583 272.212 
9.31775e-06 3.58375e-06 2.68875e+25 -7.33265 -10.2475 272.19 
1.12291e-05 3.58375e-06 2.68888e+25 -6.03742 -11.9966 272.271 
1.31404e-05 3.58375e-06 2.68953e+25 -3.89051 -11.1951 272.242 
1.50518e-05 3.58375e-06 2.69119e+25 -1.39414 -7.5497 272.072 
1.69631e-05 3.58375e-06 2.68345e+25 -0.0178178 -0.918525 272.862 
1.67242e-06 4.06158e-06 2.68839e+25 -5.45814 1.56259 271.99 
3.58375e-06 4.06158e-06 2.68809e+25 -6.24697 -1.05396 272.006 
5.49508e-06 4.06158e-06 2.68675e+25 -7.09018 -4.253 272.156 
7.40642e-06 4.06158e-06 2.6878e+25 -7.2301 -7.29055 272.2 
9.31775e-06 4.06158e-06 2.6876e+25 -7.189 -10.3995 272.249 
1.12291e-05 4.06158e-06 2.68799e+25 -6.13585 -12.4423 272.275 
1.31404e-05 4.06158e-06 2.68941e+25 -3.95813 -11.9092 272.238 
1.50518e-05 4.06158e-06 2.6907e+25 -1.51106 -8.09579 272.106 
1.69631e-05 4.06158e-06 2.68403e+25 -0.0626315 -1.01446 272.869 
1.67242e-06 4.53942e-06 2.68784e+25 -5.06075 1.63333 271.976 
3.58375e-06 4.53942e-06 2.68719e+25 -5.78424 -0.870287 272.049 
5.49508e-06 4.53942e-06 2.68636e+25 -6.60796 -4.07719 272.139 
7.40642e-06 4.53942e-06 2.68751e+25 -7.04595 -7.35313 272.193 
9.31775e-06 4.53942e-06 2.68799e+25 -7.09193 -10.5264 272.177 
1.12291e-05 4.53942e-06 2.68818e+25 -6.14986 -12.8445 272.285 
1.31404e-05 4.53942e-06 2.6908e+25 -4.03049 -12.5455 272.134 
1.50518e-05 4.53942e-06 2.69006e+25 -1.51075 -8.66519 272.219 
1.69631e-05 4.53942e-06 2.68393e+25 -0.0494717 -1.1268 272.883 
1.67242e-06 5.01725e-06 2.68825e+25 -4.64683 1.72966 271.947 
3.58375e-06 5.01725e-06 2.68741e+25 -5.19056 -0.655347 272.034 
5.49508e-06 5.01725e-06 2.68585e+25 -5.97943 -3.88539 272.197 
7.40642e-06 5.01725e-06 2.68691e+25 -6.69813 -7.26829 272.231 
9.31775e-06 5.01725e-06 2.68814e+25 -6.77459 -10.6287 272.091 
1.12291e-05 5.01725e-06 2.68877e+25 -6.06414 -13.1647 272.174 
1.31404e-05 5.01725e-06 2.6901e+25 -4.02793 -13.143 272.148 
1.50518e-05 5.01725e-06 2.68967e+25 -1.47965 -9.23333 272.286 
1.69631e-05 5.01725e-06 2.68461e+25 -0.0708078 -1.26697 272.791 
1.67242e-06 5.49508e-06 2.6881e+25 -4.01624 1.86799 271.937 
3.58375e-06 5.49508e-06 2.68769e+25 -4.54133 -0.460047 272.026 
5.49508e-06 5.49508e-06 2.68699e+25 -5.39747 -3.68185 272.127 
7.40642e-06 5.49508e-06 2.68616e+25 -6.19452 -7.09791 272.18 
9.31775e-06 5.49508e-06 2.68923e+25 -6.53494 -10.7186 272.141 
1.12291e-05 5.49508e-06 2.68906e+25 -5.86083 -13.4326 272.126 
1.31404e-05 5.49508e-06 2.69018e+25 -4.14786 -13.7284 272.196 
1.50518e-05 5.49508e-06 2.68982e+25 -1.55338 -9.84751 272.316 
1.69631e-05 5.49508e-06 2.68579e+25 -0.0377945 -1.38105 272.718 
1.67242e-06 5.97292e-06 2.68912e+25 -3.35604 1.94515 271.902 
3.58375e-06 5.97292e-06 2.68725e+25 -3.95681 -0.302839 271.955 
5.49508e-06 5.97292e-06 2.68652e+25 -4.81107 -3.40535 272.137 
7.40642e-06 5.97292e-06 2.68751e+25 -5.67012 -6.93276 272.09 
9.31775e-06 5.97292e-06 2.6892e+25 -6.12967 -10.7134 272.104 
1.12291e-05 5.97292e-06 2.68988e+25 -5.84566 -13.6494 272.166 
1.31404e-05 5.97292e-06 2.69009e+25 -4.13168 -14.3786 272.161 
1.50518e-05 5.97292e-06 2.69028e+25 -1.62572 -10.4897 272.22 
1.69631e-05 5.97292e-06 2.68486e+25 -0.0446202 -1.48679 272.743 
1.67242e-06 6.45075e-06 2.68782e+25 -2.83628 2.03981 271.922 
3.58375e-06 6.45075e-06 2.68678e+25 -3.27132 -0.145564 271.994 
5.49508e-06 6.45075e-06 2.68559e+25 -4.0587 -3.07625 272.23 
7.40642e-06 6.45075e-06 2.68681e+25 -5.05851 -6.76886 272.11 
9.31775e-06 6.45075e-06 2.68873e+25 -5.74223 -10.6809 272.044 
1.12291e-05 6.45075e-06 2.68855e+25 -5.72404 -13.8431 272.253 
1.31404e-05 6.45075e-06 2.69047e+25 -4.30079 -14.9608 272.166 
1.50518e-05 6.45075e-06 2.69139e+25 -1.7739 -11.0935 272.217 
1.69631e-05 6.45075e-06 2.68513e+25 -0.032451 -1.58516 272.801 
1.67242e-06 6.92858e-06 2.68888e+25 -2.19649 2.14858 271.847 
3.58375e-06 6.92858e-06 2.68746e+25 -2.64469 -0.0153507 272.001 
5.49508e-06 6.92858e-06 2.6862e+25 -3.37973 -2.8128 272.164 
7.40642e-06 6.92858e-06 2.68795e+25 -4.34382 -6.53005 272.024 
9.31775e-06 6.92858e-06 2.688e+25 -5.23624 -10.5377 272.153 
1.12291e-05 6.92858e-06 2.6878e+25 -5.49336 -13.9869 272.341 
1.31404e-05 6.92858e-06 2.69068e+25 -4.33237 -15.4402 272.213 
1.50518e-05 6.92858e-06 2.69065e+25 -1.90723 -11.6657 272.207 
1.69631e-05 6.92858e-06 2.68553e+25 -0.0421067 -1.66632 272.77 
1.67242e-06 7.40642e-06 2.68859e+25 -1.43687 2.17073 271.861 
3.58375e-06 7.40642e-06 2.68742e+25 -1.86385 0.123759 271.984 
5.49508e-06 7.40642e-06 2.68677e+25 -2.48984 -2.61128 272.082 
7.40642e-06 7.40642e-06 2.68698e+25 -3.53299 -6.25666 272.116 
9.31775e-06 7.40642e-06 2.68663e+25 -4.5922 -10.3382 272.186 
1.12291e-05 7.40642e-06 2.68796e+25 -5.13771 -14.0131 272.372 
1.31404e-05 7.40642e-06 2.69057e+25 -4.28206 -15.9446 272.233 
1.50518e-05 7.40642e-06 2.6912e+25 -1.93852 -12.3112 272.244 
1.69631e-05 7.40642e-06 2.68587e+25 -0.093215 -1.84868 272.742 
1.67242e-06 7.88425e-06 2.68742e+25 -0.645261 2.24954 271.917 
3.58375e-06 7.88425e-06 2.687e+25 -0.940122 0.259743 271.958 
5.49508e-06 7.88425e-06 2.68615e+25 -1.61631 -2.44446 272.089 
7.40642e-06 7.88425e-06 2.68638e+25 -2.57655 -5.95769 272.111 
9.31775e-06 7.88425e-06 2.68654e+25 -3.89974 -10.0611 272.263 
1.12291e-05 7.88425e-06 2.68862e+25 -4.75851 -13.9637 272.283 
1.31404e-05 7.88425e-06 2.69097e+25 -4.30372 -16.4268 272.213 
1.50518e-05 7.88425e-06 2.69171e+25 -1.91139 -12.9503 272.229 
1.69631e-05 7.88425e-06 2.68571e+25 -0.0608083 -2.04171 272.786 
1.67242e-06 8.36208e-06 2.68742e+25 0.0723741 2.33458 271.908 
3.58375e-06 8.36208e-06 2.68714e+25 -0.0439945 0.318014 271.943 
5.49508e-06 8.36208e-06 2.68612e+25 -0.694822 -2.33437 272.068 
7.40642e-06 8.36208e-06 2.68832e+25 -1.60975 -5.69394 272.002 
9.31775e-06 8.36208e-06 2.68671e+25 -3.12335 -9.66355 272.244 
1.12291e-05 8.36208e-06 2.68956e+25 -4.34568 -13.8164 272.245 
1.31404e-05 8.36208e-06 2.69129e+25 -4.17085 -16.8277 272.203 
1.50518e-05 8.36208e-06 2.69119e+25 -1.95221 -13.5751 272.302 
1.69631e-05 8.36208e-06 2.68477e+25 -0.0862364 -2.19246 272.915 
1.67242e-06 8.83992e-06 2.68862e+25 0.946471 2.3332 271.836 
3.58375e-06 8.83992e-06 2.68771e+25 0.905034 0.387536 271.919 
5.49508e-06 8.83992e-06 2.68735e+25 0.398929 -2.20608 271.986 
7.40642e-06 8.83992e-06 2.68672e+25 -0.570227 -5.36787 272.123 
9.31775e-06 8.83992e-06 2.68701e+25 -2.21686 -9.20107 272.238 
1.12291e-05 8.83992e-06 2.68955e+25 -3.73785 -13.5633 272.257 
1.31404e-05 8.83992e-06 2.69136e+25 -3.92927 -17.0597 272.298 
1.50518e-05 8.83992e-06 2.69144e+25 -2.05594 -14.2264 272.329 
1.69631e-05 8.83992e-06 2.68677e+25 -0.0755343 -2.34555 272.807 
1.67242e-06 9.31775e-06 2.68727e+25 1.88552 2.34378 271.908 
3.58375e-06 9.31775e-06 2.68615e+25 1.85785 0.426087 272.009 
5.49508e-06 9.31775e-06 2.68609e+25 1.55838 -2.05682 272.059 
7.40642e-06 9.31775e-06 2.68618e+25 0.426264 -5.02043 272.155 
9.31775e-06 9.31775e-06 2.68661e+25 -1.24355 -8.75448 272.262 
1.12291e-05 9.31775e-06 2.68973e+25 -2.97285 -13.314 272.242 
1.31404e-05 9.31775e-06 2.6904e+25 -3.69074 -17.1347 272.349 
1.50518e-05 9.31775e-06 2.6929e+25 -2.13239 -14.8538 272.339 
1.69631e-05 9.31775e-06 2.68734e+25 -0.0555841 -2.52313 272.868 
1.67242e-06 9.79558e-06 2.68725e+25 2.98623 2.2744 271.909 
3.58375e-06 9.79558e-06 2.68806e+25 2.95937 0.503693 271.918 
5.49508e-06 9.79558e-06 2.68606e+25 2.79975 -1.88534 272.052 
7.40642e-06 9.79558e-06 2.68666e+25 1.60851 -4.6322 272.142 
9.31775e-06 9.79558e-06 2.68756e+25 -0.194503 -8.25728 272.234 
1.12291e-05 9.79558e-06 2.68877e+25 -2.14347 -12.8887 272.289 
1.31404e-05 9.79558e-06 2.69135e+25 -3.43046 -17.0921 272.283 
1.50518e-05 9.79558e-06 2.69329e+25 -2.21364 -15.4574 272.394 
1.69631e-05 9.79558e-06 2.68755e+25 -0.0714621 -2.70397 272.866 
1.67242e-06 1.02734e-05 2.68836e+25 4.08305 2.21541 271.934 
3.58375e-06 1.02734e-05 2.68714e+25 4.17007 0.54112 271.929 
5.49508e-06 1.02734e-05 2.68577e+25 3.98259 -1.68949 272.078 
7.40642e-06 1.02734e-05 2.68708e+25 2.85523 -4.25727 272.111 
9.31775e-06 1.02734e-05 2.68756e+25 1.04577 -7.76014 272.279 
1.12291e-05 1.02734e-05 2.68988e+25 -1.16154 -12.3472 272.282 
1.31404e-05 1.02734e-05 2.69208e+25 -3.01443 -16.9727 272.379 
1.50518e-05 1.02734e-05 2.69328e+25 -2.20552 -16.1506 272.422 
1.69631e-05 1.02734e-05 2.68925e+25 -0.0867267 -2.88212 272.769 
1.67242e-06 1.07512e-05 2.68611e+25 5.27947 2.1645 272.053 
3.58375e-06 1.07512e-05 2.6869e+25 5.53348 0.565255 271.982 
5.49508e-06 1.07512e-05 2.68561e+25 5.21067 -1.4515 272.14 
7.40642e-06 1.07512e-05 2.68778e+25 4.06983 -3.93889 272.035 
9.31775e-06 1.07512e-05 2.68763e+25 2.30395 -7.23776 272.197 
1.12291e-05 1.07512e-05 2.69034e+25 -0.19111 -11.7017 272.307 
1.31404e-05 1.07512e-05 2.69131e+25 -2.53343 -16.6589 272.441 
1.50518e-05 1.07512e-05 2.69478e+25 -2.17553 -16.7371 272.386 
1.69631e-05 1.07512e-05 2.69143e+25 -0.0695495 -3.05841 272.768 
1.67242e-06 1.12291e-05 2.68657e+25 6.51282 1.96778 272.012 
3.58375e-06 1.12291e-05 2.68626e+25 7.02484 0.517516 272.041 
5.49508e-06 1.12291e-05 2.686e+25 6.74031 -1.24678 272.159 
7.40642e-06 1.12291e-05 2.68663e+25 5.49444 -3.55367 272.118 
9.31775e-06 1.12291e-05 2.68753e+25 3.74147 -6.69168 272.296 
1.12291e-05 1.12291e-05 2.69085e+25 0.848394 -10.9601 272.318 
1.31404e-05 1.12291e-05 2.69218e+25 -1.88941 -16.2181 272.421 
1.50518e-05 1.12291e-05 2.69617e+25 -2.16286 -17.1895 272.344 
1.69631e-05 1.12291e-05 2.69133e+25 -0.10452 -3.29292 272.851 
1.67242e-06 1.17069e-05 2.68687e+25 7.88593 1.77694 272.024 
3.58375e-06 1.17069e-05 2.68656e+25 8.54996 0.421434 272.056 
5.49508e-06 1.17069e-05 2.68455e+25 8.26293 -1.11116 272.254 
7.40642e-06 1.17069e-05 2.68834e+25 7.10745 -3.13479 272.07 
9.31775e-06 1.17069e-05 2.6871e+25 5.14375 -6.09786 272.405 
1.12291e-05 1.17069e-05 2.69059e+25 2.00053 -10.1544 272.343 
1.31404e-05 1.17069e-05 2.69213e+25 -1.33196 -15.5963 272.47 
1.50518e-05 1.17069e-05 2.69577e+25 -2.11882 -17.5329 272.495 
1.69631e-05 1.17069e-05 2.69191e+25 -0.0995429 -3.54087 272.909 
1.67242e-06 1.21847e-05 2.68661e+25 9.4046 1.57187 272.03 
3.58375e-06 1.21847e-05 2.68719e+25 10.011 0.37907 271.939 
5.49508e-06 1.21847e-05 2.68509e+25 9.77089 -0.966892 272.193 
7.40642e-06 1.21847e-05 2.688e+25 8.81209 -2.73889 272.1 
9.31775e-06 1.21847e-05 2.6867e+25 6.75154 -5.42172 272.376 
1.12291e-05 1.21847e-05 2.6902e+25 3.42743 -9.24677 272.44 
1.31404e-05 1.21847e-05 2.69428e+25 -0.310803 -14.8394 272.392 
1.50518e-05 1.21847e-05 2.69737e+25 -2.10682 -17.8024 272.502 
1.69631e-05 1.21847e-05 2.69392e+25 -0.0928855 -3.75379 272.974 
1.67242e-06 1.26626e-05 2.6845e+25 11.1743 1.31171 272.2 
3.58375e-06 1.26626e-05 2.68754e+25 11.66 0.393101 271.975 
5.49508e-06 1.26626e-05 2.68518e+25 11.5224 -0.863446 272.314 
7.40642e-06 1.26626e-05 2.68624e+25 10.6028 -2.37787 272.202 
9.31775e-06 1.26626e-05 2.68809e+25 8.57914 -4.75864 272.343 
1.12291e-05 1.26626e-05 2.6891e+25 5.14219 -8.2737 272.557 
1.31404e-05 1.26626e-05 2.69437e+25 0.80071 -13.9378 272.483 
1.50518e-05 1.26626e-05 2.69951e+25 -2.03791 -17.887 272.45 
1.69631e-05 1.26626e-05 2.69645e+25 -0.146984 -4.05849 272.867 
1.67242e-06 1.31404e-05 2.68499e+25 12.9182 1.13841 272.16 
3.58375e-06 1.31404e-05 2.68582e+25 13.3961 0.330062 272.116 
5.49508e-06 1.31404e-05 2.68506e+25 13.4275 -0.777454 272.25 
7.40642e-06 1.31404e-05 2.68656e+25 12.6048 -1.9875 272.258 
9.31775e-06 1.31404e-05 2.68785e+25 10.4679 -4.11793 272.313 
1.12291e-05 1.31404e-05 2.6891e+25 7.12499 -7.22011 272.578 
1.31404e-05 1.31404e-05 2.69538e+25 2.0147 -12.7356 272.503 
1.50518e-05 1.31404e-05 2.70012e+25 -1.86672 -17.7596 272.628 
1.69631e-05 1.31404e-05 2.69952e+25 -0.145969 -4.37867 272.897 
1.67242e-06 1.36182e-05 2.68443e+25 14.8994 1.01218 272.245 
3.58375e-06 1.36182e-05 2.68605e+25 15.3955 0.211969 272.088 
5.49508e-06 1.36182e-05 2.68582e+25 15.4364 -0.712288 272.232 
7.40642e-06 1.36182e-05 2.68629e+25 14.612 -1.61806 272.248 
9.31775e-06 1.36182e-05 2.68868e+25 12.4692 -3.42288 272.343 
1.12291e-05 1.36182e-05 2.68983e+25 9.11603 -6.17485 272.622 
1.31404e-05 1.36182e-05 2.69567e+25 3.46137 -11.2318 272.611 
1.50518e-05 1.36182e-05 2.70162e+25 -1.6905 -17.3684 272.642 
1.69631e-05 1.36182e-05 2.70204e+25 -0.207192 -4.81058 272.856 
1.67242e-06 1.40961e-05 2.68561e+25 16.9848 0.820108 272.205 
3.58375e-06 1.40961e-05 2.68499e+25 17.579 0.109413 272.25 
5.49508e-06 1.40961e-05 2.68475e+25 17.5062 -0.565354 272.344 
7.40642e-06 1.40961e-05 2.68696e+25 16.7633 -1.31881 272.321 
9.31775e-06 1.40961e-05 2.68765e+25 14.764 -2.70075 272.429 
1.12291e-05 1.40961e-05 2.69058e+25 11.322 -5.07102 272.56 
1.31404e-05 1.40961e-05 2.69562e+25 5.46754 -9.47799 272.721 
1.50518e-05 1.40961e-05 2.70348e+25 -1.09607 -16.6376 272.713 
1.69631e-05 1.40961e-05 2.70574e+25 -0.236478 -5.32327 272.871 
1.67242e-06 1.45739e-05 2.68484e+25 19.4095 0.660059 272.253 
3.58375e-06 1.45739e-05 2.68613e+25 19.7804 0.0556981 272.17 
5.49508e-06 1.45739e-05 2.68542e+25 19.7904 -0.387162 272.286 
7.40642e-06 1.45739e-05 2.68501e+25 19.0519 -1.01864 272.428 
9.31775e-06 1.45739e-05 2.68762e+25 17.2755 -2.08589 272.445 
1.12291e-05 1.45739e-05 2.69115e+25 13.8357 -3.90002 272.588 
1.31404e-05 1.45739e-05 2.69557e+25 7.9541 -7.5511 272.824 
1.50518e-05 1.45739e-05 2.70507e+25 -0.0366449 -15.398 272.773 
1.69631e-05 1.45739e-05 2.71134e+25 -0.317915 -5.93972 272.873 
1.67242e-06 1.50518e-05 2.68427e+25 21.9543 0.502491 272.315 
3.58375e-06 1.50518e-05 2.68408e+25 22.3292 0.0234404 272.386 
5.49508e-06 1.50518e-05 2.68449e+25 22.1433 -0.283296 272.373 
7.40642e-06 1.50518e-05 2.68578e+25 21.4865 -0.745675 272.438 
9.31775e-06 1.50518e-05 2.68742e+25 19.9391 -1.54152 272.536 
1.12291e-05 1.50518e-05 2.69196e+25 16.6292 -2.81191 272.594 
1.31404e-05 1.50518e-05 2.69587e+25 10.9486 -5.66545 272.898 
1.50518e-05 1.50518e-05 2.70657e+25 1.61969 -13.4235 272.949 
1.69631e-05 1.50518e-05 2.71812e+25 -0.436996 -6.7298 272.968 
1.67242e-06 1.55296e-05 2.68241e+25 24.6606 0.318242 272.449 
3.58375e-06 1.55296e-05 2.68462e+25 25.0175 0.0127236 272.378 
5.49508e-06 1.55296e-05 2.6849e+25 24.7006 -0.226906 272.43 
7.40642e-06 1.55296e-05 2.68579e+25 23.9827 -0.534812 272.455 
9.31775e-06 1.55296e-05 2.68698e+25 22.7505 -1.02941 272.568 
1.12291e-05 1.55296e-05 2.69092e+25 19.8603 -1.79934 272.715 
1.31404e-05 1.55296e-05 2.69471e+25 14.6511 -3.80731 273.043 
1.50518e-05 1.55296e-05 2.70938e+25 4.55304 -10.662 273.012 
1.69631e-05 1.55296e-05 2.72921e+25 -0.575692 -7.77987 273.003 
1.67242e-06 1.60074e-05 2.6831e+25 27.3857 0.176308 272.501 
3.58375e-06 1.60074e-05 2.68435e+25 27.7199 0.0341475 272.374 
5.49508e-06 1.60074e-05 2.68315e+25 27.4348 -0.150737 272.576 
7.40642e-06 1.60074e-05 2.68418e+25 26.8626 -0.229487 272.605 
9.31775e-06 1.60074e-05 2.68654e+25 25.817 -0.567155 272.602 
1.12291e-05 1.60074e-05 2.68949e+25 23.5881 -0.98355 272.838 
1.31404e-05 1.60074e-05 2.69523e+25 19.2534 -2.09735 273.018 
1.50518e-05 1.60074e-05 2.71022e+25 9.31317 -7.18508 273.255 
1.69631e-05 1.60074e-05 2.74634e+25 -0.636707 -8.94854 273.035 
1.67242e-06 1.64852e-05 2.68102e+25 30.2732 0.0992588 272.625 
3.58375e-06 1.64852e-05 2.68261e+25 30.4016 0.0863259 272.544 
5.49508e-06 1.64852e-05 2.68205e+25 30.3209 -0.0632009 272.651 
7.40642e-06 1.64852e-05 2.68322e+25 29.902 -0.0619737 272.698 
9.31775e-06 1.64852e-05 2.68587e+25 29.0681 -0.205555 272.671 
1.12291e-05 1.64852e-05 2.69009e+25 27.6336 -0.441826 272.811 
1.31404e-05 1.64852e-05 2.69468e+25 24.748 -0.787387 273.115 
1.50518e-05 1.64852e-05 2.70955e+25 16.7933 -3.56124 273.315 
1.69631e-05 1.64852e-05 2.77074e+25 -0.0280533 -9.58771 273.357 
1.67242e-06 1.69631e-05 2.67881e+25 32.9789 0.036655 272.884 
3.58375e-06 1.69631e-05 2.68119e+25 32.9399 0.0283113 272.832 
5.49508e-06 1.69631e-05 2.68093e+25 33.0233 -0.0111454 272.877 
7.40642e-06 1.69631e-05 2.68128e+25 32.7884 -0.0292696 272.903 
9.31775e-06 1.69631e-05 2.68405e+25 32.3829 -0.0114211 272.902 
1.12291e-05 1.69631e-05 2.68852e+25 31.8337 -0.108219 272.943 
1.31404e-05 1.69631e-05 2.69413e+25 30.6652 -0.119121 273.131 
1.50518e-05 1.69631e-05 2.70826e+25 26.7402 -0.803159 273.292 
1.69631e-05 1.69631e-05 2.85346e+25 4.09641 -6.16556 273.957 
2.38917e-07 2.38917e-07 2.68622e+25 -7.40915 1.87488 271.994 
2.15025e-06 2.38917e-07 2.68723e+25 -8.00602 -0.459343 272.003 
4.06158e-06 2.38917e-07 2.6864e+25 -8.11085 -2.73843 272.116 
5.97292e-06 2.38917e-07 2.68751e+25 -8.03303 -4.80878 272.089 
7.88425e-06 2.38917e-07 2.68801e+25 -7.5925 -7.21503 272.083 
9.79558e-06 2.38917e-07 2.68931e+25 -6.22155 -8.5287 272.056 
1.17069e-05 2.38917e-07 2.6884e+25 -4.33383 -8.37379 272.105 
1.36182e-05 2.38917e-07 2.68782e+25 -2.19564 -6.57055 272.132 
1.55296e-05 2.38917e-07 2.68551e+25 -0.534624 -3.32553 272.413 
2.38917e-07 7.1675e-07 2.68704e+25 -7.26562 2.005 272.062 
2.15025e-06 7.1675e-07 2.68892e+25 -7.9322 -0.315121 272.049 
4.06158e-06 7.1675e-07 2.69023e+25 -8.23048 -2.74296 271.994 
5.97292e-06 7.1675e-07 2.6885e+25 -8.09799 -4.87152 272.13 
7.88425e-06 7.1675e-07 2.69071e+25 -7.63033 -7.44927 272.081 
9.79558e-06 7.1675e-07 2.69085e+25 -6.38462 -8.88167 272.106 
1.17069e-05 7.1675e-07 2.69134e+25 -4.60717 -8.8902 272.077 
1.36182e-05 7.1675e-07 2.69008e+25 -2.44882 -7.10383 272.188 
1.55296e-05 7.1675e-07 2.68812e+25 -0.548619 -3.68653 272.38 
2.38917e-07 1.19458e-06 2.68711e+25 -7.02743 2.16781 272.102 
2.15025e-06 1.19458e-06 2.68881e+25 -7.68291 -0.181164 272.001 
4.06158e-06 1.19458e-06 2.69157e+25 -8.1791 -2.71082 271.861 
5.97292e-06 1.19458e-06 2.68869e+25 -8.12994 -4.95926 272.132 
7.88425e-06 1.19458e-06 2.68943e+25 -7.61793 -7.68718 272.12 
9.79558e-06 1.19458e-06 2.68911e+25 -6.53606 -9.24838 272.162 
1.17069e-05 1.19458e-06 2.69071e+25 -4.81154 -9.44269 272.094 
1.36182e-05 1.19458e-06 2.69088e+25 -2.55486 -7.69913 272.182 
1.55296e-05 1.19458e-06 2.68912e+25 -0.683 -4.04375 272.298 
2.38917e-07 1.67242e-06 2.6873e+25 -6.73622 2.33715 271.911 
2.15025e-06 1.67242e-06 2.68958e+25 -7.59502 -0.00121094 271.977 
4.06158e-06 1.67242e-06 2.69068e+25 -8.07063 -2.67375 271.879 
5.97292e-06 1.67242e-06 2.68923e+25 -8.06595 -4.99718 272.099 
7.88425e-06 1.67242e-06 2.68825e+25 -7.66215 -7.87437 272.264 
9.79558e-06 1.67242e-06 2.68871e+25 -6.65895 -9.55769 272.269 
1.17069e-05 1.67242e-06 2.69018e+25 -4.97163 -9.98018 272.157 
1.36182e-05 1.67242e-06 2.68911e+25 -2.67126 -8.27062 272.251 
1.55296e-05 1.67242e-06 2.68878e+25 -0.724759 -4.37457 272.29 
2.38917e-07 2.15025e-06 2.6869e+25 -6.62714 2.56716 271.954 
2.15025e-06 2.15025e-06 2.68834e+25 -7.32897 0.222441 272.03 
4.06158e-06 2.15025e-06 2.68956e+25 -8.01988 -2.54679 271.945 
5.97292e-06 2.15025e-06 2.6893e+25 -8.04125 -5.06754 272.048 
7.88425e-06 2.15025e-06 2.68793e+25 -7.64534 -8.03725 272.284 
9.79558e-06 2.15025e-06 2.68797e+25 -6.87764 -9.91066 272.262 
1.17069e-05 2.15025e-06 2.69019e+25 -5.03094 -10.5044 272.157 
1.36182e-05 2.15025e-06 2.68983e+25 -2.87401 -8.78917 272.247 
1.55296e-05 2.15025e-06 2.68827e+25 -0.695987 -4.7046 272.328 
2.38917e-07 2.62808e-06 2.68698e+25 -6.29485 2.74087 272 
2.15025e-06 2.62808e-06 2.68972e+25 -6.96431 0.462665 271.925 
4.06158e-06 2.62808e-06 2.68986e+25 -7.74437 -2.44027 271.97 
5.97292e-06 2.62808e-06 2.68838e+25 -7.89074 -5.108 272.109 
7.88425e-06 2.62808e-06 2.6876e+25 -7.83192 -8.14362 272.223 
9.79558e-06 2.62808e-06 2.68717e+25 -7.03065 -10.2568 272.281 
1.17069e-05 2.62808e-06 2.69035e+25 -5.30788 -11.0028 272.15 
1.36182e-05 2.62808e-06 2.691e+25 -3.05415 -9.33257 272.119 
1.55296e-05 2.62808e-06 2.69002e+25 -0.744936 -5.10647 272.275 
2.38917e-07 3.10592e-06 2.68521e+25 -5.86562 2.85311 272.096 
2.15025e-06 3.10592e-06 2.69004e+25 -6.58143 0.693282 271.872 
4.06158e-06 3.10592e-06 2.68854e+25 -7.423 -2.29725 272.036 
5.97292e-06 3.10592e-06 2.68855e+25 -7.74975 -5.07974 272.04 
7.88425e-06 3.10592e-06 2.68698e+25 -7.69405 -8.20727 272.276 
9.79558e-06 3.10592e-06 2.68654e+25 -7.07905 -10.522 272.335 
1.17069e-05 3.10592e-06 2.68884e+25 -5.41708 -11.5631 272.234 
1.36182e-05 3.10592e-06 2.69064e+25 -3.16 -9.97256 272.186 
1.55296e-05 3.10592e-06 2.68903e+25 -0.842257 -5.53123 272.308 
2.38917e-07 3.58375e-06 2.68563e+25 -5.52666 2.97744 272.038 
2.15025e-06 3.58375e-06 2.68789e+25 -6.09569 0.852973 272.017 
4.06158e-06 3.58375e-06 2.68689e+25 -6.88803 -2.11142 272.128 
5.97292e-06 3.58375e-06 2.68721e+25 -7.5565 -5.09559 272.127 
7.88425e-06 3.58375e-06 2.68699e+25 -7.48152 -8.21797 272.275 
9.79558e-06 3.58375e-06 2.68814e+25 -7.09814 -10.7924 272.272 
1.17069e-05 3.58375e-06 2.68883e+25 -5.59007 -12.0515 272.259 
1.36182e-05 3.58375e-06 2.68876e+25 -3.17145 -10.6426 272.259 
1.55296e-05 3.58375e-06 2.69092e+25 -0.89765 -5.96893 272.132 
2.38917e-07 4.06158e-06 2.68459e+25 -5.15484 3.1734 272.09 
2.15025e-06 4.06158e-06 2.68764e+25 -5.54888 0.968877 272.042 
4.06158e-06 4.06158e-06 2.6861e+25 -6.47817 -1.87841 272.12 
5.97292e-06 4.06158e-06 2.68793e+25 -7.23168 -5.09055 272.151 
7.88425e-06 4.06158e-06 2.68658e+25 -7.17815 -8.23693 272.286 
9.79558e-06 4.06158e-06 2.68826e+25 -7.03756 -11.0176 272.243 
1.17069e-05 4.06158e-06 2.68885e+25 -5.67135 -12.493 272.216 
1.36182e-05 4.06158e-06 2.69e+25 -3.31534 -11.2959 272.196 
1.55296e-05 4.06158e-06 2.6902e+25 -0.940365 -6.49422 272.213 
2.38917e-07 4.53942e-06 2.68457e+25 -4.73201 3.26298 272.074 
2.15025e-06 4.53942e-06 2.68806e+25 -5.19986 1.13293 271.989 
4.06158e-06 4.53942e-06 2.68756e+25 -6.00792 -1.60696 272.003 
5.97292e-06 4.53942e-06 2.68698e+25 -6.75783 -5.00229 272.171 
7.88425e-06 4.53942e-06 2.68731e+25 -7.0295 -8.23479 272.19 
9.79558e-06 4.53942e-06 2.68806e+25 -6.92401 -11.2291 272.233 
1.17069e-05 4.53942e-06 2.68862e+25 -5.71052 -12.9827 272.282 
1.36182e-05 4.53942e-06 2.69039e+25 -3.43607 -11.8938 272.143 
1.55296e-05 4.53942e-06 2.68893e+25 -0.942011 -7.05611 272.344 
2.38917e-07 5.01725e-06 2.68585e+25 -4.41065 3.29074 271.997 
2.15025e-06 5.01725e-06 2.68861e+25 -4.70836 1.26469 271.887 
4.06158e-06 5.01725e-06 2.68814e+25 -5.4209 -1.3933 272.003 
5.97292e-06 5.01725e-06 2.68544e+25 -6.17359 -4.8209 272.243 
7.88425e-06 5.01725e-06 2.68724e+25 -6.84505 -8.16397 272.179 
9.79558e-06 5.01725e-06 2.688e+25 -6.6372 -11.4118 272.188 
1.17069e-05 5.01725e-06 2.68947e+25 -5.6985 -13.4664 272.24 
1.36182e-05 5.01725e-06 2.69072e+25 -3.37275 -12.5248 272.149 
1.55296e-05 5.01725e-06 2.68908e+25 -0.971064 -7.54545 272.328 
2.38917e-07 5.49508e-06 2.68582e+25 -3.85427 3.35962 271.948 
2.15025e-06 5.49508e-06 2.68726e+25 -4.17163 1.36088 271.976 
4.06158e-06 5.49508e-06 2.6867e+25 -4.71185 -1.19947 272.041 
5.97292e-06 5.49508e-06 2.68632e+25 -5.64574 -4.57834 272.186 
7.88425e-06 5.49508e-06 2.68679e+25 -6.36336 -8.02813 272.202 
9.79558e-06 5.49508e-06 2.68895e+25 -6.45847 -11.557 272.14 
1.17069e-05 5.49508e-06 2.69004e+25 -5.55891 -13.8715 272.215 
1.36182e-05 5.49508e-06 2.69153e+25 -3.49847 -13.2039 272.114 
1.55296e-05 5.49508e-06 2.6895e+25 -0.970676 -8.0177 272.313 
2.38917e-07 5.97292e-06 2.68689e+25 -3.30267 3.41782 271.85 
2.15025e-06 5.97292e-06 2.6882e+25 -3.47608 1.50341 271.911 
4.06158e-06 5.97292e-06 2.68696e+25 -4.10497 -1.03239 272.058 
5.97292e-06 5.97292e-06 2.686e+25 -5.11448 -4.332 272.179 
7.88425e-06 5.97292e-06 2.68701e+25 -5.85319 -7.83548 272.192 
9.79558e-06 5.97292e-06 2.68955e+25 -6.1489 -11.6183 272.102 
1.17069e-05 5.97292e-06 2.68859e+25 -5.60154 -14.2101 272.262 
1.36182e-05 5.97292e-06 2.69014e+25 -3.51772 -13.8281 272.181 
1.55296e-05 5.97292e-06 2.6898e+25 -1.07312 -8.50582 272.32 
2.38917e-07 6.45075e-06 2.68726e+25 -2.68273 3.42964 271.739 
2.15025e-06 6.45075e-06 2.6893e+25 -2.91564 1.57666 271.868 
4.06158e-06 6.45075e-06 2.68603e+25 -3.44977 -0.880507 272.088 
5.97292e-06 6.45075e-06 2.68605e+25 -4.39362 -4.02101 272.149 
7.88425e-06 6.45075e-06 2.68749e+25 -5.25797 -7.63445 272.1 
9.79558e-06 6.45075e-06 2.68916e+25 -5.81307 -11.5905 272.076 
1.17069e-05 6.45075e-06 2.68908e+25 -5.51086 -14.4771 272.217 
1.36182e-05 6.45075e-06 2.69056e+25 -3.7084 -14.4376 272.274 
1.55296e-05 6.45075e-06 2.69118e+25 -1.17543 -9.02238 272.206 
2.38917e-07 6.92858e-06 2.68768e+25 -2.09582 3.32343 271.765 
2.15025e-06 6.92858e-06 2.68824e+25 -2.24491 1.63643 271.826 
4.06158e-06 6.92858e-06 2.68655e+25 -2.77976 -0.715644 272.032 
5.97292e-06 6.92858e-06 2.68548e+25 -3.57541 -3.73781 272.162 
7.88425e-06 6.92858e-06 2.68703e+25 -4.63308 -7.40584 272.111 
9.79558e-06 6.92858e-06 2.68828e+25 -5.36201 -11.5087 272.191 
1.17069e-05 6.92858e-06 2.68833e+25 -5.34365 -14.6989 272.288 
1.36182e-05 6.92858e-06 2.69104e+25 -3.7724 -15.1355 272.197 
1.55296e-05 6.92858e-06 2.68989e+25 -1.27384 -9.6611 272.262 
2.38917e-07 7.40642e-06 2.68618e+25 -1.36533 3.32951 271.892 
2.15025e-06 7.40642e-06 2.68788e+25 -1.48349 1.70582 271.914 
4.06158e-06 7.40642e-06 2.6867e+25 -1.99951 -0.588111 272.038 
5.97292e-06 7.40642e-06 2.68628e+25 -2.70017 -3.52589 272.117 
7.88425e-06 7.40642e-06 2.68698e+25 -3.7745 -7.15714 272.119 
9.79558e-06 7.40642e-06 2.68829e+25 -4.82758 -11.3331 272.22 
1.17069e-05 7.40642e-06 2.6896e+25 -5.10939 -14.8395 272.279 
1.36182e-05 7.40642e-06 2.68992e+25 -3.76466 -15.7044 272.25 
1.55296e-05 7.40642e-06 2.69195e+25 -1.27152 -10.3175 272.264 
2.38917e-07 7.88425e-06 2.68508e+25 -0.673971 3.38857 271.892 
2.15025e-06 7.88425e-06 2.68727e+25 -0.791278 1.80833 271.95 
4.06158e-06 7.88425e-06 2.68673e+25 -1.06527 -0.444249 272.014 
5.97292e-06 7.88425e-06 2.68592e+25 -1.78757 -3.30461 272.08 
7.88425e-06 7.88425e-06 2.68715e+25 -2.9029 -6.87465 272.138 
9.79558e-06 7.88425e-06 2.68675e+25 -4.24763 -11.0479 272.239 
1.17069e-05 7.88425e-06 2.68805e+25 -4.87156 -14.82 272.395 
1.36182e-05 7.88425e-06 2.69276e+25 -3.80171 -16.1945 272.143 
1.55296e-05 7.88425e-06 2.69181e+25 -1.3616 -10.887 272.246 
2.38917e-07 8.36208e-06 2.68508e+25 0.113068 3.44657 271.948 
2.15025e-06 8.36208e-06 2.68677e+25 0.0262843 1.88714 271.944 
4.06158e-06 8.36208e-06 2.68633e+25 -0.167711 -0.253143 272.052 
5.97292e-06 8.36208e-06 2.68595e+25 -0.860155 -3.07808 272.093 
7.88425e-06 8.36208e-06 2.68703e+25 -1.88943 -6.54182 272.122 
9.79558e-06 8.36208e-06 2.68752e+25 -3.56651 -10.673 272.227 
1.17069e-05 8.36208e-06 2.68789e+25 -4.49834 -14.7402 272.35 
1.36182e-05 8.36208e-06 2.69174e+25 -3.78859 -16.6496 272.267 
1.55296e-05 8.36208e-06 2.69077e+25 -1.33415 -11.4187 272.349 
2.38917e-07 8.83992e-06 2.68619e+25 1.01511 3.42248 271.888 
2.15025e-06 8.83992e-06 2.6884e+25 0.950942 1.90949 271.862 
4.06158e-06 8.83992e-06 2.68743e+25 0.820308 -0.0880908 271.97 
5.97292e-06 8.83992e-06 2.68684e+25 0.249058 -2.91164 271.959 
7.88425e-06 8.83992e-06 2.68679e+25 -0.953389 -6.18857 272.144 
9.79558e-06 8.83992e-06 2.68711e+25 -2.63267 -10.2885 272.235 
1.17069e-05 8.83992e-06 2.68933e+25 -3.92691 -14.6515 272.298 
1.36182e-05 8.83992e-06 2.69112e+25 -3.67063 -17.0898 272.272 
1.55296e-05 8.83992e-06 2.6915e+25 -1.41333 -12.0403 272.325 
2.38917e-07 9.31775e-06 2.68653e+25 1.81624 3.3502 271.883 
2.15025e-06 9.31775e-06 2.68761e+25 1.91993 1.90989 271.875 
4.06158e-06 9.31775e-06 2.68661e+25 1.78804 -0.0173976 272.004 
5.97292e-06 9.31775e-06 2.6866e+25 1.39622 -2.74337 272.081 
7.88425e-06 9.31775e-06 2.68693e+25 0.0668679 -5.77952 272.107 
9.79558e-06 9.31775e-06 2.68704e+25 -1.70859 -9.8473 272.268 
1.17069e-05 9.31775e-06 2.68937e+25 -3.29764 -14.4205 272.28 
1.36182e-05 9.31775e-06 2.6917e+25 -3.58663 -17.3911 272.324 
1.55296e-05 9.31775e-06 2.69347e+25 -1.47687 -12.6674 272.284 
2.38917e-07 9.79558e-06 2.68531e+25 2.75166 3.2324 271.962 
2.15025e-06 9.79558e-06 2.68769e+25 3.03049 1.92147 271.906 
4.06158e-06 9.79558e-06 2.687e+25 2.94012 -0.0170825 272.041 
5.97292e-06 9.79558e-06 2.68731e+25 2.54085 -2.50208 272.025 
7.88425e-06 9.79558e-06 2.68774e+25 1.20212 -5.40261 272.1 
9.79558e-06 9.79558e-06 2.68787e+25 -0.7036 -9.39983 272.221 
1.17069e-05 9.79558e-06 2.69055e+25 -2.6047 -14.0488 272.317 
1.36182e-05 9.79558e-06 2.69229e+25 -3.37317 -17.5958 272.228 
1.55296e-05 9.79558e-06 2.6938e+25 -1.54899 -13.3488 272.34 
2.38917e-07 1.02734e-05 2.68612e+25 3.74315 3.1049 271.92 
2.15025e-06 1.02734e-05 2.68768e+25 4.13457 1.87028 271.903 
4.06158e-06 1.02734e-05 2.68579e+25 4.16587 -0.0187113 272.081 
5.97292e-06 1.02734e-05 2.68563e+25 3.72641 -2.19831 272.108 
7.88425e-06 1.02734e-05 2.68711e+25 2.46329 -4.99877 272.099 
9.79558e-06 1.02734e-05 2.68754e+25 0.525425 -8.83422 272.207 
1.17069e-05 1.02734e-05 2.68936e+25 -1.73825 -13.5562 272.379 
1.36182e-05 1.02734e-05 2.69168e+25 -3.1498 -17.6487 272.397 
1.55296e-05 1.02734e-05 2.69428e+25 -1.48054 -14.0155 272.329 
2.38917e-07 1.07512e-05 2.68507e+25 4.81134 3.00177 271.934 
2.15025e-06 1.07512e-05 2.68694e+25 5.35586 1.80883 271.991 
4.06158e-06 1.07512e-05 2.68566e+25 5.55923 -0.0231584 272.126 
5.97292e-06 1.07512e-05 2.68609e+25 4.99085 -1.94928 272.15 
7.88425e-06 1.07512e-05 2.68834e+25 3.71143 -4.55543 272.049 
9.79558e-06 1.07512e-05 2.6871e+25 1.73841 -8.29096 272.354 
1.17069e-05 1.07512e-05 2.68942e+25 -0.889677 -12.9342 272.428 
1.36182e-05 1.07512e-05 2.69252e+25 -2.80545 -17.5474 272.38 
1.55296e-05 1.07512e-05 2.69543e+25 -1.63423 -14.647 272.342 
2.38917e-07 1.12291e-05 2.68494e+25 5.95351 2.85274 271.957 
2.15025e-06 1.12291e-05 2.6868e+25 6.68868 1.6878 272.013 
4.06158e-06 1.12291e-05 2.68631e+25 7.07372 -0.0384343 272.105 
5.97292e-06 1.12291e-05 2.68525e+25 6.48764 -1.70579 272.178 
7.88425e-06 1.12291e-05 2.68732e+25 5.09028 -4.18571 272.124 
9.79558e-06 1.12291e-05 2.68801e+25 3.08203 -7.64184 272.3 
1.17069e-05 1.12291e-05 2.69012e+25 0.0753818 -12.1993 272.399 
1.36182e-05 1.12291e-05 2.6943e+25 -2.34948 -17.2495 272.322 
1.55296e-05 1.12291e-05 2.69606e+25 -1.65787 -15.2699 272.398 
2.38917e-07 1.17069e-05 2.68474e+25 7.20695 2.66702 272.056 
2.15025e-06 1.17069e-05 2.68678e+25 8.06367 1.51917 271.96 
4.06158e-06 1.17069e-05 2.68646e+25 8.53449 0.02146 272.057 
5.97292e-06 1.17069e-05 2.68472e+25 8.07863 -1.42945 272.264 
7.88425e-06 1.17069e-05 2.6874e+25 6.67645 -3.76165 272.127 
9.79558e-06 1.17069e-05 2.689e+25 4.49685 -6.9252 272.279 
1.17069e-05 1.17069e-05 2.68989e+25 1.15625 -11.4038 272.454 
1.36182e-05 1.17069e-05 2.69341e+25 -1.87058 -16.8861 272.466 
1.55296e-05 1.17069e-05 2.69628e+25 -1.65386 -15.8574 272.503 
2.38917e-07 1.21847e-05 2.685e+25 8.74565 2.39769 271.998 
2.15025e-06 1.21847e-05 2.68682e+25 9.68038 1.31865 272.039 
4.06158e-06 1.21847e-05 2.68643e+25 9.98972 0.0856422 272.072 
5.97292e-06 1.21847e-05 2.6856e+25 9.63013 -1.22757 272.124 
7.88425e-06 1.21847e-05 2.68675e+25 8.44218 -3.3343 272.211 
9.79558e-06 1.21847e-05 2.68864e+25 6.05884 -6.2611 272.298 
1.17069e-05 1.21847e-05 2.69103e+25 2.48878 -10.522 272.437 
1.36182e-05 1.21847e-05 2.6948e+25 -1.06912 -16.335 272.442 
1.55296e-05 1.21847e-05 2.6974e+25 -1.74315 -16.3859 272.522 
2.38917e-07 1.26626e-05 2.68364e+25 10.4503 2.15047 272.106 
2.15025e-06 1.26626e-05 2.68693e+25 11.3637 1.0895 272.025 
4.06158e-06 1.26626e-05 2.68747e+25 11.6706 0.107237 272.005 
5.97292e-06 1.26626e-05 2.68629e+25 11.4184 -1.08617 272.224 
7.88425e-06 1.26626e-05 2.68593e+25 10.187 -2.94243 272.28 
9.79558e-06 1.26626e-05 2.68816e+25 7.87975 -5.5006 272.412 
1.17069e-05 1.26626e-05 2.69126e+25 4.06768 -9.47081 272.469 
1.36182e-05 1.26626e-05 2.69564e+25 -0.238336 -15.4567 272.506 
1.55296e-05 1.26626e-05 2.70022e+25 -1.86929 -16.7971 272.532 
2.38917e-07 1.31404e-05 2.6836e+25 12.2334 1.8775 272.122 
2.15025e-06 1.31404e-05 2.68582e+25 13.049 0.958559 272.101 
4.06158e-06 1.31404e-05 2.68658e+25 13.5157 0.0658668 272.045 
5.97292e-06 1.31404e-05 2.68506e+25 13.3564 -0.99348 272.32 
7.88425e-06 1.31404e-05 2.68672e+25 12.15 -2.4304 272.269 
9.79558e-06 1.31404e-05 2.68865e+25 9.74949 -4.74225 272.364 
1.17069e-05 1.31404e-05 2.69081e+25 6.00483 -8.32265 272.578 
1.36182e-05 1.31404e-05 2.69678e+25 0.672057 -14.2797 272.506 
1.55296e-05 1.31404e-05 2.70079e+25 -1.84492 -17.0942 272.633 
2.38917e-07 1.36182e-05 2.68295e+25 14.1086 1.5787 272.248 
2.15025e-06 1.36182e-05 2.68582e+25 15.0427 0.812004 272.178 
4.06158e-06 1.36182e-05 2.68504e+25 15.4965 -0.00938477 272.141 
5.97292e-06 1.36182e-05 2.68491e+25 15.2922 -0.908165 272.303 
7.88425e-06 1.36182e-05 2.6873e+25 14.2337 -1.95868 272.277 
9.79558e-06 1.36182e-05 2.68892e+25 11.731 -4.02661 272.404 
1.17069e-05 1.36182e-05 2.69132e+25 7.93693 -7.06401 272.624 
1.36182e-05 1.36182e-05 2.697e+25 1.84475 -12.8488 272.56 
1.55296e-05 1.36182e-05 2.70361e+25 -1.87299 -17.2878 272.598 
2.38917e-07 1.40961e-05 2.68235e+25 16.2403 1.23206 272.28 
2.15025e-06 1.40961e-05 2.68606e+25 17.1367 0.658282 272.148 
4.06158e-06 1.40961e-05 2.68534e+25 17.6188 -0.0334105 272.167 
5.97292e-06 1.40961e-05 2.6852e+25 17.346 -0.758618 272.309 
7.88425e-06 1.40961e-05 2.68716e+25 16.4134 -1.52648 272.246 
9.79558e-06 1.40961e-05 2.68866e+25 14.0504 -3.28087 272.464 
1.17069e-05 1.40961e-05 2.6917e+25 10.0801 -5.77335 272.66 
1.36182e-05 1.40961e-05 2.69687e+25 3.55387 -11.0988 272.694 
1.55296e-05 1.40961e-05 2.70696e+25 -1.66639 -17.2405 272.565 
2.38917e-07 1.45739e-05 2.68173e+25 18.6401 0.912281 272.331 
2.15025e-06 1.45739e-05 2.68496e+25 19.552 0.557272 272.234 
4.06158e-06 1.45739e-05 2.6859e+25 19.8438 -0.0903578 272.223 
5.97292e-06 1.45739e-05 2.68468e+25 19.5947 -0.582698 272.356 
7.88425e-06 1.45739e-05 2.6868e+25 18.7145 -1.15561 272.359 
9.79558e-06 1.45739e-05 2.68856e+25 16.603 -2.52623 272.557 
1.17069e-05 1.45739e-05 2.69211e+25 12.6527 -4.53667 272.666 
1.36182e-05 1.45739e-05 2.69845e+25 5.93524 -9.09786 272.819 
1.55296e-05 1.45739e-05 2.70901e+25 -1.30284 -16.6873 272.691 
2.38917e-07 1.50518e-05 2.68331e+25 21.2119 0.581606 272.232 
2.15025e-06 1.50518e-05 2.68531e+25 22.1008 0.409079 272.307 
4.06158e-06 1.50518e-05 2.68434e+25 22.322 -0.115263 272.335 
5.97292e-06 1.50518e-05 2.68409e+25 22.0782 -0.42692 272.403 
7.88425e-06 1.50518e-05 2.686e+25 21.2045 -0.834078 272.451 
9.79558e-06 1.50518e-05 2.68803e+25 19.3741 -1.82097 272.58 
1.17069e-05 1.50518e-05 2.69306e+25 15.5195 -3.33043 272.662 
1.36182e-05 1.50518e-05 2.69884e+25 8.91623 -6.95365 272.89 
1.55296e-05 1.50518e-05 2.71208e+25 -0.426851 -15.4485 272.82 
2.38917e-07 1.55296e-05 2.68177e+25 24.0756 0.30991 272.306 
2.15025e-06 1.55296e-05 2.6831e+25 24.8054 0.277077 272.463 
4.06158e-06 1.55296e-05 2.68428e+25 24.9824 -0.0411954 272.381 
5.97292e-06 1.55296e-05 2.68487e+25 24.6186 -0.310454 272.399 
7.88425e-06 1.55296e-05 2.68626e+25 23.782 -0.570141 272.441 
9.79558e-06 1.55296e-05 2.68809e+25 22.1805 -1.1774 272.596 
1.17069e-05 1.55296e-05 2.69172e+25 18.9035 -2.2411 272.752 
1.36182e-05 1.55296e-05 2.69762e+25 12.7123 -4.83609 273.068 
1.55296e-05 1.55296e-05 2.71448e+25 1.50005 -13.2215 273.086 
2.38917e-07 1.60074e-05 2.68239e+25 26.971 0.102944 272.384 
2.15025e-06 1.60074e-05 2.6835e+25 27.4875 0.122909 272.452 
4.06158e-06 1.60074e-05 2.68427e+25 27.6594 0.0305529 272.401 
5.97292e-06 1.60074e-05 2.68482e+25 27.3415 -0.226484 272.428 
7.88425e-06 1.60074e-05 2.68481e+25 26.5997 -0.416439 272.58 
9.79558e-06 1.60074e-05 2.68695e+25 25.3373 -0.642069 272.69 
1.17069e-05 1.60074e-05 2.6908e+25 22.8087 -1.30181 272.798 
1.36182e-05 1.60074e-05 2.69853e+25 17.5385 -2.87575 273.016 
1.55296e-05 1.60074e-05 2.71714e+25 5.37509 -9.75502 273.277 
2.38917e-07 1.64852e-05 2.67999e+25 30.1043 0.0293092 272.561 
2.15025e-06 1.64852e-05 2.68149e+25 30.3496 0.00557195 272.609 
4.06158e-06 1.64852e-05 2.68273e+25 30.4002 0.0381902 272.523 
5.97292e-06 1.64852e-05 2.68294e+25 30.2299 -0.142057 272.606 
7.88425e-06 1.64852e-05 2.68446e+25 29.7816 -0.206018 272.657 
9.79558e-06 1.64852e-05 2.68508e+25 28.779 -0.234886 272.829 
1.17069e-05 1.64852e-05 2.68962e+25 27.1249 -0.541552 272.906 
1.36182e-05 1.64852e-05 2.6978e+25 23.5523 -1.26535 273.021 
1.55296e-05 1.64852e-05 2.71871e+25 12.7754 -5.328 273.397 
2.38917e-07 1.69631e-05 2.67858e+25 32.9701 0.0200156 272.779 
2.15025e-06 1.69631e-05 2.67955e+25 33.0033 -0.0295288 272.838 
4.06158e-06 1.69631e-05 2.68101e+25 32.9897 0.0228281 272.796 
5.97292e-06 1.69631e-05 2.68214e+25 32.9551 -0.025944 272.817 
7.88425e-06 1.69631e-05 2.68222e+25 32.6966 -0.0374456 272.921 
9.79558e-06 1.69631e-05 2.68579e+25 32.2684 -0.0494397 272.902 
1.17069e-05 1.69631e-05 2.68934e+25 31.5555 -0.103569 272.948 
1.36182e-05 1.69631e-05 2.69699e+25 30.1516 -0.244502 273.08 
1.55296e-05 1.69631e-05 2.71704e+25 24.2108 -1.32661 273.453 
7.1675e-07 2.38917e-07 2.68814e+25 -7.52376 1.316 271.997 
2.62808e-06 2.38917e-07 2.68702e+25 -8.09005 -0.98165 272.084 
4.53942e-06 2.38917e-07 2.6873e+25 -8.11227 -3.25719 272.114 
6.45075e-06 2.38917e-07 2.68772e+25 -8.00259 -5.4757 272.029 
8.36208e-06 2.38917e-07 2.68883e+25 -7.2885 -7.75434 271.949 
1.02734e-05 2.38917e-07 2.68806e+25 -5.82314 -8.72768 272.069 
1.21847e-05 2.38917e-07 2.68857e+25 -3.75328 -8.05679 272.103 
1.40961e-05 2.38917e-07 2.68784e+25 -1.73451 -5.80801 272.138 
1.60074e-05 2.38917e-07 2.68543e+25 -0.263109 -2.38833 272.39 
7.1675e-07 7.1675e-07 2.68848e+25 -7.40311 1.49482 272.058 
2.62808e-06 7.1675e-07 2.68908e+25 -8.04555 -0.95021 271.995 
4.53942e-06 7.1675e-07 2.6896e+25 -8.23265 -3.25783 272.039 
6.45075e-06 7.1675e-07 2.68951e+25 -7.99471 -5.50455 272.074 
8.36208e-06 7.1675e-07 2.69018e+25 -7.36985 -8.05728 272.036 
1.02734e-05 7.1675e-07 2.69079e+25 -6.05966 -9.07906 272.044 
1.21847e-05 7.1675e-07 2.69153e+25 -4.06129 -8.61709 272.054 
1.40961e-05 7.1675e-07 2.69029e+25 -1.83747 -6.33922 272.153 
1.60074e-05 7.1675e-07 2.68732e+25 -0.230311 -2.59811 272.423 
7.1675e-07 1.19458e-06 2.68892e+25 -7.18259 1.6502 271.99 
2.62808e-06 1.19458e-06 2.68992e+25 -7.84688 -0.796808 271.939 
4.53942e-06 1.19458e-06 2.69005e+25 -8.20728 -3.2252 271.98 
6.45075e-06 1.19458e-06 2.68913e+25 -8.06959 -5.58925 272.121 
8.36208e-06 1.19458e-06 2.68913e+25 -7.38716 -8.31782 272.149 
1.02734e-05 1.19458e-06 2.68969e+25 -6.18061 -9.4271 272.206 
1.21847e-05 1.19458e-06 2.69109e+25 -4.29532 -9.13947 272.067 
1.40961e-05 1.19458e-06 2.69054e+25 -2.0062 -6.87588 272.205 
1.60074e-05 1.19458e-06 2.68747e+25 -0.370211 -2.85729 272.412 
7.1675e-07 1.67242e-06 2.68921e+25 -6.97415 1.86708 271.933 
2.62808e-06 1.67242e-06 2.69028e+25 -7.78068 -0.605747 271.955 
4.53942e-06 1.67242e-06 2.68981e+25 -8.15994 -3.18787 271.959 
6.45075e-06 1.67242e-06 2.68912e+25 -8.03234 -5.6384 272.078 
8.36208e-06 1.67242e-06 2.68938e+25 -7.48146 -8.56575 272.216 
1.02734e-05 1.67242e-06 2.68967e+25 -6.34813 -9.76613 272.188 
1.21847e-05 1.67242e-06 2.69011e+25 -4.36936 -9.7019 272.129 
1.40961e-05 1.67242e-06 2.68875e+25 -2.15897 -7.39864 272.261 
1.60074e-05 1.67242e-06 2.68835e+25 -0.421648 -3.09549 272.368 
7.1675e-07 2.15025e-06 2.68906e+25 -6.74568 2.0209 271.993 
2.62808e-06 2.15025e-06 2.68934e+25 -7.49839 -0.46159 271.975 
4.53942e-06 2.15025e-06 2.68838e+25 -8.11655 -3.14827 272.007 
6.45075e-06 2.15025e-06 2.68855e+25 -7.95323 -5.69507 272.13 
8.36208e-06 2.15025e-06 2.68802e+25 -7.52249 -8.74498 272.225 
1.02734e-05 2.15025e-06 2.68795e+25 -6.478 -10.1604 272.299 
1.21847e-05 2.15025e-06 2.69039e+25 -4.56896 -10.2677 272.092 
1.40961e-05 2.15025e-06 2.69062e+25 -2.30095 -7.93213 272.153 
1.60074e-05 2.15025e-06 2.68774e+25 -0.391944 -3.38919 272.429 
7.1675e-07 2.62808e-06 2.68868e+25 -6.41518 2.14138 271.974 
2.62808e-06 2.62808e-06 2.68999e+25 -7.18366 -0.310949 271.859 
4.53942e-06 2.62808e-06 2.68852e+25 -7.83367 -3.05304 272.044 
6.45075e-06 2.62808e-06 2.68924e+25 -7.91063 -5.73561 272.051 
8.36208e-06 2.62808e-06 2.68825e+25 -7.69326 -8.87613 272.278 
1.02734e-05 2.62808e-06 2.68842e+25 -6.63542 -10.5707 272.254 
1.21847e-05 2.62808e-06 2.69047e+25 -4.70803 -10.8467 272.131 
1.40961e-05 2.62808e-06 2.6904e+25 -2.43855 -8.5927 272.159 
1.60074e-05 2.62808e-06 2.68814e+25 -0.39845 -3.69873 272.416 
7.1675e-07 3.10592e-06 2.68862e+25 -5.99276 2.2784 271.951 
2.62808e-06 3.10592e-06 2.68949e+25 -6.76947 -0.130377 271.91 
4.53942e-06 3.10592e-06 2.68775e+25 -7.57169 -2.97882 272.055 
6.45075e-06 3.10592e-06 2.6879e+25 -7.75057 -5.74198 272.138 
8.36208e-06 3.10592e-06 2.68848e+25 -7.62911 -9.02194 272.24 
1.02734e-05 3.10592e-06 2.68899e+25 -6.73282 -11.0181 272.235 
1.21847e-05 3.10592e-06 2.68904e+25 -4.87662 -11.4167 272.242 
1.40961e-05 3.10592e-06 2.6904e+25 -2.5041 -9.21654 272.169 
1.60074e-05 3.10592e-06 2.68932e+25 -0.416437 -4.03609 272.337 
7.1675e-07 3.58375e-06 2.6882e+25 -5.72138 2.49147 272.006 
2.62808e-06 3.58375e-06 2.68777e+25 -6.21611 0.0504371 271.999 
4.53942e-06 3.58375e-06 2.68626e+25 -7.0965 -2.823 272.212 
6.45075e-06 3.58375e-06 2.68789e+25 -7.49348 -5.78681 272.126 
8.36208e-06 3.58375e-06 2.68707e+25 -7.47468 -9.07025 272.305 
1.02734e-05 3.58375e-06 2.68792e+25 -6.81831 -11.3622 272.277 
1.21847e-05 3.58375e-06 2.68935e+25 -5.12788 -11.9179 272.271 
1.40961e-05 3.58375e-06 2.6897e+25 -2.5015 -9.86891 272.264 
1.60074e-05 3.58375e-06 2.68906e+25 -0.438953 -4.42178 272.242 
7.1675e-07 4.06158e-06 2.68764e+25 -5.26785 2.66216 272.048 
2.62808e-06 4.06158e-06 2.68882e+25 -5.80007 0.306715 271.954 
4.53942e-06 4.06158e-06 2.68652e+25 -6.72875 -2.5649 272.154 
6.45075e-06 4.06158e-06 2.68715e+25 -7.27453 -5.80115 272.195 
8.36208e-06 4.06158e-06 2.68691e+25 -7.18444 -9.06496 272.316 
1.02734e-05 4.06158e-06 2.68732e+25 -6.78939 -11.6264 272.344 
1.21847e-05 4.06158e-06 2.68928e+25 -5.18473 -12.411 272.285 
1.40961e-05 4.06158e-06 2.68913e+25 -2.68094 -10.4996 272.284 
1.60074e-05 4.06158e-06 2.68884e+25 -0.513167 -4.75834 272.323 
7.1675e-07 4.53942e-06 2.68839e+25 -4.80299 2.77997 272.001 
2.62808e-06 4.53942e-06 2.68832e+25 -5.38759 0.567066 271.962 
4.53942e-06 4.53942e-06 2.68702e+25 -6.2647 -2.34856 272.103 
6.45075e-06 4.53942e-06 2.68745e+25 -6.88941 -5.73429 272.157 
8.36208e-06 4.53942e-06 2.68654e+25 -7.12298 -9.00602 272.265 
1.02734e-05 4.53942e-06 2.68884e+25 -6.70697 -11.8798 272.211 
1.21847e-05 4.53942e-06 2.69014e+25 -5.17405 -12.971 272.261 
1.40961e-05 4.53942e-06 2.69022e+25 -2.80173 -11.1269 272.196 
1.60074e-05 4.53942e-06 2.68854e+25 -0.485953 -5.11132 272.349 
7.1675e-07 5.01725e-06 2.68754e+25 -4.40584 2.84285 272.026 
2.62808e-06 5.01725e-06 2.688e+25 -4.82914 0.755798 271.929 
4.53942e-06 5.01725e-06 2.68741e+25 -5.57294 -2.15725 272.052 
6.45075e-06 5.01725e-06 2.68639e+25 -6.37642 -5.56071 272.157 
8.36208e-06 5.01725e-06 2.68714e+25 -6.92371 -8.92796 272.143 
1.02734e-05 5.01725e-06 2.68851e+25 -6.50747 -12.0525 272.186 
1.21847e-05 5.01725e-06 2.68903e+25 -5.15679 -13.5733 272.24 
1.40961e-05 5.01725e-06 2.69046e+25 -2.74405 -11.7797 272.196 
1.60074e-05 5.01725e-06 2.68888e+25 -0.548531 -5.49699 272.359 
7.1675e-07 5.49508e-06 2.68778e+25 -3.94371 2.89279 271.943 
2.62808e-06 5.49508e-06 2.68863e+25 -4.26103 0.813497 271.93 
4.53942e-06 5.49508e-06 2.68698e+25 -4.91567 -1.95528 272.068 
6.45075e-06 5.49508e-06 2.68668e+25 -5.87945 -5.36099 272.172 
8.36208e-06 5.49508e-06 2.6867e+25 -6.50873 -8.85695 272.199 
1.02734e-05 5.49508e-06 2.68824e+25 -6.28192 -12.1982 272.198 
1.21847e-05 5.49508e-06 2.68961e+25 -5.17256 -14.0629 272.267 
1.40961e-05 5.49508e-06 2.69023e+25 -2.83357 -12.4235 272.251 
1.60074e-05 5.49508e-06 2.68878e+25 -0.542133 -5.85011 272.35 
7.1675e-07 5.97292e-06 2.68857e+25 -3.35145 2.98663 271.925 
2.62808e-06 5.97292e-06 2.68781e+25 -3.57984 0.909048 271.92 
4.53942e-06 5.97292e-06 2.68657e+25 -4.27956 -1.72444 272.085 
6.45075e-06 5.97292e-06 2.6862e+25 -5.32971 -5.19526 272.178 
8.36208e-06 5.97292e-06 2.68719e+25 -6.00732 -8.77084 272.146 
1.02734e-05 5.97292e-06 2.68868e+25 -6.11147 -12.3524 272.214 
1.21847e-05 5.97292e-06 2.68922e+25 -5.24179 -14.4678 272.251 
1.40961e-05 5.97292e-06 2.69062e+25 -2.92682 -13.0577 272.246 
1.60074e-05 5.97292e-06 2.68902e+25 -0.613564 -6.25043 272.365 
7.1675e-07 6.45075e-06 2.68849e+25 -2.62698 2.98571 271.883 
2.62808e-06 6.45075e-06 2.68719e+25 -3.01211 1.05442 271.929 
4.53942e-06 6.45075e-06 2.6865e+25 -3.57637 -1.56259 272.042 
6.45075e-06 6.45075e-06 2.68576e+25 -4.65089 -5.04727 272.177 
8.36208e-06 6.45075e-06 2.68764e+25 -5.45677 -8.59432 272.123 
1.02734e-05 6.45075e-06 2.68912e+25 -5.84147 -12.3977 272.139 
1.21847e-05 6.45075e-06 2.68983e+25 -5.1988 -14.8693 272.225 
1.40961e-05 6.45075e-06 2.69068e+25 -2.98681 -13.7517 272.299 
1.60074e-05 6.45075e-06 2.68957e+25 -0.670359 -6.71729 272.305 
7.1675e-07 6.92858e-06 2.68863e+25 -2.03201 3.00087 271.877 
2.62808e-06 6.92858e-06 2.68775e+25 -2.36287 1.21219 271.868 
4.53942e-06 6.92858e-06 2.68704e+25 -2.95556 -1.42674 272.01 
6.45075e-06 6.92858e-06 2.68602e+25 -3.87024 -4.77989 272.138 
8.36208e-06 6.92858e-06 2.68716e+25 -4.83719 -8.40032 272.14 
1.02734e-05 6.92858e-06 2.68724e+25 -5.48867 -12.326 272.284 
1.21847e-05 6.92858e-06 2.68848e+25 -5.10932 -15.1906 272.255 
1.40961e-05 6.92858e-06 2.69145e+25 -3.14138 -14.3799 272.245 
1.60074e-05 6.92858e-06 2.69018e+25 -0.681542 -7.1928 272.332 
7.1675e-07 7.40642e-06 2.68806e+25 -1.40018 3.00227 271.846 
2.62808e-06 7.40642e-06 2.68678e+25 -1.62618 1.39542 271.941 
4.53942e-06 7.40642e-06 2.68686e+25 -2.1157 -1.24166 271.991 
6.45075e-06 7.40642e-06 2.68566e+25 -2.94037 -4.49429 272.181 
8.36208e-06 7.40642e-06 2.68747e+25 -4.04801 -8.17522 272.154 
1.02734e-05 7.40642e-06 2.68823e+25 -5.00492 -12.2291 272.27 
1.21847e-05 7.40642e-06 2.68974e+25 -5.00968 -15.4025 272.283 
1.40961e-05 7.40642e-06 2.69184e+25 -3.23027 -15.0027 272.152 
1.60074e-05 7.40642e-06 2.6901e+25 -0.706584 -7.67706 272.368 
7.1675e-07 7.88425e-06 2.68727e+25 -0.700947 2.99645 271.902 
2.62808e-06 7.88425e-06 2.6867e+25 -0.836298 1.48384 271.936 
4.53942e-06 7.88425e-06 2.68605e+25 -1.26323 -1.08376 272.093 
6.45075e-06 7.88425e-06 2.68672e+25 -2.02765 -4.23466 272.048 
8.36208e-06 7.88425e-06 2.68795e+25 -3.19027 -7.89546 272.047 
1.02734e-05 7.88425e-06 2.68803e+25 -4.5138 -12.0582 272.264 
1.21847e-05 7.88425e-06 2.68894e+25 -4.85144 -15.5268 272.373 
1.40961e-05 7.88425e-06 2.69236e+25 -3.27461 -15.5587 272.172 
1.60074e-05 7.88425e-06 2.69079e+25 -0.832632 -8.16456 272.371 
7.1675e-07 8.36208e-06 2.68725e+25 0.0683219 2.9829 271.949 
2.62808e-06 8.36208e-06 2.6869e+25 0.0230358 1.44253 271.903 
4.53942e-06 8.36208e-06 2.68556e+25 -0.384611 -0.87141 272.119 
6.45075e-06 8.36208e-06 2.68837e+25 -1.07595 -4.00999 271.931 
8.36208e-06 8.36208e-06 2.68737e+25 -2.28096 -7.54403 272.113 
1.02734e-05 8.36208e-06 2.68749e+25 -3.87892 -11.8206 272.246 
1.21847e-05 8.36208e-06 2.68911e+25 -4.49742 -15.5928 272.327 
1.40961e-05 8.36208e-06 2.69239e+25 -3.25395 -16.1809 272.214 
1.60074e-05 8.36208e-06 2.69022e+25 -0.792331 -8.71932 272.405 
7.1675e-07 8.83992e-06 2.68718e+25 1.03044 3.05843 271.938 
2.62808e-06 8.83992e-06 2.68721e+25 0.927789 1.44375 271.869 
4.53942e-06 8.83992e-06 2.68722e+25 0.658442 -0.666157 271.99 
6.45075e-06 8.83992e-06 2.68691e+25 0.0528948 -3.7896 271.984 
8.36208e-06 8.83992e-06 2.68787e+25 -1.3419 -7.1335 272.083 
1.02734e-05 8.83992e-06 2.68766e+25 -3.05296 -11.476 272.249 
1.21847e-05 8.83992e-06 2.69042e+25 -4.02341 -15.6244 272.281 
1.40961e-05 8.83992e-06 2.69122e+25 -3.23647 -16.6944 272.308 
1.60074e-05 8.83992e-06 2.68944e+25 -0.814791 -9.21553 272.47 
7.1675e-07 9.31775e-06 2.68771e+25 1.88519 3.06486 271.9 
2.62808e-06 9.31775e-06 2.68735e+25 1.9284 1.45305 271.893 
4.53942e-06 9.31775e-06 2.68745e+25 1.77581 -0.576276 271.987 
6.45075e-06 9.31775e-06 2.68638e+25 1.13659 -3.44463 272.061 
8.36208e-06 9.31775e-06 2.68661e+25 -0.355704 -6.72206 272.207 
1.02734e-05 9.31775e-06 2.68776e+25 -2.15277 -11.0171 272.254 
1.21847e-05 9.31775e-06 2.68869e+25 -3.51409 -15.5212 272.373 
1.40961e-05 9.31775e-06 2.69061e+25 -3.19803 -17.1983 272.437 
1.60074e-05 9.31775e-06 2.69175e+25 -0.858998 -9.77148 272.439 
7.1675e-07 9.79558e-06 2.68693e+25 2.86814 3.03535 271.984 
2.62808e-06 9.79558e-06 2.68835e+25 3.01791 1.46668 271.852 
4.53942e-06 9.79558e-06 2.68693e+25 2.96294 -0.577225 271.985 
6.45075e-06 9.79558e-06 2.68623e+25 2.22745 -3.15165 272.098 
8.36208e-06 9.79558e-06 2.68653e+25 0.806122 -6.29655 272.192 
1.02734e-05 9.79558e-06 2.68852e+25 -1.19343 -10.5585 272.235 
1.21847e-05 9.79558e-06 2.69034e+25 -3.02685 -15.2357 272.32 
1.40961e-05 9.79558e-06 2.69289e+25 -3.17619 -17.5719 272.363 
1.60074e-05 9.79558e-06 2.69204e+25 -0.890497 -10.3768 272.387 
7.1675e-07 1.02734e-05 2.68666e+25 3.88434 2.90634 271.959 
2.62808e-06 1.02734e-05 2.68763e+25 4.19148 1.47112 271.881 
4.53942e-06 1.02734e-05 2.68629e+25 4.09826 -0.544577 272.073 
6.45075e-06 1.02734e-05 2.68604e+25 3.42368 -2.84308 272.181 
8.36208e-06 1.02734e-05 2.68617e+25 1.99139 -5.80505 272.155 
1.02734e-05 1.02734e-05 2.68844e+25 -0.0320402 -10.0551 272.261 
1.21847e-05 1.02734e-05 2.68955e+25 -2.26196 -14.7867 272.418 
1.40961e-05 1.02734e-05 2.69418e+25 -3.04219 -17.8101 272.328 
1.60074e-05 1.02734e-05 2.6937e+25 -0.839898 -10.9927 272.394 
7.1675e-07 1.07512e-05 2.68743e+25 4.94788 2.72862 272.015 
2.62808e-06 1.07512e-05 2.6876e+25 5.476 1.37451 271.883 
4.53942e-06 1.07512e-05 2.68555e+25 5.55848 -0.489266 272.085 
6.45075e-06 1.07512e-05 2.68652e+25 4.77614 -2.56809 272.156 
8.36208e-06 1.07512e-05 2.68811e+25 3.29375 -5.35086 272.147 
1.02734e-05 1.07512e-05 2.68861e+25 1.10168 -9.43803 272.343 
1.21847e-05 1.07512e-05 2.68984e+25 -1.54136 -14.2549 272.463 
1.40961e-05 1.07512e-05 2.69446e+25 -2.85452 -17.9807 272.292 
1.60074e-05 1.07512e-05 2.69457e+25 -1.00999 -11.5998 272.421 
7.1675e-07 1.12291e-05 2.68661e+25 6.08739 2.60248 271.974 
2.62808e-06 1.12291e-05 2.68704e+25 6.80148 1.27609 271.976 
4.53942e-06 1.12291e-05 2.68536e+25 6.99804 -0.426417 272.152 
6.45075e-06 1.12291e-05 2.68498e+25 6.19752 -2.30047 272.263 
8.36208e-06 1.12291e-05 2.68665e+25 4.68192 -4.91522 272.249 
1.02734e-05 1.12291e-05 2.68892e+25 2.38784 -8.72845 272.312 
1.21847e-05 1.12291e-05 2.69012e+25 -0.674887 -13.6039 272.432 
1.40961e-05 1.12291e-05 2.69463e+25 -2.54894 -17.9952 272.343 
1.60074e-05 1.12291e-05 2.69488e+25 -1.01153 -12.2177 272.548 
7.1675e-07 1.17069e-05 2.6866e+25 7.4723 2.4007 272.005 
2.62808e-06 1.17069e-05 2.68692e+25 8.23643 1.14489 272.003 
4.53942e-06 1.17069e-05 2.68591e+25 8.46684 -0.317039 272.176 
6.45075e-06 1.17069e-05 2.68589e+25 7.80296 -2.00558 272.191 
8.36208e-06 1.17069e-05 2.68833e+25 6.21309 -4.47298 272.227 
1.02734e-05 1.17069e-05 2.69062e+25 3.73845 -7.9962 272.235 
1.21847e-05 1.17069e-05 2.69e+25 0.371926 -12.8429 272.529 
1.40961e-05 1.17069e-05 2.69496e+25 -2.19225 -17.8393 272.453 
1.60074e-05 1.17069e-05 2.69499e+25 -1.05602 -12.8254 272.6 
7.1675e-07 1.21847e-05 2.68785e+25 9.014 2.13179 271.937 
2.62808e-06 1.21847e-05 2.68669e+25 9.84779 0.999648 271.988 
4.53942e-06 1.21847e-05 2.68533e+25 9.93659 -0.25984 272.172 
6.45075e-06 1.21847e-05 2.68597e+25 9.40837 -1.70972 272.155 
8.36208e-06 1.21847e-05 2.68736e+25 7.98053 -4.00334 272.232 
1.02734e-05 1.21847e-05 2.68868e+25 5.27222 -7.14332 272.355 
1.21847e-05 1.21847e-05 2.69199e+25 1.46641 -11.9148 272.415 
1.40961e-05 1.21847e-05 2.69589e+25 -1.69787 -17.4529 272.51 
1.60074e-05 1.21847e-05 2.69707e+25 -1.15608 -13.455 272.574 
7.1675e-07 1.26626e-05 2.68601e+25 10.6682 1.89409 272.108 
2.62808e-06 1.26626e-05 2.68577e+25 11.5077 0.882521 272.042 
4.53942e-06 1.26626e-05 2.68598e+25 11.6559 -0.2196 272.112 
6.45075e-06 1.26626e-05 2.68653e+25 11.2508 -1.45971 272.141 
8.36208e-06 1.26626e-05 2.68702e+25 9.73074 -3.47019 272.314 
1.02734e-05 1.26626e-05 2.68934e+25 7.03034 -6.28904 272.362 
1.21847e-05 1.26626e-05 2.69226e+25 2.96043 -10.8372 272.52 
1.40961e-05 1.26626e-05 2.69736e+25 -1.15777 -16.7989 272.532 
1.60074e-05 1.26626e-05 2.70022e+25 -1.33923 -14.1082 272.575 
7.1675e-07 1.31404e-05 2.68583e+25 12.4958 1.64741 272.178 
2.62808e-06 1.31404e-05 2.68631e+25 13.1592 0.75051 272.111 
4.53942e-06 1.31404e-05 2.68639e+25 13.5168 -0.1856 272.122 
6.45075e-06 1.31404e-05 2.68596e+25 13.2186 -1.24735 272.268 
8.36208e-06 1.31404e-05 2.68656e+25 11.6247 -2.98998 272.333 
1.02734e-05 1.31404e-05 2.69053e+25 8.99184 -5.42911 272.383 
1.21847e-05 1.31404e-05 2.69261e+25 4.72271 -9.60006 272.544 
1.40961e-05 1.31404e-05 2.69784e+25 -0.515448 -15.858 272.613 
1.60074e-05 1.31404e-05 2.70176e+25 -1.35271 -14.7547 272.618 
7.1675e-07 1.36182e-05 2.68454e+25 14.4404 1.34189 272.284 
2.62808e-06 1.36182e-05 2.68635e+25 15.192 0.637072 272.147 
4.53942e-06 1.36182e-05 2.68518e+25 15.5038 -0.164311 272.129 
6.45075e-06 1.36182e-05 2.68523e+25 15.1811 -1.06259 272.34 
8.36208e-06 1.36182e-05 2.68694e+25 13.7342 -2.458 272.257 
1.02734e-05 1.36182e-05 2.68877e+25 10.9666 -4.59588 272.493 
1.21847e-05 1.36182e-05 2.69267e+25 6.60348 -8.22994 272.609 
1.40961e-05 1.36182e-05 2.69912e+25 0.319222 -14.6033 272.649 
1.60074e-05 1.36182e-05 2.70583e+25 -1.5449 -15.3329 272.521 
7.1675e-07 1.40961e-05 2.68415e+25 16.5515 1.06667 272.356 
2.62808e-06 1.40961e-05 2.68686e+25 17.3015 0.449882 272.093 
4.53942e-06 1.40961e-05 2.68676e+25 17.6706 -0.178631 272.113 
6.45075e-06 1.40961e-05 2.68523e+25 17.168 -0.912888 272.337 
8.36208e-06 1.40961e-05 2.68647e+25 15.9278 -1.90192 272.395 
1.02734e-05 1.40961e-05 2.68916e+25 13.2381 -3.76166 272.495 
1.21847e-05 1.40961e-05 2.69307e+25 8.76789 -6.85514 272.696 
1.40961e-05 1.40961e-05 2.69843e+25 1.72884 -13.0378 272.739 
1.60074e-05 1.40961e-05 2.70838e+25 -1.60022 -15.7857 272.559 
7.1675e-07 1.45739e-05 2.68399e+25 18.956 0.728846 272.32 
2.62808e-06 1.45739e-05 2.68546e+25 19.6127 0.323268 272.214 
4.53942e-06 1.45739e-05 2.68642e+25 19.8391 -0.213848 272.147 
6.45075e-06 1.45739e-05 2.68468e+25 19.4523 -0.74039 272.426 
8.36208e-06 1.45739e-05 2.68585e+25 18.3321 -1.39478 272.496 
1.02734e-05 1.45739e-05 2.6887e+25 15.8495 -2.93504 272.548 
1.21847e-05 1.45739e-05 2.69343e+25 11.3419 -5.42811 272.69 
1.40961e-05 1.45739e-05 2.69949e+25 3.78808 -11.0608 272.843 
1.60074e-05 1.45739e-05 2.71284e+25 -1.65216 -16.0313 272.612 
7.1675e-07 1.50518e-05 2.68455e+25 21.4772 0.461006 272.353 
2.62808e-06 1.50518e-05 2.68521e+25 22.2263 0.287658 272.259 
4.53942e-06 1.50518e-05 2.68437e+25 22.3106 -0.154274 272.331 
6.45075e-06 1.50518e-05 2.68542e+25 21.8993 -0.587063 272.376 
8.36208e-06 1.50518e-05 2.68661e+25 20.8665 -1.0053 272.461 
1.02734e-05 1.50518e-05 2.689e+25 18.6124 -2.1444 272.54 
1.21847e-05 1.50518e-05 2.69324e+25 14.2333 -4.00118 272.753 
1.40961e-05 1.50518e-05 2.70072e+25 6.59872 -8.75527 272.939 
1.60074e-05 1.50518e-05 2.71636e+25 -1.51751 -15.8574 272.755 
7.1675e-07 1.55296e-05 2.6838e+25 24.2949 0.233246 272.418 
2.62808e-06 1.55296e-05 2.68495e+25 24.9178 0.167973 272.326 
4.53942e-06 1.55296e-05 2.6842e+25 24.8542 -0.109638 272.409 
6.45075e-06 1.55296e-05 2.68509e+25 24.4666 -0.428286 272.402 
8.36208e-06 1.55296e-05 2.68564e+25 23.5582 -0.665301 272.552 
1.02734e-05 1.55296e-05 2.68816e+25 21.5027 -1.33676 272.634 
1.21847e-05 1.55296e-05 2.69222e+25 17.7686 -2.66273 272.825 
1.40961e-05 1.55296e-05 2.69996e+25 10.4295 -6.27145 273.108 
1.60074e-05 1.55296e-05 2.72061e+25 -0.764196 -14.8519 272.979 
7.1675e-07 1.60074e-05 2.68404e+25 27.0942 0.0690126 272.418 
2.62808e-06 1.60074e-05 2.68489e+25 27.6391 0.0169099 272.412 
4.53942e-06 1.60074e-05 2.68232e+25 27.6312 -0.00979216 272.518 
6.45075e-06 1.60074e-05 2.68534e+25 27.2075 -0.205539 272.502 
8.36208e-06 1.60074e-05 2.68658e+25 26.3888 -0.415128 272.474 
1.02734e-05 1.60074e-05 2.68696e+25 24.8524 -0.730502 272.737 
1.21847e-05 1.60074e-05 2.69342e+25 21.8168 -1.48281 272.859 
1.40961e-05 1.60074e-05 2.70144e+25 15.456 -3.80905 273.12 
1.60074e-05 1.60074e-05 2.72603e+25 1.54854 -12.4301 273.204 
7.1675e-07 1.64852e-05 2.68343e+25 30.1161 -0.0314979 272.538 
2.62808e-06 1.64852e-05 2.68308e+25 30.385 -0.0809623 272.564 
4.53942e-06 1.64852e-05 2.68231e+25 30.4416 0.0154039 272.601 
6.45075e-06 1.64852e-05 2.68431e+25 30.1379 -0.0903182 272.557 
8.36208e-06 1.64852e-05 2.68491e+25 29.5736 -0.235455 272.625 
1.02734e-05 1.64852e-05 2.68714e+25 28.4391 -0.322316 272.793 
1.21847e-05 1.64852e-05 2.69206e+25 26.4471 -0.606418 272.882 
1.40961e-05 1.64852e-05 2.70208e+25 21.9369 -1.66727 273.069 
1.60074e-05 1.64852e-05 2.7298e+25 7.64181 -7.93078 273.531 
7.1675e-07 1.69631e-05 2.68074e+25 32.9456 -0.0134039 272.816 
2.62808e-06 1.69631e-05 2.68075e+25 32.9286 -0.0323141 272.781 
4.53942e-06 1.69631e-05 2.68106e+25 32.9987 0.00723055 272.799 
6.45075e-06 1.69631e-05 2.68188e+25 32.8688 -0.0354114 272.837 
8.36208e-06 1.69631e-05 2.68258e+25 32.5732 -0.0464529 272.874 
1.02734e-05 1.69631e-05 2.68642e+25 32.1329 -0.0739204 272.957 
1.21847e-05 1.69631e-05 2.69201e+25 31.2332 -0.12127 272.912 
1.40961e-05 1.69631e-05 2.69977e+25 29.3816 -0.328636 273.114 
1.60074e-05 1.69631e-05 2.73376e+25 20.0774 -2.3031 273.611 
1.19458e-06 2.38917e-07 2.68796e+25 -7.76479 0.696097 271.919 
3.10592e-06 2.38917e-07 2.68781e+25 -8.14327 -1.6604 272.004 
5.01725e-06 2.38917e-07 2.68671e+25 -8.08695 -3.71627 272.175 
6.92858e-06 2.38917e-07 2.68878e+25 -7.92441 -6.0352 271.906 
8.83992e-06 2.38917e-07 2.68827e+25 -6.92173 -8.16945 272.053 
1.07512e-05 2.38917e-07 2.6872e+25 -5.34117 -8.66367 272.189 
1.26626e-05 2.38917e-07 2.68888e+25 -3.24165 -7.72744 272.116 
1.45739e-05 2.38917e-07 2.68753e+25 -1.29392 -5.05726 272.216 
1.64852e-05 2.38917e-07 2.68418e+25 -0.0867662 -1.42455 272.567 
1.19458e-06 7.1675e-07 2.68835e+25 -7.56549 0.925398 272.072 
3.10592e-06 7.1675e-07 2.68958e+25 -8.11139 -1.56087 271.989 
5.01725e-06 7.1675e-07 2.68933e+25 -8.19123 -3.75761 272.036 
6.92858e-06 7.1675e-07 2.68984e+25 -7.93213 -6.11247 272.053 
8.83992e-06 7.1675e-07 2.69107e+25 -7.04211 -8.51844 272.099 
1.07512e-05 7.1675e-07 2.69024e+25 -5.6773 -9.14834 272.164 
1.26626e-05 7.1675e-07 2.69102e+25 -3.5016 -8.24734 272.092 
1.45739e-05 7.1675e-07 2.68957e+25 -1.33944 -5.46455 272.204 
1.64852e-05 7.1675e-07 2.68494e+25 -0.0766771 -1.50395 272.648 
1.19458e-06 1.19458e-06 2.68864e+25 -7.34966 1.13797 272.051 
3.10592e-06 1.19458e-06 2.68987e+25 -8.04044 -1.45103 271.944 
5.01725e-06 1.19458e-06 2.69029e+25 -8.25186 -3.76656 272.029 
6.92858e-06 1.19458e-06 2.69042e+25 -7.97346 -6.19198 272.034 
8.83992e-06 1.19458e-06 2.68969e+25 -7.16361 -8.79183 272.12 
1.07512e-05 1.19458e-06 2.69005e+25 -5.79842 -9.54688 272.181 
1.26626e-05 1.19458e-06 2.69086e+25 -3.75394 -8.81595 272.128 
1.45739e-05 1.19458e-06 2.68991e+25 -1.46134 -5.95492 272.186 
1.64852e-05 1.19458e-06 2.68454e+25 -0.143917 -1.63959 272.675 
1.19458e-06 1.67242e-06 2.6895e+25 -7.16458 1.30575 271.996 
3.10592e-06 1.67242e-06 2.69011e+25 -7.89335 -1.32107 271.909 
5.01725e-06 1.67242e-06 2.68976e+25 -8.19055 -3.75927 272.017 
6.92858e-06 1.67242e-06 2.68805e+25 -8.00106 -6.28023 272.182 
8.83992e-06 1.67242e-06 2.68916e+25 -7.24168 -9.02592 272.164 
1.07512e-05 1.67242e-06 2.68885e+25 -5.94016 -10.0058 272.263 
1.26626e-05 1.67242e-06 2.69131e+25 -3.78368 -9.3984 272.129 
1.45739e-05 1.67242e-06 2.68968e+25 -1.65273 -6.49334 272.184 
1.64852e-05 1.67242e-06 2.68605e+25 -0.188624 -1.86307 272.605 
1.19458e-06 2.15025e-06 2.68864e+25 -6.87211 1.46322 272.08 
3.10592e-06 2.15025e-06 2.68986e+25 -7.6766 -1.18069 271.877 
5.01725e-06 2.15025e-06 2.68962e+25 -8.12179 -3.78086 271.964 
6.92858e-06 2.15025e-06 2.68785e+25 -7.88002 -6.35757 272.249 
8.83992e-06 2.15025e-06 2.6882e+25 -7.36319 -9.26329 272.268 
1.07512e-05 2.15025e-06 2.68899e+25 -6.01736 -10.4479 272.219 
1.26626e-05 2.15025e-06 2.69082e+25 -3.95987 -9.96739 272.095 
1.45739e-05 2.15025e-06 2.6895e+25 -1.69803 -7.0571 272.168 
1.64852e-05 2.15025e-06 2.68504e+25 -0.158579 -2.01889 272.607 
1.19458e-06 2.62808e-06 2.68938e+25 -6.55711 1.64056 271.907 
3.10592e-06 2.62808e-06 2.68907e+25 -7.35186 -0.980435 271.958 
5.01725e-06 2.62808e-06 2.68889e+25 -7.86965 -3.82579 272.04 
6.92858e-06 2.62808e-06 2.687e+25 -7.86589 -6.44982 272.168 
8.83992e-06 2.62808e-06 2.68803e+25 -7.52054 -9.41823 272.313 
1.07512e-05 2.62808e-06 2.68912e+25 -6.22802 -10.9267 272.24 
1.26626e-05 2.62808e-06 2.69005e+25 -4.17311 -10.5431 272.162 
1.45739e-05 2.62808e-06 2.6902e+25 -1.7994 -7.64918 272.218 
1.64852e-05 2.62808e-06 2.68592e+25 -0.104977 -2.20559 272.511 
1.19458e-06 3.10592e-06 2.68916e+25 -6.17551 1.80885 271.908 
3.10592e-06 3.10592e-06 2.68929e+25 -6.95302 -0.805309 271.954 
5.01725e-06 3.10592e-06 2.68823e+25 -7.70329 -3.7398 272.124 
6.92858e-06 3.10592e-06 2.6875e+25 -7.71688 -6.51386 272.188 
8.83992e-06 3.10592e-06 2.68757e+25 -7.47238 -9.60339 272.277 
1.07512e-05 3.10592e-06 2.68866e+25 -6.33685 -11.3114 272.284 
1.26626e-05 3.10592e-06 2.6899e+25 -4.34746 -11.0465 272.187 
1.45739e-05 3.10592e-06 2.69051e+25 -1.89223 -8.2616 272.14 
1.64852e-05 3.10592e-06 2.6869e+25 -0.158772 -2.42315 272.496 
1.19458e-06 3.58375e-06 2.68849e+25 -5.8823 1.97769 271.94 
3.10592e-06 3.58375e-06 2.68901e+25 -6.45985 -0.564327 271.912 
5.01725e-06 3.58375e-06 2.68655e+25 -7.32015 -3.56244 272.185 
6.92858e-06 3.58375e-06 2.68707e+25 -7.46509 -6.53229 272.165 
8.83992e-06 3.58375e-06 2.6873e+25 -7.45358 -9.74594 272.281 
1.07512e-05 3.58375e-06 2.68873e+25 -6.49798 -11.6916 272.228 
1.26626e-05 3.58375e-06 2.68864e+25 -4.55338 -11.6593 272.34 
1.45739e-05 3.58375e-06 2.69068e+25 -1.91662 -8.82449 272.165 
1.64852e-05 3.58375e-06 2.68651e+25 -0.152191 -2.63499 272.545 
1.19458e-06 4.06158e-06 2.6877e+25 -5.38201 2.05802 271.95 
3.10592e-06 4.06158e-06 2.68784e+25 -6.07384 -0.31366 272.004 
5.01725e-06 4.06158e-06 2.68731e+25 -6.92192 -3.39334 272.143 
6.92858e-06 4.06158e-06 2.68722e+25 -7.26975 -6.54993 272.173 
8.83992e-06 4.06158e-06 2.68674e+25 -7.23357 -9.73825 272.276 
1.07512e-05 4.06158e-06 2.68796e+25 -6.49129 -12.0845 272.311 
1.26626e-05 4.06158e-06 2.68984e+25 -4.63703 -12.284 272.228 
1.45739e-05 4.06158e-06 2.69052e+25 -2.10201 -9.38305 272.143 
1.64852e-05 4.06158e-06 2.68695e+25 -0.238607 -2.8724 272.561 
1.19458e-06 4.53942e-06 2.6869e+25 -4.93301 2.19553 272.056 
3.10592e-06 4.53942e-06 2.68763e+25 -5.59791 -0.118405 272.034 
5.01725e-06 4.53942e-06 2.68669e+25 -6.43821 -3.2185 272.156 
6.92858e-06 4.53942e-06 2.687e+25 -7.02796 -6.50973 272.196 
8.83992e-06 4.53942e-06 2.68696e+25 -7.16313 -9.70159 272.147 
1.07512e-05 4.53942e-06 2.68867e+25 -6.47783 -12.3446 272.278 
1.26626e-05 4.53942e-06 2.68985e+25 -4.5866 -12.8514 272.226 
1.45739e-05 4.53942e-06 2.69035e+25 -2.14738 -10.0144 272.227 
1.64852e-05 4.53942e-06 2.68614e+25 -0.182123 -3.07743 272.593 
1.19458e-06 5.01725e-06 2.68796e+25 -4.494 2.37563 271.979 
3.10592e-06 5.01725e-06 2.68837e+25 -4.97664 0.0572557 271.947 
5.01725e-06 5.01725e-06 2.68695e+25 -5.76664 -3.05605 272.131 
6.92858e-06 5.01725e-06 2.68686e+25 -6.5602 -6.39996 272.201 
8.83992e-06 5.01725e-06 2.68783e+25 -6.90004 -9.7688 272.205 
1.07512e-05 5.01725e-06 2.688e+25 -6.31993 -12.6106 272.259 
1.26626e-05 5.01725e-06 2.6896e+25 -4.58827 -13.3978 272.2 
1.45739e-05 5.01725e-06 2.69029e+25 -2.05828 -10.6764 272.271 
1.64852e-05 5.01725e-06 2.68682e+25 -0.258498 -3.29108 272.561 
1.19458e-06 5.49508e-06 2.68973e+25 -3.99979 2.43661 271.882 
3.10592e-06 5.49508e-06 2.68875e+25 -4.38383 0.250377 271.953 
5.01725e-06 5.49508e-06 2.68681e+25 -5.1592 -2.82825 272.159 
6.92858e-06 5.49508e-06 2.68738e+25 -5.99968 -6.25837 272.153 
8.83992e-06 5.49508e-06 2.68729e+25 -6.53509 -9.82801 272.185 
1.07512e-05 5.49508e-06 2.68912e+25 -6.10282 -12.8365 272.171 
1.26626e-05 5.49508e-06 2.69006e+25 -4.71181 -13.9284 272.254 
1.45739e-05 5.49508e-06 2.69018e+25 -2.1973 -11.3163 272.312 
1.64852e-05 5.49508e-06 2.68725e+25 -0.221103 -3.53884 272.492 
1.19458e-06 5.97292e-06 2.68857e+25 -3.35989 2.39098 271.932 
3.10592e-06 5.97292e-06 2.68819e+25 -3.73909 0.422442 271.949 
5.01725e-06 5.97292e-06 2.6869e+25 -4.51583 -2.55784 272.088 
6.92858e-06 5.97292e-06 2.68701e+25 -5.52125 -6.08226 272.132 
8.83992e-06 5.97292e-06 2.68841e+25 -6.09932 -9.7868 272.104 
1.07512e-05 5.97292e-06 2.68876e+25 -5.9666 -13.0088 272.223 
1.26626e-05 5.97292e-06 2.68981e+25 -4.75582 -14.487 272.184 
1.45739e-05 5.97292e-06 2.69051e+25 -2.27388 -11.95 272.229 
1.64852e-05 5.97292e-06 2.68674e+25 -0.242121 -3.8172 272.568 
1.19458e-06 6.45075e-06 2.6888e+25 -2.68831 2.46521 271.853 
3.10592e-06 6.45075e-06 2.6875e+25 -3.16429 0.616779 271.959 
5.01725e-06 6.45075e-06 2.68624e+25 -3.76433 -2.31203 272.121 
6.92858e-06 6.45075e-06 2.68689e+25 -4.83728 -5.84846 272.137 
8.83992e-06 6.45075e-06 2.68762e+25 -5.6546 -9.66896 272.055 
1.07512e-05 6.45075e-06 2.68745e+25 -5.84838 -13.0731 272.329 
1.26626e-05 6.45075e-06 2.69071e+25 -4.78986 -14.9819 272.121 
1.45739e-05 6.45075e-06 2.69095e+25 -2.36557 -12.5541 272.222 
1.64852e-05 6.45075e-06 2.68623e+25 -0.243663 -4.16009 272.605 
1.19458e-06 6.92858e-06 2.68779e+25 -2.08591 2.59597 271.919 
3.10592e-06 6.92858e-06 2.68676e+25 -2.51614 0.725841 272.004 
5.01725e-06 6.92858e-06 2.6861e+25 -3.16515 -2.05295 272.139 
6.92858e-06 6.92858e-06 2.6871e+25 -4.11395 -5.65383 272.117 
8.83992e-06 6.92858e-06 2.68789e+25 -5.02136 -9.51937 272.137 
1.07512e-05 6.92858e-06 2.68738e+25 -5.5346 -13.1148 272.325 
1.26626e-05 6.92858e-06 2.69155e+25 -4.7784 -15.4111 272.151 
1.45739e-05 6.92858e-06 2.69006e+25 -2.50619 -13.1722 272.305 
1.64852e-05 6.92858e-06 2.6874e+25 -0.256759 -4.49444 272.513 
1.19458e-06 7.40642e-06 2.68813e+25 -1.41199 2.66519 271.881 
3.10592e-06 7.40642e-06 2.68747e+25 -1.74972 0.837669 271.92 
5.01725e-06 7.40642e-06 2.6866e+25 -2.29265 -1.84712 272.025 
6.92858e-06 7.40642e-06 2.68719e+25 -3.24742 -5.38711 272.079 
8.83992e-06 7.40642e-06 2.68721e+25 -4.29565 -9.27519 272.223 
1.07512e-05 7.40642e-06 2.6873e+25 -5.10231 -13.0771 272.395 
1.26626e-05 7.40642e-06 2.69007e+25 -4.73262 -15.8088 272.239 
1.45739e-05 7.40642e-06 2.69119e+25 -2.6025 -13.7875 272.211 
1.64852e-05 7.40642e-06 2.68714e+25 -0.357454 -4.77904 272.577 
1.19458e-06 7.88425e-06 2.6885e+25 -0.644736 2.64723 271.875 
3.10592e-06 7.88425e-06 2.68659e+25 -0.848633 0.904662 271.967 
5.01725e-06 7.88425e-06 2.68621e+25 -1.47193 -1.67132 272.077 
6.92858e-06 7.88425e-06 2.68633e+25 -2.25016 -5.08 272.076 
8.83992e-06 7.88425e-06 2.68837e+25 -3.5799 -8.92947 272.091 
1.07512e-05 7.88425e-06 2.68715e+25 -4.6799 -13.0095 272.292 
1.26626e-05 7.88425e-06 2.68889e+25 -4.67505 -16.151 272.403 
1.45739e-05 7.88425e-06 2.69146e+25 -2.58348 -14.5055 272.223 
1.64852e-05 7.88425e-06 2.68717e+25 -0.350039 -5.13666 272.626 
1.19458e-06 8.36208e-06 2.68834e+25 0.0983015 2.60168 271.918 
3.10592e-06 8.36208e-06 2.68736e+25 -0.00871262 0.966268 271.956 
5.01725e-06 8.36208e-06 2.68549e+25 -0.552345 -1.47187 272.126 
6.92858e-06 8.36208e-06 2.68744e+25 -1.3335 -4.78951 272.075 
8.83992e-06 8.36208e-06 2.68777e+25 -2.66771 -8.51683 272.096 
1.07512e-05 8.36208e-06 2.68854e+25 -4.13713 -12.8301 272.243 
1.26626e-05 8.36208e-06 2.68931e+25 -4.40886 -16.3833 272.302 
1.45739e-05 8.36208e-06 2.69201e+25 -2.65221 -15.2075 272.254 
1.64852e-05 8.36208e-06 2.68627e+25 -0.32591 -5.52752 272.723 
1.19458e-06 8.83992e-06 2.68791e+25 0.948153 2.61559 271.881 
3.10592e-06 8.83992e-06 2.68784e+25 0.932767 0.995832 271.883 
5.01725e-06 8.83992e-06 2.68684e+25 0.51647 -1.34215 272.063 
6.92858e-06 8.83992e-06 2.68604e+25 -0.267505 -4.50984 272.118 
8.83992e-06 8.83992e-06 2.68835e+25 -1.77819 -8.09073 272.055 
1.07512e-05 8.83992e-06 2.68831e+25 -3.44225 -12.5387 272.237 
1.26626e-05 8.83992e-06 2.69154e+25 -3.99984 -16.425 272.204 
1.45739e-05 8.83992e-06 2.69124e+25 -2.67299 -15.8754 272.349 
1.64852e-05 8.83992e-06 2.689e+25 -0.332044 -5.91881 272.583 
1.19458e-06 9.31775e-06 2.68802e+25 1.89425 2.63956 271.899 
3.10592e-06 9.31775e-06 2.68614e+25 1.89801 1.01937 271.96 
5.01725e-06 9.31775e-06 2.6877e+25 1.70095 -1.23627 272.005 
6.92858e-06 9.31775e-06 2.68609e+25 0.792146 -4.17913 272.09 
8.83992e-06 9.31775e-06 2.6863e+25 -0.797083 -7.65982 272.23 
1.07512e-05 9.31775e-06 2.68847e+25 -2.61349 -12.16 272.269 
1.26626e-05 9.31775e-06 2.68999e+25 -3.6556 -16.4269 272.35 
1.45739e-05 9.31775e-06 2.69129e+25 -2.69122 -16.4229 272.367 
1.64852e-05 9.31775e-06 2.68978e+25 -0.36078 -6.32483 272.562 
1.19458e-06 9.79558e-06 2.68737e+25 2.92962 2.62382 271.9 
3.10592e-06 9.79558e-06 2.6876e+25 3.01375 1.03597 271.903 
5.01725e-06 9.79558e-06 2.68767e+25 2.91122 -1.12025 271.973 
6.92858e-06 9.79558e-06 2.68761e+25 1.94949 -3.8425 272.023 
8.83992e-06 9.79558e-06 2.68759e+25 0.331477 -7.17062 272.192 
1.07512e-05 9.79558e-06 2.6897e+25 -1.65907 -11.6982 272.232 
1.26626e-05 9.79558e-06 2.6907e+25 -3.32284 -16.2909 272.34 
1.45739e-05 9.79558e-06 2.69274e+25 -2.77774 -16.9266 272.364 
1.64852e-05 9.79558e-06 2.69118e+25 -0.376947 -6.71192 272.543 
1.19458e-06 1.02734e-05 2.68713e+25 4.03041 2.54837 271.941 
3.10592e-06 1.02734e-05 2.68757e+25 4.18824 1.0639 271.926 
5.01725e-06 1.02734e-05 2.68594e+25 4.09381 -1.08696 272.068 
6.92858e-06 1.02734e-05 2.68647e+25 3.14842 -3.58558 272.079 
8.83992e-06 1.02734e-05 2.68595e+25 1.51436 -6.69257 272.242 
1.07512e-05 1.02734e-05 2.68818e+25 -0.584202 -11.193 272.318 
1.26626e-05 1.02734e-05 2.69097e+25 -2.68944 -16.0028 272.372 
1.45739e-05 1.02734e-05 2.69291e+25 -2.76477 -17.3515 272.427 
1.64852e-05 1.02734e-05 2.69194e+25 -0.349533 -7.0858 272.592 
1.19458e-06 1.07512e-05 2.68707e+25 5.12874 2.41753 271.992 
3.10592e-06 1.07512e-05 2.68704e+25 5.53509 1.06472 271.919 
5.01725e-06 1.07512e-05 2.68577e+25 5.43773 -0.99326 272.092 
6.92858e-06 1.07512e-05 2.68634e+25 4.4396 -3.26535 272.123 
8.83992e-06 1.07512e-05 2.68715e+25 2.80243 -6.20838 272.182 
1.07512e-05 1.07512e-05 2.68829e+25 0.439128 -10.6199 272.348 
1.26626e-05 1.07512e-05 2.69032e+25 -2.09311 -15.5578 272.433 
1.45739e-05 1.07512e-05 2.69412e+25 -2.61629 -17.716 272.428 
1.64852e-05 1.07512e-05 2.69264e+25 -0.424392 -7.54149 272.605 
1.19458e-06 1.12291e-05 2.68709e+25 6.28589 2.21046 271.97 
3.10592e-06 1.12291e-05 2.68756e+25 6.91589 1.0062 271.907 
5.01725e-06 1.12291e-05 2.68506e+25 6.88898 -0.815278 272.124 
6.92858e-06 1.12291e-05 2.6857e+25 5.88938 -2.89045 272.169 
8.83992e-06 1.12291e-05 2.68701e+25 4.25159 -5.73304 272.277 
1.07512e-05 1.12291e-05 2.68955e+25 1.6435 -9.91359 272.365 
1.26626e-05 1.12291e-05 2.69084e+25 -1.33333 -15.0092 272.499 
1.45739e-05 1.12291e-05 2.69432e+25 -2.48494 -17.9922 272.449 
1.64852e-05 1.12291e-05 2.69284e+25 -0.455754 -8.01356 272.696 
1.19458e-06 1.17069e-05 2.68754e+25 7.68244 2.00432 271.92 
3.10592e-06 1.17069e-05 2.68692e+25 8.39003 0.850589 271.954 
5.01725e-06 1.17069e-05 2.68519e+25 8.36325 -0.701537 272.202 
6.92858e-06 1.17069e-05 2.68709e+25 7.4858 -2.53336 272.078 
8.83992e-06 1.17069e-05 2.68691e+25 5.73135 -5.23634 272.315 
1.07512e-05 1.17069e-05 2.68962e+25 2.89722 -9.05348 272.287 
1.26626e-05 1.17069e-05 2.69144e+25 -0.485415 -14.2452 272.534 
1.45739e-05 1.17069e-05 2.69531e+25 -2.29878 -18.1369 272.431 
1.64852e-05 1.17069e-05 2.69434e+25 -0.490362 -8.50222 272.737 
1.19458e-06 1.21847e-05 2.68681e+25 9.21899 1.83076 272.02 
3.10592e-06 1.21847e-05 2.68611e+25 9.98584 0.697202 272.007 
5.01725e-06 1.21847e-05 2.68455e+25 9.87682 -0.606166 272.231 
6.92858e-06 1.21847e-05 2.68808e+25 9.11564 -2.2513 272.108 
8.83992e-06 1.21847e-05 2.68645e+25 7.43204 -4.64798 272.368 
1.07512e-05 1.21847e-05 2.68957e+25 4.37506 -8.1321 272.401 
1.26626e-05 1.21847e-05 2.69226e+25 0.508066 -13.352 272.473 
1.45739e-05 1.21847e-05 2.69699e+25 -2.09121 -18.0178 272.52 
1.64852e-05 1.21847e-05 2.69547e+25 -0.497978 -9.05179 272.757 
1.19458e-06 1.26626e-05 2.6859e+25 10.9082 1.64306 272.148 
3.10592e-06 1.26626e-05 2.68685e+25 11.62 0.612615 272.035 
5.01725e-06 1.26626e-05 2.68508e+25 11.6225 -0.52829 272.187 
6.92858e-06 1.26626e-05 2.68641e+25 10.994 -1.94213 272.202 
8.83992e-06 1.26626e-05 2.68695e+25 9.16961 -4.04212 272.367 
1.07512e-05 1.26626e-05 2.68998e+25 6.1387 -7.19555 272.448 
1.26626e-05 1.26626e-05 2.69358e+25 1.83587 -12.3891 272.524 
1.45739e-05 1.26626e-05 2.69786e+25 -1.78644 -17.6543 272.508 
1.64852e-05 1.26626e-05 2.69874e+25 -0.653746 -9.63727 272.631 
1.19458e-06 1.31404e-05 2.68592e+25 12.7643 1.40606 272.177 
3.10592e-06 1.31404e-05 2.68631e+25 13.282 0.511705 272.114 
5.01725e-06 1.31404e-05 2.6854e+25 13.4753 -0.474594 272.216 
6.92858e-06 1.31404e-05 2.68618e+25 12.9419 -1.62379 272.243 
8.83992e-06 1.31404e-05 2.68734e+25 11.1002 -3.47973 272.314 
1.07512e-05 1.31404e-05 2.69018e+25 8.08569 -6.26977 272.471 
1.26626e-05 1.31404e-05 2.69383e+25 3.36793 -11.1819 272.542 
1.45739e-05 1.31404e-05 2.69895e+25 -1.41048 -17.0992 272.611 
1.64852e-05 1.31404e-05 2.70036e+25 -0.674848 -10.3041 272.729 
1.19458e-06 1.36182e-05 2.68494e+25 14.715 1.18527 272.171 
3.10592e-06 1.36182e-05 2.68633e+25 15.2917 0.410471 272.09 
5.01725e-06 1.36182e-05 2.68598e+25 15.4856 -0.427662 272.175 
6.92858e-06 1.36182e-05 2.68574e+25 14.955 -1.30135 272.289 
8.83992e-06 1.36182e-05 2.68851e+25 13.1174 -2.86498 272.219 
1.07512e-05 1.36182e-05 2.68948e+25 10.0825 -5.36314 272.489 
1.26626e-05 1.36182e-05 2.69457e+25 5.1091 -9.69577 272.587 
1.45739e-05 1.36182e-05 2.69997e+25 -0.918824 -16.2513 272.673 
1.64852e-05 1.36182e-05 2.70302e+25 -0.87446 -10.9997 272.805 
1.19458e-06 1.40961e-05 2.68514e+25 16.7757 0.97947 272.281 
3.10592e-06 1.40961e-05 2.68652e+25 17.4688 0.300765 272.119 
5.01725e-06 1.40961e-05 2.6854e+25 17.659 -0.357767 272.254 
6.92858e-06 1.40961e-05 2.68696e+25 16.9737 -1.05704 272.299 
8.83992e-06 1.40961e-05 2.68736e+25 15.4029 -2.28991 272.406 
1.07512e-05 1.40961e-05 2.69066e+25 12.393 -4.43894 272.464 
1.26626e-05 1.40961e-05 2.69371e+25 7.21946 -8.05674 272.72 
1.45739e-05 1.40961e-05 2.70121e+25 0.127489 -15.021 272.765 
1.64852e-05 1.40961e-05 2.70848e+25 -0.965749 -11.7596 272.666 
1.19458e-06 1.45739e-05 2.68336e+25 19.2546 0.756238 272.311 
3.10592e-06 1.45739e-05 2.68503e+25 19.7284 0.184691 272.233 
5.01725e-06 1.45739e-05 2.685e+25 19.8463 -0.32762 272.28 
6.92858e-06 1.45739e-05 2.68623e+25 19.2633 -0.906617 272.329 
8.83992e-06 1.45739e-05 2.68666e+25 17.8432 -1.74231 272.477 
1.07512e-05 1.45739e-05 2.69095e+25 14.9012 -3.47199 272.52 
1.26626e-05 1.45739e-05 2.69344e+25 9.76952 -6.39647 272.834 
1.45739e-05 1.45739e-05 2.70319e+25 1.72211 -13.3392 272.73 
1.64852e-05 1.45739e-05 2.71312e+25 -1.14468 -12.5446 272.708 
1.19458e-06 1.50518e-05 2.68416e+25 21.7387 0.497839 272.345 
3.10592e-06 1.50518e-05 2.68391e+25 22.2808 0.0889502 272.353 
5.01725e-06 1.50518e-05 2.68425e+25 22.225 -0.302437 272.275 
6.92858e-06 1.50518e-05 2.68555e+25 21.7363 -0.68857 272.404 
8.83992e-06 1.50518e-05 2.68699e+25 20.4477 -1.22073 272.464 
1.07512e-05 1.50518e-05 2.69054e+25 17.6795 -2.42861 272.535 
1.26626e-05 1.50518e-05 2.69401e+25 12.6976 -4.69525 272.883 
1.45739e-05 1.50518e-05 2.70355e+25 4.11407 -11.1051 272.94 
1.64852e-05 1.50518e-05 2.71956e+25 -1.34641 -13.3028 272.734 
1.19458e-06 1.55296e-05 2.68324e+25 24.4631 0.303159 272.376 
3.10592e-06 1.55296e-05 2.68418e+25 25.0189 0.0597398 272.373 
5.01725e-06 1.55296e-05 2.68446e+25 24.7813 -0.189842 272.382 
6.92858e-06 1.55296e-05 2.68569e+25 24.2177 -0.438991 272.42 
8.83992e-06 1.55296e-05 2.68675e+25 23.1871 -0.814207 272.554 
1.07512e-05 1.55296e-05 2.69045e+25 20.7426 -1.53724 272.655 
1.26626e-05 1.55296e-05 2.6943e+25 16.3535 -3.10483 272.86 
1.45739e-05 1.55296e-05 2.70373e+25 7.64255 -8.33621 273.139 
1.64852e-05 1.55296e-05 2.72674e+25 -1.43298 -13.7705 272.88 
1.19458e-06 1.60074e-05 2.683e+25 27.2755 0.152784 272.475 
3.10592e-06 1.60074e-05 2.68393e+25 27.7273 0.0481858 272.391 
5.01725e-06 1.60074e-05 2.68241e+25 27.5541 -0.0981087 272.564 
6.92858e-06 1.60074e-05 2.68497e+25 27.0911 -0.278121 272.528 
8.83992e-06 1.60074e-05 2.68662e+25 26.1451 -0.459286 272.503 
1.07512e-05 1.60074e-05 2.68817e+25 24.2711 -0.801889 272.821 
1.26626e-05 1.60074e-05 2.69398e+25 20.6588 -1.68826 272.917 
1.45739e-05 1.60074e-05 2.70592e+25 12.7341 -5.26965 273.152 
1.64852e-05 1.60074e-05 2.73672e+25 -0.798587 -13.3823 273.029 
1.19458e-06 1.64852e-05 2.68145e+25 30.1872 0.0379646 272.651 
3.10592e-06 1.64852e-05 2.68305e+25 30.4071 0.0209678 272.487 
5.01725e-06 1.64852e-05 2.68206e+25 30.4107 -0.00824297 272.64 
6.92858e-06 1.64852e-05 2.68349e+25 30.0077 -0.120674 272.661 
8.83992e-06 1.64852e-05 2.68575e+25 29.3519 -0.175939 272.645 
1.07512e-05 1.64852e-05 2.68799e+25 28.0731 -0.253209 272.824 
1.26626e-05 1.64852e-05 2.6936e+25 25.6803 -0.634975 272.96 
1.45739e-05 1.64852e-05 2.7042e+25 19.7683 -2.4092 273.227 
1.64852e-05 1.64852e-05 2.74685e+25 2.29099 -10.6666 273.542 
1.19458e-06 1.69631e-05 2.67988e+25 32.9338 -0.00294108 272.869 
3.10592e-06 1.69631e-05 2.6799e+25 32.8949 -0.00978387 272.822 
5.01725e-06 1.69631e-05 2.68075e+25 33.024 -0.00236024 272.878 
6.92858e-06 1.69631e-05 2.68144e+25 32.8338 -0.00869455 272.902 
8.83992e-06 1.69631e-05 2.68347e+25 32.4527 -0.0379863 272.859 
1.07512e-05 1.69631e-05 2.68651e+25 31.9972 -0.00305533 272.979 
1.26626e-05 1.69631e-05 2.69206e+25 30.9518 -0.11384 272.99 
1.45739e-05 1.69631e-05 2.7028e+25 28.3459 -0.52504 273.181 
1.64852e-05 1.69631e-05 2.76852e+25 13.4301 -3.66453 273.813 
