ITEM: TIMESTEP
600000
ITEM: NUMBER OF CELLS
5184
ITEM: BOX BOUNDS ss ss pp
-1.7202e-05 1.7202e-05
-1.7202e-05 1.7202e-05
-0.5 0.5
ITEM: CELLS xc yc f_1[1] f_1[2] f_1[3] f_1[4] 
-1.69631e-05 -1.69631e-05 2.68738e+25 -0.0438279 0.0185225 272.875 
-1.50517e-05 -1.69631e-05 2.68817e+25 0.0565698 0.0572564 272.829 
-1.31404e-05 -1.69631e-05 2.68834e+25 0.00898661 0.00566163 272.81 
-1.12291e-05 -1.69631e-05 2.68859e+25 -0.0512818 -0.0399892 272.778 
-9.31775e-06 -1.69631e-05 2.6864e+25 0.0554441 0.0387967 272.97 
-7.40642e-06 -1.69631e-05 2.68876e+25 -0.0853479 0.0367706 272.726 
-5.49508e-06 -1.69631e-05 2.68862e+25 -0.144345 -0.00488365 272.791 
-3.58375e-06 -1.69631e-05 2.68931e+25 -0.366251 -0.0081556 272.721 
-1.67242e-06 -1.69631e-05 2.68731e+25 -0.139588 0.0273375 272.863 
-1.69631e-05 -1.64852e-05 2.68827e+25 0.0221842 0.0720913 272.816 
-1.50517e-05 -1.64852e-05 2.68863e+25 0.116727 0.0214481 272.701 
-1.31404e-05 -1.64852e-05 2.68982e+25 -0.0151353 0.0151211 272.641 
-1.12291e-05 -1.64852e-05 2.69048e+25 -0.0542608 0.0119728 272.605 
-9.31775e-06 -1.64852e-05 2.68884e+25 -0.233262 0.0183309 272.705 
-7.40642e-06 -1.64852e-05 2.69045e+25 -0.251221 0.012776 272.63 
-5.49508e-06 -1.64852e-05 2.68966e+25 -0.420174 0.00958495 272.626 
-3.58375e-06 -1.64852e-05 2.69009e+25 -0.573183 0.0300745 272.579 
-1.67242e-06 -1.64852e-05 2.68754e+25 -0.671162 0.0901627 272.817 
-1.69631e-05 -1.60074e-05 2.68783e+25 -0.0378046 0.0595174 272.845 
-1.50517e-05 -1.60074e-05 2.68978e+25 0.0760982 0.0361337 272.555 
-1.31404e-05 -1.60074e-05 2.68981e+25 0.125099 -0.00441797 272.533 
-1.12291e-05 -1.60074e-05 2.69095e+25 -0.242308 0.109245 272.451 
-9.31775e-06 -1.60074e-05 2.68907e+25 -0.427675 0.0387274 272.618 
-7.40642e-06 -1.60074e-05 2.68986e+25 -0.438441 0.0539416 272.556 
-5.49508e-06 -1.60074e-05 2.68927e+25 -0.767279 0.0320412 272.643 
-3.58375e-06 -1.60074e-05 2.68947e+25 -0.777642 0.0332739 272.586 
-1.67242e-06 -1.60074e-05 2.68907e+25 -0.899934 0.0215597 272.698 
-1.69631e-05 -1.55296e-05 2.68697e+25 0.0129596 0.116097 272.916 
-1.50517e-05 -1.55296e-05 2.69072e+25 0.0455076 -0.0351582 272.503 
-1.31404e-05 -1.55296e-05 2.69069e+25 -0.0941314 0.0771868 272.491 
-1.12291e-05 -1.55296e-05 2.6907e+25 -0.391603 0.119461 272.478 
-9.31775e-06 -1.55296e-05 2.68937e+25 -0.516559 0.105622 272.656 
-7.40642e-06 -1.55296e-05 2.69069e+25 -0.761932 0.209438 272.578 
-5.49508e-06 -1.55296e-05 2.69033e+25 -0.880578 0.0193151 272.532 
-3.58375e-06 -1.55296e-05 2.68899e+25 -0.927706 0.0782896 272.655 
-1.67242e-06 -1.55296e-05 2.68944e+25 -1.17382 -0.0371026 272.659 
-1.69631e-05 -1.50517e-05 2.6879e+25 0.0528876 0.0287996 272.831 
-1.50517e-05 -1.50517e-05 2.69054e+25 -0.000883645 -0.0358181 272.502 
-1.31404e-05 -1.50517e-05 2.69113e+25 -0.211256 0.164971 272.478 
-1.12291e-05 -1.50517e-05 2.69282e+25 -0.377686 0.257657 272.353 
-9.31775e-06 -1.50517e-05 2.68873e+25 -0.711216 0.16359 272.746 
-7.40642e-06 -1.50517e-05 2.69019e+25 -0.937339 0.261004 272.524 
-5.49508e-06 -1.50517e-05 2.69102e+25 -1.0185 0.0912158 272.513 
-3.58375e-06 -1.50517e-05 2.69025e+25 -1.17593 0.128541 272.597 
-1.67242e-06 -1.50517e-05 2.68943e+25 -1.45481 0.0147385 272.602 
-1.69631e-05 -1.45739e-05 2.6879e+25 -0.00226113 -0.0249537 272.763 
-1.50517e-05 -1.45739e-05 2.69027e+25 -0.133277 0.0192528 272.538 
-1.31404e-05 -1.45739e-05 2.69016e+25 -0.418918 0.154993 272.566 
-1.12291e-05 -1.45739e-05 2.69201e+25 -0.467934 0.31925 272.413 
-9.31775e-06 -1.45739e-05 2.6888e+25 -0.851364 0.201523 272.632 
-7.40642e-06 -1.45739e-05 2.69028e+25 -1.0988 0.374507 272.54 
-5.49508e-06 -1.45739e-05 2.69112e+25 -1.29042 0.165947 272.479 
-3.58375e-06 -1.45739e-05 2.68976e+25 -1.53207 0.19291 272.59 
-1.67242e-06 -1.45739e-05 2.68894e+25 -1.76703 0.0335271 272.695 
-1.69631e-05 -1.40961e-05 2.68781e+25 -0.0332895 0.0121996 272.796 
-1.50517e-05 -1.40961e-05 2.69014e+25 -0.248375 0.0809309 272.574 
-1.31404e-05 -1.40961e-05 2.68938e+25 -0.414693 0.129263 272.538 
-1.12291e-05 -1.40961e-05 2.69172e+25 -0.57574 0.407183 272.415 
-9.31775e-06 -1.40961e-05 2.68813e+25 -0.899916 0.236601 272.73 
-7.40642e-06 -1.40961e-05 2.68979e+25 -1.34753 0.431105 272.658 
-5.49508e-06 -1.40961e-05 2.69101e+25 -1.56276 0.194903 272.501 
-3.58375e-06 -1.40961e-05 2.68973e+25 -1.78629 0.273542 272.58 
-1.67242e-06 -1.40961e-05 2.68814e+25 -2.07467 0.0219098 272.742 
-1.69631e-05 -1.36182e-05 2.68793e+25 0.0104854 0.012386 272.776 
-1.50517e-05 -1.36182e-05 2.69066e+25 -0.330615 0.121528 272.488 
-1.31404e-05 -1.36182e-05 2.6922e+25 -0.382363 0.148862 272.394 
-1.12291e-05 -1.36182e-05 2.69118e+25 -0.669798 0.511002 272.466 
-9.31775e-06 -1.36182e-05 2.68765e+25 -1.06517 0.328377 272.834 
-7.40642e-06 -1.36182e-05 2.6902e+25 -1.55167 0.522317 272.581 
-5.49508e-06 -1.36182e-05 2.6909e+25 -1.70216 0.329629 272.478 
-3.58375e-06 -1.36182e-05 2.6894e+25 -1.97137 0.380095 272.639 
-1.67242e-06 -1.36182e-05 2.68778e+25 -2.30237 0.109178 272.838 
-1.69631e-05 -1.31404e-05 2.68896e+25 -0.0175616 0.023484 272.7 
-1.50517e-05 -1.31404e-05 2.69121e+25 -0.26527 0.261144 272.434 
-1.31404e-05 -1.31404e-05 2.69074e+25 -0.579259 0.281119 272.494 
-1.12291e-05 -1.31404e-05 2.69082e+25 -0.706927 0.598469 272.501 
-9.31775e-06 -1.31404e-05 2.68754e+25 -1.18353 0.416806 272.789 
-7.40642e-06 -1.31404e-05 2.69002e+25 -1.60136 0.561257 272.604 
-5.49508e-06 -1.31404e-05 2.69042e+25 -1.87749 0.424087 272.577 
-3.58375e-06 -1.31404e-05 2.68948e+25 -2.2125 0.472215 272.654 
-1.67242e-06 -1.31404e-05 2.68711e+25 -2.5074 0.248151 272.809 
-1.69631e-05 -1.26626e-05 2.68867e+25 -0.0156866 0.0782069 272.765 
-1.50517e-05 -1.26626e-05 2.69279e+25 -0.32771 0.373326 272.319 
-1.31404e-05 -1.26626e-05 2.68965e+25 -0.624559 0.387478 272.601 
-1.12291e-05 -1.26626e-05 2.69125e+25 -0.719505 0.649736 272.506 
-9.31775e-06 -1.26626e-05 2.68806e+25 -1.31386 0.540817 272.744 
-7.40642e-06 -1.26626e-05 2.68814e+25 -1.76851 0.636773 272.731 
-5.49508e-06 -1.26626e-05 2.68857e+25 -2.20718 0.449731 272.683 
-3.58375e-06 -1.26626e-05 2.69067e+25 -2.50478 0.525621 272.501 
-1.67242e-06 -1.26626e-05 2.68859e+25 -2.65127 0.365825 272.682 
-1.69631e-05 -1.21847e-05 2.68923e+25 0.023757 0.0795639 272.736 
-1.50517e-05 -1.21847e-05 2.6931e+25 -0.183226 0.408516 272.33 
-1.31404e-05 -1.21847e-05 2.69032e+25 -0.571213 0.434031 272.528 
-1.12291e-05 -1.21847e-05 2.69051e+25 -0.910365 0.750152 272.516 
-9.31775e-06 -1.21847e-05 2.68903e+25 -1.37015 0.664476 272.636 
-7.40642e-06 -1.21847e-05 2.68856e+25 -1.83984 0.804219 272.683 
-5.49508e-06 -1.21847e-05 2.68968e+25 -2.37781 0.447941 272.664 
-3.58375e-06 -1.21847e-05 2.68986e+25 -2.58956 0.534269 272.626 
-1.67242e-06 -1.21847e-05 2.68984e+25 -2.77485 0.394917 272.664 
-1.69631e-05 -1.17069e-05 2.69029e+25 0.0359739 0.0451357 272.639 
-1.50517e-05 -1.17069e-05 2.69455e+25 -0.0527759 0.438187 272.169 
-1.31404e-05 -1.17069e-05 2.69174e+25 -0.5279 0.562477 272.386 
-1.12291e-05 -1.17069e-05 2.69023e+25 -1.07928 0.885633 272.439 
-9.31775e-06 -1.17069e-05 2.69068e+25 -1.4791 0.8506 272.552 
-7.40642e-06 -1.17069e-05 2.68944e+25 -2.00497 0.873662 272.695 
-5.49508e-06 -1.17069e-05 2.68882e+25 -2.53525 0.571352 272.733 
-3.58375e-06 -1.17069e-05 2.68894e+25 -2.79137 0.637161 272.654 
-1.67242e-06 -1.17069e-05 2.68838e+25 -3.00532 0.499719 272.735 
-1.69631e-05 -1.12291e-05 2.68907e+25 -0.00453833 0.0164545 272.702 
-1.50517e-05 -1.12291e-05 2.69396e+25 -0.188816 0.446777 272.127 
-1.31404e-05 -1.12291e-05 2.69212e+25 -0.552042 0.562123 272.342 
-1.12291e-05 -1.12291e-05 2.69209e+25 -1.12593 0.902623 272.346 
-9.31775e-06 -1.12291e-05 2.6908e+25 -1.5234 0.977628 272.486 
-7.40642e-06 -1.12291e-05 2.68727e+25 -2.12369 0.966832 272.802 
-5.49508e-06 -1.12291e-05 2.68916e+25 -2.62358 0.726773 272.644 
-3.58375e-06 -1.12291e-05 2.68942e+25 -3.06308 0.729489 272.652 
-1.67242e-06 -1.12291e-05 2.6885e+25 -3.20836 0.500505 272.68 
-1.69631e-05 -1.07512e-05 2.68955e+25 -0.0462835 0.061456 272.705 
-1.50517e-05 -1.07512e-05 2.69377e+25 -0.190985 0.509116 272.254 
-1.31404e-05 -1.07512e-05 2.69291e+25 -0.463195 0.705339 272.401 
-1.12291e-05 -1.07512e-05 2.69143e+25 -1.22759 0.995662 272.389 
-9.31775e-06 -1.07512e-05 2.69126e+25 -1.65746 1.12205 272.391 
-7.40642e-06 -1.07512e-05 2.68811e+25 -2.10481 1.07149 272.752 
-5.49508e-06 -1.07512e-05 2.6878e+25 -2.69963 0.939805 272.75 
-3.58375e-06 -1.07512e-05 2.68901e+25 -3.32612 0.762109 272.655 
-1.67242e-06 -1.07512e-05 2.69032e+25 -3.50929 0.455783 272.543 
-1.69631e-05 -1.02734e-05 2.69029e+25 0.00868852 0.0996386 272.674 
-1.50517e-05 -1.02734e-05 2.69326e+25 -0.225393 0.581914 272.295 
-1.31404e-05 -1.02734e-05 2.69312e+25 -0.254014 0.906577 272.315 
-1.12291e-05 -1.02734e-05 2.69091e+25 -1.21304 1.16077 272.525 
-9.31775e-06 -1.02734e-05 2.69182e+25 -1.89656 1.25354 272.397 
-7.40642e-06 -1.02734e-05 2.68962e+25 -2.16835 1.19742 272.626 
-5.49508e-06 -1.02734e-05 2.68985e+25 -2.933 1.16789 272.639 
-3.58375e-06 -1.02734e-05 2.68899e+25 -3.55258 0.822519 272.584 
-1.67242e-06 -1.02734e-05 2.68988e+25 -3.88491 0.504866 272.594 
-1.69631e-05 -9.79558e-06 2.68885e+25 -0.0152804 0.116747 272.714 
-1.50517e-05 -9.79558e-06 2.69316e+25 -0.225453 0.605667 272.239 
-1.31404e-05 -9.79558e-06 2.69358e+25 -0.319203 1.04767 272.314 
-1.12291e-05 -9.79558e-06 2.69161e+25 -1.20273 1.24898 272.398 
-9.31775e-06 -9.79558e-06 2.69186e+25 -2.14046 1.36009 272.443 
-7.40642e-06 -9.79558e-06 2.69221e+25 -2.46665 1.27134 272.443 
-5.49508e-06 -9.79558e-06 2.68889e+25 -3.18478 1.20935 272.682 
-3.58375e-06 -9.79558e-06 2.6892e+25 -3.66109 0.923854 272.664 
-1.67242e-06 -9.79558e-06 2.69015e+25 -4.16293 0.546571 272.548 
-1.69631e-05 -9.31775e-06 2.68935e+25 -0.00239137 0.103569 272.714 
-1.50517e-05 -9.31775e-06 2.69331e+25 -0.0494885 0.598078 272.183 
-1.31404e-05 -9.31775e-06 2.69269e+25 -0.619583 1.1926 272.291 
-1.12291e-05 -9.31775e-06 2.69165e+25 -1.31771 1.53096 272.338 
-9.31775e-06 -9.31775e-06 2.69153e+25 -2.16054 1.54578 272.436 
-7.40642e-06 -9.31775e-06 2.69109e+25 -2.86353 1.41384 272.496 
-5.49508e-06 -9.31775e-06 2.68947e+25 -3.21653 1.33566 272.601 
-3.58375e-06 -9.31775e-06 2.6887e+25 -3.86579 1.10724 272.682 
-1.67242e-06 -9.31775e-06 2.68939e+25 -4.43285 0.569975 272.622 
-1.69631e-05 -8.83992e-06 2.69014e+25 0.0146304 0.0629296 272.652 
-1.50517e-05 -8.83992e-06 2.694e+25 0.00632317 0.730712 272.177 
-1.31404e-05 -8.83992e-06 2.69109e+25 -0.830246 1.4311 272.409 
-1.12291e-05 -8.83992e-06 2.69153e+25 -1.34169 1.7481 272.399 
-9.31775e-06 -8.83992e-06 2.69137e+25 -2.10045 1.80557 272.411 
-7.40642e-06 -8.83992e-06 2.69027e+25 -3.09454 1.60254 272.49 
-5.49508e-06 -8.83992e-06 2.68921e+25 -3.36922 1.49934 272.641 
-3.58375e-06 -8.83992e-06 2.69005e+25 -4.05295 1.24289 272.574 
-1.67242e-06 -8.83992e-06 2.68865e+25 -4.53973 0.627923 272.634 
-1.69631e-05 -8.36208e-06 2.68996e+25 0.00226203 0.0576083 272.601 
-1.50517e-05 -8.36208e-06 2.69294e+25 -0.148527 0.934709 272.259 
-1.31404e-05 -8.36208e-06 2.68947e+25 -0.720129 1.60998 272.558 
-1.12291e-05 -8.36208e-06 2.69243e+25 -1.51881 1.92693 272.381 
-9.31775e-06 -8.36208e-06 2.69163e+25 -2.26888 1.97283 272.434 
-7.40642e-06 -8.36208e-06 2.69077e+25 -3.2887 1.86109 272.505 
-5.49508e-06 -8.36208e-06 2.68973e+25 -3.61224 1.51157 272.59 
-3.58375e-06 -8.36208e-06 2.69053e+25 -4.17151 1.40103 272.513 
-1.67242e-06 -8.36208e-06 2.68947e+25 -4.68962 0.810469 272.645 
-1.69631e-05 -7.88425e-06 2.68768e+25 -0.0394821 0.0531377 272.814 
-1.50517e-05 -7.88425e-06 2.69163e+25 -0.246825 1.01437 272.397 
-1.31404e-05 -7.88425e-06 2.69065e+25 -0.895816 1.7097 272.516 
-1.12291e-05 -7.88425e-06 2.6917e+25 -1.59499 2.20862 272.422 
-9.31775e-06 -7.88425e-06 2.6933e+25 -2.3733 2.13507 272.233 
-7.40642e-06 -7.88425e-06 2.6905e+25 -3.28829 2.04072 272.561 
-5.49508e-06 -7.88425e-06 2.68972e+25 -3.95893 1.66414 272.57 
-3.58375e-06 -7.88425e-06 2.69036e+25 -4.386 1.58636 272.386 
-1.67242e-06 -7.88425e-06 2.69073e+25 -4.80862 0.971012 272.523 
-1.69631e-05 -7.40642e-06 2.68826e+25 -0.0508409 0.148827 272.755 
-1.50517e-05 -7.40642e-06 2.69195e+25 -0.299502 1.24438 272.416 
-1.31404e-05 -7.40642e-06 2.69008e+25 -0.953249 1.89604 272.547 
-1.12291e-05 -7.40642e-06 2.69259e+25 -1.59846 2.45254 272.32 
-9.31775e-06 -7.40642e-06 2.69319e+25 -2.52334 2.41774 272.241 
-7.40642e-06 -7.40642e-06 2.69016e+25 -3.26203 2.12417 272.565 
-5.49508e-06 -7.40642e-06 2.68942e+25 -4.07364 1.82381 272.59 
-3.58375e-06 -7.40642e-06 2.69027e+25 -4.56237 1.72542 272.572 
-1.67242e-06 -7.40642e-06 2.6905e+25 -5.0404 0.993134 272.52 
-1.69631e-05 -6.92858e-06 2.68836e+25 -0.0264186 0.22145 272.83 
-1.50517e-05 -6.92858e-06 2.69053e+25 -0.403603 1.39174 272.485 
-1.31404e-05 -6.92858e-06 2.69057e+25 -1.08115 2.10382 272.53 
-1.12291e-05 -6.92858e-06 2.69231e+25 -1.83514 2.62626 272.368 
-9.31775e-06 -6.92858e-06 2.69404e+25 -2.6558 2.60372 272.131 
-7.40642e-06 -6.92858e-06 2.69105e+25 -3.30669 2.2672 272.523 
-5.49508e-06 -6.92858e-06 2.68955e+25 -4.1207 2.14986 272.554 
-3.58375e-06 -6.92858e-06 2.68922e+25 -4.7685 1.78539 272.549 
-1.67242e-06 -6.92858e-06 2.6889e+25 -5.19058 1.06055 272.607 
-1.69631e-05 -6.45075e-06 2.68794e+25 0.0512403 0.236531 272.843 
-1.50517e-05 -6.45075e-06 2.69178e+25 -0.507186 1.5025 272.508 
-1.31404e-05 -6.45075e-06 2.69084e+25 -1.06999 2.32366 272.544 
-1.12291e-05 -6.45075e-06 2.69227e+25 -1.90004 2.81377 272.341 
-9.31775e-06 -6.45075e-06 2.69179e+25 -2.63815 2.81727 272.32 
-7.40642e-06 -6.45075e-06 2.69128e+25 -3.4412 2.39936 272.443 
-5.49508e-06 -6.45075e-06 2.68859e+25 -4.28539 2.47335 272.693 
-3.58375e-06 -6.45075e-06 2.68955e+25 -5.01303 1.83783 272.57 
-1.67242e-06 -6.45075e-06 2.68941e+25 -5.34087 1.19255 272.569 
-1.69631e-05 -5.97292e-06 2.68725e+25 -0.0199537 0.183262 272.828 
-1.50517e-05 -5.97292e-06 2.69174e+25 -0.428171 1.65707 272.489 
-1.31404e-05 -5.97292e-06 2.691e+25 -1.13122 2.46108 272.412 
-1.12291e-05 -5.97292e-06 2.6938e+25 -1.84289 3.04953 272.237 
-9.31775e-06 -5.97292e-06 2.69304e+25 -2.76878 3.1031 272.364 
-7.40642e-06 -5.97292e-06 2.69317e+25 -3.54354 2.56274 272.26 
-5.49508e-06 -5.97292e-06 2.68895e+25 -4.53306 2.72819 272.667 
-3.58375e-06 -5.97292e-06 2.6891e+25 -5.02311 1.92216 272.628 
-1.67242e-06 -5.97292e-06 2.68953e+25 -5.50552 1.41416 272.584 
-1.69631e-05 -5.49508e-06 2.68834e+25 -0.0210785 0.182656 272.721 
-1.50517e-05 -5.49508e-06 2.6914e+25 -0.311217 1.75322 272.44 
-1.31404e-05 -5.49508e-06 2.6913e+25 -1.00458 2.52213 272.437 
-1.12291e-05 -5.49508e-06 2.6928e+25 -1.85194 3.23707 272.232 
-9.31775e-06 -5.49508e-06 2.69093e+25 -2.82736 3.39337 272.445 
-7.40642e-06 -5.49508e-06 2.69121e+25 -3.69735 2.77091 272.422 
-5.49508e-06 -5.49508e-06 2.69028e+25 -4.71121 2.8692 272.516 
-3.58375e-06 -5.49508e-06 2.68897e+25 -5.24807 1.98497 272.601 
-1.67242e-06 -5.49508e-06 2.68881e+25 -5.84354 1.58258 272.55 
-1.69631e-05 -5.01725e-06 2.68922e+25 -0.0257256 0.257241 272.701 
-1.50517e-05 -5.01725e-06 2.68986e+25 -0.263745 1.83584 272.576 
-1.31404e-05 -5.01725e-06 2.69132e+25 -1.0319 2.74075 272.376 
-1.12291e-05 -5.01725e-06 2.69254e+25 -2.01048 3.49557 272.286 
-9.31775e-06 -5.01725e-06 2.69072e+25 -2.80401 3.57843 272.473 
-7.40642e-06 -5.01725e-06 2.69041e+25 -3.83474 3.1132 272.474 
-5.49508e-06 -5.01725e-06 2.69053e+25 -4.82274 2.97421 272.497 
-3.58375e-06 -5.01725e-06 2.68959e+25 -5.41792 2.07094 272.569 
-1.67242e-06 -5.01725e-06 2.68819e+25 -5.93897 1.60362 272.638 
-1.69631e-05 -4.53942e-06 2.68842e+25 -0.0135128 0.300063 272.748 
-1.50517e-05 -4.53942e-06 2.6898e+25 -0.251673 1.94021 272.554 
-1.31404e-05 -4.53942e-06 2.69198e+25 -0.905646 2.97793 272.366 
-1.12291e-05 -4.53942e-06 2.69148e+25 -2.0733 3.69479 272.392 
-9.31775e-06 -4.53942e-06 2.69321e+25 -2.83179 3.75985 272.263 
-7.40642e-06 -4.53942e-06 2.69185e+25 -3.95776 3.40522 272.367 
-5.49508e-06 -4.53942e-06 2.69115e+25 -4.97461 3.09833 272.46 
-3.58375e-06 -4.53942e-06 2.68922e+25 -5.68492 2.23635 272.578 
-1.67242e-06 -4.53942e-06 2.68906e+25 -5.98297 1.73768 272.561 
-1.69631e-05 -4.06158e-06 2.68921e+25 0.0202576 0.335344 272.761 
-1.50517e-05 -4.06158e-06 2.69154e+25 -0.351886 2.14776 272.46 
-1.31404e-05 -4.06158e-06 2.69186e+25 -0.997553 3.30129 272.408 
-1.12291e-05 -4.06158e-06 2.69051e+25 -2.03134 3.82709 272.442 
-9.31775e-06 -4.06158e-06 2.6913e+25 -2.8326 3.94864 272.352 
-7.40642e-06 -4.06158e-06 2.69158e+25 -4.16466 3.76527 272.369 
-5.49508e-06 -4.06158e-06 2.69062e+25 -5.11792 3.31534 272.385 
-3.58375e-06 -4.06158e-06 2.68939e+25 -5.73885 2.37953 272.592 
-1.67242e-06 -4.06158e-06 2.68881e+25 -6.14729 1.96621 272.571 
-1.69631e-05 -3.58375e-06 2.68747e+25 -0.0275365 0.351157 272.813 
-1.50517e-05 -3.58375e-06 2.68979e+25 -0.352921 2.34579 272.497 
-1.31404e-05 -3.58375e-06 2.69137e+25 -1.1961 3.55922 272.378 
-1.12291e-05 -3.58375e-06 2.69181e+25 -1.96199 4.00359 272.339 
-9.31775e-06 -3.58375e-06 2.69195e+25 -2.92811 4.19104 272.35 
-7.40642e-06 -3.58375e-06 2.69036e+25 -4.12458 4.09376 272.493 
-5.49508e-06 -3.58375e-06 2.68914e+25 -5.11238 3.41208 272.589 
-3.58375e-06 -3.58375e-06 2.68749e+25 -5.86893 2.61126 272.703 
-1.67242e-06 -3.58375e-06 2.68895e+25 -6.44017 2.09266 272.625 
-1.69631e-05 -3.10592e-06 2.6874e+25 -0.0055981 0.393288 272.785 
-1.50517e-05 -3.10592e-06 2.69085e+25 -0.373574 2.47527 272.46 
-1.31404e-05 -3.10592e-06 2.69061e+25 -1.18107 3.77146 272.426 
-1.12291e-05 -3.10592e-06 2.6939e+25 -1.86942 4.21055 272.11 
-9.31775e-06 -3.10592e-06 2.69162e+25 -2.98186 4.52094 272.347 
-7.40642e-06 -3.10592e-06 2.68831e+25 -3.97915 4.36125 272.654 
-5.49508e-06 -3.10592e-06 2.6873e+25 -4.94699 3.62126 272.738 
-3.58375e-06 -3.10592e-06 2.68826e+25 -6.02715 2.8609 272.671 
-1.67242e-06 -3.10592e-06 2.68826e+25 -6.78586 2.12432 272.61 
-1.69631e-05 -2.62808e-06 2.68626e+25 -0.0139252 0.402747 272.852 
-1.50517e-05 -2.62808e-06 2.69123e+25 -0.475334 2.49732 272.456 
-1.31404e-05 -2.62808e-06 2.69115e+25 -1.19606 4.00578 272.388 
-1.12291e-05 -2.62808e-06 2.69415e+25 -1.82626 4.46212 272.103 
-9.31775e-06 -2.62808e-06 2.68903e+25 -2.91249 4.83123 272.462 
-7.40642e-06 -2.62808e-06 2.68716e+25 -3.96644 4.6218 272.818 
-5.49508e-06 -2.62808e-06 2.68723e+25 -4.93464 3.87846 272.716 
-3.58375e-06 -2.62808e-06 2.68825e+25 -6.07494 3.09134 272.72 
-1.67242e-06 -2.62808e-06 2.68692e+25 -6.90159 2.28986 272.718 
-1.69631e-05 -2.15025e-06 2.68705e+25 -0.0264068 0.431782 272.835 
-1.50517e-05 -2.15025e-06 2.69109e+25 -0.459158 2.60428 272.38 
-1.31404e-05 -2.15025e-06 2.69065e+25 -1.18978 4.13297 272.415 
-1.12291e-05 -2.15025e-06 2.69348e+25 -1.96316 4.6807 272.129 
-9.31775e-06 -2.15025e-06 2.68943e+25 -2.96193 5.09323 272.528 
-7.40642e-06 -2.15025e-06 2.68748e+25 -3.98359 4.87485 272.748 
-5.49508e-06 -2.15025e-06 2.68776e+25 -5.06672 4.11203 272.642 
-3.58375e-06 -2.15025e-06 2.6883e+25 -6.14065 3.24813 272.647 
-1.67242e-06 -2.15025e-06 2.68735e+25 -6.94885 2.38591 272.656 
-1.69631e-05 -1.67242e-06 2.68755e+25 0.0424165 0.43988 272.818 
-1.50517e-05 -1.67242e-06 2.69118e+25 -0.383184 2.80638 272.423 
-1.31404e-05 -1.67242e-06 2.69124e+25 -1.136 4.33951 272.342 
-1.12291e-05 -1.67242e-06 2.69193e+25 -2.01154 4.96562 272.342 
-9.31775e-06 -1.67242e-06 2.69111e+25 -2.89505 5.35226 272.382 
-7.40642e-06 -1.67242e-06 2.68799e+25 -3.89717 5.15968 272.689 
-5.49508e-06 -1.67242e-06 2.68833e+25 -4.93694 4.3565 272.654 
-3.58375e-06 -1.67242e-06 2.68879e+25 -5.93311 3.60501 272.521 
-1.67242e-06 -1.67242e-06 2.68768e+25 -6.94964 2.51721 272.653 
-1.69631e-05 -1.19458e-06 2.68711e+25 -0.0138691 0.404022 272.857 
-1.50517e-05 -1.19458e-06 2.69177e+25 -0.324324 2.96758 272.393 
-1.31404e-05 -1.19458e-06 2.69179e+25 -1.06775 4.53577 272.298 
-1.12291e-05 -1.19458e-06 2.69155e+25 -2.0807 5.21275 272.385 
-9.31775e-06 -1.19458e-06 2.69138e+25 -2.91837 5.55547 272.356 
-7.40642e-06 -1.19458e-06 2.68768e+25 -3.84348 5.35779 272.699 
-5.49508e-06 -1.19458e-06 2.68921e+25 -4.87655 4.73703 272.566 
-3.58375e-06 -1.19458e-06 2.68818e+25 -5.9219 3.87796 272.609 
-1.67242e-06 -1.19458e-06 2.68843e+25 -6.8744 2.71523 272.602 
-1.69631e-05 -7.1675e-07 2.68667e+25 0.00363811 0.394165 272.882 
-1.50517e-05 -7.1675e-07 2.69172e+25 -0.232619 3.16722 272.313 
-1.31404e-05 -7.1675e-07 2.69236e+25 -1.05669 4.74049 272.209 
-1.12291e-05 -7.1675e-07 2.69022e+25 -2.04671 5.58075 272.404 
-9.31775e-06 -7.1675e-07 2.69022e+25 -3.00441 5.72765 272.414 
-7.40642e-06 -7.1675e-07 2.68777e+25 -3.79061 5.51951 272.689 
-5.49508e-06 -7.1675e-07 2.69014e+25 -4.80595 5.01475 272.474 
-3.58375e-06 -7.1675e-07 2.68926e+25 -5.74398 4.1405 272.521 
-1.67242e-06 -7.1675e-07 2.688e+25 -6.73401 2.94578 272.592 
-1.69631e-05 -2.38917e-07 2.68717e+25 -0.0460142 0.466048 272.811 
-1.50517e-05 -2.38917e-07 2.69163e+25 -0.13041 3.33562 272.287 
-1.31404e-05 -2.38917e-07 2.69204e+25 -1.11396 4.92629 272.276 
-1.12291e-05 -2.38917e-07 2.6903e+25 -1.98754 5.79972 272.344 
-9.31775e-06 -2.38917e-07 2.6895e+25 -3.08295 5.99122 272.529 
-7.40642e-06 -2.38917e-07 2.68807e+25 -3.7052 5.76396 272.653 
-5.49508e-06 -2.38917e-07 2.68914e+25 -4.73119 5.27985 272.506 
-3.58375e-06 -2.38917e-07 2.69004e+25 -5.65891 4.41365 272.411 
-1.67242e-06 -2.38917e-07 2.68815e+25 -6.52923 3.11906 272.568 
-1.64852e-05 -1.69631e-05 2.68809e+25 -0.0513711 -0.0151456 272.749 
-1.45739e-05 -1.69631e-05 2.68815e+25 -0.026823 0.01984 272.768 
-1.26626e-05 -1.69631e-05 2.68749e+25 -0.0377756 0.0164914 272.793 
-1.07512e-05 -1.69631e-05 2.68732e+25 -0.0512094 0.0144529 272.801 
-8.83992e-06 -1.69631e-05 2.68719e+25 -0.00884178 0.0251324 272.851 
-6.92858e-06 -1.69631e-05 2.6885e+25 -0.101192 -0.0205989 272.752 
-5.01725e-06 -1.69631e-05 2.68725e+25 -0.144173 0.0181133 272.825 
-3.10592e-06 -1.69631e-05 2.68813e+25 -0.319993 -0.050593 272.778 
-1.19458e-06 -1.69631e-05 2.68705e+25 -0.259509 0.0177024 272.859 
-1.64852e-05 -1.64852e-05 2.68964e+25 0.000779521 -0.0441141 272.669 
-1.45739e-05 -1.64852e-05 2.68977e+25 0.125957 0.129751 272.647 
-1.26626e-05 -1.64852e-05 2.68842e+25 0.0445975 -0.00319306 272.669 
-1.07512e-05 -1.64852e-05 2.68923e+25 -0.108452 0.0110421 272.57 
-8.83992e-06 -1.64852e-05 2.68927e+25 -0.222988 0.0703636 272.671 
-6.92858e-06 -1.64852e-05 2.68913e+25 -0.280747 0.0304291 272.642 
-5.01725e-06 -1.64852e-05 2.68895e+25 -0.425198 0.00144189 272.657 
-3.10592e-06 -1.64852e-05 2.68996e+25 -0.568914 -0.086234 272.592 
-1.19458e-06 -1.64852e-05 2.68825e+25 -0.639298 0.0547554 272.816 
-1.64852e-05 -1.60074e-05 2.6884e+25 -0.0396652 -0.0190642 272.732 
-1.45739e-05 -1.60074e-05 2.69054e+25 0.0883237 0.0541373 272.561 
-1.26626e-05 -1.60074e-05 2.69031e+25 0.0486063 0.0358201 272.513 
-1.07512e-05 -1.60074e-05 2.69039e+25 -0.247758 0.0193526 272.501 
-8.83992e-06 -1.60074e-05 2.68991e+25 -0.423073 0.0675551 272.597 
-6.92858e-06 -1.60074e-05 2.69007e+25 -0.571498 0.163769 272.546 
-5.01725e-06 -1.60074e-05 2.68994e+25 -0.739432 -0.0287795 272.658 
-3.10592e-06 -1.60074e-05 2.6894e+25 -0.812434 -0.0737578 272.668 
-1.19458e-06 -1.60074e-05 2.68904e+25 -0.867865 0.111531 272.702 
-1.64852e-05 -1.55296e-05 2.68915e+25 0.024155 -0.0276346 272.705 
-1.45739e-05 -1.55296e-05 2.69059e+25 0.0783571 0.0998812 272.49 
-1.26626e-05 -1.55296e-05 2.69205e+25 -0.10021 0.0989745 272.398 
-1.07512e-05 -1.55296e-05 2.69195e+25 -0.446581 0.0729193 272.429 
-8.83992e-06 -1.55296e-05 2.68937e+25 -0.535571 0.0204502 272.666 
-6.92858e-06 -1.55296e-05 2.69033e+25 -0.835417 0.228108 272.614 
-5.01725e-06 -1.55296e-05 2.68888e+25 -0.93221 0.0606633 272.635 
-3.10592e-06 -1.55296e-05 2.68983e+25 -1.03776 -0.0369805 272.553 
-1.19458e-06 -1.55296e-05 2.6888e+25 -1.07908 0.0419979 272.726 
-1.64852e-05 -1.50517e-05 2.68922e+25 0.0823538 -0.0459974 272.669 
-1.45739e-05 -1.50517e-05 2.68977e+25 -0.00156354 0.0728284 272.618 
-1.26626e-05 -1.50517e-05 2.69159e+25 -0.325334 0.183648 272.381 
-1.07512e-05 -1.50517e-05 2.69138e+25 -0.530096 0.112318 272.401 
-8.83992e-06 -1.50517e-05 2.68913e+25 -0.757715 0.0692486 272.628 
-6.92858e-06 -1.50517e-05 2.69013e+25 -0.998152 0.293869 272.617 
-5.01725e-06 -1.50517e-05 2.6893e+25 -1.15088 0.14016 272.636 
-3.10592e-06 -1.50517e-05 2.69067e+25 -1.25922 0.0890896 272.525 
-1.19458e-06 -1.50517e-05 2.68859e+25 -1.5169 -0.0201602 272.697 
-1.64852e-05 -1.45739e-05 2.69067e+25 0.00429124 -0.00586866 272.569 
-1.45739e-05 -1.45739e-05 2.69045e+25 -0.186499 0.112445 272.577 
-1.26626e-05 -1.45739e-05 2.69166e+25 -0.353504 0.192783 272.447 
-1.07512e-05 -1.45739e-05 2.69096e+25 -0.609231 0.277222 272.455 
-8.83992e-06 -1.45739e-05 2.69041e+25 -0.864444 0.0890363 272.613 
-6.92858e-06 -1.45739e-05 2.68922e+25 -1.14311 0.299866 272.577 
-5.01725e-06 -1.45739e-05 2.69018e+25 -1.33542 0.261079 272.557 
-3.10592e-06 -1.45739e-05 2.69e+25 -1.64027 0.224929 272.593 
-1.19458e-06 -1.45739e-05 2.68927e+25 -1.7951 0.00769218 272.658 
-1.64852e-05 -1.40961e-05 2.68976e+25 -0.0260658 -0.0175042 272.615 
-1.45739e-05 -1.40961e-05 2.68842e+25 -0.315907 0.193432 272.656 
-1.26626e-05 -1.40961e-05 2.69039e+25 -0.384294 0.140532 272.548 
-1.07512e-05 -1.40961e-05 2.69277e+25 -0.631407 0.386116 272.404 
-8.83992e-06 -1.40961e-05 2.68944e+25 -0.977282 0.173387 272.693 
-6.92858e-06 -1.40961e-05 2.69019e+25 -1.34614 0.231013 272.539 
-5.01725e-06 -1.40961e-05 2.68944e+25 -1.64233 0.34262 272.651 
-3.10592e-06 -1.40961e-05 2.68918e+25 -1.86246 0.333165 272.648 
-1.19458e-06 -1.40961e-05 2.68926e+25 -2.1117 0.0965868 272.702 
-1.64852e-05 -1.36182e-05 2.6897e+25 0.0172779 0.00137418 272.593 
-1.45739e-05 -1.36182e-05 2.6901e+25 -0.416342 0.219307 272.595 
-1.26626e-05 -1.36182e-05 2.69151e+25 -0.518307 0.218946 272.446 
-1.07512e-05 -1.36182e-05 2.69177e+25 -0.72578 0.474213 272.378 
-8.83992e-06 -1.36182e-05 2.68892e+25 -1.21198 0.246986 272.768 
-6.92858e-06 -1.36182e-05 2.69031e+25 -1.57704 0.276282 272.492 
-5.01725e-06 -1.36182e-05 2.68997e+25 -1.72805 0.275306 272.61 
-3.10592e-06 -1.36182e-05 2.68828e+25 -2.04333 0.383556 272.743 
-1.19458e-06 -1.36182e-05 2.68808e+25 -2.44217 0.191988 272.684 
-1.64852e-05 -1.31404e-05 2.69033e+25 -0.10698 0.0785166 272.563 
-1.45739e-05 -1.31404e-05 2.69128e+25 -0.391484 0.357994 272.475 
-1.26626e-05 -1.31404e-05 2.69146e+25 -0.65811 0.317374 272.494 
-1.07512e-05 -1.31404e-05 2.69043e+25 -0.788172 0.610436 272.509 
-8.83992e-06 -1.31404e-05 2.68775e+25 -1.29846 0.436468 272.794 
-6.92858e-06 -1.31404e-05 2.69078e+25 -1.73635 0.358719 272.498 
-5.01725e-06 -1.31404e-05 2.68917e+25 -1.96624 0.28063 272.608 
-3.10592e-06 -1.31404e-05 2.68906e+25 -2.33828 0.482232 272.636 
-1.19458e-06 -1.31404e-05 2.68911e+25 -2.60309 0.266036 272.642 
-1.64852e-05 -1.26626e-05 2.6915e+25 -0.00582687 0.135862 272.43 
-1.45739e-05 -1.26626e-05 2.69151e+25 -0.297507 0.367708 272.531 
-1.26626e-05 -1.26626e-05 2.68892e+25 -0.650382 0.326657 272.656 
-1.07512e-05 -1.26626e-05 2.68983e+25 -0.85069 0.712191 272.533 
-8.83992e-06 -1.26626e-05 2.68869e+25 -1.44653 0.590726 272.756 
-6.92858e-06 -1.26626e-05 2.68945e+25 -1.86612 0.457887 272.638 
-5.01725e-06 -1.26626e-05 2.68917e+25 -2.24455 0.420692 272.669 
-3.10592e-06 -1.26626e-05 2.68996e+25 -2.46029 0.47998 272.61 
-1.19458e-06 -1.26626e-05 2.68891e+25 -2.73322 0.340426 272.671 
-1.64852e-05 -1.21847e-05 2.69195e+25 -0.0175841 0.122767 272.459 
-1.45739e-05 -1.21847e-05 2.6912e+25 -0.210676 0.39749 272.387 
-1.26626e-05 -1.21847e-05 2.69117e+25 -0.604556 0.339934 272.52 
-1.07512e-05 -1.21847e-05 2.69057e+25 -1.03652 0.832008 272.463 
-8.83992e-06 -1.21847e-05 2.68841e+25 -1.50211 0.693673 272.78 
-6.92858e-06 -1.21847e-05 2.68782e+25 -1.98923 0.547154 272.752 
-5.01725e-06 -1.21847e-05 2.68907e+25 -2.46287 0.499744 272.624 
-3.10592e-06 -1.21847e-05 2.69057e+25 -2.70031 0.53743 272.515 
-1.19458e-06 -1.21847e-05 2.68824e+25 -2.85994 0.385415 272.736 
-1.64852e-05 -1.17069e-05 2.69207e+25 0.026106 0.168952 272.403 
-1.45739e-05 -1.17069e-05 2.69279e+25 -0.162915 0.480088 272.251 
-1.26626e-05 -1.17069e-05 2.69197e+25 -0.641848 0.418794 272.393 
-1.07512e-05 -1.17069e-05 2.69029e+25 -1.12718 0.90448 272.499 
-8.83992e-06 -1.17069e-05 2.69032e+25 -1.64079 0.807471 272.556 
-6.92858e-06 -1.17069e-05 2.68921e+25 -2.1193 0.691629 272.728 
-5.01725e-06 -1.17069e-05 2.68943e+25 -2.63088 0.531628 272.677 
-3.10592e-06 -1.17069e-05 2.6907e+25 -2.88476 0.642403 272.547 
-1.19458e-06 -1.17069e-05 2.68786e+25 -3.0021 0.422354 272.765 
-1.64852e-05 -1.12291e-05 2.69159e+25 -0.0252503 0.246381 272.523 
-1.45739e-05 -1.12291e-05 2.69379e+25 -0.209035 0.648095 272.231 
-1.26626e-05 -1.12291e-05 2.69251e+25 -0.671228 0.581855 272.331 
-1.07512e-05 -1.12291e-05 2.69131e+25 -1.21735 0.990525 272.422 
-8.83992e-06 -1.12291e-05 2.691e+25 -1.63688 1.00064 272.515 
-6.92858e-06 -1.12291e-05 2.68925e+25 -2.18467 0.836938 272.724 
-5.01725e-06 -1.12291e-05 2.68907e+25 -2.75423 0.579619 272.666 
-3.10592e-06 -1.12291e-05 2.69035e+25 -3.02553 0.650189 272.611 
-1.19458e-06 -1.12291e-05 2.68928e+25 -3.22089 0.415385 272.658 
-1.64852e-05 -1.07512e-05 2.69103e+25 -0.0606375 0.282682 272.515 
-1.45739e-05 -1.07512e-05 2.69426e+25 -0.253166 0.73085 272.214 
-1.26626e-05 -1.07512e-05 2.69189e+25 -0.641084 0.787428 272.362 
-1.07512e-05 -1.07512e-05 2.69125e+25 -1.32878 1.03321 272.501 
-8.83992e-06 -1.07512e-05 2.69077e+25 -1.8721 1.17567 272.483 
-6.92858e-06 -1.07512e-05 2.68804e+25 -2.2525 0.926487 272.747 
-5.01725e-06 -1.07512e-05 2.68993e+25 -2.96946 0.793664 272.636 
-3.10592e-06 -1.07512e-05 2.69061e+25 -3.40748 0.688876 272.575 
-1.19458e-06 -1.07512e-05 2.68876e+25 -3.50296 0.467948 272.654 
-1.64852e-05 -1.02734e-05 2.69178e+25 -0.0268427 0.289737 272.459 
-1.45739e-05 -1.02734e-05 2.69337e+25 -0.258892 0.717033 272.257 
-1.26626e-05 -1.02734e-05 2.69124e+25 -0.517288 1.00527 272.476 
-1.07512e-05 -1.02734e-05 2.69042e+25 -1.36563 1.16342 272.524 
-8.83992e-06 -1.02734e-05 2.69278e+25 -1.95651 1.27923 272.35 
-6.92858e-06 -1.02734e-05 2.69011e+25 -2.3199 1.11656 272.607 
-5.01725e-06 -1.02734e-05 2.68946e+25 -3.10968 1.00946 272.697 
-3.10592e-06 -1.02734e-05 2.69012e+25 -3.64267 0.794659 272.604 
-1.19458e-06 -1.02734e-05 2.68844e+25 -3.82384 0.391067 272.683 
-1.64852e-05 -9.79558e-06 2.69182e+25 -0.0228932 0.333746 272.419 
-1.45739e-05 -9.79558e-06 2.69371e+25 -0.172204 0.672686 272.259 
-1.26626e-05 -9.79558e-06 2.69124e+25 -0.502964 1.31173 272.457 
-1.07512e-05 -9.79558e-06 2.69075e+25 -1.40169 1.41273 272.497 
-8.83992e-06 -9.79558e-06 2.69131e+25 -2.24838 1.34094 272.482 
-6.92858e-06 -9.79558e-06 2.69131e+25 -2.6407 1.34102 272.469 
-5.01725e-06 -9.79558e-06 2.69026e+25 -3.23186 1.08949 272.595 
-3.10592e-06 -9.79558e-06 2.68925e+25 -3.84811 0.920373 272.605 
-1.19458e-06 -9.79558e-06 2.68896e+25 -4.14125 0.303182 272.638 
-1.64852e-05 -9.31775e-06 2.69139e+25 0.00116745 0.39851 272.488 
-1.45739e-05 -9.31775e-06 2.69499e+25 -0.179334 0.709163 272.103 
-1.26626e-05 -9.31775e-06 2.69109e+25 -0.789057 1.49179 272.513 
-1.07512e-05 -9.31775e-06 2.69105e+25 -1.52817 1.5684 272.453 
-8.83992e-06 -9.31775e-06 2.69146e+25 -2.3746 1.46413 272.488 
-6.92858e-06 -9.31775e-06 2.69147e+25 -2.99851 1.46445 272.483 
-5.01725e-06 -9.31775e-06 2.68935e+25 -3.38119 1.2241 272.634 
-3.10592e-06 -9.31775e-06 2.68922e+25 -4.02127 1.068 272.633 
-1.19458e-06 -9.31775e-06 2.68911e+25 -4.42048 0.262803 272.621 
-1.64852e-05 -8.83992e-06 2.69129e+25 0.0540829 0.394038 272.46 
-1.45739e-05 -8.83992e-06 2.69465e+25 -0.175529 0.917336 272.09 
-1.26626e-05 -8.83992e-06 2.69105e+25 -0.968317 1.57815 272.463 
-1.07512e-05 -8.83992e-06 2.69137e+25 -1.5006 1.77067 272.445 
-8.83992e-06 -8.83992e-06 2.69131e+25 -2.31623 1.64435 272.387 
-6.92858e-06 -8.83992e-06 2.69121e+25 -3.25292 1.58785 272.505 
-5.01725e-06 -8.83992e-06 2.69076e+25 -3.48358 1.39707 272.549 
-3.10592e-06 -8.83992e-06 2.69002e+25 -4.12877 1.20518 272.612 
-1.19458e-06 -8.83992e-06 2.68804e+25 -4.71308 0.337024 272.74 
-1.64852e-05 -8.36208e-06 2.69231e+25 0.0398598 0.352335 272.351 
-1.45739e-05 -8.36208e-06 2.69389e+25 -0.279587 1.02494 272.269 
-1.26626e-05 -8.36208e-06 2.69026e+25 -0.859007 1.6639 272.557 
-1.07512e-05 -8.36208e-06 2.69195e+25 -1.77799 1.97748 272.442 
-8.83992e-06 -8.36208e-06 2.69192e+25 -2.45075 1.91148 272.378 
-6.92858e-06 -8.36208e-06 2.69044e+25 -3.41444 1.63135 272.543 
-5.01725e-06 -8.36208e-06 2.68977e+25 -3.71316 1.54558 272.567 
-3.10592e-06 -8.36208e-06 2.69007e+25 -4.31953 1.28401 272.577 
-1.19458e-06 -8.36208e-06 2.6882e+25 -4.84152 0.537858 272.664 
-1.64852e-05 -7.88425e-06 2.69167e+25 -0.0101373 0.272212 272.378 
-1.45739e-05 -7.88425e-06 2.69352e+25 -0.41005 1.17202 272.33 
-1.26626e-05 -7.88425e-06 2.69002e+25 -1.04426 1.84766 272.548 
-1.07512e-05 -7.88425e-06 2.69115e+25 -1.82641 2.14711 272.411 
-8.83992e-06 -7.88425e-06 2.69259e+25 -2.66756 2.21616 272.227 
-6.92858e-06 -7.88425e-06 2.68979e+25 -3.43474 1.74505 272.591 
-5.01725e-06 -7.88425e-06 2.68925e+25 -4.06475 1.6723 272.653 
-3.10592e-06 -7.88425e-06 2.6889e+25 -4.50805 1.37381 272.625 
-1.19458e-06 -7.88425e-06 2.68945e+25 -4.9419 0.66134 272.624 
-1.64852e-05 -7.40642e-06 2.69115e+25 -0.164704 0.299777 272.49 
-1.45739e-05 -7.40642e-06 2.69179e+25 -0.533875 1.3568 272.386 
-1.26626e-05 -7.40642e-06 2.69022e+25 -1.20466 2.07104 272.51 
-1.07512e-05 -7.40642e-06 2.69228e+25 -1.85989 2.44254 272.345 
-8.83992e-06 -7.40642e-06 2.6933e+25 -2.78469 2.44639 272.194 
-6.92858e-06 -7.40642e-06 2.68878e+25 -3.38508 1.88906 272.709 
-5.01725e-06 -7.40642e-06 2.68976e+25 -4.27542 1.80101 272.61 
-3.10592e-06 -7.40642e-06 2.6891e+25 -4.74079 1.53721 272.576 
-1.19458e-06 -7.40642e-06 2.68953e+25 -5.06055 0.789172 272.566 
-1.64852e-05 -6.92858e-06 2.69026e+25 -0.112707 0.384611 272.603 
-1.45739e-05 -6.92858e-06 2.69122e+25 -0.532029 1.49717 272.402 
-1.26626e-05 -6.92858e-06 2.69131e+25 -1.27461 2.27843 272.488 
-1.07512e-05 -6.92858e-06 2.6923e+25 -2.02583 2.68666 272.289 
-8.83992e-06 -6.92858e-06 2.69412e+25 -2.83261 2.66506 272.105 
-6.92858e-06 -6.92858e-06 2.68968e+25 -3.52916 2.03393 272.586 
-5.01725e-06 -6.92858e-06 2.68925e+25 -4.42133 1.96205 272.583 
-3.10592e-06 -6.92858e-06 2.6906e+25 -4.84855 1.68873 272.469 
-1.19458e-06 -6.92858e-06 2.68998e+25 -5.30546 0.820596 272.529 
-1.64852e-05 -6.45075e-06 2.69016e+25 0.00947147 0.537798 272.581 
-1.45739e-05 -6.45075e-06 2.69054e+25 -0.661032 1.68271 272.494 
-1.26626e-05 -6.45075e-06 2.69093e+25 -1.24795 2.45537 272.503 
-1.07512e-05 -6.45075e-06 2.69378e+25 -2.04474 2.85961 272.206 
-8.83992e-06 -6.45075e-06 2.69118e+25 -2.85217 2.86394 272.369 
-6.92858e-06 -6.45075e-06 2.69068e+25 -3.56271 2.22904 272.409 
-5.01725e-06 -6.45075e-06 2.68992e+25 -4.61156 2.22549 272.606 
-3.10592e-06 -6.45075e-06 2.69058e+25 -5.00765 1.76059 272.506 
-1.19458e-06 -6.45075e-06 2.68996e+25 -5.47952 0.949693 272.566 
-1.64852e-05 -5.97292e-06 2.68944e+25 -0.0283484 0.609878 272.608 
-1.45739e-05 -5.97292e-06 2.69096e+25 -0.601357 1.8077 272.379 
-1.26626e-05 -5.97292e-06 2.69174e+25 -1.15916 2.49335 272.371 
-1.07512e-05 -5.97292e-06 2.6937e+25 -2.07516 3.01054 272.187 
-8.83992e-06 -5.97292e-06 2.69048e+25 -2.97176 3.04972 272.477 
-6.92858e-06 -5.97292e-06 2.69155e+25 -3.81446 2.49901 272.391 
-5.01725e-06 -5.97292e-06 2.68903e+25 -4.72845 2.48243 272.643 
-3.10592e-06 -5.97292e-06 2.68983e+25 -5.11961 1.76072 272.597 
-1.19458e-06 -5.97292e-06 2.68875e+25 -5.74805 1.12755 272.629 
-1.64852e-05 -5.49508e-06 2.69086e+25 -0.0802554 0.735841 272.471 
-1.45739e-05 -5.49508e-06 2.69146e+25 -0.47446 2.0196 272.403 
-1.26626e-05 -5.49508e-06 2.69228e+25 -1.20503 2.64231 272.417 
-1.07512e-05 -5.49508e-06 2.69253e+25 -2.08536 3.25123 272.306 
-8.83992e-06 -5.49508e-06 2.69181e+25 -3.07654 3.19471 272.421 
-6.92858e-06 -5.49508e-06 2.69009e+25 -3.96612 2.8282 272.505 
-5.01725e-06 -5.49508e-06 2.6892e+25 -4.82368 2.60452 272.555 
-3.10592e-06 -5.49508e-06 2.68869e+25 -5.30322 1.87808 272.658 
-1.19458e-06 -5.49508e-06 2.69054e+25 -5.90298 1.26033 272.545 
-1.64852e-05 -5.01725e-06 2.69142e+25 -0.0485606 0.740492 272.442 
-1.45739e-05 -5.01725e-06 2.69017e+25 -0.282203 2.15928 272.536 
-1.26626e-05 -5.01725e-06 2.69097e+25 -1.26309 2.88056 272.45 
-1.07512e-05 -5.01725e-06 2.69188e+25 -2.20772 3.47917 272.293 
-8.83992e-06 -5.01725e-06 2.69097e+25 -3.06131 3.48239 272.44 
-6.92858e-06 -5.01725e-06 2.69094e+25 -4.11002 3.028 272.503 
-5.01725e-06 -5.01725e-06 2.6881e+25 -4.93368 2.74712 272.632 
-3.10592e-06 -5.01725e-06 2.68848e+25 -5.60363 2.02265 272.697 
-1.19458e-06 -5.01725e-06 2.68926e+25 -5.98176 1.32723 272.558 
-1.64852e-05 -4.53942e-06 2.69079e+25 -0.0729872 0.772247 272.524 
-1.45739e-05 -4.53942e-06 2.69023e+25 -0.451028 2.31047 272.564 
-1.26626e-05 -4.53942e-06 2.69053e+25 -1.19555 3.18543 272.413 
-1.07512e-05 -4.53942e-06 2.69203e+25 -2.27742 3.69661 272.28 
-8.83992e-06 -4.53942e-06 2.69206e+25 -2.95777 3.65181 272.332 
-6.92858e-06 -4.53942e-06 2.69057e+25 -4.35263 3.36932 272.438 
-5.01725e-06 -4.53942e-06 2.68959e+25 -5.2084 2.94835 272.599 
-3.10592e-06 -4.53942e-06 2.68912e+25 -5.84759 2.18257 272.63 
-1.19458e-06 -4.53942e-06 2.68952e+25 -6.19317 1.4607 272.598 
-1.64852e-05 -4.06158e-06 2.69051e+25 -0.0156487 0.837616 272.507 
-1.45739e-05 -4.06158e-06 2.69226e+25 -0.572738 2.49739 272.384 
-1.26626e-05 -4.06158e-06 2.69157e+25 -1.39941 3.52916 272.348 
-1.07512e-05 -4.06158e-06 2.69285e+25 -2.20304 3.92628 272.228 
-8.83992e-06 -4.06158e-06 2.69156e+25 -3.11531 3.92728 272.365 
-6.92858e-06 -4.06158e-06 2.69004e+25 -4.47332 3.67649 272.493 
-5.01725e-06 -4.06158e-06 2.68986e+25 -5.21137 3.07295 272.488 
-3.10592e-06 -4.06158e-06 2.68891e+25 -5.79099 2.2668 272.617 
-1.19458e-06 -4.06158e-06 2.68907e+25 -6.38586 1.64674 272.607 
-1.64852e-05 -3.58375e-06 2.69001e+25 -0.046243 0.829618 272.653 
-1.45739e-05 -3.58375e-06 2.69074e+25 -0.510787 2.64112 272.454 
-1.26626e-05 -3.58375e-06 2.69143e+25 -1.37571 3.85351 272.421 
-1.07512e-05 -3.58375e-06 2.6923e+25 -2.17423 4.15603 272.285 
-8.83992e-06 -3.58375e-06 2.69105e+25 -3.23544 4.25598 272.417 
-6.92858e-06 -3.58375e-06 2.69064e+25 -4.36874 3.8968 272.483 
-5.01725e-06 -3.58375e-06 2.68886e+25 -5.25236 3.24076 272.606 
-3.10592e-06 -3.58375e-06 2.68806e+25 -6.12698 2.36693 272.641 
-1.19458e-06 -3.58375e-06 2.68815e+25 -6.54243 1.83084 272.646 
-1.64852e-05 -3.10592e-06 2.68999e+25 -0.0776532 0.911414 272.571 
-1.45739e-05 -3.10592e-06 2.6919e+25 -0.500384 2.84775 272.406 
-1.26626e-05 -3.10592e-06 2.69182e+25 -1.35986 4.02492 272.289 
-1.07512e-05 -3.10592e-06 2.69347e+25 -2.07002 4.34777 272.131 
-8.83992e-06 -3.10592e-06 2.69126e+25 -3.29083 4.56493 272.391 
-6.92858e-06 -3.10592e-06 2.68889e+25 -4.27539 4.19385 272.651 
-5.01725e-06 -3.10592e-06 2.68672e+25 -5.19122 3.46437 272.756 
-3.10592e-06 -3.10592e-06 2.68806e+25 -6.2565 2.56716 272.651 
-1.19458e-06 -3.10592e-06 2.68742e+25 -6.84131 1.93062 272.735 
-1.64852e-05 -2.62808e-06 2.68906e+25 -0.0882727 1.05553 272.632 
-1.45739e-05 -2.62808e-06 2.69168e+25 -0.534545 2.99532 272.409 
-1.26626e-05 -2.62808e-06 2.69186e+25 -1.38879 4.13963 272.37 
-1.07512e-05 -2.62808e-06 2.69314e+25 -2.06832 4.56183 272.193 
-8.83992e-06 -2.62808e-06 2.69001e+25 -3.15948 4.77043 272.495 
-6.92858e-06 -2.62808e-06 2.68766e+25 -4.24409 4.48405 272.737 
-5.01725e-06 -2.62808e-06 2.68724e+25 -5.24703 3.70942 272.787 
-3.10592e-06 -2.62808e-06 2.68825e+25 -6.32441 2.81562 272.689 
-1.19458e-06 -2.62808e-06 2.68665e+25 -7.00312 1.98074 272.733 
-1.64852e-05 -2.15025e-06 2.68935e+25 0.00464806 1.1233 272.604 
-1.45739e-05 -2.15025e-06 2.69167e+25 -0.600056 3.12877 272.368 
-1.26626e-05 -2.15025e-06 2.69121e+25 -1.31375 4.29347 272.368 
-1.07512e-05 -2.15025e-06 2.6927e+25 -2.18277 4.79068 272.21 
-8.83992e-06 -2.15025e-06 2.68989e+25 -3.17522 5.05284 272.527 
-6.92858e-06 -2.15025e-06 2.68801e+25 -4.21061 4.74621 272.691 
-5.01725e-06 -2.15025e-06 2.68825e+25 -5.24333 3.99611 272.633 
-3.10592e-06 -2.15025e-06 2.68933e+25 -6.36582 3.08077 272.469 
-1.19458e-06 -2.15025e-06 2.68778e+25 -7.00746 2.06995 272.672 
-1.64852e-05 -1.67242e-06 2.68889e+25 0.021553 1.07168 272.644 
-1.45739e-05 -1.67242e-06 2.69175e+25 -0.632444 3.26922 272.344 
-1.26626e-05 -1.67242e-06 2.69156e+25 -1.37629 4.48534 272.309 
-1.07512e-05 -1.67242e-06 2.69066e+25 -2.26589 5.00089 272.396 
-8.83992e-06 -1.67242e-06 2.69009e+25 -3.20885 5.25813 272.394 
-6.92858e-06 -1.67242e-06 2.68829e+25 -4.1627 4.95508 272.674 
-5.01725e-06 -1.67242e-06 2.6878e+25 -5.25047 4.21724 272.704 
-3.10592e-06 -1.67242e-06 2.68929e+25 -6.22748 3.3189 272.572 
-1.19458e-06 -1.67242e-06 2.68629e+25 -7.10401 2.17763 272.762 
-1.64852e-05 -1.19458e-06 2.68873e+25 -0.00288963 1.12574 272.614 
-1.45739e-05 -1.19458e-06 2.69128e+25 -0.489506 3.50098 272.398 
-1.26626e-05 -1.19458e-06 2.69135e+25 -1.23833 4.725 272.385 
-1.07512e-05 -1.19458e-06 2.69055e+25 -2.3691 5.29324 272.4 
-8.83992e-06 -1.19458e-06 2.69059e+25 -3.15423 5.56352 272.363 
-6.92858e-06 -1.19458e-06 2.68753e+25 -4.03328 5.17855 272.693 
-5.01725e-06 -1.19458e-06 2.68878e+25 -5.15746 4.41698 272.517 
-3.10592e-06 -1.19458e-06 2.6878e+25 -6.17361 3.57019 272.543 
-1.19458e-06 -1.19458e-06 2.688e+25 -7.09647 2.32917 272.705 
-1.64852e-05 -7.1675e-07 2.68842e+25 -0.0482572 1.21672 272.638 
-1.45739e-05 -7.1675e-07 2.69087e+25 -0.446466 3.67418 272.42 
-1.26626e-05 -7.1675e-07 2.69173e+25 -1.29622 4.94836 272.369 
-1.07512e-05 -7.1675e-07 2.69015e+25 -2.31939 5.52036 272.395 
-8.83992e-06 -7.1675e-07 2.69011e+25 -3.14654 5.84313 272.398 
-6.92858e-06 -7.1675e-07 2.68811e+25 -3.99784 5.38558 272.585 
-5.01725e-06 -7.1675e-07 2.68928e+25 -5.05496 4.66754 272.543 
-3.10592e-06 -7.1675e-07 2.68993e+25 -6.02657 3.84403 272.43 
-1.19458e-06 -7.1675e-07 2.6868e+25 -6.98131 2.56496 272.712 
-1.64852e-05 -2.38917e-07 2.68894e+25 -0.0886212 1.18789 272.612 
-1.45739e-05 -2.38917e-07 2.69078e+25 -0.321706 3.93765 272.321 
-1.26626e-05 -2.38917e-07 2.69129e+25 -1.28571 5.15739 272.372 
-1.07512e-05 -2.38917e-07 2.68975e+25 -2.26254 5.79905 272.486 
-8.83992e-06 -2.38917e-07 2.69113e+25 -3.35464 5.94535 272.404 
-6.92858e-06 -2.38917e-07 2.6877e+25 -3.9782 5.65527 272.705 
-5.01725e-06 -2.38917e-07 2.68828e+25 -4.97722 4.86073 272.596 
-3.10592e-06 -2.38917e-07 2.68961e+25 -5.95164 4.19924 272.459 
-1.19458e-06 -2.38917e-07 2.68835e+25 -6.82794 2.84541 272.619 
-1.60074e-05 -1.69631e-05 2.68541e+25 -0.00430047 -0.0703922 272.936 
-1.40961e-05 -1.69631e-05 2.68723e+25 -0.0376006 -0.0200201 272.798 
-1.21847e-05 -1.69631e-05 2.68751e+25 -0.0667135 0.0346582 272.849 
-1.02734e-05 -1.69631e-05 2.68875e+25 -0.0171376 -0.0378477 272.746 
-8.36208e-06 -1.69631e-05 2.68771e+25 -0.102008 0.0287652 272.849 
-6.45075e-06 -1.69631e-05 2.68813e+25 -0.0739693 -0.000365094 272.748 
-4.53942e-06 -1.69631e-05 2.6881e+25 -0.201471 0.0242986 272.797 
-2.62808e-06 -1.69631e-05 2.68783e+25 -0.250604 -0.0233542 272.866 
-7.1675e-07 -1.69631e-05 2.68831e+25 -0.260671 0.0214106 272.813 
-1.60074e-05 -1.64852e-05 2.68874e+25 0.0489697 -0.113594 272.667 
-1.40961e-05 -1.64852e-05 2.69011e+25 0.0278554 0.0335541 272.555 
-1.21847e-05 -1.64852e-05 2.69067e+25 0.114179 0.025609 272.522 
-1.02734e-05 -1.64852e-05 2.68947e+25 -0.149549 -0.0196396 272.569 
-8.36208e-06 -1.64852e-05 2.68897e+25 -0.212851 0.0920296 272.727 
-6.45075e-06 -1.64852e-05 2.68982e+25 -0.403386 0.060972 272.65 
-4.53942e-06 -1.64852e-05 2.68978e+25 -0.433187 0.132192 272.59 
-2.62808e-06 -1.64852e-05 2.68872e+25 -0.59221 -0.0662235 272.685 
-7.1675e-07 -1.64852e-05 2.68866e+25 -0.663916 -0.0195055 272.729 
-1.60074e-05 -1.60074e-05 2.68883e+25 -0.0218683 -0.165248 272.676 
-1.40961e-05 -1.60074e-05 2.69068e+25 0.136494 0.0700254 272.598 
-1.21847e-05 -1.60074e-05 2.69029e+25 -0.109966 0.0562158 272.567 
-1.02734e-05 -1.60074e-05 2.69012e+25 -0.275407 0.042267 272.616 
-8.36208e-06 -1.60074e-05 2.6897e+25 -0.372953 0.0440277 272.59 
-6.45075e-06 -1.60074e-05 2.68991e+25 -0.65404 0.124118 272.584 
-4.53942e-06 -1.60074e-05 2.68925e+25 -0.804877 0.207104 272.631 
-2.62808e-06 -1.60074e-05 2.68885e+25 -0.810583 -0.0245026 272.657 
-7.1675e-07 -1.60074e-05 2.6884e+25 -0.85187 -0.0848365 272.715 
-1.60074e-05 -1.55296e-05 2.69006e+25 0.0108697 -0.180645 272.646 
-1.40961e-05 -1.55296e-05 2.68964e+25 0.0895898 -0.00129982 272.584 
-1.21847e-05 -1.55296e-05 2.69286e+25 -0.20453 0.21959 272.284 
-1.02734e-05 -1.55296e-05 2.68895e+25 -0.456707 0.0135764 272.555 
-8.36208e-06 -1.55296e-05 2.6911e+25 -0.556004 0.0490594 272.456 
-6.45075e-06 -1.55296e-05 2.68904e+25 -0.86957 0.187038 272.62 
-4.53942e-06 -1.55296e-05 2.68881e+25 -1.00952 0.216177 272.664 
-2.62808e-06 -1.55296e-05 2.68992e+25 -1.13067 0.026218 272.624 
-7.1675e-07 -1.55296e-05 2.68935e+25 -1.09338 -0.0585446 272.728 
-1.60074e-05 -1.50517e-05 2.68968e+25 0.00749465 -0.111653 272.688 
-1.40961e-05 -1.50517e-05 2.68892e+25 -0.0975407 0.114506 272.605 
-1.21847e-05 -1.50517e-05 2.6924e+25 -0.366604 0.241374 272.394 
-1.02734e-05 -1.50517e-05 2.68894e+25 -0.570583 0.00720949 272.693 
-8.36208e-06 -1.50517e-05 2.68994e+25 -0.75071 0.06778 272.606 
-6.45075e-06 -1.50517e-05 2.69021e+25 -1.02493 0.209478 272.582 
-4.53942e-06 -1.50517e-05 2.68867e+25 -1.16667 0.160436 272.719 
-2.62808e-06 -1.50517e-05 2.69057e+25 -1.38985 0.131906 272.538 
-7.1675e-07 -1.50517e-05 2.68965e+25 -1.50528 -0.0162757 272.691 
-1.60074e-05 -1.45739e-05 2.6905e+25 -0.0201998 -0.0714724 272.514 
-1.40961e-05 -1.45739e-05 2.69018e+25 -0.251085 0.198036 272.63 
-1.21847e-05 -1.45739e-05 2.69057e+25 -0.312867 0.258114 272.445 
-1.02734e-05 -1.45739e-05 2.68903e+25 -0.74734 0.0755587 272.66 
-8.36208e-06 -1.45739e-05 2.68982e+25 -0.911474 0.112521 272.564 
-6.45075e-06 -1.45739e-05 2.68957e+25 -1.10831 0.202096 272.554 
-4.53942e-06 -1.45739e-05 2.68905e+25 -1.40975 0.179337 272.678 
-2.62808e-06 -1.45739e-05 2.69062e+25 -1.70972 0.196171 272.521 
-7.1675e-07 -1.45739e-05 2.68955e+25 -1.82111 -0.035495 272.624 
-1.60074e-05 -1.40961e-05 2.69034e+25 -0.0593216 -0.0393002 272.51 
-1.40961e-05 -1.40961e-05 2.69031e+25 -0.33467 0.220902 272.575 
-1.21847e-05 -1.40961e-05 2.69101e+25 -0.40233 0.255213 272.526 
-1.02734e-05 -1.40961e-05 2.6902e+25 -0.781211 0.225568 272.589 
-8.36208e-06 -1.40961e-05 2.68972e+25 -1.11412 0.191691 272.589 
-6.45075e-06 -1.40961e-05 2.69039e+25 -1.36647 0.246387 272.512 
-4.53942e-06 -1.40961e-05 2.68927e+25 -1.61866 0.167111 272.665 
-2.62808e-06 -1.40961e-05 2.68946e+25 -1.94792 0.224598 272.642 
-7.1675e-07 -1.40961e-05 2.69039e+25 -2.24901 0.0723704 272.564 
-1.60074e-05 -1.36182e-05 2.69011e+25 -0.0470263 0.0733918 272.559 
-1.40961e-05 -1.36182e-05 2.69111e+25 -0.515421 0.295978 272.524 
-1.21847e-05 -1.36182e-05 2.69027e+25 -0.559944 0.299133 272.492 
-1.02734e-05 -1.36182e-05 2.69008e+25 -0.913234 0.37768 272.621 
-8.36208e-06 -1.36182e-05 2.68933e+25 -1.36388 0.39038 272.671 
-6.45075e-06 -1.36182e-05 2.6911e+25 -1.61763 0.239427 272.411 
-4.53942e-06 -1.36182e-05 2.69013e+25 -1.74341 0.242592 272.532 
-2.62808e-06 -1.36182e-05 2.6871e+25 -2.15736 0.394082 272.765 
-7.1675e-07 -1.36182e-05 2.689e+25 -2.50856 0.184328 272.683 
-1.60074e-05 -1.31404e-05 2.69035e+25 -0.173588 0.152491 272.545 
-1.40961e-05 -1.31404e-05 2.69101e+25 -0.431432 0.247642 272.509 
-1.21847e-05 -1.31404e-05 2.69044e+25 -0.700031 0.294211 272.531 
-1.02734e-05 -1.31404e-05 2.68864e+25 -0.879219 0.510428 272.726 
-8.36208e-06 -1.31404e-05 2.68835e+25 -1.48065 0.51767 272.779 
-6.45075e-06 -1.31404e-05 2.69082e+25 -1.83389 0.275058 272.551 
-4.53942e-06 -1.31404e-05 2.69043e+25 -2.10367 0.293276 272.559 
-2.62808e-06 -1.31404e-05 2.6887e+25 -2.33663 0.431565 272.747 
-7.1675e-07 -1.31404e-05 2.68916e+25 -2.65206 0.198375 272.664 
-1.60074e-05 -1.26626e-05 2.69132e+25 -0.0841922 0.154255 272.392 
-1.40961e-05 -1.26626e-05 2.68975e+25 -0.390747 0.346153 272.577 
-1.21847e-05 -1.26626e-05 2.69035e+25 -0.672945 0.297182 272.573 
-1.02734e-05 -1.26626e-05 2.69001e+25 -0.981494 0.647204 272.536 
-8.36208e-06 -1.26626e-05 2.68987e+25 -1.51873 0.598879 272.632 
-6.45075e-06 -1.26626e-05 2.6878e+25 -1.93929 0.376149 272.707 
-4.53942e-06 -1.26626e-05 2.69013e+25 -2.3467 0.411207 272.647 
-2.62808e-06 -1.26626e-05 2.68917e+25 -2.52947 0.490588 272.587 
-7.1675e-07 -1.26626e-05 2.68907e+25 -2.8198 0.245837 272.708 
-1.60074e-05 -1.21847e-05 2.69305e+25 0.00107271 0.295106 272.327 
-1.40961e-05 -1.21847e-05 2.691e+25 -0.307105 0.517186 272.446 
-1.21847e-05 -1.21847e-05 2.69171e+25 -0.708764 0.391934 272.48 
-1.02734e-05 -1.21847e-05 2.69118e+25 -1.15903 0.763731 272.444 
-8.36208e-06 -1.21847e-05 2.68956e+25 -1.60698 0.683968 272.586 
-6.45075e-06 -1.21847e-05 2.68855e+25 -2.12524 0.501309 272.717 
-4.53942e-06 -1.21847e-05 2.68914e+25 -2.45059 0.475409 272.68 
-2.62808e-06 -1.21847e-05 2.68977e+25 -2.74253 0.532516 272.567 
-7.1675e-07 -1.21847e-05 2.68756e+25 -2.82165 0.284801 272.796 
-1.60074e-05 -1.17069e-05 2.69324e+25 -0.107259 0.333304 272.322 
-1.40961e-05 -1.17069e-05 2.69229e+25 -0.299119 0.651725 272.369 
-1.21847e-05 -1.17069e-05 2.69154e+25 -0.720458 0.50644 272.343 
-1.02734e-05 -1.17069e-05 2.69187e+25 -1.213 0.848024 272.369 
-8.36208e-06 -1.17069e-05 2.69003e+25 -1.80378 0.846415 272.587 
-6.45075e-06 -1.17069e-05 2.68726e+25 -2.27834 0.632922 272.781 
-4.53942e-06 -1.17069e-05 2.68861e+25 -2.70897 0.526818 272.727 
-2.62808e-06 -1.17069e-05 2.68992e+25 -2.87713 0.474191 272.546 
-7.1675e-07 -1.17069e-05 2.68726e+25 -3.07391 0.265042 272.855 
-1.60074e-05 -1.12291e-05 2.6929e+25 -0.0925814 0.425732 272.308 
-1.40961e-05 -1.12291e-05 2.69243e+25 -0.382534 0.783332 272.277 
-1.21847e-05 -1.12291e-05 2.69256e+25 -0.909293 0.709005 272.343 
-1.02734e-05 -1.12291e-05 2.69139e+25 -1.24747 0.963209 272.389 
-8.36208e-06 -1.12291e-05 2.69036e+25 -1.89915 1.02424 272.587 
-6.45075e-06 -1.12291e-05 2.68774e+25 -2.36766 0.834177 272.809 
-4.53942e-06 -1.12291e-05 2.6895e+25 -2.86706 0.621135 272.659 
-2.62808e-06 -1.12291e-05 2.68917e+25 -3.14363 0.524971 272.583 
-7.1675e-07 -1.12291e-05 2.68918e+25 -3.25356 0.380629 272.694 
-1.60074e-05 -1.07512e-05 2.69171e+25 -0.0261322 0.433036 272.4 
-1.40961e-05 -1.07512e-05 2.69196e+25 -0.270345 0.854001 272.356 
-1.21847e-05 -1.07512e-05 2.69158e+25 -0.853836 0.976719 272.45 
-1.02734e-05 -1.07512e-05 2.69283e+25 -1.43666 1.05079 272.336 
-8.36208e-06 -1.07512e-05 2.68992e+25 -1.93131 1.11987 272.556 
-6.45075e-06 -1.07512e-05 2.68914e+25 -2.36401 0.984964 272.653 
-4.53942e-06 -1.07512e-05 2.6906e+25 -3.1448 0.761124 272.593 
-2.62808e-06 -1.07512e-05 2.69074e+25 -3.4384 0.651705 272.555 
-7.1675e-07 -1.07512e-05 2.68862e+25 -3.52175 0.352304 272.721 
-1.60074e-05 -1.02734e-05 2.69198e+25 -0.0902543 0.466163 272.464 
-1.40961e-05 -1.02734e-05 2.69295e+25 -0.202497 0.845398 272.286 
-1.21847e-05 -1.02734e-05 2.68928e+25 -0.800129 1.18672 272.583 
-1.02734e-05 -1.02734e-05 2.69194e+25 -1.53904 1.19259 272.385 
-8.36208e-06 -1.02734e-05 2.69084e+25 -2.10602 1.25826 272.449 
-6.45075e-06 -1.02734e-05 2.69055e+25 -2.58116 1.16547 272.513 
-4.53942e-06 -1.02734e-05 2.68856e+25 -3.21355 0.868724 272.67 
-2.62808e-06 -1.02734e-05 2.68968e+25 -3.72444 0.652372 272.616 
-7.1675e-07 -1.02734e-05 2.6879e+25 -3.7783 0.465311 272.828 
-1.60074e-05 -9.79558e-06 2.69262e+25 -0.149356 0.583056 272.396 
-1.40961e-05 -9.79558e-06 2.69244e+25 -0.106932 0.767912 272.281 
-1.21847e-05 -9.79558e-06 2.69135e+25 -0.765993 1.41264 272.442 
-1.02734e-05 -9.79558e-06 2.69096e+25 -1.68139 1.48602 272.424 
-8.36208e-06 -9.79558e-06 2.69117e+25 -2.27087 1.31805 272.35 
-6.45075e-06 -9.79558e-06 2.69135e+25 -2.80677 1.38039 272.4 
-4.53942e-06 -9.79558e-06 2.68908e+25 -3.3953 1.01841 272.636 
-2.62808e-06 -9.79558e-06 2.68908e+25 -3.94801 0.779295 272.578 
-7.1675e-07 -9.79558e-06 2.68933e+25 -4.10553 0.415662 272.732 
-1.60074e-05 -9.31775e-06 2.69232e+25 -0.0242013 0.644792 272.403 
-1.40961e-05 -9.31775e-06 2.69402e+25 -0.360736 0.844585 272.186 
-1.21847e-05 -9.31775e-06 2.69171e+25 -0.877049 1.61364 272.413 
-1.02734e-05 -9.31775e-06 2.6906e+25 -1.71499 1.76455 272.492 
-8.36208e-06 -9.31775e-06 2.69274e+25 -2.56162 1.39273 272.323 
-6.45075e-06 -9.31775e-06 2.6917e+25 -3.07625 1.46763 272.429 
-4.53942e-06 -9.31775e-06 2.68956e+25 -3.54455 1.19016 272.577 
-2.62808e-06 -9.31775e-06 2.6888e+25 -4.19466 0.935758 272.672 
-7.1675e-07 -9.31775e-06 2.68812e+25 -4.32316 0.324494 272.725 
-1.60074e-05 -8.83992e-06 2.69307e+25 0.131427 0.578101 272.354 
-1.40961e-05 -8.83992e-06 2.69517e+25 -0.344265 0.988968 272.119 
-1.21847e-05 -8.83992e-06 2.69096e+25 -1.04799 1.72832 272.45 
-1.02734e-05 -8.83992e-06 2.69174e+25 -1.73403 2.01025 272.413 
-8.36208e-06 -8.83992e-06 2.6923e+25 -2.59181 1.6547 272.295 
-6.45075e-06 -8.83992e-06 2.69088e+25 -3.32919 1.51371 272.473 
-4.53942e-06 -8.83992e-06 2.69035e+25 -3.66429 1.39714 272.557 
-2.62808e-06 -8.83992e-06 2.68899e+25 -4.26813 1.08717 272.684 
-7.1675e-07 -8.83992e-06 2.6895e+25 -4.84831 0.259474 272.657 
-1.60074e-05 -8.36208e-06 2.69316e+25 0.0563135 0.485117 272.322 
-1.40961e-05 -8.36208e-06 2.69405e+25 -0.445556 1.2362 272.233 
-1.21847e-05 -8.36208e-06 2.69097e+25 -1.07679 1.88388 272.496 
-1.02734e-05 -8.36208e-06 2.69285e+25 -1.84239 2.11468 272.336 
-8.36208e-06 -8.36208e-06 2.69053e+25 -2.6731 1.88195 272.427 
-6.45075e-06 -8.36208e-06 2.69164e+25 -3.46279 1.49398 272.42 
-4.53942e-06 -8.36208e-06 2.69044e+25 -3.89614 1.59555 272.526 
-2.62808e-06 -8.36208e-06 2.68891e+25 -4.43657 1.2257 272.675 
-7.1675e-07 -8.36208e-06 2.68926e+25 -4.97857 0.322091 272.718 
-1.60074e-05 -7.88425e-06 2.69263e+25 -0.0669589 0.605973 272.353 
-1.40961e-05 -7.88425e-06 2.69249e+25 -0.539436 1.42109 272.334 
-1.21847e-05 -7.88425e-06 2.69045e+25 -1.20755 2.08259 272.486 
-1.02734e-05 -7.88425e-06 2.69185e+25 -2.04565 2.27892 272.339 
-8.36208e-06 -7.88425e-06 2.6912e+25 -2.95847 2.12585 272.471 
-6.45075e-06 -7.88425e-06 2.68978e+25 -3.58375 1.67559 272.538 
-4.53942e-06 -7.88425e-06 2.69082e+25 -4.12845 1.6974 272.507 
-2.62808e-06 -7.88425e-06 2.68975e+25 -4.5692 1.28758 272.601 
-7.1675e-07 -7.88425e-06 2.68937e+25 -5.06077 0.435463 272.602 
-1.60074e-05 -7.40642e-06 2.6901e+25 -0.119157 0.601817 272.609 
-1.40961e-05 -7.40642e-06 2.69179e+25 -0.665032 1.50916 272.407 
-1.21847e-05 -7.40642e-06 2.6913e+25 -1.34928 2.18353 272.447 
-1.02734e-05 -7.40642e-06 2.6935e+25 -2.14646 2.47071 272.205 
-8.36208e-06 -7.40642e-06 2.69181e+25 -2.96114 2.32772 272.339 
-6.45075e-06 -7.40642e-06 2.68988e+25 -3.51994 1.83265 272.533 
-4.53942e-06 -7.40642e-06 2.68883e+25 -4.38617 1.72582 272.647 
-2.62808e-06 -7.40642e-06 2.6906e+25 -4.90698 1.40024 272.503 
-7.1675e-07 -7.40642e-06 2.69006e+25 -5.14565 0.488419 272.553 
-1.60074e-05 -6.92858e-06 2.69115e+25 -0.218875 0.64293 272.507 
-1.40961e-05 -6.92858e-06 2.69082e+25 -0.729592 1.66238 272.467 
-1.21847e-05 -6.92858e-06 2.69291e+25 -1.49733 2.33435 272.286 
-1.02734e-05 -6.92858e-06 2.69389e+25 -2.23096 2.70297 272.149 
-8.36208e-06 -6.92858e-06 2.69286e+25 -3.06131 2.50653 272.212 
-6.45075e-06 -6.92858e-06 2.68915e+25 -3.66496 2.02606 272.488 
-4.53942e-06 -6.92858e-06 2.68945e+25 -4.6539 1.88224 272.637 
-2.62808e-06 -6.92858e-06 2.69102e+25 -4.9695 1.58505 272.435 
-7.1675e-07 -6.92858e-06 2.6904e+25 -5.3392 0.557066 272.455 
-1.60074e-05 -6.45075e-06 2.69097e+25 -0.166531 0.751521 272.524 
-1.40961e-05 -6.45075e-06 2.69167e+25 -0.792847 1.86689 272.407 
-1.21847e-05 -6.45075e-06 2.69184e+25 -1.39888 2.49838 272.362 
-1.02734e-05 -6.45075e-06 2.69418e+25 -2.22046 2.9053 272.12 
-8.36208e-06 -6.45075e-06 2.69179e+25 -3.09412 2.71763 272.343 
-6.45075e-06 -6.45075e-06 2.68979e+25 -3.86509 2.22824 272.596 
-4.53942e-06 -6.45075e-06 2.69058e+25 -4.84032 2.1167 272.623 
-2.62808e-06 -6.45075e-06 2.69099e+25 -5.07257 1.61003 272.529 
-7.1675e-07 -6.45075e-06 2.69125e+25 -5.65401 0.654904 272.478 
-1.60074e-05 -5.97292e-06 2.68992e+25 -0.206574 0.993127 272.565 
-1.40961e-05 -5.97292e-06 2.69337e+25 -0.739348 1.9593 272.243 
-1.21847e-05 -5.97292e-06 2.69195e+25 -1.30671 2.76962 272.381 
-1.02734e-05 -5.97292e-06 2.6947e+25 -2.23127 3.07979 272.14 
-8.36208e-06 -5.97292e-06 2.69053e+25 -3.09189 2.89401 272.456 
-6.45075e-06 -5.97292e-06 2.68987e+25 -4.09127 2.49536 272.505 
-4.53942e-06 -5.97292e-06 2.689e+25 -4.83556 2.21635 272.548 
-2.62808e-06 -5.97292e-06 2.68949e+25 -5.17032 1.71499 272.579 
-7.1675e-07 -5.97292e-06 2.6908e+25 -5.89882 0.808859 272.521 
-1.60074e-05 -5.49508e-06 2.69063e+25 -0.123769 1.11999 272.483 
-1.40961e-05 -5.49508e-06 2.69351e+25 -0.691688 2.15851 272.299 
-1.21847e-05 -5.49508e-06 2.69104e+25 -1.44411 3.02128 272.511 
-1.02734e-05 -5.49508e-06 2.69325e+25 -2.35226 3.28872 272.235 
-8.36208e-06 -5.49508e-06 2.69067e+25 -3.30413 3.07551 272.453 
-6.45075e-06 -5.49508e-06 2.691e+25 -4.24673 2.74193 272.443 
-4.53942e-06 -5.49508e-06 2.68962e+25 -4.93349 2.34214 272.591 
-2.62808e-06 -5.49508e-06 2.68901e+25 -5.51386 1.89486 272.626 
-7.1675e-07 -5.49508e-06 2.69053e+25 -6.02045 0.904953 272.471 
-1.60074e-05 -5.01725e-06 2.69117e+25 -0.0963184 1.2005 272.471 
-1.40961e-05 -5.01725e-06 2.69034e+25 -0.484423 2.39807 272.518 
-1.21847e-05 -5.01725e-06 2.69054e+25 -1.52129 3.26111 272.503 
-1.02734e-05 -5.01725e-06 2.69176e+25 -2.43699 3.57333 272.38 
-8.36208e-06 -5.01725e-06 2.69189e+25 -3.20573 3.24287 272.376 
-6.45075e-06 -5.01725e-06 2.69119e+25 -4.40589 3.06365 272.361 
-4.53942e-06 -5.01725e-06 2.68777e+25 -5.15789 2.44778 272.739 
-2.62808e-06 -5.01725e-06 2.68826e+25 -5.71986 2.05672 272.607 
-7.1675e-07 -5.01725e-06 2.68993e+25 -6.05682 1.00779 272.563 
-1.60074e-05 -4.53942e-06 2.69052e+25 -0.106294 1.22255 272.473 
-1.40961e-05 -4.53942e-06 2.69103e+25 -0.630227 2.59915 272.398 
-1.21847e-05 -4.53942e-06 2.69125e+25 -1.58606 3.57336 272.353 
-1.02734e-05 -4.53942e-06 2.69289e+25 -2.47529 3.74799 272.216 
-8.36208e-06 -4.53942e-06 2.69142e+25 -3.24098 3.47763 272.451 
-6.45075e-06 -4.53942e-06 2.69066e+25 -4.68696 3.36473 272.361 
-4.53942e-06 -4.53942e-06 2.68801e+25 -5.39218 2.6774 272.67 
-2.62808e-06 -4.53942e-06 2.68973e+25 -5.88567 2.06412 272.561 
-7.1675e-07 -4.53942e-06 2.69064e+25 -6.33625 1.12485 272.48 
-1.60074e-05 -4.06158e-06 2.69093e+25 -0.051627 1.21535 272.486 
-1.40961e-05 -4.06158e-06 2.6913e+25 -0.708672 2.68481 272.416 
-1.21847e-05 -4.06158e-06 2.69182e+25 -1.64717 3.88916 272.325 
-1.02734e-05 -4.06158e-06 2.69167e+25 -2.46067 3.95549 272.298 
-8.36208e-06 -4.06158e-06 2.6915e+25 -3.54203 3.93384 272.381 
-6.45075e-06 -4.06158e-06 2.69053e+25 -4.66378 3.57404 272.52 
-4.53942e-06 -4.06158e-06 2.6895e+25 -5.38541 2.89481 272.55 
-2.62808e-06 -4.06158e-06 2.68884e+25 -5.94664 2.17708 272.575 
-7.1675e-07 -4.06158e-06 2.68895e+25 -6.51496 1.22644 272.605 
-1.60074e-05 -3.58375e-06 2.68986e+25 -0.113601 1.35604 272.586 
-1.40961e-05 -3.58375e-06 2.6904e+25 -0.723603 2.85797 272.505 
-1.21847e-05 -3.58375e-06 2.69227e+25 -1.66373 4.10861 272.279 
-1.02734e-05 -3.58375e-06 2.69157e+25 -2.39898 4.15949 272.283 
-8.36208e-06 -3.58375e-06 2.691e+25 -3.57015 4.30197 272.351 
-6.45075e-06 -3.58375e-06 2.69016e+25 -4.65174 3.82185 272.474 
-4.53942e-06 -3.58375e-06 2.68821e+25 -5.40889 3.03017 272.711 
-2.62808e-06 -3.58375e-06 2.68856e+25 -6.24082 2.28142 272.61 
-7.1675e-07 -3.58375e-06 2.68946e+25 -6.69675 1.34985 272.577 
-1.60074e-05 -3.10592e-06 2.68923e+25 -0.210887 1.4424 272.629 
-1.40961e-05 -3.10592e-06 2.6909e+25 -0.736089 3.11618 272.466 
-1.21847e-05 -3.10592e-06 2.69181e+25 -1.45684 4.28344 272.406 
-1.02734e-05 -3.10592e-06 2.69224e+25 -2.32025 4.47067 272.34 
-8.36208e-06 -3.10592e-06 2.69032e+25 -3.48945 4.53167 272.515 
-6.45075e-06 -3.10592e-06 2.68943e+25 -4.52297 4.08578 272.595 
-4.53942e-06 -3.10592e-06 2.68739e+25 -5.46117 3.24571 272.741 
-2.62808e-06 -3.10592e-06 2.68787e+25 -6.46538 2.47092 272.739 
-7.1675e-07 -3.10592e-06 2.6882e+25 -6.93162 1.49932 272.627 
-1.60074e-05 -2.62808e-06 2.69054e+25 -0.216416 1.59743 272.518 
-1.40961e-05 -2.62808e-06 2.69084e+25 -0.744224 3.36552 272.447 
-1.21847e-05 -2.62808e-06 2.69152e+25 -1.48279 4.33199 272.33 
-1.02734e-05 -2.62808e-06 2.69231e+25 -2.31822 4.70712 272.254 
-8.36208e-06 -2.62808e-06 2.68937e+25 -3.42853 4.8087 272.563 
-6.45075e-06 -2.62808e-06 2.68746e+25 -4.51848 4.33211 272.659 
-4.53942e-06 -2.62808e-06 2.68771e+25 -5.56691 3.58072 272.724 
-2.62808e-06 -2.62808e-06 2.68775e+25 -6.54139 2.64554 272.717 
-7.1675e-07 -2.62808e-06 2.68725e+25 -7.06151 1.55878 272.681 
-1.60074e-05 -2.15025e-06 2.69062e+25 -0.0701378 1.71119 272.503 
-1.40961e-05 -2.15025e-06 2.68999e+25 -0.732895 3.62248 272.449 
-1.21847e-05 -2.15025e-06 2.69048e+25 -1.47701 4.50182 272.42 
-1.02734e-05 -2.15025e-06 2.69155e+25 -2.38562 4.96146 272.374 
-8.36208e-06 -2.15025e-06 2.6892e+25 -3.46312 5.06523 272.572 
-6.45075e-06 -2.15025e-06 2.68842e+25 -4.46131 4.58673 272.599 
-4.53942e-06 -2.15025e-06 2.6882e+25 -5.52245 3.90441 272.647 
-2.62808e-06 -2.15025e-06 2.69e+25 -6.61681 2.86489 272.504 
-7.1675e-07 -2.15025e-06 2.68639e+25 -7.1604 1.67832 272.785 
-1.60074e-05 -1.67242e-06 2.69006e+25 -0.0182539 1.90319 272.527 
-1.40961e-05 -1.67242e-06 2.69026e+25 -0.759916 3.81616 272.485 
-1.21847e-05 -1.67242e-06 2.69188e+25 -1.6027 4.66786 272.334 
-1.02734e-05 -1.67242e-06 2.69086e+25 -2.51819 5.18744 272.362 
-8.36208e-06 -1.67242e-06 2.69044e+25 -3.40384 5.30269 272.514 
-6.45075e-06 -1.67242e-06 2.68845e+25 -4.35386 4.85869 272.681 
-4.53942e-06 -1.67242e-06 2.68919e+25 -5.42696 4.15252 272.532 
-2.62808e-06 -1.67242e-06 2.68854e+25 -6.43608 3.09537 272.569 
-7.1675e-07 -1.67242e-06 2.68548e+25 -7.23702 1.8676 272.807 
-1.60074e-05 -1.19458e-06 2.68906e+25 -0.127963 2.00183 272.586 
-1.40961e-05 -1.19458e-06 2.69076e+25 -0.681185 3.92877 272.457 
-1.21847e-05 -1.19458e-06 2.69159e+25 -1.54641 4.94943 272.353 
-1.02734e-05 -1.19458e-06 2.69062e+25 -2.55847 5.37748 272.372 
-8.36208e-06 -1.19458e-06 2.69044e+25 -3.46127 5.55076 272.436 
-6.45075e-06 -1.19458e-06 2.6878e+25 -4.25457 5.08598 272.629 
-4.53942e-06 -1.19458e-06 2.6891e+25 -5.38097 4.35778 272.502 
-2.62808e-06 -1.19458e-06 2.68872e+25 -6.45108 3.32696 272.547 
-7.1675e-07 -1.19458e-06 2.68658e+25 -7.24855 1.96369 272.735 
-1.60074e-05 -7.1675e-07 2.68904e+25 -0.0512188 2.06577 272.664 
-1.40961e-05 -7.1675e-07 2.69101e+25 -0.666256 4.09744 272.341 
-1.21847e-05 -7.1675e-07 2.69075e+25 -1.50273 5.23425 272.392 
-1.02734e-05 -7.1675e-07 2.68967e+25 -2.58266 5.56495 272.482 
-8.36208e-06 -7.1675e-07 2.69039e+25 -3.39466 5.8138 272.454 
-6.45075e-06 -7.1675e-07 2.68809e+25 -4.22984 5.31561 272.629 
-4.53942e-06 -7.1675e-07 2.68778e+25 -5.28256 4.57773 272.671 
-2.62808e-06 -7.1675e-07 2.69008e+25 -6.37937 3.6463 272.428 
-7.1675e-07 -7.1675e-07 2.68735e+25 -7.13466 2.13707 272.678 
-1.60074e-05 -2.38917e-07 2.68948e+25 -0.0500902 2.03329 272.524 
-1.40961e-05 -2.38917e-07 2.69244e+25 -0.567736 4.33777 272.26 
-1.21847e-05 -2.38917e-07 2.69076e+25 -1.49567 5.44001 272.342 
-1.02734e-05 -2.38917e-07 2.68937e+25 -2.53955 5.82797 272.532 
-8.36208e-06 -2.38917e-07 2.69005e+25 -3.40052 5.97915 272.403 
-6.45075e-06 -2.38917e-07 2.68816e+25 -4.2397 5.56446 272.595 
-4.53942e-06 -2.38917e-07 2.68853e+25 -5.1871 4.82909 272.567 
-2.62808e-06 -2.38917e-07 2.68846e+25 -6.18221 3.83419 272.506 
-7.1675e-07 -2.38917e-07 2.68842e+25 -7.14158 2.31364 272.553 
-1.55296e-05 -1.69631e-05 2.6877e+25 0.0634785 -0.00614981 272.843 
-1.36182e-05 -1.69631e-05 2.68819e+25 -0.00561955 0.00293518 272.863 
-1.17069e-05 -1.69631e-05 2.68756e+25 -0.100394 0.0182621 272.799 
-9.79558e-06 -1.69631e-05 2.68679e+25 0.0242806 -0.050167 272.881 
-7.88425e-06 -1.69631e-05 2.68925e+25 -0.0719922 -0.0371726 272.718 
-5.97292e-06 -1.69631e-05 2.68804e+25 -0.108725 0.0412213 272.81 
-4.06158e-06 -1.69631e-05 2.68777e+25 -0.283915 0.0745977 272.719 
-2.15025e-06 -1.69631e-05 2.68688e+25 -0.154642 -0.0608331 272.945 
-2.38917e-07 -1.69631e-05 2.6884e+25 -0.228354 -0.0354383 272.779 
-1.55296e-05 -1.64852e-05 2.68991e+25 0.0793888 -0.0432878 272.533 
-1.36182e-05 -1.64852e-05 2.68988e+25 -0.0382415 -0.0760178 272.594 
-1.17069e-05 -1.64852e-05 2.68923e+25 0.0701131 0.0271227 272.609 
-9.79558e-06 -1.64852e-05 2.68927e+25 -0.240067 -0.0382378 272.62 
-7.88425e-06 -1.64852e-05 2.69044e+25 -0.271767 -0.0339367 272.569 
-5.97292e-06 -1.64852e-05 2.68951e+25 -0.4591 0.0427518 272.631 
-4.06158e-06 -1.64852e-05 2.6895e+25 -0.554348 0.143984 272.644 
-2.15025e-06 -1.64852e-05 2.68757e+25 -0.629771 -0.0689177 272.77 
-2.38917e-07 -1.64852e-05 2.68895e+25 -0.570799 -0.111481 272.67 
-1.55296e-05 -1.60074e-05 2.69034e+25 0.038254 -0.0659895 272.568 
-1.36182e-05 -1.60074e-05 2.69029e+25 0.158821 -0.00919011 272.498 
-1.17069e-05 -1.60074e-05 2.6917e+25 -0.188056 0.103989 272.444 
-9.79558e-06 -1.60074e-05 2.68949e+25 -0.320888 0.0552707 272.649 
-7.88425e-06 -1.60074e-05 2.69042e+25 -0.356993 -0.0119021 272.595 
-5.97292e-06 -1.60074e-05 2.68904e+25 -0.671576 0.0392121 272.646 
-4.06158e-06 -1.60074e-05 2.6898e+25 -0.769246 0.160369 272.578 
-2.15025e-06 -1.60074e-05 2.68941e+25 -0.908794 0.0256146 272.648 
-2.38917e-07 -1.60074e-05 2.68929e+25 -0.798981 -0.203005 272.632 
-1.55296e-05 -1.55296e-05 2.68982e+25 -0.0101094 -0.126532 272.581 
-1.36182e-05 -1.55296e-05 2.6908e+25 0.0348558 0.0582542 272.567 
-1.17069e-05 -1.55296e-05 2.69202e+25 -0.287241 0.200549 272.326 
-9.79558e-06 -1.55296e-05 2.69024e+25 -0.417328 0.138144 272.612 
-7.88425e-06 -1.55296e-05 2.6902e+25 -0.632005 0.055619 272.487 
-5.97292e-06 -1.55296e-05 2.68967e+25 -0.902172 0.100329 272.602 
-4.06158e-06 -1.55296e-05 2.68988e+25 -0.948998 0.0932208 272.62 
-2.15025e-06 -1.55296e-05 2.68935e+25 -1.1602 0.104454 272.659 
-2.38917e-07 -1.55296e-05 2.68986e+25 -1.18522 -0.137838 272.631 
-1.55296e-05 -1.50517e-05 2.68978e+25 0.00350677 -0.148817 272.614 
-1.36182e-05 -1.50517e-05 2.68887e+25 -0.172549 0.0990875 272.617 
-1.17069e-05 -1.50517e-05 2.69219e+25 -0.357303 0.243265 272.417 
-9.79558e-06 -1.50517e-05 2.6881e+25 -0.640238 0.193979 272.789 
-7.88425e-06 -1.50517e-05 2.69093e+25 -0.828529 0.196093 272.448 
-5.97292e-06 -1.50517e-05 2.69002e+25 -0.990351 0.0533525 272.613 
-4.06158e-06 -1.50517e-05 2.68974e+25 -1.1662 0.0952771 272.61 
-2.15025e-06 -1.50517e-05 2.69016e+25 -1.44159 0.0786108 272.584 
-2.38917e-07 -1.50517e-05 2.69096e+25 -1.55815 -0.0562618 272.577 
-1.55296e-05 -1.45739e-05 2.68974e+25 -0.0540966 -0.157266 272.549 
-1.36182e-05 -1.45739e-05 2.68933e+25 -0.340728 0.214352 272.656 
-1.17069e-05 -1.45739e-05 2.69114e+25 -0.385766 0.277476 272.465 
-9.79558e-06 -1.45739e-05 2.68903e+25 -0.837379 0.218968 272.733 
-7.88425e-06 -1.45739e-05 2.69109e+25 -1.03516 0.263992 272.492 
-5.97292e-06 -1.45739e-05 2.68979e+25 -1.21382 0.0929496 272.557 
-4.06158e-06 -1.45739e-05 2.68872e+25 -1.44131 0.118215 272.654 
-2.15025e-06 -1.45739e-05 2.68928e+25 -1.76765 0.102437 272.663 
-2.38917e-07 -1.45739e-05 2.68968e+25 -1.84164 0.0273921 272.632 
-1.55296e-05 -1.40961e-05 2.6906e+25 -0.156527 -0.0474053 272.529 
-1.36182e-05 -1.40961e-05 2.68949e+25 -0.409016 0.350016 272.54 
-1.17069e-05 -1.40961e-05 2.69129e+25 -0.475833 0.439603 272.471 
-9.79558e-06 -1.40961e-05 2.68799e+25 -0.865377 0.286364 272.731 
-7.88425e-06 -1.40961e-05 2.69191e+25 -1.22052 0.420611 272.47 
-5.97292e-06 -1.40961e-05 2.69218e+25 -1.43683 0.248842 272.417 
-4.06158e-06 -1.40961e-05 2.69017e+25 -1.67391 0.207479 272.561 
-2.15025e-06 -1.40961e-05 2.68803e+25 -2.0477 0.16877 272.697 
-2.38917e-07 -1.40961e-05 2.69012e+25 -2.29493 0.0236762 272.563 
-1.55296e-05 -1.36182e-05 2.68986e+25 -0.229036 0.101826 272.566 
-1.36182e-05 -1.36182e-05 2.691e+25 -0.460182 0.260458 272.43 
-1.17069e-05 -1.36182e-05 2.69042e+25 -0.570756 0.459177 272.47 
-9.79558e-06 -1.36182e-05 2.68741e+25 -0.982203 0.299181 272.752 
-7.88425e-06 -1.36182e-05 2.69074e+25 -1.47922 0.486244 272.571 
-5.97292e-06 -1.36182e-05 2.69252e+25 -1.60397 0.320048 272.395 
-4.06158e-06 -1.36182e-05 2.69017e+25 -1.83187 0.334032 272.545 
-2.15025e-06 -1.36182e-05 2.68867e+25 -2.21992 0.197655 272.76 
-2.38917e-07 -1.36182e-05 2.68897e+25 -2.58057 0.0310903 272.643 
-1.55296e-05 -1.31404e-05 2.69189e+25 -0.170065 0.201501 272.412 
-1.36182e-05 -1.31404e-05 2.69145e+25 -0.412115 0.228394 272.491 
-1.17069e-05 -1.31404e-05 2.69081e+25 -0.702572 0.460881 272.461 
-9.79558e-06 -1.31404e-05 2.68765e+25 -1.05352 0.446736 272.805 
-7.88425e-06 -1.31404e-05 2.68934e+25 -1.57878 0.573408 272.683 
-5.97292e-06 -1.31404e-05 2.68986e+25 -1.87743 0.349588 272.553 
-4.06158e-06 -1.31404e-05 2.6895e+25 -2.13626 0.454508 272.604 
-2.15025e-06 -1.31404e-05 2.68792e+25 -2.37443 0.239312 272.776 
-2.38917e-07 -1.31404e-05 2.68895e+25 -2.70718 0.157587 272.694 
-1.55296e-05 -1.26626e-05 2.69315e+25 -0.161976 0.292783 272.287 
-1.36182e-05 -1.26626e-05 2.69064e+25 -0.544308 0.322288 272.569 
-1.17069e-05 -1.26626e-05 2.69119e+25 -0.696559 0.465565 272.466 
-9.79558e-06 -1.26626e-05 2.68868e+25 -1.12566 0.633129 272.662 
-7.88425e-06 -1.26626e-05 2.68949e+25 -1.611 0.709081 272.648 
-5.97292e-06 -1.26626e-05 2.68761e+25 -2.1039 0.433216 272.735 
-4.06158e-06 -1.26626e-05 2.69007e+25 -2.468 0.505274 272.551 
-2.15025e-06 -1.26626e-05 2.68843e+25 -2.59219 0.367855 272.69 
-2.38917e-07 -1.26626e-05 2.68923e+25 -2.77554 0.191272 272.681 
-1.55296e-05 -1.21847e-05 2.69276e+25 -0.115006 0.399828 272.306 
-1.36182e-05 -1.21847e-05 2.69093e+25 -0.419596 0.440302 272.486 
-1.17069e-05 -1.21847e-05 2.69207e+25 -0.775912 0.524799 272.403 
-9.79558e-06 -1.21847e-05 2.69068e+25 -1.26256 0.810706 272.566 
-7.88425e-06 -1.21847e-05 2.68848e+25 -1.76367 0.792764 272.763 
-5.97292e-06 -1.21847e-05 2.68811e+25 -2.26879 0.631053 272.775 
-4.06158e-06 -1.21847e-05 2.68967e+25 -2.52909 0.603414 272.621 
-2.15025e-06 -1.21847e-05 2.6895e+25 -2.75056 0.396456 272.639 
-2.38917e-07 -1.21847e-05 2.68829e+25 -2.88594 0.143123 272.752 
-1.55296e-05 -1.17069e-05 2.69304e+25 -0.130929 0.427067 272.236 
-1.36182e-05 -1.17069e-05 2.6912e+25 -0.444581 0.586986 272.42 
-1.17069e-05 -1.17069e-05 2.69156e+25 -0.958745 0.646978 272.422 
-9.79558e-06 -1.17069e-05 2.69143e+25 -1.32654 0.89011 272.437 
-7.88425e-06 -1.17069e-05 2.68771e+25 -1.90935 0.921095 272.798 
-5.97292e-06 -1.17069e-05 2.68732e+25 -2.41544 0.773018 272.856 
-4.06158e-06 -1.17069e-05 2.6877e+25 -2.70602 0.61104 272.771 
-2.15025e-06 -1.17069e-05 2.68969e+25 -2.87162 0.432522 272.675 
-2.38917e-07 -1.17069e-05 2.68711e+25 -3.07969 0.226859 272.894 
-1.55296e-05 -1.12291e-05 2.69365e+25 -0.0952227 0.391292 272.224 
-1.36182e-05 -1.12291e-05 2.69328e+25 -0.485176 0.716876 272.284 
-1.17069e-05 -1.12291e-05 2.69145e+25 -1.08143 0.836017 272.36 
-9.79558e-06 -1.12291e-05 2.69168e+25 -1.40509 1.0138 272.472 
-7.88425e-06 -1.12291e-05 2.68776e+25 -2.02479 1.02233 272.77 
-5.97292e-06 -1.12291e-05 2.68835e+25 -2.49735 0.854297 272.782 
-4.06158e-06 -1.12291e-05 2.68959e+25 -3.01641 0.69281 272.688 
-2.15025e-06 -1.12291e-05 2.68852e+25 -3.24778 0.50788 272.666 
-2.38917e-07 -1.12291e-05 2.68836e+25 -3.3342 0.224353 272.681 
-1.55296e-05 -1.07512e-05 2.69308e+25 -0.0986853 0.465874 272.22 
-1.36182e-05 -1.07512e-05 2.69356e+25 -0.324734 0.768468 272.289 
-1.17069e-05 -1.07512e-05 2.69105e+25 -1.08262 0.940857 272.486 
-9.79558e-06 -1.07512e-05 2.69167e+25 -1.53586 1.16064 272.372 
-7.88425e-06 -1.07512e-05 2.68859e+25 -1.99553 1.12555 272.698 
-5.97292e-06 -1.07512e-05 2.68914e+25 -2.4704 0.971277 272.686 
-4.06158e-06 -1.07512e-05 2.68938e+25 -3.23525 0.768838 272.647 
-2.15025e-06 -1.07512e-05 2.6898e+25 -3.50724 0.533882 272.565 
-2.38917e-07 -1.07512e-05 2.6878e+25 -3.54952 0.346522 272.745 
-1.55296e-05 -1.02734e-05 2.69339e+25 -0.140008 0.559625 272.292 
-1.36182e-05 -1.02734e-05 2.69262e+25 -0.150943 0.828129 272.324 
-1.17069e-05 -1.02734e-05 2.68978e+25 -1.03321 1.17881 272.609 
-9.79558e-06 -1.02734e-05 2.69111e+25 -1.74618 1.30527 272.437 
-7.88425e-06 -1.02734e-05 2.69144e+25 -2.15371 1.10126 272.485 
-5.97292e-06 -1.02734e-05 2.69038e+25 -2.807 1.11374 272.528 
-4.06158e-06 -1.02734e-05 2.6891e+25 -3.39589 0.921983 272.711 
-2.15025e-06 -1.02734e-05 2.68897e+25 -3.79632 0.584119 272.684 
-2.38917e-07 -1.02734e-05 2.68782e+25 -3.84769 0.327748 272.813 
-1.55296e-05 -9.79558e-06 2.69216e+25 -0.244179 0.600781 272.379 
-1.36182e-05 -9.79558e-06 2.69212e+25 -0.251365 0.896806 272.304 
-1.17069e-05 -9.79558e-06 2.69091e+25 -0.958393 1.42401 272.485 
-9.79558e-06 -9.79558e-06 2.69247e+25 -1.9556 1.50501 272.39 
-7.88425e-06 -9.79558e-06 2.69128e+25 -2.30989 1.16764 272.389 
-5.97292e-06 -9.79558e-06 2.6912e+25 -2.99359 1.38941 272.41 
-4.06158e-06 -9.79558e-06 2.68887e+25 -3.50215 1.12419 272.697 
-2.15025e-06 -9.79558e-06 2.68943e+25 -4.07784 0.695991 272.613 
-2.38917e-07 -9.79558e-06 2.68782e+25 -4.03694 0.398685 272.813 
-1.55296e-05 -9.31775e-06 2.69178e+25 -0.0170184 0.663836 272.455 
-1.36182e-05 -9.31775e-06 2.69263e+25 -0.404292 1.01213 272.303 
-1.17069e-05 -9.31775e-06 2.69135e+25 -1.08853 1.63989 272.383 
-9.79558e-06 -9.31775e-06 2.69239e+25 -1.93977 1.72187 272.381 
-7.88425e-06 -9.31775e-06 2.69111e+25 -2.74202 1.32852 272.394 
-5.97292e-06 -9.31775e-06 2.69136e+25 -3.08993 1.54632 272.436 
-4.06158e-06 -9.31775e-06 2.68893e+25 -3.78226 1.25527 272.667 
-2.15025e-06 -9.31775e-06 2.68877e+25 -4.34769 0.788732 272.634 
-2.38917e-07 -9.31775e-06 2.6878e+25 -4.28724 0.388682 272.778 
-1.55296e-05 -8.83992e-06 2.69296e+25 0.177849 0.681863 272.265 
-1.36182e-05 -8.83992e-06 2.69236e+25 -0.564393 1.21168 272.273 
-1.17069e-05 -8.83992e-06 2.69215e+25 -1.15732 1.78361 272.373 
-9.79558e-06 -8.83992e-06 2.69117e+25 -1.92962 1.88266 272.384 
-7.88425e-06 -8.83992e-06 2.69265e+25 -2.84703 1.53706 272.362 
-5.97292e-06 -8.83992e-06 2.69077e+25 -3.32408 1.51723 272.486 
-4.06158e-06 -8.83992e-06 2.69006e+25 -3.84802 1.40239 272.541 
-2.15025e-06 -8.83992e-06 2.68861e+25 -4.40335 0.936853 272.667 
-2.38917e-07 -8.83992e-06 2.68837e+25 -4.71826 0.295895 272.668 
-1.55296e-05 -8.36208e-06 2.69273e+25 -0.0258765 0.801373 272.306 
-1.36182e-05 -8.36208e-06 2.69271e+25 -0.634846 1.39456 272.349 
-1.17069e-05 -8.36208e-06 2.69122e+25 -1.26739 1.9957 272.471 
-9.79558e-06 -8.36208e-06 2.6915e+25 -2.05657 2.11345 272.427 
-7.88425e-06 -8.36208e-06 2.69076e+25 -2.96048 1.83886 272.443 
-5.97292e-06 -8.36208e-06 2.69055e+25 -3.55979 1.61438 272.53 
-4.06158e-06 -8.36208e-06 2.69135e+25 -4.01383 1.56792 272.425 
-2.15025e-06 -8.36208e-06 2.69084e+25 -4.51119 1.04523 272.584 
-2.38917e-07 -8.36208e-06 2.68818e+25 -5.04394 0.177986 272.716 
-1.55296e-05 -7.88425e-06 2.69273e+25 -0.125035 0.936913 272.362 
-1.36182e-05 -7.88425e-06 2.69213e+25 -0.741026 1.56661 272.358 
-1.17069e-05 -7.88425e-06 2.69184e+25 -1.37045 2.20499 272.379 
-9.79558e-06 -7.88425e-06 2.69216e+25 -2.21289 2.33549 272.309 
-7.88425e-06 -7.88425e-06 2.69092e+25 -3.15934 2.08025 272.444 
-5.97292e-06 -7.88425e-06 2.69112e+25 -3.77186 1.68892 272.495 
-4.06158e-06 -7.88425e-06 2.69203e+25 -4.20339 1.6891 272.398 
-2.15025e-06 -7.88425e-06 2.69059e+25 -4.72656 1.19453 272.486 
-2.38917e-07 -7.88425e-06 2.68931e+25 -5.08524 0.159009 272.571 
-1.55296e-05 -7.40642e-06 2.69183e+25 -0.186723 1.00822 272.388 
-1.36182e-05 -7.40642e-06 2.69128e+25 -0.756969 1.72634 272.439 
-1.17069e-05 -7.40642e-06 2.69238e+25 -1.46949 2.31726 272.338 
-9.79558e-06 -7.40642e-06 2.69382e+25 -2.3223 2.45993 272.22 
-7.88425e-06 -7.40642e-06 2.69108e+25 -3.15276 2.26215 272.457 
-5.97292e-06 -7.40642e-06 2.68966e+25 -3.81609 1.97715 272.564 
-4.06158e-06 -7.40642e-06 2.68914e+25 -4.47271 1.82804 272.565 
-2.15025e-06 -7.40642e-06 2.69022e+25 -5.02204 1.30545 272.539 
-2.38917e-07 -7.40642e-06 2.69009e+25 -5.17255 0.197171 272.532 
-1.55296e-05 -6.92858e-06 2.69178e+25 -0.342265 1.06733 272.429 
-1.36182e-05 -6.92858e-06 2.69095e+25 -0.913893 1.90533 272.521 
-1.17069e-05 -6.92858e-06 2.6924e+25 -1.63009 2.48292 272.328 
-9.79558e-06 -6.92858e-06 2.69388e+25 -2.49132 2.66257 272.167 
-7.88425e-06 -6.92858e-06 2.69147e+25 -3.21438 2.40581 272.369 
-5.97292e-06 -6.92858e-06 2.69046e+25 -3.8333 2.23422 272.534 
-4.06158e-06 -6.92858e-06 2.68909e+25 -4.76076 1.87166 272.58 
-2.15025e-06 -6.92858e-06 2.68965e+25 -5.0984 1.34429 272.593 
-2.38917e-07 -6.92858e-06 2.69044e+25 -5.45074 0.285421 272.527 
-1.55296e-05 -6.45075e-06 2.69081e+25 -0.307942 1.22202 272.494 
-1.36182e-05 -6.45075e-06 2.69088e+25 -0.910604 2.01166 272.48 
-1.17069e-05 -6.45075e-06 2.69242e+25 -1.64605 2.72603 272.352 
-9.79558e-06 -6.45075e-06 2.6943e+25 -2.36739 2.86254 272.132 
-7.88425e-06 -6.45075e-06 2.6915e+25 -3.25363 2.54559 272.385 
-5.97292e-06 -6.45075e-06 2.68963e+25 -4.06656 2.41189 272.573 
-4.06158e-06 -6.45075e-06 2.68943e+25 -4.95513 1.90281 272.629 
-2.15025e-06 -6.45075e-06 2.69046e+25 -5.13784 1.50698 272.618 
-2.38917e-07 -6.45075e-06 2.69084e+25 -5.75967 0.383613 272.502 
-1.55296e-05 -5.97292e-06 2.69062e+25 -0.346781 1.36198 272.463 
-1.36182e-05 -5.97292e-06 2.6918e+25 -0.94528 2.19549 272.352 
-1.17069e-05 -5.97292e-06 2.69283e+25 -1.59307 2.98944 272.289 
-9.79558e-06 -5.97292e-06 2.6941e+25 -2.48865 3.10299 272.196 
-7.88425e-06 -5.97292e-06 2.69222e+25 -3.32762 2.77164 272.311 
-5.97292e-06 -5.97292e-06 2.68961e+25 -4.31231 2.59903 272.622 
-4.06158e-06 -5.97292e-06 2.68833e+25 -4.9386 1.94464 272.655 
-2.15025e-06 -5.97292e-06 2.68822e+25 -5.32568 1.67451 272.63 
-2.38917e-07 -5.97292e-06 2.68969e+25 -6.01244 0.492993 272.632 
-1.55296e-05 -5.49508e-06 2.69119e+25 -0.232112 1.4351 272.437 
-1.36182e-05 -5.49508e-06 2.69322e+25 -0.897681 2.4426 272.413 
-1.17069e-05 -5.49508e-06 2.69277e+25 -1.65688 3.24621 272.35 
-9.79558e-06 -5.49508e-06 2.69148e+25 -2.59606 3.36199 272.416 
-7.88425e-06 -5.49508e-06 2.69161e+25 -3.43895 2.9848 272.358 
-5.97292e-06 -5.49508e-06 2.69062e+25 -4.54882 2.86192 272.465 
-4.06158e-06 -5.49508e-06 2.68855e+25 -5.12265 2.12628 272.662 
-2.15025e-06 -5.49508e-06 2.69048e+25 -5.70931 1.81834 272.542 
-2.38917e-07 -5.49508e-06 2.6898e+25 -6.0839 0.581212 272.58 
-1.55296e-05 -5.01725e-06 2.68965e+25 -0.18034 1.51519 272.526 
-1.36182e-05 -5.01725e-06 2.69081e+25 -0.729793 2.66083 272.461 
-1.17069e-05 -5.01725e-06 2.69264e+25 -1.79279 3.41936 272.286 
-9.79558e-06 -5.01725e-06 2.6907e+25 -2.642 3.54986 272.466 
-7.88425e-06 -5.01725e-06 2.69132e+25 -3.51388 3.23798 272.354 
-5.97292e-06 -5.01725e-06 2.69103e+25 -4.66963 3.10433 272.465 
-4.06158e-06 -5.01725e-06 2.68773e+25 -5.28949 2.31791 272.781 
-2.15025e-06 -5.01725e-06 2.68935e+25 -5.83364 2.02142 272.561 
-2.38917e-07 -5.01725e-06 2.68979e+25 -6.22217 0.719611 272.65 
-1.55296e-05 -4.53942e-06 2.6893e+25 -0.0867506 1.61211 272.582 
-1.36182e-05 -4.53942e-06 2.69128e+25 -0.721997 2.87481 272.442 
-1.17069e-05 -4.53942e-06 2.69179e+25 -1.87217 3.66123 272.282 
-9.79558e-06 -4.53942e-06 2.69222e+25 -2.67074 3.71938 272.359 
-7.88425e-06 -4.53942e-06 2.69128e+25 -3.56963 3.64963 272.409 
-5.97292e-06 -4.53942e-06 2.69027e+25 -4.82234 3.26594 272.446 
-4.06158e-06 -4.53942e-06 2.68858e+25 -5.53176 2.40355 272.591 
-2.15025e-06 -4.53942e-06 2.69065e+25 -5.8615 2.09104 272.511 
-2.38917e-07 -4.53942e-06 2.68991e+25 -6.40239 0.827111 272.481 
-1.55296e-05 -4.06158e-06 2.68993e+25 -0.224939 1.7278 272.451 
-1.36182e-05 -4.06158e-06 2.69126e+25 -0.784433 2.93996 272.447 
-1.17069e-05 -4.06158e-06 2.6903e+25 -1.87378 3.90628 272.451 
-9.79558e-06 -4.06158e-06 2.6912e+25 -2.60538 3.89397 272.376 
-7.88425e-06 -4.06158e-06 2.69084e+25 -3.93138 3.92096 272.413 
-5.97292e-06 -4.06158e-06 2.69089e+25 -4.93269 3.43754 272.438 
-4.06158e-06 -4.06158e-06 2.689e+25 -5.57119 2.52902 272.653 
-2.15025e-06 -4.06158e-06 2.6897e+25 -6.01479 2.09268 272.51 
-2.38917e-07 -4.06158e-06 2.68963e+25 -6.59165 0.829538 272.503 
-1.55296e-05 -3.58375e-06 2.68971e+25 -0.201305 1.85689 272.605 
-1.36182e-05 -3.58375e-06 2.69155e+25 -0.97729 3.11065 272.405 
-1.17069e-05 -3.58375e-06 2.69307e+25 -1.79845 4.04553 272.276 
-9.79558e-06 -3.58375e-06 2.69196e+25 -2.65354 4.1283 272.394 
-7.88425e-06 -3.58375e-06 2.68966e+25 -3.83851 4.20879 272.539 
-5.97292e-06 -3.58375e-06 2.69005e+25 -4.87687 3.70209 272.431 
-4.06158e-06 -3.58375e-06 2.68771e+25 -5.61187 2.76364 272.718 
-2.15025e-06 -3.58375e-06 2.68881e+25 -6.40119 2.19545 272.563 
-2.38917e-07 -3.58375e-06 2.68871e+25 -6.82131 0.898977 272.591 
-1.55296e-05 -3.10592e-06 2.68942e+25 -0.329559 1.93744 272.573 
-1.36182e-05 -3.10592e-06 2.69147e+25 -0.96268 3.35056 272.452 
-1.17069e-05 -3.10592e-06 2.69287e+25 -1.59353 4.21563 272.185 
-9.79558e-06 -3.10592e-06 2.69329e+25 -2.6603 4.42141 272.238 
-7.88425e-06 -3.10592e-06 2.68901e+25 -3.72915 4.45404 272.549 
-5.97292e-06 -3.10592e-06 2.68887e+25 -4.72301 3.86357 272.637 
-4.06158e-06 -3.10592e-06 2.68678e+25 -5.76217 3.03747 272.785 
-2.15025e-06 -3.10592e-06 2.68903e+25 -6.64261 2.32171 272.611 
-2.38917e-07 -3.10592e-06 2.68772e+25 -6.9924 0.967567 272.695 
-1.55296e-05 -2.62808e-06 2.68978e+25 -0.367903 2.07704 272.552 
-1.36182e-05 -2.62808e-06 2.68992e+25 -1.01475 3.54752 272.563 
-1.17069e-05 -2.62808e-06 2.6935e+25 -1.6153 4.43418 272.132 
-9.79558e-06 -2.62808e-06 2.69075e+25 -2.57922 4.77829 272.394 
-7.88425e-06 -2.62808e-06 2.68801e+25 -3.69953 4.69813 272.736 
-5.97292e-06 -2.62808e-06 2.68761e+25 -4.76486 4.08691 272.689 
-4.06158e-06 -2.62808e-06 2.68717e+25 -5.87657 3.31482 272.771 
-2.15025e-06 -2.62808e-06 2.68806e+25 -6.70192 2.49351 272.68 
-2.38917e-07 -2.62808e-06 2.68832e+25 -7.18639 1.05277 272.665 
-1.55296e-05 -2.15025e-06 2.69089e+25 -0.309641 2.23045 272.442 
-1.36182e-05 -2.15025e-06 2.69025e+25 -0.969001 3.78124 272.556 
-1.17069e-05 -2.15025e-06 2.69144e+25 -1.71706 4.65294 272.372 
-9.79558e-06 -2.15025e-06 2.69026e+25 -2.67375 5.09287 272.467 
-7.88425e-06 -2.15025e-06 2.68726e+25 -3.70939 4.99491 272.73 
-5.97292e-06 -2.15025e-06 2.68821e+25 -4.77589 4.30802 272.671 
-4.06158e-06 -2.15025e-06 2.68695e+25 -5.83484 3.60887 272.723 
-2.15025e-06 -2.15025e-06 2.68805e+25 -6.83299 2.68118 272.651 
-2.38917e-07 -2.15025e-06 2.6885e+25 -7.37471 1.29724 272.669 
-1.55296e-05 -1.67242e-06 2.69134e+25 -0.181772 2.42723 272.417 
-1.36182e-05 -1.67242e-06 2.69092e+25 -0.908213 3.9843 272.392 
-1.17069e-05 -1.67242e-06 2.69182e+25 -1.82073 4.89043 272.305 
-9.79558e-06 -1.67242e-06 2.69084e+25 -2.71183 5.31317 272.401 
-7.88425e-06 -1.67242e-06 2.68812e+25 -3.64414 5.23775 272.646 
-5.97292e-06 -1.67242e-06 2.68837e+25 -4.64778 4.64575 272.605 
-4.06158e-06 -1.67242e-06 2.68843e+25 -5.63615 3.89382 272.588 
-2.15025e-06 -1.67242e-06 2.6888e+25 -6.71091 2.89521 272.495 
-2.38917e-07 -1.67242e-06 2.68838e+25 -7.40567 1.52374 272.614 
-1.55296e-05 -1.19458e-06 2.69082e+25 -0.216674 2.59142 272.411 
-1.36182e-05 -1.19458e-06 2.69136e+25 -0.871 4.19096 272.345 
-1.17069e-05 -1.19458e-06 2.69104e+25 -1.78793 5.08161 272.375 
-9.79558e-06 -1.19458e-06 2.69175e+25 -2.73145 5.50026 272.334 
-7.88425e-06 -1.19458e-06 2.68898e+25 -3.68808 5.45278 272.56 
-5.97292e-06 -1.19458e-06 2.68975e+25 -4.5042 4.94663 272.442 
-4.06158e-06 -1.19458e-06 2.68758e+25 -5.64006 4.16455 272.698 
-2.15025e-06 -1.19458e-06 2.6889e+25 -6.68008 3.1438 272.569 
-2.38917e-07 -1.19458e-06 2.68817e+25 -7.36368 1.68024 272.563 
-1.55296e-05 -7.1675e-07 2.69111e+25 -0.0805234 2.6468 272.479 
-1.36182e-05 -7.1675e-07 2.69255e+25 -0.875157 4.41059 272.199 
-1.17069e-05 -7.1675e-07 2.68867e+25 -1.74935 5.33412 272.504 
-9.79558e-06 -7.1675e-07 2.68975e+25 -2.80202 5.70474 272.501 
-7.88425e-06 -7.1675e-07 2.68775e+25 -3.60012 5.64253 272.643 
-5.97292e-06 -7.1675e-07 2.6887e+25 -4.53716 5.29355 272.528 
-4.06158e-06 -7.1675e-07 2.68808e+25 -5.4656 4.42069 272.582 
-2.15025e-06 -7.1675e-07 2.6885e+25 -6.56377 3.26866 272.631 
-2.38917e-07 -7.1675e-07 2.68948e+25 -7.30528 1.74193 272.458 
-1.55296e-05 -2.38917e-07 2.68959e+25 -0.0141326 2.71908 272.536 
-1.36182e-05 -2.38917e-07 2.69221e+25 -0.860389 4.66035 272.245 
-1.17069e-05 -2.38917e-07 2.6903e+25 -1.75583 5.62945 272.417 
-9.79558e-06 -2.38917e-07 2.68929e+25 -2.78661 5.92389 272.625 
-7.88425e-06 -2.38917e-07 2.68865e+25 -3.49496 5.77118 272.575 
-5.97292e-06 -2.38917e-07 2.68888e+25 -4.47336 5.56102 272.516 
-4.06158e-06 -2.38917e-07 2.68817e+25 -5.46706 4.6112 272.583 
-2.15025e-06 -2.38917e-07 2.68783e+25 -6.35579 3.47651 272.646 
-2.38917e-07 -2.38917e-07 2.68923e+25 -7.24994 1.89585 272.458 
-1.64852e-05 2.38917e-07 2.68903e+25 -0.0654707 1.24991 272.596 
-1.45739e-05 2.38917e-07 2.69074e+25 -0.4605 4.12393 272.4 
-1.26626e-05 2.38917e-07 2.69167e+25 -1.13089 5.41403 272.347 
-1.07512e-05 2.38917e-07 2.68935e+25 -2.11148 6.04769 272.467 
-8.83992e-06 2.38917e-07 2.69094e+25 -3.10657 6.09695 272.4 
-6.92858e-06 2.38917e-07 2.6877e+25 -3.86661 5.94535 272.716 
-5.01725e-06 2.38917e-07 2.68877e+25 -4.91655 5.16478 272.522 
-3.10592e-06 2.38917e-07 2.6889e+25 -6.00313 4.41731 272.449 
-1.19458e-06 2.38917e-07 2.68731e+25 -6.6436 3.14341 272.6 
-1.64852e-05 7.1675e-07 2.68811e+25 -0.0128834 1.33589 272.702 
-1.45739e-05 7.1675e-07 2.69096e+25 -0.431416 4.27217 272.349 
-1.26626e-05 7.1675e-07 2.69072e+25 -1.07635 5.64133 272.373 
-1.07512e-05 7.1675e-07 2.69106e+25 -1.97791 6.34843 272.398 
-8.83992e-06 7.1675e-07 2.68941e+25 -3.07073 6.29508 272.505 
-6.92858e-06 7.1675e-07 2.68745e+25 -3.9438 6.17267 272.67 
-5.01725e-06 7.1675e-07 2.69016e+25 -4.86211 5.42937 272.362 
-3.10592e-06 7.1675e-07 2.68732e+25 -5.8017 4.49681 272.658 
-1.19458e-06 7.1675e-07 2.68681e+25 -6.53338 3.34052 272.606 
-1.64852e-05 1.19458e-06 2.68867e+25 0.0130482 1.40604 272.712 
-1.45739e-05 1.19458e-06 2.69126e+25 -0.276229 4.3992 272.331 
-1.26626e-05 1.19458e-06 2.68996e+25 -1.00753 5.86807 272.416 
-1.07512e-05 1.19458e-06 2.68928e+25 -1.79384 6.61362 272.454 
-8.83992e-06 1.19458e-06 2.68791e+25 -2.95268 6.56801 272.636 
-6.92858e-06 1.19458e-06 2.687e+25 -3.83117 6.43668 272.708 
-5.01725e-06 1.19458e-06 2.68772e+25 -4.76203 5.67025 272.569 
-3.10592e-06 1.19458e-06 2.68823e+25 -5.56254 4.58768 272.543 
-1.19458e-06 1.19458e-06 2.68701e+25 -6.50708 3.60822 272.607 
-1.64852e-05 1.67242e-06 2.68815e+25 -0.0642535 1.41044 272.613 
-1.45739e-05 1.67242e-06 2.6921e+25 -0.332753 4.45212 272.249 
-1.26626e-05 1.67242e-06 2.69027e+25 -0.986546 6.10205 272.345 
-1.07512e-05 1.67242e-06 2.68927e+25 -1.83217 6.83454 272.516 
-8.83992e-06 1.67242e-06 2.68918e+25 -2.94011 6.85771 272.513 
-6.92858e-06 1.67242e-06 2.68863e+25 -3.71358 6.57396 272.564 
-5.01725e-06 1.67242e-06 2.68837e+25 -4.64933 5.93711 272.523 
-3.10592e-06 1.67242e-06 2.6887e+25 -5.37459 4.90482 272.382 
-1.19458e-06 1.67242e-06 2.68756e+25 -6.46651 3.71884 272.586 
-1.64852e-05 2.15025e-06 2.68868e+25 -0.0279417 1.40464 272.588 
-1.45739e-05 2.15025e-06 2.69053e+25 -0.193107 4.50544 272.379 
-1.26626e-05 2.15025e-06 2.6897e+25 -0.928476 6.3334 272.41 
-1.07512e-05 2.15025e-06 2.69037e+25 -1.82453 6.99553 272.366 
-8.83992e-06 2.15025e-06 2.6896e+25 -2.78341 7.08652 272.47 
-6.92858e-06 2.15025e-06 2.68872e+25 -3.67719 6.67517 272.569 
-5.01725e-06 2.15025e-06 2.68716e+25 -4.35531 6.15194 272.565 
-3.10592e-06 2.15025e-06 2.68986e+25 -5.16804 5.19033 272.339 
-1.19458e-06 2.15025e-06 2.68824e+25 -6.17858 3.87376 272.49 
-1.64852e-05 2.62808e-06 2.68728e+25 0.0221498 1.49116 272.598 
-1.45739e-05 2.62808e-06 2.68946e+25 -0.409159 4.66187 272.457 
-1.26626e-05 2.62808e-06 2.69114e+25 -0.836216 6.56484 272.324 
-1.07512e-05 2.62808e-06 2.6907e+25 -1.71766 7.25786 272.309 
-8.83992e-06 2.62808e-06 2.69033e+25 -2.66196 7.28671 272.368 
-6.92858e-06 2.62808e-06 2.68775e+25 -3.60333 6.91923 272.609 
-5.01725e-06 2.62808e-06 2.68693e+25 -4.10442 6.42555 272.599 
-3.10592e-06 2.62808e-06 2.68879e+25 -4.97575 5.41 272.423 
-1.19458e-06 2.62808e-06 2.68879e+25 -5.80326 4.04735 272.378 
-1.64852e-05 3.10592e-06 2.68772e+25 -0.0853116 1.49797 272.63 
-1.45739e-05 3.10592e-06 2.69036e+25 -0.467989 4.73698 272.335 
-1.26626e-05 3.10592e-06 2.69184e+25 -0.892385 6.63923 272.333 
-1.07512e-05 3.10592e-06 2.69091e+25 -1.82316 7.55047 272.371 
-8.83992e-06 3.10592e-06 2.68984e+25 -2.45357 7.5127 272.43 
-6.92858e-06 3.10592e-06 2.68802e+25 -3.42257 7.18829 272.518 
-5.01725e-06 3.10592e-06 2.68704e+25 -3.99974 6.55912 272.56 
-3.10592e-06 3.10592e-06 2.68795e+25 -4.6806 5.57187 272.464 
-1.19458e-06 3.10592e-06 2.68815e+25 -5.38009 4.26626 272.44 
-1.64852e-05 3.58375e-06 2.68776e+25 -0.138799 1.56372 272.634 
-1.45739e-05 3.58375e-06 2.69137e+25 -0.510605 4.76215 272.348 
-1.26626e-05 3.58375e-06 2.69034e+25 -1.07086 6.82616 272.291 
-1.07512e-05 3.58375e-06 2.68922e+25 -1.81768 7.67991 272.458 
-8.83992e-06 3.58375e-06 2.68795e+25 -2.27691 7.62306 272.531 
-6.92858e-06 3.58375e-06 2.68921e+25 -3.18429 7.40865 272.446 
-5.01725e-06 3.58375e-06 2.68773e+25 -3.64233 6.66548 272.549 
-3.10592e-06 3.58375e-06 2.68757e+25 -4.28203 5.66692 272.513 
-1.19458e-06 3.58375e-06 2.68763e+25 -4.98073 4.40698 272.503 
-1.64852e-05 4.06158e-06 2.68769e+25 -0.0128899 1.61853 272.618 
-1.45739e-05 4.06158e-06 2.68918e+25 -0.38394 4.85583 272.471 
-1.26626e-05 4.06158e-06 2.6923e+25 -1.06312 7.01036 272.231 
-1.07512e-05 4.06158e-06 2.68742e+25 -1.74444 7.85487 272.556 
-8.83992e-06 4.06158e-06 2.68822e+25 -2.29502 7.8086 272.487 
-6.92858e-06 4.06158e-06 2.68962e+25 -2.93621 7.58806 272.368 
-5.01725e-06 4.06158e-06 2.68786e+25 -3.39962 6.82537 272.518 
-3.10592e-06 4.06158e-06 2.68697e+25 -4.0175 5.79693 272.578 
-1.19458e-06 4.06158e-06 2.68793e+25 -4.63904 4.50341 272.455 
-1.64852e-05 4.53942e-06 2.68872e+25 -0.0665995 1.73826 272.508 
-1.45739e-05 4.53942e-06 2.68941e+25 -0.390966 5.03229 272.473 
-1.26626e-05 4.53942e-06 2.69072e+25 -1.06804 7.19113 272.251 
-1.07512e-05 4.53942e-06 2.68763e+25 -1.68266 8.07605 272.585 
-8.83992e-06 4.53942e-06 2.68792e+25 -2.18624 7.98328 272.483 
-6.92858e-06 4.53942e-06 2.68934e+25 -2.60962 7.77672 272.358 
-5.01725e-06 4.53942e-06 2.68763e+25 -3.25129 7.01593 272.469 
-3.10592e-06 4.53942e-06 2.68763e+25 -3.66201 5.96942 272.561 
-1.19458e-06 4.53942e-06 2.68794e+25 -4.06933 4.68397 272.425 
-1.64852e-05 5.01725e-06 2.68781e+25 -0.0863182 1.76507 272.599 
-1.45739e-05 5.01725e-06 2.68953e+25 -0.325776 5.21746 272.377 
-1.26626e-05 5.01725e-06 2.69136e+25 -1.07768 7.36371 272.209 
-1.07512e-05 5.01725e-06 2.68917e+25 -1.59655 8.25208 272.475 
-8.83992e-06 5.01725e-06 2.68805e+25 -2.08202 8.06578 272.498 
-6.92858e-06 5.01725e-06 2.69049e+25 -2.49959 7.80245 272.239 
-5.01725e-06 5.01725e-06 2.68838e+25 -3.02609 7.17135 272.437 
-3.10592e-06 5.01725e-06 2.68784e+25 -3.14078 6.08761 272.488 
-1.19458e-06 5.01725e-06 2.68723e+25 -3.61712 4.86635 272.443 
-1.64852e-05 5.49508e-06 2.68808e+25 -0.143893 1.85528 272.493 
-1.45739e-05 5.49508e-06 2.68935e+25 -0.505981 5.34354 272.379 
-1.26626e-05 5.49508e-06 2.69154e+25 -1.09462 7.46111 272.25 
-1.07512e-05 5.49508e-06 2.68869e+25 -1.60931 8.34604 272.43 
-8.83992e-06 5.49508e-06 2.68825e+25 -1.98497 8.10569 272.516 
-6.92858e-06 5.49508e-06 2.69095e+25 -2.33219 7.92625 272.255 
-5.01725e-06 5.49508e-06 2.688e+25 -2.68202 7.25765 272.46 
-3.10592e-06 5.49508e-06 2.68629e+25 -2.74563 6.1558 272.61 
-1.19458e-06 5.49508e-06 2.68717e+25 -3.05446 4.96261 272.464 
-1.64852e-05 5.97292e-06 2.68761e+25 -0.0231031 1.94881 272.555 
-1.45739e-05 5.97292e-06 2.6908e+25 -0.580792 5.47461 272.231 
-1.26626e-05 5.97292e-06 2.69196e+25 -1.16626 7.55776 272.12 
-1.07512e-05 5.97292e-06 2.689e+25 -1.59557 8.3934 272.391 
-8.83992e-06 5.97292e-06 2.68776e+25 -1.77212 8.23627 272.515 
-6.92858e-06 5.97292e-06 2.68823e+25 -2.16477 7.9039 272.451 
-5.01725e-06 5.97292e-06 2.68685e+25 -2.29703 7.3093 272.529 
-3.10592e-06 5.97292e-06 2.68767e+25 -2.41748 6.26999 272.445 
-1.19458e-06 5.97292e-06 2.68597e+25 -2.46686 5.02779 272.557 
-1.64852e-05 6.45075e-06 2.6869e+25 -0.0352246 2.04463 272.668 
-1.45739e-05 6.45075e-06 2.69123e+25 -0.613579 5.6231 272.197 
-1.26626e-05 6.45075e-06 2.69186e+25 -1.15279 7.63987 272.08 
-1.07512e-05 6.45075e-06 2.68838e+25 -1.51943 8.52658 272.38 
-8.83992e-06 6.45075e-06 2.68752e+25 -1.61904 8.38419 272.591 
-6.92858e-06 6.45075e-06 2.68955e+25 -1.84091 7.94974 272.394 
-5.01725e-06 6.45075e-06 2.68789e+25 -1.98883 7.3266 272.493 
-3.10592e-06 6.45075e-06 2.6864e+25 -2.03196 6.33583 272.466 
-1.19458e-06 6.45075e-06 2.68651e+25 -1.83243 4.99928 272.537 
-1.64852e-05 6.92858e-06 2.68668e+25 -0.0291953 2.10028 272.652 
-1.45739e-05 6.92858e-06 2.69116e+25 -0.597481 5.7277 272.164 
-1.26626e-05 6.92858e-06 2.68988e+25 -1.06895 7.77476 272.268 
-1.07512e-05 6.92858e-06 2.68931e+25 -1.38766 8.64646 272.341 
-8.83992e-06 6.92858e-06 2.68737e+25 -1.67832 8.41775 272.544 
-6.92858e-06 6.92858e-06 2.68834e+25 -1.72028 7.99464 272.404 
-5.01725e-06 6.92858e-06 2.68928e+25 -1.58708 7.21919 272.289 
-3.10592e-06 6.92858e-06 2.68658e+25 -1.5257 6.32633 272.518 
-1.19458e-06 6.92858e-06 2.68548e+25 -1.27664 4.99492 272.582 
-1.64852e-05 7.40642e-06 2.68599e+25 0.05223 2.05222 272.685 
-1.45739e-05 7.40642e-06 2.68987e+25 -0.691366 5.96648 272.33 
-1.26626e-05 7.40642e-06 2.69042e+25 -1.22805 7.82241 272.268 
-1.07512e-05 7.40642e-06 2.6898e+25 -1.49272 8.75816 272.337 
-8.83992e-06 7.40642e-06 2.68758e+25 -1.60988 8.40464 272.518 
-6.92858e-06 7.40642e-06 2.68895e+25 -1.45057 8.02456 272.367 
-5.01725e-06 7.40642e-06 2.68901e+25 -1.15891 7.07198 272.303 
-3.10592e-06 7.40642e-06 2.68772e+25 -0.891082 6.19182 272.393 
-1.19458e-06 7.40642e-06 2.68589e+25 -0.690286 5.03955 272.53 
-1.64852e-05 7.88425e-06 2.68589e+25 -0.0391495 2.07783 272.64 
-1.45739e-05 7.88425e-06 2.68893e+25 -0.70572 6.19546 272.408 
-1.26626e-05 7.88425e-06 2.69051e+25 -1.19438 8.01647 272.207 
-1.07512e-05 7.88425e-06 2.68895e+25 -1.55092 8.78693 272.385 
-8.83992e-06 7.88425e-06 2.68774e+25 -1.49709 8.37761 272.493 
-6.92858e-06 7.88425e-06 2.68878e+25 -1.227 8.03283 272.356 
-5.01725e-06 7.88425e-06 2.68942e+25 -0.78004 7.02593 272.3 
-3.10592e-06 7.88425e-06 2.68729e+25 -0.43803 5.9836 272.411 
-1.19458e-06 7.88425e-06 2.68627e+25 -0.178884 5.07253 272.508 
-1.64852e-05 8.36208e-06 2.6872e+25 -0.044676 2.13029 272.589 
-1.45739e-05 8.36208e-06 2.68771e+25 -0.775282 6.23047 272.556 
-1.26626e-05 8.36208e-06 2.6877e+25 -1.26744 8.31845 272.419 
-1.07512e-05 8.36208e-06 2.68715e+25 -1.61856 8.69104 272.528 
-8.83992e-06 8.36208e-06 2.68864e+25 -1.42263 8.35187 272.409 
-6.92858e-06 8.36208e-06 2.68716e+25 -1.0179 7.87789 272.457 
-5.01725e-06 8.36208e-06 2.69039e+25 -0.450884 6.88131 272.19 
-3.10592e-06 8.36208e-06 2.68736e+25 0.0324303 5.94713 272.464 
-1.19458e-06 8.36208e-06 2.68661e+25 0.389081 5.03425 272.519 
-1.64852e-05 8.83992e-06 2.68708e+25 -0.0644035 2.25381 272.5 
-1.45739e-05 8.83992e-06 2.68721e+25 -0.697043 6.34864 272.557 
-1.26626e-05 8.83992e-06 2.68781e+25 -1.43367 8.51627 272.412 
-1.07512e-05 8.83992e-06 2.68752e+25 -1.7194 8.58597 272.53 
-8.83992e-06 8.83992e-06 2.68836e+25 -1.34481 8.25006 272.439 
-6.92858e-06 8.83992e-06 2.68869e+25 -0.665814 7.64898 272.38 
-5.01725e-06 8.83992e-06 2.68852e+25 -0.011913 6.69509 272.36 
-3.10592e-06 8.83992e-06 2.68778e+25 0.427282 5.90826 272.485 
-1.19458e-06 8.83992e-06 2.68662e+25 1.08556 4.92699 272.551 
-1.64852e-05 9.31775e-06 2.68788e+25 -0.132213 2.46009 272.431 
-1.45739e-05 9.31775e-06 2.68682e+25 -0.820739 6.61548 272.552 
-1.26626e-05 9.31775e-06 2.68921e+25 -1.43043 8.65469 272.343 
-1.07512e-05 9.31775e-06 2.68851e+25 -1.63024 8.53989 272.411 
-8.83992e-06 9.31775e-06 2.68743e+25 -1.22317 8.08078 272.517 
-6.92858e-06 9.31775e-06 2.68765e+25 -0.463037 7.35654 272.457 
-5.01725e-06 9.31775e-06 2.6882e+25 0.309751 6.56434 272.443 
-3.10592e-06 9.31775e-06 2.6872e+25 1.0735 5.81567 272.456 
-1.19458e-06 9.31775e-06 2.68462e+25 1.66118 4.69069 272.663 
-1.64852e-05 9.79558e-06 2.68769e+25 -0.0984011 2.51062 272.422 
-1.45739e-05 9.79558e-06 2.68704e+25 -1.01554 6.94691 272.522 
-1.26626e-05 9.79558e-06 2.68813e+25 -1.69109 8.59731 272.389 
-1.07512e-05 9.79558e-06 2.68814e+25 -1.68922 8.51607 272.399 
-8.83992e-06 9.79558e-06 2.68644e+25 -1.09732 7.7921 272.59 
-6.92858e-06 9.79558e-06 2.68779e+25 -0.270566 7.21239 272.517 
-5.01725e-06 9.79558e-06 2.68764e+25 0.595974 6.36095 272.498 
-3.10592e-06 9.79558e-06 2.68749e+25 1.67394 5.60528 272.461 
-1.19458e-06 9.79558e-06 2.68485e+25 2.45689 4.47226 272.599 
-1.64852e-05 1.02734e-05 2.6887e+25 -0.125825 2.64873 272.391 
-1.45739e-05 1.02734e-05 2.68795e+25 -1.04533 7.27175 272.433 
-1.26626e-05 1.02734e-05 2.68835e+25 -1.96463 8.61632 272.319 
-1.07512e-05 1.02734e-05 2.68875e+25 -1.6396 8.41047 272.407 
-8.83992e-06 1.02734e-05 2.68758e+25 -0.862209 7.58265 272.606 
-6.92858e-06 1.02734e-05 2.68716e+25 0.00640158 6.94671 272.477 
-5.01725e-06 1.02734e-05 2.68783e+25 1.24572 6.25387 272.432 
-3.10592e-06 1.02734e-05 2.68654e+25 2.31425 5.26224 272.556 
-1.19458e-06 1.02734e-05 2.68566e+25 3.1635 4.328 272.58 
-1.64852e-05 1.07512e-05 2.68705e+25 -0.254658 2.85903 272.463 
-1.45739e-05 1.07512e-05 2.68735e+25 -1.18298 7.56037 272.393 
-1.26626e-05 1.07512e-05 2.68857e+25 -1.97622 8.73947 272.313 
-1.07512e-05 1.07512e-05 2.68654e+25 -1.66884 8.24212 272.583 
-8.83992e-06 1.07512e-05 2.68605e+25 -0.742083 7.42796 272.719 
-6.92858e-06 1.07512e-05 2.68792e+25 0.563226 6.59316 272.443 
-5.01725e-06 1.07512e-05 2.6885e+25 1.64557 6.00257 272.382 
-3.10592e-06 1.07512e-05 2.68787e+25 3.05829 4.86636 272.391 
-1.19458e-06 1.07512e-05 2.68636e+25 4.15915 4.07969 272.482 
-1.64852e-05 1.12291e-05 2.68574e+25 -0.278381 3.06504 272.571 
-1.45739e-05 1.12291e-05 2.68908e+25 -1.37407 7.78685 272.229 
-1.26626e-05 1.12291e-05 2.68759e+25 -2.33141 8.83205 272.381 
-1.07512e-05 1.12291e-05 2.68643e+25 -1.75733 7.93047 272.557 
-8.83992e-06 1.12291e-05 2.68725e+25 -0.415951 7.2304 272.534 
-6.92858e-06 1.12291e-05 2.68631e+25 1.13125 6.28986 272.557 
-5.01725e-06 1.12291e-05 2.68735e+25 2.20371 5.60628 272.467 
-3.10592e-06 1.12291e-05 2.68688e+25 3.8865 4.50071 272.473 
-1.19458e-06 1.12291e-05 2.68491e+25 5.17595 3.78821 272.561 
-1.64852e-05 1.17069e-05 2.68608e+25 -0.15052 3.36785 272.492 
-1.45739e-05 1.17069e-05 2.6881e+25 -1.81005 8.11764 272.163 
-1.26626e-05 1.17069e-05 2.68678e+25 -2.42292 8.82086 272.516 
-1.07512e-05 1.17069e-05 2.68782e+25 -1.61701 7.55809 272.487 
-8.83992e-06 1.17069e-05 2.68914e+25 0.00405015 6.84707 272.398 
-6.92858e-06 1.17069e-05 2.68682e+25 1.75811 5.98098 272.547 
-5.01725e-06 1.17069e-05 2.68672e+25 3.21271 5.1467 272.574 
-3.10592e-06 1.17069e-05 2.68521e+25 4.88329 4.18458 272.62 
-1.19458e-06 1.17069e-05 2.68567e+25 6.36219 3.48521 272.653 
-1.64852e-05 1.21847e-05 2.68665e+25 -0.190001 3.58554 272.452 
-1.45739e-05 1.21847e-05 2.68787e+25 -2.23204 8.52902 272.305 
-1.26626e-05 1.21847e-05 2.68611e+25 -2.59736 8.7659 272.457 
-1.07512e-05 1.21847e-05 2.68706e+25 -1.30428 7.18369 272.576 
-8.83992e-06 1.21847e-05 2.68864e+25 0.349765 6.3876 272.505 
-6.92858e-06 1.21847e-05 2.68733e+25 2.35635 5.56427 272.576 
-5.01725e-06 1.21847e-05 2.68557e+25 4.25746 4.72532 272.684 
-3.10592e-06 1.21847e-05 2.68777e+25 5.92807 3.8656 272.521 
-1.19458e-06 1.21847e-05 2.68522e+25 7.65089 3.15776 272.605 
-1.64852e-05 1.26626e-05 2.68461e+25 -0.327924 3.9053 272.482 
-1.45739e-05 1.26626e-05 2.68715e+25 -2.57136 8.89225 272.328 
-1.26626e-05 1.26626e-05 2.68797e+25 -2.6221 8.5188 272.327 
-1.07512e-05 1.26626e-05 2.68663e+25 -0.932433 6.81666 272.605 
-8.83992e-06 1.26626e-05 2.68819e+25 1.02367 5.86234 272.418 
-6.92858e-06 1.26626e-05 2.68695e+25 3.12485 5.01703 272.577 
-5.01725e-06 1.26626e-05 2.68664e+25 5.51505 4.38539 272.697 
-3.10592e-06 1.26626e-05 2.68567e+25 7.19471 3.39288 272.604 
-1.19458e-06 1.26626e-05 2.68558e+25 8.96261 2.74358 272.603 
-1.64852e-05 1.31404e-05 2.68395e+25 -0.551917 4.40899 272.514 
-1.45739e-05 1.31404e-05 2.68497e+25 -2.85427 9.15769 272.396 
-1.26626e-05 1.31404e-05 2.6885e+25 -2.61183 8.13365 272.229 
-1.07512e-05 1.31404e-05 2.68629e+25 -0.177118 6.2983 272.604 
-8.83992e-06 1.31404e-05 2.68838e+25 2.07556 5.27724 272.499 
-6.92858e-06 1.31404e-05 2.68772e+25 4.47339 4.49155 272.575 
-5.01725e-06 1.31404e-05 2.68585e+25 6.96851 3.79695 272.743 
-3.10592e-06 1.31404e-05 2.68663e+25 8.74257 2.86967 272.58 
-1.19458e-06 1.31404e-05 2.68481e+25 10.6788 2.36895 272.599 
-1.64852e-05 1.36182e-05 2.6797e+25 -0.744428 5.16723 272.691 
-1.45739e-05 1.36182e-05 2.68416e+25 -3.21602 9.3077 272.465 
-1.26626e-05 1.36182e-05 2.68825e+25 -2.01229 7.62008 272.249 
-1.07512e-05 1.36182e-05 2.68656e+25 0.654998 5.74585 272.569 
-8.83992e-06 1.36182e-05 2.68824e+25 3.59336 4.6129 272.506 
-6.92858e-06 1.36182e-05 2.68702e+25 6.31997 3.86933 272.66 
-5.01725e-06 1.36182e-05 2.68631e+25 8.69484 3.18276 272.641 
-3.10592e-06 1.36182e-05 2.68719e+25 10.7284 2.37254 272.508 
-1.19458e-06 1.36182e-05 2.68363e+25 12.644 1.95236 272.886 
-1.64852e-05 1.40961e-05 2.67939e+25 -1.01061 6.04816 272.701 
-1.45739e-05 1.40961e-05 2.68415e+25 -3.19898 9.26716 272.427 
-1.26626e-05 1.40961e-05 2.68707e+25 -0.998408 6.89215 272.385 
-1.07512e-05 1.40961e-05 2.68602e+25 2.22193 4.92649 272.643 
-8.83992e-06 1.40961e-05 2.6868e+25 5.70008 3.85378 272.62 
-6.92858e-06 1.40961e-05 2.68578e+25 8.31571 3.22548 272.814 
-5.01725e-06 1.40961e-05 2.68774e+25 10.8478 2.50056 272.628 
-3.10592e-06 1.40961e-05 2.68773e+25 12.9564 1.89752 272.499 
-1.19458e-06 1.40961e-05 2.68248e+25 14.6927 1.53041 272.936 
-1.64852e-05 1.45739e-05 2.67818e+25 -1.22292 7.02846 272.723 
-1.45739e-05 1.45739e-05 2.68101e+25 -2.87149 9.1018 272.678 
-1.26626e-05 1.45739e-05 2.68521e+25 0.898187 5.97244 272.501 
-1.07512e-05 1.45739e-05 2.68674e+25 4.57521 3.93147 272.643 
-8.83992e-06 1.45739e-05 2.68544e+25 8.21125 3.1043 272.773 
-6.92858e-06 1.45739e-05 2.68597e+25 10.9455 2.53538 272.745 
-5.01725e-06 1.45739e-05 2.68716e+25 13.5368 1.97426 272.582 
-3.10592e-06 1.45739e-05 2.6891e+25 15.6242 1.51499 272.361 
-1.19458e-06 1.45739e-05 2.68387e+25 17.1307 1.1366 272.898 
-1.64852e-05 1.50518e-05 2.67323e+25 -1.66313 8.19606 272.812 
-1.45739e-05 1.50518e-05 2.6793e+25 -1.64235 8.32984 272.703 
-1.26626e-05 1.50518e-05 2.68455e+25 3.43944 4.81978 272.619 
-1.07512e-05 1.50518e-05 2.68691e+25 7.88134 2.93045 272.63 
-8.83992e-06 1.50518e-05 2.68653e+25 11.2406 2.2626 272.74 
-6.92858e-06 1.50518e-05 2.68645e+25 14.1207 1.91373 272.754 
-5.01725e-06 1.50518e-05 2.68863e+25 16.6049 1.44577 272.506 
-3.10592e-06 1.50518e-05 2.68839e+25 18.6004 1.06187 272.402 
-1.19458e-06 1.50518e-05 2.68414e+25 19.9579 0.797473 272.752 
-1.64852e-05 1.55296e-05 2.66995e+25 -2.14781 9.61386 272.633 
-1.45739e-05 1.55296e-05 2.67686e+25 0.84323 6.95271 272.918 
-1.26626e-05 1.55296e-05 2.68261e+25 7.43538 3.55018 272.803 
-1.07512e-05 1.55296e-05 2.68695e+25 12.1261 2.00493 272.636 
-8.83992e-06 1.55296e-05 2.68675e+25 15.2178 1.53764 272.748 
-6.92858e-06 1.55296e-05 2.68541e+25 17.9203 1.24975 272.801 
-5.01725e-06 1.55296e-05 2.68732e+25 20.191 0.986531 272.612 
-3.10592e-06 1.55296e-05 2.68717e+25 21.7003 0.622601 272.565 
-1.19458e-06 1.55296e-05 2.68584e+25 23.0051 0.497001 272.721 
-1.64852e-05 1.60074e-05 2.66271e+25 -2.29194 10.6228 272.661 
-1.45739e-05 1.60074e-05 2.67875e+25 5.88718 4.79672 272.891 
-1.26626e-05 1.60074e-05 2.68375e+25 13.1434 2.16006 272.861 
-1.07512e-05 1.60074e-05 2.68699e+25 17.3344 1.25062 272.743 
-8.83992e-06 1.60074e-05 2.68711e+25 20.106 0.926066 272.656 
-6.92858e-06 1.60074e-05 2.6869e+25 22.3243 0.709183 272.739 
-5.01725e-06 1.60074e-05 2.68627e+25 23.8781 0.526121 272.727 
-3.10592e-06 1.60074e-05 2.6862e+25 25.2076 0.326279 272.694 
-1.19458e-06 1.60074e-05 2.68496e+25 26.2195 0.241123 272.748 
-1.64852e-05 1.64852e-05 2.65004e+25 0.163542 9.56674 272.872 
-1.45739e-05 1.64852e-05 2.67764e+25 14.4979 2.35161 273.145 
-1.26626e-05 1.64852e-05 2.68466e+25 20.5915 0.97811 272.909 
-1.07512e-05 1.64852e-05 2.68545e+25 23.684 0.507616 272.857 
-8.83992e-06 1.64852e-05 2.68658e+25 25.5103 0.402121 272.823 
-6.92858e-06 1.64852e-05 2.68786e+25 27.0243 0.301962 272.661 
-5.01725e-06 1.64852e-05 2.68526e+25 27.9903 0.216975 272.779 
-3.10592e-06 1.64852e-05 2.68751e+25 28.9618 0.121083 272.625 
-1.19458e-06 1.64852e-05 2.68567e+25 29.5631 0.0670973 272.686 
-1.64852e-05 1.69631e-05 2.63998e+25 13.1639 3.62306 273.412 
-1.45739e-05 1.69631e-05 2.67868e+25 25.958 0.495987 273.243 
-1.26626e-05 1.69631e-05 2.68471e+25 28.895 0.209235 272.938 
-1.07512e-05 1.69631e-05 2.68542e+25 30.1646 0.0401353 272.924 
-8.83992e-06 1.69631e-05 2.68705e+25 31.0502 0.0451666 272.786 
-6.92858e-06 1.69631e-05 2.68696e+25 31.642 0.0340869 272.844 
-5.01725e-06 1.69631e-05 2.6864e+25 32.1069 0.0167538 272.838 
-3.10592e-06 1.69631e-05 2.68584e+25 32.4359 0.0217004 272.778 
-1.19458e-06 1.69631e-05 2.68489e+25 32.6356 -0.0128559 272.821 
-1.69631e-05 2.38917e-07 2.68793e+25 0.010987 0.511679 272.781 
-1.50517e-05 2.38917e-07 2.69091e+25 -0.280818 3.45405 272.36 
-1.31404e-05 2.38917e-07 2.69229e+25 -0.899385 5.09603 272.21 
-1.12291e-05 2.38917e-07 2.69066e+25 -1.8766 6.0315 272.405 
-9.31775e-06 2.38917e-07 2.69008e+25 -2.98992 6.2697 272.462 
-7.40642e-06 2.38917e-07 2.68846e+25 -3.60444 5.95668 272.57 
-5.49508e-06 2.38917e-07 2.68977e+25 -4.64865 5.47838 272.547 
-3.58375e-06 2.38917e-07 2.6889e+25 -5.78163 4.68635 272.409 
-1.67242e-06 2.38917e-07 2.6875e+25 -6.4582 3.31782 272.61 
-1.69631e-05 7.1675e-07 2.68692e+25 -0.0157574 0.512475 272.815 
-1.50517e-05 7.1675e-07 2.69062e+25 -0.284833 3.60544 272.397 
-1.31404e-05 7.1675e-07 2.69121e+25 -0.784625 5.3557 272.283 
-1.12291e-05 7.1675e-07 2.69053e+25 -1.65511 6.26532 272.423 
-9.31775e-06 7.1675e-07 2.68933e+25 -2.73891 6.4459 272.495 
-7.40642e-06 7.1675e-07 2.68831e+25 -3.7375 6.20044 272.666 
-5.49508e-06 7.1675e-07 2.68923e+25 -4.6351 5.71928 272.49 
-3.58375e-06 7.1675e-07 2.68838e+25 -5.70303 4.9897 272.479 
-1.67242e-06 7.1675e-07 2.68792e+25 -6.28924 3.55934 272.528 
-1.69631e-05 1.19458e-06 2.68526e+25 0.0114149 0.502839 272.884 
-1.50517e-05 1.19458e-06 2.69294e+25 -0.219328 3.64583 272.276 
-1.31404e-05 1.19458e-06 2.69163e+25 -0.810746 5.61505 272.316 
-1.12291e-05 1.19458e-06 2.69046e+25 -1.63328 6.50248 272.402 
-9.31775e-06 1.19458e-06 2.68907e+25 -2.69793 6.73364 272.546 
-7.40642e-06 1.19458e-06 2.68774e+25 -3.6773 6.39217 272.631 
-5.49508e-06 1.19458e-06 2.68798e+25 -4.55738 5.95528 272.603 
-3.58375e-06 1.19458e-06 2.68818e+25 -5.40114 5.10219 272.427 
-1.67242e-06 1.19458e-06 2.6872e+25 -6.28264 3.78872 272.606 
-1.69631e-05 1.67242e-06 2.68639e+25 -0.0309771 0.519286 272.793 
-1.50517e-05 1.67242e-06 2.69075e+25 -0.234757 3.75344 272.355 
-1.31404e-05 1.67242e-06 2.6909e+25 -0.787255 5.85307 272.359 
-1.12291e-05 1.67242e-06 2.69113e+25 -1.67359 6.61299 272.357 
-9.31775e-06 1.67242e-06 2.68861e+25 -2.65227 7.04895 272.532 
-7.40642e-06 1.67242e-06 2.68808e+25 -3.56802 6.56896 272.619 
-5.49508e-06 1.67242e-06 2.68854e+25 -4.39974 6.17334 272.572 
-3.58375e-06 1.67242e-06 2.68954e+25 -5.12032 5.21313 272.37 
-1.67242e-06 1.67242e-06 2.6876e+25 -6.30877 4.02837 272.557 
-1.69631e-05 2.15025e-06 2.68581e+25 0.0217221 0.570304 272.794 
-1.50517e-05 2.15025e-06 2.69001e+25 -0.168061 3.84822 272.358 
-1.31404e-05 2.15025e-06 2.69141e+25 -0.716566 6.04966 272.339 
-1.12291e-05 2.15025e-06 2.69089e+25 -1.63311 6.82277 272.286 
-9.31775e-06 2.15025e-06 2.6902e+25 -2.52497 7.34344 272.415 
-7.40642e-06 2.15025e-06 2.68763e+25 -3.50224 6.78877 272.634 
-5.49508e-06 2.15025e-06 2.68788e+25 -4.11947 6.42828 272.564 
-3.58375e-06 2.15025e-06 2.6897e+25 -4.937 5.45973 272.413 
-1.67242e-06 2.15025e-06 2.68704e+25 -6.02327 4.20234 272.567 
-1.69631e-05 2.62808e-06 2.68645e+25 0.0109765 0.518869 272.826 
-1.50517e-05 2.62808e-06 2.68946e+25 -0.301052 3.85852 272.477 
-1.31404e-05 2.62808e-06 2.69141e+25 -0.739641 6.11705 272.297 
-1.12291e-05 2.62808e-06 2.69121e+25 -1.4862 7.00701 272.253 
-9.31775e-06 2.62808e-06 2.68979e+25 -2.47656 7.5687 272.382 
-7.40642e-06 2.62808e-06 2.6876e+25 -3.25921 7.00288 272.645 
-5.49508e-06 2.62808e-06 2.6874e+25 -3.95089 6.5857 272.616 
-3.58375e-06 2.62808e-06 2.68866e+25 -4.74885 5.66181 272.453 
-1.67242e-06 2.62808e-06 2.68735e+25 -5.55258 4.47507 272.48 
-1.69631e-05 3.10592e-06 2.68652e+25 -0.032192 0.551401 272.906 
-1.50517e-05 3.10592e-06 2.69042e+25 -0.437628 3.96311 272.356 
-1.31404e-05 3.10592e-06 2.69139e+25 -0.800864 6.22169 272.301 
-1.12291e-05 3.10592e-06 2.69077e+25 -1.5625 7.23322 272.358 
-9.31775e-06 3.10592e-06 2.68851e+25 -2.28233 7.72168 272.494 
-7.40642e-06 3.10592e-06 2.68852e+25 -3.14678 7.26298 272.491 
-5.49508e-06 3.10592e-06 2.68725e+25 -3.79583 6.75835 272.591 
-3.58375e-06 3.10592e-06 2.68752e+25 -4.49805 5.89591 272.492 
-1.67242e-06 3.10592e-06 2.68892e+25 -5.1757 4.72194 272.338 
-1.69631e-05 3.58375e-06 2.68549e+25 -0.0489258 0.628586 272.899 
-1.50517e-05 3.58375e-06 2.69062e+25 -0.396945 4.0366 272.394 
-1.31404e-05 3.58375e-06 2.69056e+25 -0.902357 6.33819 272.367 
-1.12291e-05 3.58375e-06 2.68895e+25 -1.60525 7.57379 272.446 
-9.31775e-06 3.58375e-06 2.68864e+25 -2.19907 7.84023 272.558 
-7.40642e-06 3.58375e-06 2.68927e+25 -2.98329 7.52256 272.442 
-5.49508e-06 3.58375e-06 2.6884e+25 -3.63209 6.83385 272.498 
-3.58375e-06 3.58375e-06 2.68814e+25 -4.24466 6.064 272.506 
-1.67242e-06 3.58375e-06 2.6887e+25 -4.82372 4.87143 272.41 
-1.69631e-05 4.06158e-06 2.6868e+25 0.00616853 0.670821 272.782 
-1.50517e-05 4.06158e-06 2.68939e+25 -0.225124 4.22217 272.425 
-1.31404e-05 4.06158e-06 2.69163e+25 -0.906629 6.43317 272.259 
-1.12291e-05 4.06158e-06 2.68841e+25 -1.62961 7.76269 272.516 
-9.31775e-06 4.06158e-06 2.68911e+25 -2.20549 7.8581 272.465 
-7.40642e-06 4.06158e-06 2.69039e+25 -2.72244 7.73578 272.288 
-5.49508e-06 4.06158e-06 2.689e+25 -3.23479 6.90702 272.44 
-3.58375e-06 4.06158e-06 2.68773e+25 -3.85776 6.18809 272.491 
-1.67242e-06 4.06158e-06 2.68858e+25 -4.48967 5.09711 272.426 
-1.69631e-05 4.53942e-06 2.68613e+25 0.00998128 0.656197 272.805 
-1.50517e-05 4.53942e-06 2.68834e+25 -0.251056 4.38571 272.512 
-1.31404e-05 4.53942e-06 2.69198e+25 -0.846728 6.66532 272.135 
-1.12291e-05 4.53942e-06 2.69044e+25 -1.46847 7.905 272.324 
-9.31775e-06 4.53942e-06 2.68838e+25 -2.04256 7.9439 272.482 
-7.40642e-06 4.53942e-06 2.68919e+25 -2.4846 7.86492 272.342 
-5.49508e-06 4.53942e-06 2.68795e+25 -3.0891 6.99924 272.511 
-3.58375e-06 4.53942e-06 2.68677e+25 -3.50292 6.28061 272.597 
-1.67242e-06 4.53942e-06 2.68716e+25 -3.92945 5.2039 272.467 
-1.69631e-05 5.01725e-06 2.68552e+25 -0.0230777 0.719165 272.855 
-1.50517e-05 5.01725e-06 2.68993e+25 -0.257876 4.39004 272.384 
-1.31404e-05 5.01725e-06 2.69197e+25 -0.857763 6.92117 272.176 
-1.12291e-05 5.01725e-06 2.68861e+25 -1.43932 8.0918 272.434 
-9.31775e-06 5.01725e-06 2.68729e+25 -2.01021 8.07958 272.52 
-7.40642e-06 5.01725e-06 2.69056e+25 -2.46897 7.95728 272.325 
-5.49508e-06 5.01725e-06 2.68919e+25 -2.87115 7.13618 272.354 
-3.58375e-06 5.01725e-06 2.68603e+25 -3.1403 6.35337 272.641 
-1.67242e-06 5.01725e-06 2.68728e+25 -3.50877 5.2769 272.485 
-1.69631e-05 5.49508e-06 2.68696e+25 -0.0496249 0.790939 272.75 
-1.50517e-05 5.49508e-06 2.68983e+25 -0.352887 4.4706 272.392 
-1.31404e-05 5.49508e-06 2.69146e+25 -0.989423 7.09715 272.218 
-1.12291e-05 5.49508e-06 2.68921e+25 -1.50208 8.23998 272.375 
-9.31775e-06 5.49508e-06 2.68725e+25 -1.87346 8.22987 272.576 
-7.40642e-06 5.49508e-06 2.69029e+25 -2.23497 7.98722 272.274 
-5.49508e-06 5.49508e-06 2.68814e+25 -2.62029 7.25809 272.451 
-3.58375e-06 5.49508e-06 2.68681e+25 -2.65567 6.3862 272.563 
-1.67242e-06 5.49508e-06 2.68729e+25 -2.9479 5.39687 272.477 
-1.69631e-05 5.97292e-06 2.68623e+25 0.0212196 0.840727 272.722 
-1.50517e-05 5.97292e-06 2.69043e+25 -0.397986 4.69503 272.282 
-1.31404e-05 5.97292e-06 2.69094e+25 -1.07485 7.20964 272.142 
-1.12291e-05 5.97292e-06 2.68926e+25 -1.44701 8.40203 272.414 
-9.31775e-06 5.97292e-06 2.68659e+25 -1.62607 8.3529 272.605 
-7.40642e-06 5.97292e-06 2.68924e+25 -2.08918 8.12226 272.382 
-5.49508e-06 5.97292e-06 2.68737e+25 -2.21572 7.44072 272.476 
-3.58375e-06 5.97292e-06 2.68772e+25 -2.34583 6.42543 272.488 
-1.67242e-06 5.97292e-06 2.68702e+25 -2.49727 5.39046 272.449 
-1.69631e-05 6.45075e-06 2.68657e+25 -0.0172589 0.806422 272.683 
-1.50517e-05 6.45075e-06 2.69077e+25 -0.488979 4.87728 272.296 
-1.31404e-05 6.45075e-06 2.6904e+25 -1.01437 7.35602 272.239 
-1.12291e-05 6.45075e-06 2.68941e+25 -1.42664 8.49803 272.393 
-9.31775e-06 6.45075e-06 2.68885e+25 -1.597 8.38023 272.48 
-7.40642e-06 6.45075e-06 2.68956e+25 -1.80924 8.21684 272.337 
-5.49508e-06 6.45075e-06 2.68811e+25 -2.05801 7.42324 272.509 
-3.58375e-06 6.45075e-06 2.68773e+25 -2.04735 6.43843 272.448 
-1.67242e-06 6.45075e-06 2.6871e+25 -1.88184 5.3266 272.484 
-1.69631e-05 6.92858e-06 2.6846e+25 -0.0296778 0.832994 272.818 
-1.50517e-05 6.92858e-06 2.68991e+25 -0.432222 5.03812 272.308 
-1.31404e-05 6.92858e-06 2.68942e+25 -0.990586 7.48406 272.246 
-1.12291e-05 6.92858e-06 2.69014e+25 -1.34353 8.64036 272.293 
-9.31775e-06 6.92858e-06 2.68778e+25 -1.64628 8.37548 272.486 
-7.40642e-06 6.92858e-06 2.68707e+25 -1.71895 8.24638 272.483 
-5.49508e-06 6.92858e-06 2.68893e+25 -1.67579 7.41503 272.376 
-3.58375e-06 6.92858e-06 2.68759e+25 -1.57939 6.36027 272.492 
-1.67242e-06 6.92858e-06 2.6877e+25 -1.19454 5.33123 272.448 
-1.69631e-05 7.40642e-06 2.68492e+25 0.0269064 0.864338 272.823 
-1.50517e-05 7.40642e-06 2.69005e+25 -0.405026 5.22554 272.308 
-1.31404e-05 7.40642e-06 2.6901e+25 -1.09397 7.62193 272.274 
-1.12291e-05 7.40642e-06 2.68987e+25 -1.41237 8.58786 272.285 
-9.31775e-06 7.40642e-06 2.68816e+25 -1.65281 8.38799 272.521 
-7.40642e-06 7.40642e-06 2.68849e+25 -1.48589 8.12815 272.362 
-5.49508e-06 7.40642e-06 2.68881e+25 -1.16557 7.32109 272.295 
-3.58375e-06 7.40642e-06 2.68801e+25 -1.04001 6.32384 272.361 
-1.67242e-06 7.40642e-06 2.68778e+25 -0.662151 5.36696 272.401 
-1.69631e-05 7.88425e-06 2.68542e+25 0.00975607 0.822905 272.783 
-1.50517e-05 7.88425e-06 2.689e+25 -0.559717 5.50816 272.437 
-1.31404e-05 7.88425e-06 2.68994e+25 -0.992174 7.76568 272.278 
-1.12291e-05 7.88425e-06 2.6887e+25 -1.56619 8.58517 272.39 
-9.31775e-06 7.88425e-06 2.68766e+25 -1.46804 8.4287 272.503 
-7.40642e-06 7.88425e-06 2.68872e+25 -1.3607 8.02824 272.398 
-5.49508e-06 7.88425e-06 2.68978e+25 -0.900984 7.26075 272.256 
-3.58375e-06 7.88425e-06 2.68852e+25 -0.448247 6.30312 272.336 
-1.67242e-06 7.88425e-06 2.68586e+25 -0.173674 5.28244 272.515 
-1.69631e-05 8.36208e-06 2.68444e+25 -0.0276278 0.855852 272.786 
-1.50517e-05 8.36208e-06 2.68721e+25 -0.668738 5.6691 272.507 
-1.31404e-05 8.36208e-06 2.68701e+25 -1.01306 7.91464 272.524 
-1.12291e-05 8.36208e-06 2.68834e+25 -1.75282 8.50149 272.43 
-9.31775e-06 8.36208e-06 2.68776e+25 -1.50111 8.45557 272.501 
-7.40642e-06 8.36208e-06 2.68827e+25 -1.15934 7.8672 272.413 
-5.49508e-06 8.36208e-06 2.68842e+25 -0.622498 7.10222 272.322 
-3.58375e-06 8.36208e-06 2.68801e+25 -0.0220026 6.25607 272.415 
-1.67242e-06 8.36208e-06 2.68682e+25 0.273671 5.26978 272.452 
-1.69631e-05 8.83992e-06 2.68653e+25 0.00957371 0.861152 272.682 
-1.50517e-05 8.83992e-06 2.68538e+25 -0.542196 5.79788 272.615 
-1.31404e-05 8.83992e-06 2.68779e+25 -1.23274 8.09733 272.461 
-1.12291e-05 8.83992e-06 2.68802e+25 -1.70731 8.56814 272.46 
-9.31775e-06 8.83992e-06 2.68843e+25 -1.46868 8.38081 272.447 
-7.40642e-06 8.83992e-06 2.68919e+25 -0.893738 7.75012 272.338 
-5.49508e-06 8.83992e-06 2.68775e+25 -0.197303 6.9953 272.397 
-3.58375e-06 8.83992e-06 2.6882e+25 0.318336 6.15823 272.334 
-1.67242e-06 8.83992e-06 2.68697e+25 0.886661 5.11642 272.489 
-1.69631e-05 9.31775e-06 2.68631e+25 -0.0186899 0.854018 272.682 
-1.50517e-05 9.31775e-06 2.68809e+25 -0.515577 5.94353 272.478 
-1.31404e-05 9.31775e-06 2.68852e+25 -1.46606 8.21391 272.401 
-1.12291e-05 9.31775e-06 2.68863e+25 -1.61106 8.60652 272.426 
-9.31775e-06 9.31775e-06 2.68664e+25 -1.46242 8.17042 272.56 
-7.40642e-06 9.31775e-06 2.68804e+25 -0.637892 7.61922 272.474 
-5.49508e-06 9.31775e-06 2.68858e+25 0.110814 6.78795 272.362 
-3.58375e-06 9.31775e-06 2.68785e+25 0.903728 6.02965 272.454 
-1.67242e-06 9.31775e-06 2.68544e+25 1.44594 4.89825 272.556 
-1.69631e-05 9.79558e-06 2.68514e+25 -0.0644038 0.982704 272.642 
-1.50517e-05 9.79558e-06 2.68666e+25 -0.641578 6.2625 272.518 
-1.31404e-05 9.79558e-06 2.68864e+25 -1.64739 8.31957 272.371 
-1.12291e-05 9.79558e-06 2.68786e+25 -1.71255 8.62286 272.448 
-9.31775e-06 9.79558e-06 2.68453e+25 -1.24073 8.03826 272.773 
-7.40642e-06 9.79558e-06 2.68863e+25 -0.470593 7.42439 272.472 
-5.49508e-06 9.79558e-06 2.68846e+25 0.450092 6.61137 272.405 
-3.58375e-06 9.79558e-06 2.68835e+25 1.35207 5.77409 272.425 
-1.67242e-06 9.79558e-06 2.68562e+25 2.20528 4.63807 272.589 
-1.69631e-05 1.02734e-05 2.68556e+25 0.0239148 1.01421 272.698 
-1.50517e-05 1.02734e-05 2.68666e+25 -0.819227 6.54965 272.424 
-1.31404e-05 1.02734e-05 2.68779e+25 -1.74289 8.49471 272.423 
-1.12291e-05 1.02734e-05 2.68868e+25 -1.79732 8.53872 272.392 
-9.31775e-06 1.02734e-05 2.68606e+25 -1.08633 7.95568 272.721 
-7.40642e-06 1.02734e-05 2.68739e+25 -0.293945 7.19567 272.557 
-5.49508e-06 1.02734e-05 2.68916e+25 1.05283 6.3457 272.341 
-3.58375e-06 1.02734e-05 2.68787e+25 1.97404 5.47502 272.421 
-1.67242e-06 1.02734e-05 2.6858e+25 3.02931 4.44123 272.535 
-1.69631e-05 1.07512e-05 2.68533e+25 -0.0656685 1.09056 272.703 
-1.50517e-05 1.07512e-05 2.68854e+25 -0.927405 6.72241 272.336 
-1.31404e-05 1.07512e-05 2.68763e+25 -1.84029 8.70971 272.335 
-1.12291e-05 1.07512e-05 2.68712e+25 -1.85045 8.41416 272.502 
-9.31775e-06 1.07512e-05 2.68645e+25 -0.912553 7.70947 272.623 
-7.40642e-06 1.07512e-05 2.68797e+25 0.170384 6.83939 272.541 
-5.49508e-06 1.07512e-05 2.68784e+25 1.32662 6.0884 272.473 
-3.58375e-06 1.07512e-05 2.68725e+25 2.67228 5.11277 272.481 
-1.67242e-06 1.07512e-05 2.68649e+25 3.9577 4.32622 272.474 
-1.69631e-05 1.12291e-05 2.68428e+25 -0.0388796 1.24891 272.793 
-1.50517e-05 1.12291e-05 2.68841e+25 -1.1156 7.0068 272.262 
-1.31404e-05 1.12291e-05 2.68735e+25 -2.26418 8.8254 272.435 
-1.12291e-05 1.12291e-05 2.68727e+25 -2.02322 8.25363 272.471 
-9.31775e-06 1.12291e-05 2.68704e+25 -0.711121 7.4204 272.609 
-7.40642e-06 1.12291e-05 2.68626e+25 0.813036 6.4481 272.568 
-5.49508e-06 1.12291e-05 2.68769e+25 1.82219 5.80764 272.482 
-3.58375e-06 1.12291e-05 2.6856e+25 3.49742 4.70605 272.616 
-1.67242e-06 1.12291e-05 2.68655e+25 4.87435 4.09581 272.539 
-1.69631e-05 1.17069e-05 2.68313e+25 -0.0347922 1.34593 272.794 
-1.50517e-05 1.17069e-05 2.68775e+25 -1.41884 7.37284 272.2 
-1.31404e-05 1.17069e-05 2.68625e+25 -2.4078 8.95796 272.507 
-1.12291e-05 1.17069e-05 2.68705e+25 -2.03567 7.96503 272.49 
-9.31775e-06 1.17069e-05 2.68913e+25 -0.481994 7.02789 272.394 
-7.40642e-06 1.17069e-05 2.68642e+25 1.40097 6.15124 272.584 
-5.49508e-06 1.17069e-05 2.6878e+25 2.76818 5.50492 272.561 
-3.58375e-06 1.17069e-05 2.68489e+25 4.50017 4.27345 272.669 
-1.67242e-06 1.17069e-05 2.68526e+25 6.02718 3.73339 272.618 
-1.69631e-05 1.21847e-05 2.68135e+25 -0.0446866 1.41463 272.779 
-1.50517e-05 1.21847e-05 2.68832e+25 -1.73348 7.86047 272.239 
-1.31404e-05 1.21847e-05 2.68646e+25 -2.65728 8.94168 272.435 
-1.12291e-05 1.21847e-05 2.68661e+25 -1.6526 7.58297 272.53 
-9.31775e-06 1.21847e-05 2.68804e+25 -0.0468323 6.56028 272.483 
-7.40642e-06 1.21847e-05 2.68791e+25 1.85163 5.68305 272.518 
-5.49508e-06 1.21847e-05 2.68663e+25 3.83962 5.00608 272.62 
-3.58375e-06 1.21847e-05 2.68613e+25 5.57729 3.88366 272.605 
-1.67242e-06 1.21847e-05 2.68528e+25 7.22995 3.29035 272.686 
-1.69631e-05 1.26626e-05 2.68242e+25 -0.0604162 1.5476 272.737 
-1.50517e-05 1.26626e-05 2.68657e+25 -2.15599 8.38288 272.33 
-1.31404e-05 1.26626e-05 2.68735e+25 -2.92098 8.78388 272.402 
-1.12291e-05 1.26626e-05 2.68724e+25 -1.34004 7.16546 272.525 
-9.31775e-06 1.26626e-05 2.68847e+25 0.451699 6.11603 272.452 
-7.40642e-06 1.26626e-05 2.68763e+25 2.61488 5.18468 272.561 
-5.49508e-06 1.26626e-05 2.68645e+25 5.02576 4.53047 272.547 
-3.58375e-06 1.26626e-05 2.6859e+25 6.73809 3.55248 272.613 
-1.67242e-06 1.26626e-05 2.68562e+25 8.55907 2.87587 272.651 
-1.69631e-05 1.31404e-05 2.6815e+25 -0.0930994 1.74055 272.852 
-1.50517e-05 1.31404e-05 2.68626e+25 -2.53576 8.88898 272.293 
-1.31404e-05 1.31404e-05 2.68707e+25 -2.93981 8.5993 272.321 
-1.12291e-05 1.31404e-05 2.6874e+25 -0.814874 6.64204 272.494 
-9.31775e-06 1.31404e-05 2.68771e+25 1.48698 5.55399 272.602 
-7.40642e-06 1.31404e-05 2.68824e+25 3.87924 4.60337 272.467 
-5.49508e-06 1.31404e-05 2.68642e+25 6.34701 3.9925 272.608 
-3.58375e-06 1.31404e-05 2.68505e+25 8.30435 3.11009 272.7 
-1.67242e-06 1.31404e-05 2.68475e+25 10.3301 2.5165 272.675 
-1.69631e-05 1.36182e-05 2.67841e+25 -0.101957 2.02797 272.958 
-1.50517e-05 1.36182e-05 2.68394e+25 -2.97014 9.3427 272.356 
-1.31404e-05 1.36182e-05 2.68806e+25 -2.56405 8.25006 272.218 
-1.12291e-05 1.36182e-05 2.68663e+25 0.0215384 5.9661 272.49 
-9.31775e-06 1.36182e-05 2.68655e+25 2.87615 4.86484 272.638 
-7.40642e-06 1.36182e-05 2.6864e+25 5.6844 3.95359 272.605 
-5.49508e-06 1.36182e-05 2.68526e+25 8.03458 3.35184 272.693 
-3.58375e-06 1.36182e-05 2.68598e+25 10.2994 2.71548 272.661 
-1.67242e-06 1.36182e-05 2.68469e+25 12.1493 2.07677 272.708 
-1.69631e-05 1.40961e-05 2.67922e+25 -0.268421 2.49037 272.756 
-1.50517e-05 1.40961e-05 2.68249e+25 -3.14497 9.67952 272.487 
-1.31404e-05 1.40961e-05 2.68518e+25 -1.76426 7.69146 272.467 
-1.12291e-05 1.40961e-05 2.68701e+25 1.33509 5.24518 272.508 
-9.31775e-06 1.40961e-05 2.68595e+25 4.84389 4.07291 272.749 
-7.40642e-06 1.40961e-05 2.68517e+25 7.68601 3.26655 272.88 
-5.49508e-06 1.40961e-05 2.68651e+25 10.2546 2.7486 272.63 
-3.58375e-06 1.40961e-05 2.68731e+25 12.5086 2.27139 272.534 
-1.67242e-06 1.40961e-05 2.68451e+25 14.2341 1.65521 272.826 
-1.69631e-05 1.45739e-05 2.67747e+25 -0.278375 3.10336 272.806 
-1.50517e-05 1.45739e-05 2.68069e+25 -3.05271 9.81997 272.679 
-1.31404e-05 1.45739e-05 2.68467e+25 -0.247042 6.80841 272.547 
-1.12291e-05 1.45739e-05 2.68572e+25 3.59767 4.42362 272.718 
-9.31775e-06 1.45739e-05 2.68589e+25 7.41102 3.18361 272.697 
-7.40642e-06 1.45739e-05 2.68605e+25 10.2416 2.65735 272.78 
-5.49508e-06 1.45739e-05 2.68699e+25 12.9514 2.13414 272.606 
-3.58375e-06 1.45739e-05 2.68915e+25 15.103 1.68035 272.445 
-1.67242e-06 1.45739e-05 2.68534e+25 16.7696 1.24392 272.718 
-1.69631e-05 1.50518e-05 2.67426e+25 -0.453743 3.96701 272.863 
-1.50517e-05 1.50518e-05 2.67805e+25 -2.55855 9.55458 272.71 
-1.31404e-05 1.50518e-05 2.68406e+25 2.10706 5.48251 272.568 
-1.12291e-05 1.50518e-05 2.68522e+25 6.88476 3.40792 272.745 
-9.31775e-06 1.50518e-05 2.68737e+25 10.4611 2.37973 272.647 
-7.40642e-06 1.50518e-05 2.68689e+25 13.4895 1.91729 272.654 
-5.49508e-06 1.50518e-05 2.68706e+25 16.0766 1.51222 272.701 
-3.58375e-06 1.50518e-05 2.68883e+25 18.1263 1.13821 272.449 
-1.67242e-06 1.50518e-05 2.68507e+25 19.6255 0.878948 272.672 
-1.69631e-05 1.55296e-05 2.66936e+25 -0.59171 5.12654 272.793 
-1.50517e-05 1.55296e-05 2.67698e+25 -0.914328 8.38675 272.846 
-1.31404e-05 1.55296e-05 2.6824e+25 6.05755 4.03444 272.814 
-1.12291e-05 1.55296e-05 2.68589e+25 11.1898 2.37699 272.696 
-9.31775e-06 1.55296e-05 2.68729e+25 14.4859 1.57026 272.645 
-7.40642e-06 1.55296e-05 2.68715e+25 17.3084 1.32104 272.67 
-5.49508e-06 1.55296e-05 2.68571e+25 19.6818 0.885414 272.764 
-3.58375e-06 1.55296e-05 2.68656e+25 21.3644 0.735265 272.658 
-1.67242e-06 1.55296e-05 2.68318e+25 22.7094 0.604366 272.86 
-1.69631e-05 1.60074e-05 2.65882e+25 -0.921891 6.80034 272.796 
-1.50517e-05 1.60074e-05 2.6744e+25 3.3413 6.21365 273.007 
-1.31404e-05 1.60074e-05 2.68395e+25 11.6788 2.48652 272.84 
-1.12291e-05 1.60074e-05 2.68532e+25 16.5139 1.33629 272.786 
-9.31775e-06 1.60074e-05 2.68682e+25 19.4675 0.861269 272.704 
-7.40642e-06 1.60074e-05 2.68836e+25 21.7409 0.710779 272.682 
-5.49508e-06 1.60074e-05 2.68747e+25 23.5123 0.40646 272.705 
-3.58375e-06 1.60074e-05 2.68632e+25 24.9739 0.506002 272.639 
-1.67242e-06 1.60074e-05 2.6859e+25 25.9619 0.328115 272.668 
-1.69631e-05 1.64852e-05 2.63505e+25 -0.836218 8.72744 272.888 
-1.50517e-05 1.64852e-05 2.67528e+25 11.8534 3.35555 273.093 
-1.31404e-05 1.64852e-05 2.68285e+25 19.5126 1.03652 272.897 
-1.12291e-05 1.64852e-05 2.68465e+25 22.9903 0.500786 272.934 
-9.31775e-06 1.64852e-05 2.68684e+25 25.1108 0.350566 272.765 
-7.40642e-06 1.64852e-05 2.6883e+25 26.7125 0.257899 272.652 
-5.49508e-06 1.64852e-05 2.6859e+25 27.7525 0.107399 272.793 
-3.58375e-06 1.64852e-05 2.68755e+25 28.7153 0.159658 272.648 
-1.67242e-06 1.64852e-05 2.68591e+25 29.4477 0.13631 272.736 
-1.69631e-05 1.69631e-05 2.57103e+25 4.36548 6.62092 272.966 
-1.50517e-05 1.69631e-05 2.67645e+25 24.47 0.752652 273.192 
-1.31404e-05 1.69631e-05 2.68356e+25 28.4045 0.18487 272.961 
-1.12291e-05 1.69631e-05 2.685e+25 29.9922 0.0606477 272.97 
-9.31775e-06 1.69631e-05 2.68694e+25 30.8684 0.0864903 272.847 
-7.40642e-06 1.69631e-05 2.68631e+25 31.5143 0.0284784 272.833 
-5.49508e-06 1.69631e-05 2.68526e+25 32.0361 0.0276989 272.914 
-3.58375e-06 1.69631e-05 2.68642e+25 32.3893 -0.011444 272.732 
-1.67242e-06 1.69631e-05 2.68353e+25 32.6249 0.0526574 272.896 
-1.60074e-05 2.38917e-07 2.68936e+25 -0.132464 2.01601 272.581 
-1.40961e-05 2.38917e-07 2.69135e+25 -0.598288 4.56128 272.35 
-1.21847e-05 2.38917e-07 2.69214e+25 -1.39471 5.65001 272.301 
-1.02734e-05 2.38917e-07 2.68894e+25 -2.39473 6.1906 272.535 
-8.36208e-06 2.38917e-07 2.68979e+25 -3.29211 6.05085 272.491 
-6.45075e-06 2.38917e-07 2.68744e+25 -4.15794 5.82818 272.72 
-4.53942e-06 2.38917e-07 2.68803e+25 -5.18162 5.02041 272.547 
-2.62808e-06 2.38917e-07 2.68828e+25 -6.12362 4.00031 272.53 
-7.1675e-07 2.38917e-07 2.6869e+25 -6.90963 2.57886 272.593 
-1.60074e-05 7.1675e-07 2.68945e+25 -0.151806 2.16903 272.569 
-1.40961e-05 7.1675e-07 2.69112e+25 -0.583915 4.74325 272.335 
-1.21847e-05 7.1675e-07 2.69226e+25 -1.24199 5.87494 272.294 
-1.02734e-05 7.1675e-07 2.68896e+25 -2.28386 6.4805 272.504 
-8.36208e-06 7.1675e-07 2.68786e+25 -3.25816 6.25868 272.594 
-6.45075e-06 7.1675e-07 2.68774e+25 -4.2155 6.16959 272.707 
-4.53942e-06 7.1675e-07 2.68991e+25 -5.09965 5.22254 272.479 
-2.62808e-06 7.1675e-07 2.68767e+25 -5.88905 4.10722 272.571 
-7.1675e-07 7.1675e-07 2.68886e+25 -6.78495 2.89202 272.541 
-1.60074e-05 1.19458e-06 2.68772e+25 -0.0665637 2.25312 272.619 
-1.40961e-05 1.19458e-06 2.69231e+25 -0.331617 4.82416 272.227 
-1.21847e-05 1.19458e-06 2.68993e+25 -1.2061 5.98714 272.429 
-1.02734e-05 1.19458e-06 2.68794e+25 -2.07413 6.73653 272.636 
-8.36208e-06 1.19458e-06 2.68734e+25 -3.17014 6.43758 272.683 
-6.45075e-06 1.19458e-06 2.68706e+25 -4.14325 6.44396 272.648 
-4.53942e-06 1.19458e-06 2.6877e+25 -5.09807 5.57943 272.633 
-2.62808e-06 1.19458e-06 2.68825e+25 -5.791 4.31621 272.58 
-7.1675e-07 1.19458e-06 2.68765e+25 -6.75099 3.16751 272.574 
-1.60074e-05 1.67242e-06 2.6901e+25 -0.0123845 2.26931 272.441 
-1.40961e-05 1.67242e-06 2.69151e+25 -0.377323 4.85476 272.276 
-1.21847e-05 1.67242e-06 2.68922e+25 -1.30789 6.24448 272.515 
-1.02734e-05 1.67242e-06 2.68955e+25 -2.01302 7.00138 272.5 
-8.36208e-06 1.67242e-06 2.68841e+25 -3.21274 6.63313 272.569 
-6.45075e-06 1.67242e-06 2.68695e+25 -3.8438 6.68025 272.631 
-4.53942e-06 1.67242e-06 2.6876e+25 -4.81587 5.7892 272.626 
-2.62808e-06 1.67242e-06 2.68961e+25 -5.76084 4.59418 272.404 
-7.1675e-07 1.67242e-06 2.68924e+25 -6.5723 3.37779 272.436 
-1.60074e-05 2.15025e-06 2.69062e+25 -0.0867189 2.28914 272.376 
-1.40961e-05 2.15025e-06 2.69059e+25 -0.362878 5.04366 272.387 
-1.21847e-05 2.15025e-06 2.68924e+25 -1.1996 6.58465 272.474 
-1.02734e-05 2.15025e-06 2.68948e+25 -2.08201 7.20844 272.415 
-8.36208e-06 2.15025e-06 2.68872e+25 -3.03123 6.88422 272.492 
-6.45075e-06 2.15025e-06 2.68698e+25 -3.79007 6.83389 272.67 
-4.53942e-06 2.15025e-06 2.688e+25 -4.60596 5.92584 272.476 
-2.62808e-06 2.15025e-06 2.68861e+25 -5.42587 4.95606 272.416 
-7.1675e-07 2.15025e-06 2.68903e+25 -6.32958 3.48034 272.397 
-1.60074e-05 2.62808e-06 2.69053e+25 -0.0909585 2.43526 272.439 
-1.40961e-05 2.62808e-06 2.68927e+25 -0.550547 5.18808 272.481 
-1.21847e-05 2.62808e-06 2.68963e+25 -1.01508 6.82336 272.372 
-1.02734e-05 2.62808e-06 2.68944e+25 -1.99286 7.43947 272.417 
-8.36208e-06 2.62808e-06 2.68962e+25 -2.87074 7.15375 272.386 
-6.45075e-06 2.62808e-06 2.68682e+25 -3.75546 6.91957 272.643 
-4.53942e-06 2.62808e-06 2.6888e+25 -4.31753 6.14896 272.467 
-2.62808e-06 2.62808e-06 2.68917e+25 -5.10754 5.17072 272.452 
-7.1675e-07 2.62808e-06 2.68849e+25 -5.99963 3.65889 272.456 
-1.60074e-05 3.10592e-06 2.68955e+25 -0.138339 2.55729 272.462 
-1.40961e-05 3.10592e-06 2.6899e+25 -0.572314 5.34418 272.413 
-1.21847e-05 3.10592e-06 2.69115e+25 -1.04462 7.00122 272.256 
-1.02734e-05 3.10592e-06 2.69048e+25 -2.0237 7.67185 272.335 
-8.36208e-06 3.10592e-06 2.68853e+25 -2.62817 7.37561 272.518 
-6.45075e-06 3.10592e-06 2.68771e+25 -3.5603 6.97033 272.49 
-4.53942e-06 3.10592e-06 2.68718e+25 -4.10448 6.31979 272.589 
-2.62808e-06 3.10592e-06 2.68846e+25 -4.82335 5.31304 272.455 
-7.1675e-07 3.10592e-06 2.68718e+25 -5.57731 3.84969 272.531 
-1.60074e-05 3.58375e-06 2.68995e+25 -0.175745 2.63613 272.439 
-1.40961e-05 3.58375e-06 2.68922e+25 -0.547175 5.52932 272.403 
-1.21847e-05 3.58375e-06 2.69047e+25 -1.26493 7.18666 272.282 
-1.02734e-05 3.58375e-06 2.68919e+25 -1.98707 7.85229 272.472 
-8.36208e-06 3.58375e-06 2.68806e+25 -2.45436 7.57192 272.531 
-6.45075e-06 3.58375e-06 2.68822e+25 -3.40078 7.06884 272.522 
-4.53942e-06 3.58375e-06 2.68745e+25 -3.8256 6.49361 272.568 
-2.62808e-06 3.58375e-06 2.68763e+25 -4.41138 5.4572 272.484 
-7.1675e-07 3.58375e-06 2.68789e+25 -5.01521 3.92285 272.454 
-1.60074e-05 4.06158e-06 2.68896e+25 -0.0784908 2.67939 272.491 
-1.40961e-05 4.06158e-06 2.68977e+25 -0.519003 5.65824 272.379 
-1.21847e-05 4.06158e-06 2.6917e+25 -1.22298 7.31554 272.244 
-1.02734e-05 4.06158e-06 2.68921e+25 -1.95303 8.09181 272.516 
-8.36208e-06 4.06158e-06 2.689e+25 -2.53043 7.77991 272.47 
-6.45075e-06 4.06158e-06 2.68881e+25 -3.11354 7.28133 272.403 
-4.53942e-06 4.06158e-06 2.68713e+25 -3.64989 6.70713 272.588 
-2.62808e-06 4.06158e-06 2.68727e+25 -4.19103 5.61741 272.523 
-7.1675e-07 4.06158e-06 2.68766e+25 -4.73194 3.92669 272.456 
-1.60074e-05 4.53942e-06 2.6891e+25 -0.137189 2.67259 272.488 
-1.40961e-05 4.53942e-06 2.68922e+25 -0.487982 5.70409 272.402 
-1.21847e-05 4.53942e-06 2.69018e+25 -1.18516 7.44481 272.313 
-1.02734e-05 4.53942e-06 2.68823e+25 -1.85465 8.19564 272.527 
-8.36208e-06 4.53942e-06 2.68963e+25 -2.24988 7.85518 272.44 
-6.45075e-06 4.53942e-06 2.68955e+25 -2.74435 7.45729 272.315 
-4.53942e-06 4.53942e-06 2.68775e+25 -3.39187 6.89766 272.568 
-2.62808e-06 4.53942e-06 2.68766e+25 -3.77807 5.77457 272.472 
-7.1675e-07 4.53942e-06 2.68641e+25 -4.30771 4.13833 272.497 
-1.60074e-05 5.01725e-06 2.68974e+25 -0.171253 2.75664 272.414 
-1.40961e-05 5.01725e-06 2.69067e+25 -0.548219 5.83665 272.271 
-1.21847e-05 5.01725e-06 2.6896e+25 -1.20913 7.59374 272.343 
-1.02734e-05 5.01725e-06 2.68864e+25 -1.7102 8.32764 272.495 
-8.36208e-06 5.01725e-06 2.68863e+25 -2.16031 7.94548 272.462 
-6.45075e-06 5.01725e-06 2.68998e+25 -2.60501 7.63977 272.24 
-4.53942e-06 5.01725e-06 2.68692e+25 -3.09236 6.92749 272.491 
-2.62808e-06 5.01725e-06 2.68728e+25 -3.26933 5.85429 272.464 
-7.1675e-07 5.01725e-06 2.687e+25 -3.77077 4.3416 272.478 
-1.60074e-05 5.49508e-06 2.69004e+25 -0.165008 2.78222 272.432 
-1.40961e-05 5.49508e-06 2.69124e+25 -0.677777 6.03502 272.157 
-1.21847e-05 5.49508e-06 2.69044e+25 -1.19382 7.78171 272.286 
-1.02734e-05 5.49508e-06 2.68869e+25 -1.62098 8.42927 272.454 
-8.36208e-06 5.49508e-06 2.68942e+25 -2.11137 8.10146 272.373 
-6.45075e-06 5.49508e-06 2.68944e+25 -2.40209 7.7053 272.422 
-4.53942e-06 5.49508e-06 2.68714e+25 -2.64974 6.92182 272.518 
-2.62808e-06 5.49508e-06 2.68729e+25 -2.87893 6.00809 272.503 
-7.1675e-07 5.49508e-06 2.68646e+25 -3.22163 4.53982 272.519 
-1.60074e-05 5.97292e-06 2.68989e+25 -0.161433 2.84129 272.397 
-1.40961e-05 5.97292e-06 2.69051e+25 -0.712322 6.2216 272.225 
-1.21847e-05 5.97292e-06 2.69124e+25 -1.28044 7.8414 272.174 
-1.02734e-05 5.97292e-06 2.68753e+25 -1.63064 8.48434 272.561 
-8.36208e-06 5.97292e-06 2.68868e+25 -1.86077 8.21468 272.481 
-6.45075e-06 5.97292e-06 2.68739e+25 -2.08728 7.7459 272.549 
-4.53942e-06 5.97292e-06 2.68689e+25 -2.39265 6.89281 272.582 
-2.62808e-06 5.97292e-06 2.68856e+25 -2.49889 6.05934 272.343 
-7.1675e-07 5.97292e-06 2.68504e+25 -2.43521 4.63066 272.644 
-1.60074e-05 6.45075e-06 2.68788e+25 -0.165219 2.98887 272.546 
-1.40961e-05 6.45075e-06 2.6909e+25 -0.733912 6.35733 272.198 
-1.21847e-05 6.45075e-06 2.69197e+25 -1.17982 7.89104 272.086 
-1.02734e-05 6.45075e-06 2.68789e+25 -1.62548 8.42533 272.527 
-8.36208e-06 6.45075e-06 2.68782e+25 -1.77295 8.30926 272.523 
-6.45075e-06 6.45075e-06 2.68802e+25 -1.96283 7.76321 272.508 
-4.53942e-06 6.45075e-06 2.68828e+25 -1.96381 6.94841 272.394 
-2.62808e-06 6.45075e-06 2.68902e+25 -2.02995 6.08982 272.319 
-7.1675e-07 6.45075e-06 2.68454e+25 -1.79217 4.60611 272.625 
-1.60074e-05 6.92858e-06 2.68849e+25 -0.0728239 3.13738 272.521 
-1.40961e-05 6.92858e-06 2.69189e+25 -0.778355 6.47686 272.071 
-1.21847e-05 6.92858e-06 2.69026e+25 -1.21473 7.95209 272.237 
-1.02734e-05 6.92858e-06 2.68915e+25 -1.54581 8.53438 272.38 
-8.36208e-06 6.92858e-06 2.68799e+25 -1.6684 8.36728 272.499 
-6.45075e-06 6.92858e-06 2.68893e+25 -1.72014 7.8261 272.402 
-4.53942e-06 6.92858e-06 2.68859e+25 -1.46156 6.93274 272.409 
-2.62808e-06 6.92858e-06 2.68865e+25 -1.3855 5.97646 272.362 
-7.1675e-07 6.92858e-06 2.68298e+25 -1.32016 4.64137 272.803 
-1.60074e-05 7.40642e-06 2.68732e+25 0.0021717 3.30463 272.546 
-1.40961e-05 7.40642e-06 2.69026e+25 -0.887064 6.6095 272.185 
-1.21847e-05 7.40642e-06 2.69029e+25 -1.31856 8.091 272.323 
-1.02734e-05 7.40642e-06 2.68966e+25 -1.578 8.64529 272.413 
-8.36208e-06 7.40642e-06 2.68916e+25 -1.63225 8.36076 272.375 
-6.45075e-06 7.40642e-06 2.6889e+25 -1.4204 7.77337 272.424 
-4.53942e-06 7.40642e-06 2.68835e+25 -1.13348 6.94738 272.349 
-2.62808e-06 7.40642e-06 2.68733e+25 -0.754778 5.83169 272.394 
-7.1675e-07 7.40642e-06 2.68366e+25 -0.684105 4.62916 272.699 
-1.60074e-05 7.88425e-06 2.68743e+25 -0.0717184 3.35861 272.566 
-1.40961e-05 7.88425e-06 2.68936e+25 -0.80123 6.75602 272.343 
-1.21847e-05 7.88425e-06 2.69034e+25 -1.49268 8.26086 272.242 
-1.02734e-05 7.88425e-06 2.68749e+25 -1.46878 8.65489 272.491 
-8.36208e-06 7.88425e-06 2.68795e+25 -1.43703 8.35767 272.408 
-6.45075e-06 7.88425e-06 2.68741e+25 -1.17252 7.70774 272.495 
-4.53942e-06 7.88425e-06 2.68949e+25 -0.679719 6.88249 272.278 
-2.62808e-06 7.88425e-06 2.68769e+25 -0.254791 5.74325 272.393 
-7.1675e-07 7.88425e-06 2.68389e+25 -0.155633 4.59371 272.738 
-1.60074e-05 8.36208e-06 2.68773e+25 -0.235374 3.54769 272.558 
-1.40961e-05 8.36208e-06 2.68765e+25 -0.775866 6.79039 272.495 
-1.21847e-05 8.36208e-06 2.68907e+25 -1.45037 8.49495 272.351 
-1.02734e-05 8.36208e-06 2.68635e+25 -1.5382 8.58839 272.576 
-8.36208e-06 8.36208e-06 2.68858e+25 -1.40525 8.27116 272.37 
-6.45075e-06 8.36208e-06 2.68754e+25 -0.8665 7.60621 272.488 
-4.53942e-06 8.36208e-06 2.69062e+25 -0.219372 6.7196 272.171 
-2.62808e-06 8.36208e-06 2.68811e+25 0.0816995 5.61594 272.323 
-7.1675e-07 8.36208e-06 2.68473e+25 0.429714 4.56995 272.622 
-1.60074e-05 8.83992e-06 2.68797e+25 -0.271968 3.76967 272.423 
-1.40961e-05 8.83992e-06 2.68685e+25 -0.941336 6.90306 272.516 
-1.21847e-05 8.83992e-06 2.68759e+25 -1.56284 8.60185 272.442 
-1.02734e-05 8.83992e-06 2.6875e+25 -1.65341 8.51008 272.616 
-8.36208e-06 8.83992e-06 2.68745e+25 -1.17683 8.17097 272.504 
-6.45075e-06 8.83992e-06 2.68766e+25 -0.441985 7.42098 272.502 
-4.53942e-06 8.83992e-06 2.68859e+25 0.109811 6.55164 272.336 
-2.62808e-06 8.83992e-06 2.68797e+25 0.452564 5.51799 272.409 
-7.1675e-07 8.83992e-06 2.68452e+25 1.20312 4.481 272.62 
-1.60074e-05 9.31775e-06 2.68822e+25 -0.284852 3.9271 272.348 
-1.40961e-05 9.31775e-06 2.68719e+25 -1.03493 7.12024 272.482 
-1.21847e-05 9.31775e-06 2.68759e+25 -1.57987 8.69462 272.415 
-1.02734e-05 9.31775e-06 2.6867e+25 -1.65419 8.55943 272.544 
-8.36208e-06 9.31775e-06 2.68649e+25 -1.03677 7.94064 272.59 
-6.45075e-06 9.31775e-06 2.68876e+25 -0.277791 7.30299 272.354 
-4.53942e-06 9.31775e-06 2.68879e+25 0.442001 6.4286 272.341 
-2.62808e-06 9.31775e-06 2.68719e+25 1.17594 5.43366 272.55 
-7.1675e-07 9.31775e-06 2.68394e+25 1.86144 4.40314 272.701 
-1.60074e-05 9.79558e-06 2.68895e+25 -0.221546 4.05387 272.312 
-1.40961e-05 9.79558e-06 2.68855e+25 -1.31987 7.36864 272.367 
-1.21847e-05 9.79558e-06 2.68608e+25 -1.64314 8.85079 272.54 
-1.02734e-05 9.79558e-06 2.68759e+25 -1.56026 8.48483 272.46 
-8.36208e-06 9.79558e-06 2.68654e+25 -0.83971 7.82207 272.577 
-6.45075e-06 9.79558e-06 2.68842e+25 -0.0419022 7.06967 272.343 
-4.53942e-06 9.79558e-06 2.68843e+25 0.801059 6.22264 272.329 
-2.62808e-06 9.79558e-06 2.68723e+25 1.9332 5.28629 272.489 
-7.1675e-07 9.79558e-06 2.68499e+25 2.51724 4.34893 272.59 
-1.60074e-05 1.02734e-05 2.68962e+25 -0.28121 4.19728 272.256 
-1.40961e-05 1.02734e-05 2.68832e+25 -1.39934 7.62065 272.367 
-1.21847e-05 1.02734e-05 2.68908e+25 -1.90815 8.77509 272.364 
-1.02734e-05 1.02734e-05 2.68779e+25 -1.46625 8.25637 272.467 
-8.36208e-06 1.02734e-05 2.68624e+25 -0.708489 7.6204 272.639 
-6.45075e-06 1.02734e-05 2.6892e+25 0.364555 6.76913 272.415 
-4.53942e-06 1.02734e-05 2.68786e+25 1.44552 5.95054 272.42 
-2.62808e-06 1.02734e-05 2.68652e+25 2.6395 5.0224 272.549 
-7.1675e-07 1.02734e-05 2.68619e+25 3.44695 4.11596 272.497 
-1.60074e-05 1.07512e-05 2.68847e+25 -0.488298 4.44126 272.316 
-1.40961e-05 1.07512e-05 2.68674e+25 -1.38374 7.8965 272.398 
-1.21847e-05 1.07512e-05 2.68856e+25 -2.0692 8.70345 272.297 
-1.02734e-05 1.07512e-05 2.68695e+25 -1.34712 7.95455 272.58 
-8.36208e-06 1.07512e-05 2.68525e+25 -0.549493 7.444 272.704 
-6.45075e-06 1.07512e-05 2.68829e+25 0.897829 6.43811 272.415 
-4.53942e-06 1.07512e-05 2.68811e+25 1.98799 5.72368 272.422 
-2.62808e-06 1.07512e-05 2.68673e+25 3.44136 4.72463 272.487 
-7.1675e-07 1.07512e-05 2.68669e+25 4.46544 3.83118 272.445 
-1.60074e-05 1.12291e-05 2.68721e+25 -0.50691 4.69974 272.348 
-1.40961e-05 1.12291e-05 2.68691e+25 -1.7099 8.22777 272.393 
-1.21847e-05 1.12291e-05 2.68805e+25 -2.33185 8.69612 272.473 
-1.02734e-05 1.12291e-05 2.68639e+25 -1.3864 7.65884 272.537 
-8.36208e-06 1.12291e-05 2.68719e+25 -0.0429829 7.09629 272.595 
-6.45075e-06 1.12291e-05 2.68689e+25 1.41201 6.16164 272.618 
-4.53942e-06 1.12291e-05 2.6874e+25 2.67161 5.27505 272.508 
-2.62808e-06 1.12291e-05 2.68735e+25 4.17274 4.39497 272.414 
-7.1675e-07 1.12291e-05 2.68565e+25 5.47761 3.57267 272.628 
-1.60074e-05 1.17069e-05 2.68732e+25 -0.541308 4.96576 272.287 
-1.40961e-05 1.17069e-05 2.68754e+25 -2.19656 8.53461 272.335 
-1.21847e-05 1.17069e-05 2.68627e+25 -2.36814 8.62415 272.481 
-1.02734e-05 1.17069e-05 2.68787e+25 -1.26367 7.27459 272.476 
-8.36208e-06 1.17069e-05 2.68763e+25 0.459147 6.5557 272.51 
-6.45075e-06 1.17069e-05 2.6873e+25 2.10001 5.84987 272.534 
-4.53942e-06 1.17069e-05 2.68618e+25 3.57479 4.89611 272.633 
-2.62808e-06 1.17069e-05 2.68669e+25 5.20174 4.09686 272.546 
-7.1675e-07 1.17069e-05 2.68436e+25 6.64599 3.27365 272.678 
-1.60074e-05 1.21847e-05 2.68737e+25 -0.579141 5.48478 272.316 
-1.40961e-05 1.21847e-05 2.68635e+25 -2.52096 8.78646 272.372 
-1.21847e-05 1.21847e-05 2.6872e+25 -2.3802 8.47466 272.47 
-1.02734e-05 1.21847e-05 2.68847e+25 -0.972078 6.93126 272.42 
-8.36208e-06 1.21847e-05 2.68765e+25 0.892225 6.04873 272.504 
-6.45075e-06 1.21847e-05 2.68666e+25 2.83327 5.49362 272.61 
-4.53942e-06 1.21847e-05 2.68482e+25 4.74144 4.46168 272.755 
-2.62808e-06 1.21847e-05 2.68623e+25 6.28291 3.78394 272.537 
-7.1675e-07 1.21847e-05 2.68489e+25 7.99268 2.97345 272.678 
-1.60074e-05 1.26626e-05 2.68473e+25 -0.88821 6.07859 272.431 
-1.40961e-05 1.26626e-05 2.6855e+25 -2.75183 8.9784 272.442 
-1.21847e-05 1.26626e-05 2.68667e+25 -2.24128 8.16321 272.448 
-1.02734e-05 1.26626e-05 2.68676e+25 -0.447881 6.52991 272.587 
-8.36208e-06 1.26626e-05 2.68753e+25 1.56727 5.49479 272.535 
-6.45075e-06 1.26626e-05 2.68595e+25 3.75257 4.94669 272.667 
-4.53942e-06 1.26626e-05 2.68658e+25 5.884 3.96766 272.641 
-2.62808e-06 1.26626e-05 2.6861e+25 7.74169 3.29482 272.491 
-7.1675e-07 1.26626e-05 2.68534e+25 9.39512 2.59881 272.556 
-1.60074e-05 1.31404e-05 2.68322e+25 -1.23389 6.76907 272.457 
-1.40961e-05 1.31404e-05 2.68464e+25 -3.03002 9.08004 272.532 
-1.21847e-05 1.31404e-05 2.68883e+25 -2.06819 7.61528 272.249 
-1.02734e-05 1.31404e-05 2.68527e+25 0.280967 6.06136 272.596 
-8.36208e-06 1.31404e-05 2.68806e+25 2.70719 4.94506 272.61 
-6.45075e-06 1.31404e-05 2.68638e+25 5.09953 4.18225 272.625 
-4.53942e-06 1.31404e-05 2.68554e+25 7.52225 3.56756 272.693 
-2.62808e-06 1.31404e-05 2.68702e+25 9.38286 2.6693 272.542 
-7.1675e-07 1.31404e-05 2.6844e+25 11.0775 2.18474 272.694 
-1.60074e-05 1.36182e-05 2.68219e+25 -1.59018 7.55276 272.577 
-1.40961e-05 1.36182e-05 2.68594e+25 -3.1619 9.09423 272.408 
-1.21847e-05 1.36182e-05 2.68832e+25 -1.38928 6.99586 272.327 
-1.02734e-05 1.36182e-05 2.68615e+25 1.42164 5.41313 272.671 
-8.36208e-06 1.36182e-05 2.68759e+25 4.24562 4.37125 272.525 
-6.45075e-06 1.36182e-05 2.68685e+25 6.90937 3.58506 272.704 
-4.53942e-06 1.36182e-05 2.68629e+25 9.35124 3.04071 272.625 
-2.62808e-06 1.36182e-05 2.68685e+25 11.21 2.1415 272.473 
-7.1675e-07 1.36182e-05 2.68298e+25 13.0115 1.81746 272.877 
-1.60074e-05 1.40961e-05 2.67923e+25 -1.96428 8.45333 272.684 
-1.40961e-05 1.40961e-05 2.68375e+25 -2.99627 8.91103 272.474 
-1.21847e-05 1.40961e-05 2.68661e+25 -0.212403 6.28357 272.415 
-1.02734e-05 1.40961e-05 2.68605e+25 3.10679 4.59215 272.633 
-8.36208e-06 1.40961e-05 2.68724e+25 6.41744 3.6982 272.624 
-6.45075e-06 1.40961e-05 2.68683e+25 8.96641 3.05993 272.706 
-4.53942e-06 1.40961e-05 2.68744e+25 11.434 2.45789 272.539 
-2.62808e-06 1.40961e-05 2.68841e+25 13.3883 1.6679 272.439 
-7.1675e-07 1.40961e-05 2.68288e+25 15.012 1.47907 272.896 
-1.60074e-05 1.45739e-05 2.67713e+25 -2.23563 9.39589 272.66 
-1.40961e-05 1.45739e-05 2.68224e+25 -2.23423 8.3118 272.626 
-1.21847e-05 1.45739e-05 2.68633e+25 1.84653 5.47131 272.545 
-1.02734e-05 1.45739e-05 2.68566e+25 5.55838 3.66224 272.694 
-8.36208e-06 1.45739e-05 2.68633e+25 8.91706 3.03223 272.764 
-6.45075e-06 1.45739e-05 2.68629e+25 11.6042 2.36739 272.695 
-4.53942e-06 1.45739e-05 2.68751e+25 14.0096 1.90529 272.59 
-2.62808e-06 1.45739e-05 2.68735e+25 16.0201 1.28045 272.513 
-7.1675e-07 1.45739e-05 2.68319e+25 17.5835 1.11736 272.917 
-1.60074e-05 1.50518e-05 2.67612e+25 -2.71168 10.2032 272.602 
-1.40961e-05 1.50518e-05 2.68171e+25 -0.500114 7.32548 272.658 
-1.21847e-05 1.50518e-05 2.68462e+25 4.64838 4.43399 272.699 
-1.02734e-05 1.50518e-05 2.68832e+25 8.88684 2.7325 272.557 
-8.36208e-06 1.50518e-05 2.68473e+25 12.0534 2.32449 272.804 
-6.45075e-06 1.50518e-05 2.6863e+25 14.7485 1.72822 272.709 
-4.53942e-06 1.50518e-05 2.68724e+25 17.1502 1.39302 272.588 
-2.62808e-06 1.50518e-05 2.68835e+25 18.9232 0.979837 272.447 
-7.1675e-07 1.50518e-05 2.68457e+25 20.2815 0.684003 272.705 
-1.60074e-05 1.55296e-05 2.67243e+25 -2.86325 10.6128 272.682 
-1.40961e-05 1.55296e-05 2.68113e+25 2.59541 5.80787 272.671 
-1.21847e-05 1.55296e-05 2.68434e+25 8.77419 3.13296 272.823 
-1.02734e-05 1.55296e-05 2.68647e+25 12.8905 1.85046 272.635 
-8.36208e-06 1.55296e-05 2.68779e+25 15.9654 1.49033 272.741 
-6.45075e-06 1.55296e-05 2.6868e+25 18.5053 1.16262 272.731 
-4.53942e-06 1.55296e-05 2.68692e+25 20.6117 0.92043 272.621 
-2.62808e-06 1.55296e-05 2.6863e+25 22.0958 0.66969 272.648 
-7.1675e-07 1.55296e-05 2.68535e+25 23.2489 0.39042 272.662 
-1.60074e-05 1.60074e-05 2.66686e+25 -1.54425 9.9717 272.8 
-1.40961e-05 1.60074e-05 2.67975e+25 8.0924 3.8788 272.953 
-1.21847e-05 1.60074e-05 2.68439e+25 14.3857 1.86611 272.82 
-1.02734e-05 1.60074e-05 2.68698e+25 18.1077 1.07117 272.647 
-8.36208e-06 1.60074e-05 2.68754e+25 20.6312 0.835924 272.644 
-6.45075e-06 1.60074e-05 2.6871e+25 22.8089 0.637082 272.675 
-4.53942e-06 1.60074e-05 2.68735e+25 24.2759 0.512527 272.664 
-2.62808e-06 1.60074e-05 2.68795e+25 25.4555 0.321814 272.583 
-7.1675e-07 1.60074e-05 2.6857e+25 26.3523 0.292482 272.759 
-1.60074e-05 1.64852e-05 2.66179e+25 4.26183 6.82794 273.088 
-1.40961e-05 1.64852e-05 2.67868e+25 16.5753 1.84791 273.129 
-1.21847e-05 1.64852e-05 2.68486e+25 21.5247 0.81052 272.839 
-1.02734e-05 1.64852e-05 2.68605e+25 24.1703 0.51576 272.895 
-8.36208e-06 1.64852e-05 2.68739e+25 25.9178 0.348291 272.72 
-6.45075e-06 1.64852e-05 2.68649e+25 27.2957 0.284933 272.756 
-4.53942e-06 1.64852e-05 2.68679e+25 28.2444 0.184096 272.711 
-2.62808e-06 1.64852e-05 2.68616e+25 29.1565 0.0768485 272.668 
-7.1675e-07 1.64852e-05 2.68552e+25 29.6851 0.153723 272.691 
-1.60074e-05 1.69631e-05 2.66252e+25 18.879 1.95823 273.385 
-1.40961e-05 1.69631e-05 2.68104e+25 27.0296 0.396543 273.084 
-1.21847e-05 1.69631e-05 2.68445e+25 29.3994 0.16762 272.964 
-1.02734e-05 1.69631e-05 2.68483e+25 30.4569 0.138427 273.056 
-8.36208e-06 1.69631e-05 2.68626e+25 31.2817 0.0750503 272.868 
-6.45075e-06 1.69631e-05 2.68529e+25 31.8383 0.10909 272.973 
-4.53942e-06 1.69631e-05 2.68606e+25 32.1676 0.0330595 272.795 
-2.62808e-06 1.69631e-05 2.68527e+25 32.4609 0.0180285 272.874 
-7.1675e-07 1.69631e-05 2.68529e+25 32.6924 0.0166108 272.791 
-1.55296e-05 2.38917e-07 2.69156e+25 -0.224625 2.76827 272.374 
-1.36182e-05 2.38917e-07 2.692e+25 -0.790645 4.87898 272.322 
-1.17069e-05 2.38917e-07 2.69142e+25 -1.62756 5.87935 272.282 
-9.79558e-06 2.38917e-07 2.68857e+25 -2.77026 6.18075 272.501 
-7.88425e-06 2.38917e-07 2.68921e+25 -3.44144 5.97011 272.55 
-5.97292e-06 2.38917e-07 2.6881e+25 -4.47091 5.82843 272.58 
-4.06158e-06 2.38917e-07 2.68967e+25 -5.39869 4.9026 272.495 
-2.15025e-06 2.38917e-07 2.68797e+25 -6.3013 3.63726 272.545 
-2.38917e-07 2.38917e-07 2.6901e+25 -7.1686 2.02198 272.375 
-1.55296e-05 7.1675e-07 2.69047e+25 -0.23329 2.78581 272.405 
-1.36182e-05 7.1675e-07 2.69165e+25 -0.659225 4.90648 272.29 
-1.17069e-05 7.1675e-07 2.69151e+25 -1.44052 6.12497 272.316 
-9.79558e-06 7.1675e-07 2.68846e+25 -2.47664 6.45696 272.609 
-7.88425e-06 7.1675e-07 2.68764e+25 -3.48284 6.1316 272.65 
-5.97292e-06 7.1675e-07 2.68766e+25 -4.41229 6.01224 272.563 
-4.06158e-06 7.1675e-07 2.68973e+25 -5.42201 5.26632 272.4 
-2.15025e-06 7.1675e-07 2.6873e+25 -6.05962 3.81474 272.557 
-2.38917e-07 7.1675e-07 2.68874e+25 -7.12919 2.31249 272.508 
-1.55296e-05 1.19458e-06 2.68901e+25 -0.157106 2.85783 272.509 
-1.36182e-05 1.19458e-06 2.69119e+25 -0.497756 5.09864 272.322 
-1.17069e-05 1.19458e-06 2.6921e+25 -1.42099 6.35025 272.276 
-9.79558e-06 1.19458e-06 2.68788e+25 -2.36768 6.76893 272.619 
-7.88425e-06 1.19458e-06 2.6875e+25 -3.41638 6.42789 272.681 
-5.97292e-06 1.19458e-06 2.68859e+25 -4.33915 6.15522 272.626 
-4.06158e-06 1.19458e-06 2.68839e+25 -5.3409 5.48656 272.522 
-2.15025e-06 1.19458e-06 2.68748e+25 -6.04258 4.05424 272.628 
-2.38917e-07 1.19458e-06 2.68847e+25 -6.97392 2.5899 272.481 
-1.55296e-05 1.67242e-06 2.69117e+25 -0.0465868 3.00263 272.339 
-1.36182e-05 1.67242e-06 2.69068e+25 -0.544573 5.37566 272.36 
-1.17069e-05 1.67242e-06 2.69128e+25 -1.52229 6.57745 272.319 
-9.79558e-06 1.67242e-06 2.68837e+25 -2.36299 7.0712 272.601 
-7.88425e-06 1.67242e-06 2.68784e+25 -3.42813 6.67367 272.581 
-5.97292e-06 1.67242e-06 2.68803e+25 -4.11784 6.4388 272.569 
-4.06158e-06 1.67242e-06 2.68833e+25 -4.9079 5.61171 272.544 
-2.15025e-06 1.67242e-06 2.68721e+25 -6.05659 4.29999 272.624 
-2.38917e-07 1.67242e-06 2.68904e+25 -6.75018 2.82956 272.394 
-1.55296e-05 2.15025e-06 2.6895e+25 -0.163557 3.07675 272.435 
-1.36182e-05 2.15025e-06 2.69101e+25 -0.577785 5.57013 272.325 
-1.17069e-05 2.15025e-06 2.69098e+25 -1.45902 6.73275 272.339 
-9.79558e-06 2.15025e-06 2.68895e+25 -2.27578 7.3841 272.404 
-7.88425e-06 2.15025e-06 2.68853e+25 -3.25905 6.84841 272.57 
-5.97292e-06 2.15025e-06 2.68771e+25 -3.96366 6.69186 272.573 
-4.06158e-06 2.15025e-06 2.68923e+25 -4.76857 5.74856 272.363 
-2.15025e-06 2.15025e-06 2.68722e+25 -5.7582 4.61184 272.569 
-2.38917e-07 2.15025e-06 2.68882e+25 -6.54177 3.05959 272.385 
-1.55296e-05 2.62808e-06 2.69032e+25 -0.219892 3.12273 272.412 
-1.36182e-05 2.62808e-06 2.69111e+25 -0.657661 5.74154 272.309 
-1.17069e-05 2.62808e-06 2.69126e+25 -1.22239 6.93629 272.285 
-9.79558e-06 2.62808e-06 2.69059e+25 -2.25589 7.64464 272.358 
-7.88425e-06 2.62808e-06 2.68773e+25 -3.07669 7.02992 272.526 
-5.97292e-06 2.62808e-06 2.68794e+25 -3.78117 6.78278 272.615 
-4.06158e-06 2.62808e-06 2.68962e+25 -4.53479 5.93896 272.349 
-2.15025e-06 2.62808e-06 2.68914e+25 -5.27483 4.87021 272.388 
-2.38917e-07 2.62808e-06 2.68884e+25 -6.12143 3.23872 272.428 
-1.55296e-05 3.10592e-06 2.69008e+25 -0.286612 3.28794 272.391 
-1.36182e-05 3.10592e-06 2.68942e+25 -0.691022 5.78943 272.417 
-1.17069e-05 3.10592e-06 2.69161e+25 -1.28739 7.23912 272.373 
-9.79558e-06 3.10592e-06 2.68915e+25 -2.1064 7.79729 272.418 
-7.88425e-06 3.10592e-06 2.68805e+25 -2.86786 7.24938 272.622 
-5.97292e-06 3.10592e-06 2.68702e+25 -3.65706 6.9272 272.623 
-4.06158e-06 3.10592e-06 2.6886e+25 -4.26752 6.16295 272.43 
-2.15025e-06 3.10592e-06 2.68916e+25 -5.03872 5.01698 272.38 
-2.38917e-07 3.10592e-06 2.68832e+25 -5.61577 3.26227 272.458 
-1.55296e-05 3.58375e-06 2.69071e+25 -0.270925 3.44968 272.343 
-1.36182e-05 3.58375e-06 2.6899e+25 -0.767376 5.89999 272.371 
-1.17069e-05 3.58375e-06 2.69016e+25 -1.36886 7.43055 272.338 
-9.79558e-06 3.58375e-06 2.68847e+25 -2.19076 7.88036 272.533 
-7.88425e-06 3.58375e-06 2.6885e+25 -2.70164 7.57056 272.549 
-5.97292e-06 3.58375e-06 2.68865e+25 -3.54233 7.10221 272.432 
-4.06158e-06 3.58375e-06 2.68787e+25 -4.0528 6.36818 272.508 
-2.15025e-06 3.58375e-06 2.68849e+25 -4.59232 5.31846 272.391 
-2.38917e-07 3.58375e-06 2.68719e+25 -5.1239 3.32799 272.488 
-1.55296e-05 4.06158e-06 2.68906e+25 -0.112639 3.50801 272.475 
-1.36182e-05 4.06158e-06 2.69102e+25 -0.707897 6.16969 272.262 
-1.17069e-05 4.06158e-06 2.68967e+25 -1.41208 7.62019 272.437 
-9.79558e-06 4.06158e-06 2.68739e+25 -2.08842 8.012 272.577 
-7.88425e-06 4.06158e-06 2.68964e+25 -2.59217 7.71807 272.372 
-5.97292e-06 4.06158e-06 2.68856e+25 -3.22468 7.12983 272.415 
-4.06158e-06 4.06158e-06 2.68733e+25 -3.75019 6.5789 272.527 
-2.15025e-06 4.06158e-06 2.68868e+25 -4.32137 5.46026 272.315 
-2.38917e-07 4.06158e-06 2.68685e+25 -4.85215 3.51548 272.457 
-1.55296e-05 4.53942e-06 2.68849e+25 -0.123485 3.55505 272.487 
-1.36182e-05 4.53942e-06 2.69054e+25 -0.601879 6.40226 272.32 
-1.17069e-05 4.53942e-06 2.6901e+25 -1.34038 7.80018 272.317 
-9.79558e-06 4.53942e-06 2.68938e+25 -1.94166 8.14024 272.484 
-7.88425e-06 4.53942e-06 2.69006e+25 -2.41309 7.82906 272.357 
-5.97292e-06 4.53942e-06 2.68741e+25 -2.94982 7.22395 272.505 
-4.06158e-06 4.53942e-06 2.68607e+25 -3.48865 6.6062 272.622 
-2.15025e-06 4.53942e-06 2.687e+25 -3.87704 5.53203 272.438 
-2.38917e-07 4.53942e-06 2.68681e+25 -4.48421 3.65076 272.514 
-1.55296e-05 5.01725e-06 2.68901e+25 -0.26947 3.62678 272.433 
-1.36182e-05 5.01725e-06 2.69117e+25 -0.688532 6.53173 272.201 
-1.17069e-05 5.01725e-06 2.68911e+25 -1.33235 7.89506 272.356 
-9.79558e-06 5.01725e-06 2.68791e+25 -1.8588 8.24529 272.548 
-7.88425e-06 5.01725e-06 2.69073e+25 -2.32399 7.9969 272.304 
-5.97292e-06 5.01725e-06 2.68966e+25 -2.75729 7.3871 272.346 
-4.06158e-06 5.01725e-06 2.6853e+25 -3.06449 6.61187 272.685 
-2.15025e-06 5.01725e-06 2.68719e+25 -3.327 5.6653 272.445 
-2.38917e-07 5.01725e-06 2.68637e+25 -3.98741 3.79552 272.506 
-1.55296e-05 5.49508e-06 2.68923e+25 -0.212446 3.71103 272.434 
-1.36182e-05 5.49508e-06 2.69128e+25 -0.845892 6.67455 272.131 
-1.17069e-05 5.49508e-06 2.68999e+25 -1.34505 7.97472 272.323 
-9.79558e-06 5.49508e-06 2.68678e+25 -1.75293 8.3738 272.674 
-7.88425e-06 5.49508e-06 2.6906e+25 -2.20665 8.12009 272.282 
-5.97292e-06 5.49508e-06 2.68835e+25 -2.42125 7.51289 272.432 
-4.06158e-06 5.49508e-06 2.6865e+25 -2.7058 6.61863 272.567 
-2.15025e-06 5.49508e-06 2.68767e+25 -2.94097 5.71646 272.425 
-2.38917e-07 5.49508e-06 2.68628e+25 -3.34518 3.96899 272.543 
-1.55296e-05 5.97292e-06 2.6894e+25 -0.229189 3.81186 272.353 
-1.36182e-05 5.97292e-06 2.69087e+25 -0.928526 6.86374 272.168 
-1.17069e-05 5.97292e-06 2.69005e+25 -1.34605 8.08885 272.372 
-9.79558e-06 5.97292e-06 2.68663e+25 -1.58756 8.42255 272.615 
-7.88425e-06 5.97292e-06 2.68977e+25 -1.93741 8.18044 272.382 
-5.97292e-06 5.97292e-06 2.68586e+25 -2.1525 7.58882 272.62 
-4.06158e-06 5.97292e-06 2.6877e+25 -2.3138 6.61308 272.529 
-2.15025e-06 5.97292e-06 2.68771e+25 -2.56727 5.75756 272.402 
-2.38917e-07 5.97292e-06 2.68557e+25 -2.51446 4.05815 272.589 
-1.55296e-05 6.45075e-06 2.68936e+25 -0.329483 3.93328 272.381 
-1.36182e-05 6.45075e-06 2.69179e+25 -0.841533 7.00905 272.147 
-1.17069e-05 6.45075e-06 2.69102e+25 -1.24645 8.23898 272.214 
-9.79558e-06 6.45075e-06 2.68884e+25 -1.61301 8.41945 272.477 
-7.88425e-06 6.45075e-06 2.68814e+25 -1.8015 8.23418 272.499 
-5.97292e-06 6.45075e-06 2.68673e+25 -2.03566 7.65761 272.524 
-4.06158e-06 6.45075e-06 2.68743e+25 -2.02999 6.59238 272.494 
-2.15025e-06 6.45075e-06 2.6887e+25 -1.92985 5.68103 272.343 
-2.38917e-07 6.45075e-06 2.68554e+25 -1.85879 4.20282 272.627 
-1.55296e-05 6.92858e-06 2.68795e+25 -0.277014 4.09932 272.511 
-1.36182e-05 6.92858e-06 2.69042e+25 -0.868763 7.16982 272.198 
-1.17069e-05 6.92858e-06 2.69016e+25 -1.25694 8.31587 272.233 
-9.79558e-06 6.92858e-06 2.68876e+25 -1.62896 8.41271 272.397 
-7.88425e-06 6.92858e-06 2.68895e+25 -1.71744 8.25979 272.425 
-5.97292e-06 6.92858e-06 2.68889e+25 -1.72573 7.66531 272.398 
-4.06158e-06 6.92858e-06 2.68766e+25 -1.5373 6.71056 272.455 
-2.15025e-06 6.92858e-06 2.68883e+25 -1.26745 5.57109 272.4 
-2.38917e-07 6.92858e-06 2.68467e+25 -1.31332 4.22351 272.737 
-1.55296e-05 7.40642e-06 2.68877e+25 -0.154039 4.28541 272.418 
-1.36182e-05 7.40642e-06 2.6901e+25 -0.983233 7.24173 272.22 
-1.17069e-05 7.40642e-06 2.68985e+25 -1.44523 8.40172 272.299 
-9.79558e-06 7.40642e-06 2.68817e+25 -1.60376 8.45725 272.415 
-7.88425e-06 7.40642e-06 2.68898e+25 -1.5595 8.28866 272.395 
-5.97292e-06 7.40642e-06 2.68934e+25 -1.32962 7.59454 272.377 
-4.06158e-06 7.40642e-06 2.68851e+25 -1.09441 6.71058 272.333 
-2.15025e-06 7.40642e-06 2.68791e+25 -0.66773 5.51264 272.458 
-2.38917e-07 7.40642e-06 2.68327e+25 -0.692149 4.30179 272.796 
-1.55296e-05 7.88425e-06 2.68788e+25 -0.305911 4.54775 272.446 
-1.36182e-05 7.88425e-06 2.68915e+25 -0.9281 7.30218 272.36 
-1.17069e-05 7.88425e-06 2.68939e+25 -1.6144 8.41263 272.307 
-9.79558e-06 7.88425e-06 2.68889e+25 -1.44646 8.46645 272.411 
-7.88425e-06 7.88425e-06 2.68963e+25 -1.46878 8.21079 272.313 
-5.97292e-06 7.88425e-06 2.68786e+25 -1.03452 7.40649 272.429 
-4.06158e-06 7.88425e-06 2.68844e+25 -0.532314 6.61493 272.306 
-2.15025e-06 7.88425e-06 2.68664e+25 -0.221358 5.49696 272.472 
-2.38917e-07 7.88425e-06 2.68411e+25 -0.114489 4.3277 272.692 
-1.55296e-05 8.36208e-06 2.68759e+25 -0.474326 4.83157 272.432 
-1.36182e-05 8.36208e-06 2.68728e+25 -0.850081 7.42528 272.531 
-1.17069e-05 8.36208e-06 2.68991e+25 -1.64476 8.53361 272.358 
-9.79558e-06 8.36208e-06 2.68795e+25 -1.46266 8.46918 272.49 
-7.88425e-06 8.36208e-06 2.69004e+25 -1.22752 8.17063 272.362 
-5.97292e-06 8.36208e-06 2.68802e+25 -0.714127 7.30465 272.413 
-4.06158e-06 8.36208e-06 2.68818e+25 -0.099348 6.47624 272.389 
-2.15025e-06 8.36208e-06 2.68721e+25 0.207727 5.46427 272.388 
-2.38917e-07 8.36208e-06 2.68507e+25 0.426696 4.2991 272.649 
-1.55296e-05 8.83992e-06 2.68826e+25 -0.444741 5.02706 272.458 
-1.36182e-05 8.83992e-06 2.68789e+25 -1.1083 7.55546 272.448 
-1.17069e-05 8.83992e-06 2.68732e+25 -1.59103 8.69028 272.483 
-9.79558e-06 8.83992e-06 2.68715e+25 -1.64863 8.4352 272.492 
-7.88425e-06 8.83992e-06 2.6879e+25 -1.02787 8.0161 272.432 
-5.97292e-06 8.83992e-06 2.68887e+25 -0.311441 7.17276 272.383 
-4.06158e-06 8.83992e-06 2.68799e+25 0.220123 6.40866 272.356 
-2.15025e-06 8.83992e-06 2.68652e+25 0.657946 5.2339 272.489 
-2.38917e-07 8.83992e-06 2.68471e+25 1.3287 4.22538 272.627 
-1.55296e-05 9.31775e-06 2.68852e+25 -0.327323 5.12728 272.344 
-1.36182e-05 9.31775e-06 2.68834e+25 -1.2602 7.7827 272.433 
-1.17069e-05 9.31775e-06 2.68731e+25 -1.66416 8.70992 272.562 
-9.79558e-06 9.31775e-06 2.68668e+25 -1.64064 8.31892 272.629 
-7.88425e-06 9.31775e-06 2.68738e+25 -0.850183 7.88996 272.568 
-5.97292e-06 9.31775e-06 2.68841e+25 -0.0822793 7.01364 272.388 
-4.06158e-06 9.31775e-06 2.68797e+25 0.690255 6.19842 272.35 
-2.15025e-06 9.31775e-06 2.68565e+25 1.29969 5.07038 272.539 
-2.38917e-07 9.31775e-06 2.68404e+25 1.91281 4.15132 272.726 
-1.55296e-05 9.79558e-06 2.68817e+25 -0.413164 5.24045 272.378 
-1.36182e-05 9.79558e-06 2.68744e+25 -1.48973 7.93889 272.433 
-1.17069e-05 9.79558e-06 2.68719e+25 -1.71581 8.68031 272.472 
-9.79558e-06 9.79558e-06 2.68711e+25 -1.33061 8.19466 272.607 
-7.88425e-06 9.79558e-06 2.68797e+25 -0.666674 7.65969 272.575 
-5.97292e-06 9.79558e-06 2.6883e+25 0.209753 6.79191 272.419 
-4.06158e-06 9.79558e-06 2.6888e+25 1.05665 5.93025 272.365 
-2.15025e-06 9.79558e-06 2.68619e+25 2.03297 5.00681 272.561 
-2.38917e-07 9.79558e-06 2.68421e+25 2.70125 3.99732 272.656 
-1.55296e-05 1.02734e-05 2.68832e+25 -0.526352 5.4942 272.326 
-1.36182e-05 1.02734e-05 2.68785e+25 -1.6046 8.09421 272.386 
-1.17069e-05 1.02734e-05 2.68761e+25 -1.84709 8.7262 272.388 
-9.79558e-06 1.02734e-05 2.687e+25 -1.2429 7.99246 272.617 
-7.88425e-06 1.02734e-05 2.68696e+25 -0.518996 7.46645 272.557 
-5.97292e-06 1.02734e-05 2.68862e+25 0.68848 6.50215 272.449 
-4.06158e-06 1.02734e-05 2.68845e+25 1.68731 5.67853 272.384 
-2.15025e-06 1.02734e-05 2.68692e+25 2.87659 4.91067 272.456 
-2.38917e-07 1.02734e-05 2.68468e+25 3.70505 3.76121 272.615 
-1.55296e-05 1.07512e-05 2.68914e+25 -0.718566 5.76892 272.176 
-1.36182e-05 1.07512e-05 2.68762e+25 -1.66544 8.2666 272.411 
-1.17069e-05 1.07512e-05 2.68794e+25 -1.97724 8.62464 272.355 
-9.79558e-06 1.07512e-05 2.68558e+25 -1.11588 7.8527 272.708 
-7.88425e-06 1.07512e-05 2.68605e+25 -0.218841 7.18746 272.638 
-5.97292e-06 1.07512e-05 2.68766e+25 1.14578 6.1762 272.453 
-4.06158e-06 1.07512e-05 2.68708e+25 2.30534 5.39413 272.538 
-2.15025e-06 1.07512e-05 2.68743e+25 3.72334 4.66754 272.422 
-2.38917e-07 1.07512e-05 2.68585e+25 4.65035 3.58128 272.608 
-1.55296e-05 1.12291e-05 2.68853e+25 -0.796334 6.00931 272.218 
-1.36182e-05 1.12291e-05 2.68707e+25 -2.03253 8.54817 272.448 
-1.17069e-05 1.12291e-05 2.68761e+25 -2.20985 8.4816 272.433 
-9.79558e-06 1.12291e-05 2.68714e+25 -1.06731 7.57297 272.562 
-7.88425e-06 1.12291e-05 2.68567e+25 0.437379 6.7431 272.72 
-5.97292e-06 1.12291e-05 2.68724e+25 1.63137 6.05576 272.494 
-4.06158e-06 1.12291e-05 2.68585e+25 3.11127 5.03501 272.61 
-2.15025e-06 1.12291e-05 2.68747e+25 4.54375 4.33385 272.47 
-2.38917e-07 1.12291e-05 2.68458e+25 5.72536 3.41659 272.659 
-1.55296e-05 1.17069e-05 2.6885e+25 -0.966303 6.42704 272.154 
-1.36182e-05 1.17069e-05 2.68646e+25 -2.33123 8.73224 272.433 
-1.17069e-05 1.17069e-05 2.68782e+25 -2.26195 8.34971 272.461 
-9.79558e-06 1.17069e-05 2.68801e+25 -0.865065 7.2281 272.463 
-7.88425e-06 1.17069e-05 2.68673e+25 0.982387 6.29277 272.613 
-5.97292e-06 1.17069e-05 2.68741e+25 2.42498 5.7878 272.547 
-4.06158e-06 1.17069e-05 2.6862e+25 4.06555 4.59678 272.676 
-2.15025e-06 1.17069e-05 2.68616e+25 5.56858 3.91738 272.521 
-2.38917e-07 1.17069e-05 2.6838e+25 6.98781 3.12911 272.736 
-1.55296e-05 1.21847e-05 2.6875e+25 -1.18222 6.93882 272.223 
-1.36182e-05 1.21847e-05 2.6856e+25 -2.67291 8.7842 272.427 
-1.17069e-05 1.21847e-05 2.6878e+25 -2.12037 8.11507 272.39 
-9.79558e-06 1.21847e-05 2.6877e+25 -0.571111 6.769 272.506 
-7.88425e-06 1.21847e-05 2.68635e+25 1.4092 5.8234 272.602 
-5.97292e-06 1.21847e-05 2.68763e+25 3.26281 5.36153 272.544 
-4.06158e-06 1.21847e-05 2.68558e+25 5.13971 4.11004 272.685 
-2.15025e-06 1.21847e-05 2.68643e+25 6.72754 3.41416 272.557 
-2.38917e-07 1.21847e-05 2.68317e+25 8.36072 2.73416 272.777 
-1.55296e-05 1.26626e-05 2.68526e+25 -1.53755 7.61112 272.416 
-1.36182e-05 1.26626e-05 2.68599e+25 -2.94717 8.90772 272.541 
-1.17069e-05 1.26626e-05 2.68667e+25 -1.78994 7.64212 272.506 
-9.79558e-06 1.26626e-05 2.68756e+25 -0.0184266 6.30104 272.493 
-7.88425e-06 1.26626e-05 2.68748e+25 2.0538 5.34611 272.548 
-5.97292e-06 1.26626e-05 2.6867e+25 4.49547 4.74552 272.553 
-4.06158e-06 1.26626e-05 2.68613e+25 6.33302 3.67819 272.623 
-2.15025e-06 1.26626e-05 2.686e+25 8.23282 2.99313 272.604 
-2.38917e-07 1.26626e-05 2.68573e+25 9.77986 2.3531 272.577 
-1.55296e-05 1.31404e-05 2.68448e+25 -1.94396 8.26459 272.433 
-1.36182e-05 1.31404e-05 2.68438e+25 -3.08247 9.01579 272.51 
-1.17069e-05 1.31404e-05 2.6872e+25 -1.45791 7.11049 272.483 
-9.79558e-06 1.31404e-05 2.68793e+25 0.873574 5.78241 272.526 
-7.88425e-06 1.31404e-05 2.68873e+25 3.28831 4.8004 272.54 
-5.97292e-06 1.31404e-05 2.68624e+25 5.73925 4.11965 272.654 
-4.06158e-06 1.31404e-05 2.68496e+25 7.9126 3.31313 272.7 
-2.15025e-06 1.31404e-05 2.68528e+25 9.9021 2.58891 272.609 
-2.38917e-07 1.31404e-05 2.6854e+25 11.4253 2.03907 272.645 
-1.55296e-05 1.36182e-05 2.68397e+25 -2.39005 8.971 272.486 
-1.36182e-05 1.36182e-05 2.68475e+25 -2.94238 8.85992 272.421 
-1.17069e-05 1.36182e-05 2.68667e+25 -0.674243 6.38867 272.493 
-9.79558e-06 1.36182e-05 2.68687e+25 2.12167 5.12864 272.626 
-7.88425e-06 1.36182e-05 2.68687e+25 4.91266 4.09854 272.607 
-5.97292e-06 1.36182e-05 2.68562e+25 7.47495 3.54703 272.774 
-4.06158e-06 1.36182e-05 2.68605e+25 9.88679 2.85346 272.632 
-2.15025e-06 1.36182e-05 2.68604e+25 11.662 2.12233 272.605 
-2.38917e-07 1.36182e-05 2.68408e+25 13.2846 1.78792 272.812 
-1.55296e-05 1.40961e-05 2.68065e+25 -2.7401 9.65074 272.597 
-1.36182e-05 1.40961e-05 2.68423e+25 -2.45873 8.32767 272.503 
-1.17069e-05 1.40961e-05 2.68586e+25 0.577301 5.67429 272.528 
-9.79558e-06 1.40961e-05 2.68617e+25 3.98427 4.34525 272.71 
-7.88425e-06 1.40961e-05 2.68561e+25 7.02364 3.41462 272.731 
-5.97292e-06 1.40961e-05 2.6856e+25 9.56237 2.93894 272.723 
-4.06158e-06 1.40961e-05 2.68807e+25 11.9716 2.3869 272.465 
-2.15025e-06 1.40961e-05 2.68684e+25 13.8411 1.66969 272.505 
-2.38917e-07 1.40961e-05 2.68413e+25 15.4502 1.40992 272.743 
-1.55296e-05 1.45739e-05 2.6782e+25 -2.86308 10.1232 272.638 
-1.36182e-05 1.45739e-05 2.68358e+25 -1.30991 7.49248 272.629 
-1.17069e-05 1.45739e-05 2.68553e+25 2.70282 4.81611 272.622 
-9.79558e-06 1.45739e-05 2.68622e+25 6.47931 3.43407 272.679 
-7.88425e-06 1.45739e-05 2.68606e+25 9.59921 2.81335 272.813 
-5.97292e-06 1.45739e-05 2.686e+25 12.3403 2.24352 272.686 
-4.06158e-06 1.45739e-05 2.68934e+25 14.5457 1.83153 272.377 
-2.15025e-06 1.45739e-05 2.68723e+25 16.3784 1.27793 272.556 
-2.38917e-07 1.45739e-05 2.68548e+25 17.9302 0.981083 272.688 
-1.55296e-05 1.50518e-05 2.67607e+25 -2.94035 10.3125 272.744 
-1.36182e-05 1.50518e-05 2.6828e+25 0.769281 6.37889 272.639 
-1.17069e-05 1.50518e-05 2.68465e+25 5.79475 3.8637 272.643 
-9.79558e-06 1.50518e-05 2.68742e+25 9.68121 2.55563 272.628 
-7.88425e-06 1.50518e-05 2.68583e+25 12.8067 2.11487 272.804 
-5.97292e-06 1.50518e-05 2.68682e+25 15.4083 1.57916 272.74 
-4.06158e-06 1.50518e-05 2.68737e+25 17.6135 1.33855 272.551 
-2.15025e-06 1.50518e-05 2.68635e+25 19.2868 0.916446 272.576 
-2.38917e-07 1.50518e-05 2.68613e+25 20.5868 0.704248 272.64 
-1.55296e-05 1.55296e-05 2.67411e+25 -2.38467 9.78254 272.805 
-1.36182e-05 1.55296e-05 2.68217e+25 4.36559 4.82324 272.722 
-1.17069e-05 1.55296e-05 2.68446e+25 10.04 2.68054 272.837 
-9.79558e-06 1.55296e-05 2.68763e+25 13.7476 1.85839 272.651 
-7.88425e-06 1.55296e-05 2.68719e+25 16.6909 1.44083 272.633 
-5.97292e-06 1.55296e-05 2.68621e+25 19.0234 0.866828 272.779 
-4.06158e-06 1.55296e-05 2.68855e+25 21.0356 0.893755 272.497 
-2.15025e-06 1.55296e-05 2.68471e+25 22.4299 0.587782 272.753 
-2.38917e-07 1.55296e-05 2.687e+25 23.4147 0.443633 272.533 
-1.55296e-05 1.60074e-05 2.66946e+25 0.743708 8.00297 272.996 
-1.36182e-05 1.60074e-05 2.6808e+25 10.0212 2.99748 272.933 
-1.17069e-05 1.60074e-05 2.68443e+25 15.5743 1.52475 272.852 
-9.79558e-06 1.60074e-05 2.68662e+25 18.7803 1.07135 272.657 
-7.88425e-06 1.60074e-05 2.68777e+25 21.2299 0.789107 272.642 
-5.97292e-06 1.60074e-05 2.68708e+25 23.1797 0.473292 272.644 
-4.06158e-06 1.60074e-05 2.68797e+25 24.6129 0.535471 272.563 
-2.15025e-06 1.60074e-05 2.68683e+25 25.7089 0.277987 272.662 
-2.38917e-07 1.60074e-05 2.68713e+25 26.5687 0.19117 272.587 
-1.55296e-05 1.64852e-05 2.66903e+25 8.45016 4.66662 273.259 
-1.36182e-05 1.64852e-05 2.68198e+25 18.2081 1.37811 273.036 
-1.17069e-05 1.64852e-05 2.68458e+25 22.2478 0.653103 272.905 
-9.79558e-06 1.64852e-05 2.6864e+25 24.7093 0.436965 272.861 
-7.88425e-06 1.64852e-05 2.6877e+25 26.323 0.330651 272.634 
-5.97292e-06 1.64852e-05 2.68803e+25 27.5323 0.218218 272.672 
-4.06158e-06 1.64852e-05 2.68752e+25 28.4635 0.276927 272.641 
-2.15025e-06 1.64852e-05 2.6868e+25 29.3014 0.153937 272.676 
-2.38917e-07 1.64852e-05 2.68547e+25 29.7843 0.0195831 272.648 
-1.55296e-05 1.69631e-05 2.67245e+25 22.2821 1.16344 273.347 
-1.36182e-05 1.69631e-05 2.68331e+25 27.8404 0.26569 273.013 
-1.17069e-05 1.69631e-05 2.6838e+25 29.7663 0.142877 272.992 
-9.79558e-06 1.69631e-05 2.68606e+25 30.6712 0.0981865 272.909 
-7.88425e-06 1.69631e-05 2.68664e+25 31.3905 0.0354054 272.862 
-5.97292e-06 1.69631e-05 2.68583e+25 31.9884 0.0274277 272.858 
-4.06158e-06 1.69631e-05 2.68506e+25 32.3101 0.0624885 272.817 
-2.15025e-06 1.69631e-05 2.68501e+25 32.5101 0.0295311 272.859 
-2.38917e-07 1.69631e-05 2.68533e+25 32.7373 -0.0111348 272.864 
1.19458e-06 -1.69631e-05 2.68828e+25 -0.149872 -0.00909853 272.755 
3.10592e-06 -1.69631e-05 2.68854e+25 -0.202613 0.00349127 272.728 
5.01725e-06 -1.69631e-05 2.68921e+25 -0.0566373 -0.0630382 272.743 
6.92858e-06 -1.69631e-05 2.68885e+25 0.018897 0.00314507 272.818 
8.83992e-06 -1.69631e-05 2.68942e+25 -0.156977 -0.0163561 272.777 
1.07512e-05 -1.69631e-05 2.68869e+25 0.0110246 0.0046922 272.768 
1.26626e-05 -1.69631e-05 2.68876e+25 0.0671109 -0.0235266 272.727 
1.45739e-05 -1.69631e-05 2.68709e+25 -0.0358478 0.00107249 272.879 
1.64852e-05 -1.69631e-05 2.6888e+25 0.0393844 0.0142077 272.792 
1.19458e-06 -1.64852e-05 2.69035e+25 -0.516204 0.0280815 272.509 
3.10592e-06 -1.64852e-05 2.69001e+25 -0.445305 -0.0404395 272.577 
5.01725e-06 -1.64852e-05 2.69014e+25 -0.35796 -0.109403 272.616 
6.92858e-06 -1.64852e-05 2.68928e+25 -0.183926 0.0545086 272.675 
8.83992e-06 -1.64852e-05 2.69157e+25 -0.228526 -0.0359593 272.485 
1.07512e-05 -1.64852e-05 2.69206e+25 -0.0382706 -0.0342756 272.464 
1.26626e-05 -1.64852e-05 2.69125e+25 0.11269 -0.0437787 272.455 
1.45739e-05 -1.64852e-05 2.69032e+25 -0.0105156 -0.0418544 272.582 
1.64852e-05 -1.64852e-05 2.69163e+25 -0.00899891 0.0322664 272.519 
1.19458e-06 -1.60074e-05 2.69064e+25 -0.749348 0.0912194 272.574 
3.10592e-06 -1.60074e-05 2.6911e+25 -0.767866 -0.0801761 272.471 
5.01725e-06 -1.60074e-05 2.69076e+25 -0.814026 -0.14327 272.527 
6.92858e-06 -1.60074e-05 2.68954e+25 -0.563889 0.034218 272.701 
8.83992e-06 -1.60074e-05 2.692e+25 -0.255074 -0.0828582 272.415 
1.07512e-05 -1.60074e-05 2.69188e+25 -0.213206 -0.157399 272.413 
1.26626e-05 -1.60074e-05 2.69159e+25 -0.0442186 0.00735695 272.408 
1.45739e-05 -1.60074e-05 2.69016e+25 -0.103265 0.0454128 272.557 
1.64852e-05 -1.60074e-05 2.69215e+25 -0.0121898 0.00897779 272.392 
1.19458e-06 -1.55296e-05 2.68918e+25 -1.22823 0.00368977 272.59 
3.10592e-06 -1.55296e-05 2.69094e+25 -1.10673 -0.0479131 272.488 
5.01725e-06 -1.55296e-05 2.68968e+25 -1.11308 -0.181304 272.575 
6.92858e-06 -1.55296e-05 2.69097e+25 -0.823379 -0.0720507 272.524 
8.83992e-06 -1.55296e-05 2.69324e+25 -0.348829 -0.0648992 272.314 
1.07512e-05 -1.55296e-05 2.69096e+25 -0.289634 -0.304262 272.527 
1.26626e-05 -1.55296e-05 2.69226e+25 -0.0169884 0.0128672 272.368 
1.45739e-05 -1.55296e-05 2.69303e+25 0.00802668 0.0811941 272.351 
1.64852e-05 -1.55296e-05 2.69171e+25 -0.0696214 0.0339228 272.449 
1.19458e-06 -1.50517e-05 2.69026e+25 -1.65592 0.000112705 272.624 
3.10592e-06 -1.50517e-05 2.6897e+25 -1.57625 -0.0765732 272.554 
5.01725e-06 -1.50517e-05 2.68999e+25 -1.2858 -0.217443 272.615 
6.92858e-06 -1.50517e-05 2.69044e+25 -0.788776 -0.107076 272.593 
8.83992e-06 -1.50517e-05 2.69268e+25 -0.590896 -0.0609743 272.448 
1.07512e-05 -1.50517e-05 2.69243e+25 -0.349433 -0.38069 272.445 
1.26626e-05 -1.50517e-05 2.69139e+25 -0.0442757 0.00698831 272.38 
1.45739e-05 -1.50517e-05 2.69288e+25 0.0170811 0.0189987 272.345 
1.64852e-05 -1.50517e-05 2.69165e+25 0.0474989 0.0281388 272.428 
1.19458e-06 -1.45739e-05 2.68972e+25 -2.07471 0.0306711 272.731 
3.10592e-06 -1.45739e-05 2.69043e+25 -1.79882 -0.12051 272.567 
5.01725e-06 -1.45739e-05 2.68902e+25 -1.44318 -0.2391 272.681 
6.92858e-06 -1.45739e-05 2.69136e+25 -1.05376 -0.324724 272.534 
8.83992e-06 -1.45739e-05 2.69065e+25 -0.73505 -0.077213 272.457 
1.07512e-05 -1.45739e-05 2.6927e+25 -0.241908 -0.350022 272.339 
1.26626e-05 -1.45739e-05 2.69385e+25 -0.112605 -0.0168059 272.32 
1.45739e-05 -1.45739e-05 2.69292e+25 0.145485 -0.0645936 272.268 
1.64852e-05 -1.45739e-05 2.69083e+25 0.089304 0.0983482 272.487 
1.19458e-06 -1.40961e-05 2.68925e+25 -2.29503 0.0375234 272.667 
3.10592e-06 -1.40961e-05 2.68961e+25 -2.0556 -0.279245 272.636 
5.01725e-06 -1.40961e-05 2.69094e+25 -1.50271 -0.244837 272.497 
6.92858e-06 -1.40961e-05 2.69051e+25 -1.2356 -0.543368 272.556 
8.83992e-06 -1.40961e-05 2.69115e+25 -0.776528 -0.198789 272.489 
1.07512e-05 -1.40961e-05 2.69214e+25 -0.393896 -0.361894 272.397 
1.26626e-05 -1.40961e-05 2.69339e+25 -0.212342 -0.0804354 272.267 
1.45739e-05 -1.40961e-05 2.69369e+25 0.107508 -0.117711 272.256 
1.64852e-05 -1.40961e-05 2.69069e+25 0.134565 0.0936931 272.494 
1.19458e-06 -1.36182e-05 2.69013e+25 -2.49934 0.0592715 272.618 
3.10592e-06 -1.36182e-05 2.68923e+25 -2.20319 -0.424339 272.697 
5.01725e-06 -1.36182e-05 2.69109e+25 -1.69068 -0.371194 272.469 
6.92858e-06 -1.36182e-05 2.69064e+25 -1.36663 -0.637971 272.542 
8.83992e-06 -1.36182e-05 2.69136e+25 -0.838201 -0.345522 272.492 
1.07512e-05 -1.36182e-05 2.69287e+25 -0.441913 -0.416608 272.311 
1.26626e-05 -1.36182e-05 2.69261e+25 -0.324901 -0.109873 272.335 
1.45739e-05 -1.36182e-05 2.69288e+25 0.0323737 -0.0219265 272.224 
1.64852e-05 -1.36182e-05 2.6915e+25 -0.0258838 0.115173 272.517 
1.19458e-06 -1.31404e-05 2.69014e+25 -2.63834 -0.0582058 272.578 
3.10592e-06 -1.31404e-05 2.69058e+25 -2.38746 -0.488577 272.587 
5.01725e-06 -1.31404e-05 2.69114e+25 -1.93387 -0.644752 272.398 
6.92858e-06 -1.31404e-05 2.69097e+25 -1.56366 -0.630039 272.577 
8.83992e-06 -1.31404e-05 2.69155e+25 -0.968627 -0.512325 272.385 
1.07512e-05 -1.31404e-05 2.69369e+25 -0.568305 -0.453753 272.292 
1.26626e-05 -1.31404e-05 2.69253e+25 -0.367569 -0.178083 272.316 
1.45739e-05 -1.31404e-05 2.69388e+25 -0.105719 -0.011675 272.232 
1.64852e-05 -1.31404e-05 2.69185e+25 -0.0909059 0.0978946 272.439 
1.19458e-06 -1.26626e-05 2.69253e+25 -2.80888 -0.069403 272.42 
3.10592e-06 -1.26626e-05 2.69135e+25 -2.61041 -0.571044 272.51 
5.01725e-06 -1.26626e-05 2.69121e+25 -2.14453 -0.845054 272.454 
6.92858e-06 -1.26626e-05 2.69141e+25 -1.78006 -0.754752 272.502 
8.83992e-06 -1.26626e-05 2.69123e+25 -1.21645 -0.594334 272.42 
1.07512e-05 -1.26626e-05 2.69184e+25 -0.641599 -0.56519 272.368 
1.26626e-05 -1.26626e-05 2.69207e+25 -0.360729 -0.226806 272.394 
1.45739e-05 -1.26626e-05 2.69372e+25 -0.203434 -0.0904894 272.177 
1.64852e-05 -1.26626e-05 2.69046e+25 -0.0320945 -0.00187206 272.563 
1.19458e-06 -1.21847e-05 2.69109e+25 -3.08976 -0.0339179 272.526 
3.10592e-06 -1.21847e-05 2.69008e+25 -2.86474 -0.709658 272.611 
5.01725e-06 -1.21847e-05 2.69235e+25 -2.29955 -0.904818 272.437 
6.92858e-06 -1.21847e-05 2.69169e+25 -1.85105 -0.949682 272.439 
8.83992e-06 -1.21847e-05 2.6931e+25 -1.499 -0.704857 272.331 
1.07512e-05 -1.21847e-05 2.69138e+25 -0.80721 -0.806821 272.441 
1.26626e-05 -1.21847e-05 2.69267e+25 -0.306185 -0.285356 272.386 
1.45739e-05 -1.21847e-05 2.69328e+25 -0.163084 -0.282613 272.21 
1.64852e-05 -1.21847e-05 2.6916e+25 -0.0272589 0.0488682 272.479 
1.19458e-06 -1.17069e-05 2.69001e+25 -3.26074 -0.0383993 272.545 
3.10592e-06 -1.17069e-05 2.68856e+25 -3.0075 -0.854607 272.737 
5.01725e-06 -1.17069e-05 2.69195e+25 -2.56093 -0.962712 272.421 
6.92858e-06 -1.17069e-05 2.69088e+25 -2.08824 -1.04888 272.442 
8.83992e-06 -1.17069e-05 2.69358e+25 -1.34457 -0.84932 272.352 
1.07512e-05 -1.17069e-05 2.69188e+25 -0.952186 -0.951034 272.46 
1.26626e-05 -1.17069e-05 2.69209e+25 -0.323416 -0.439423 272.416 
1.45739e-05 -1.17069e-05 2.69368e+25 -0.125767 -0.307152 272.189 
1.64852e-05 -1.17069e-05 2.69283e+25 -0.096676 0.027255 272.365 
1.19458e-06 -1.12291e-05 2.68971e+25 -3.45386 -0.0446105 272.644 
3.10592e-06 -1.12291e-05 2.68942e+25 -3.1718 -0.975945 272.736 
5.01725e-06 -1.12291e-05 2.6925e+25 -2.81328 -1.00138 272.391 
6.92858e-06 -1.12291e-05 2.69232e+25 -2.2419 -1.22904 272.421 
8.83992e-06 -1.12291e-05 2.69197e+25 -1.47094 -1.0244 272.409 
1.07512e-05 -1.12291e-05 2.69234e+25 -0.958921 -1.09294 272.376 
1.26626e-05 -1.12291e-05 2.69303e+25 -0.451645 -0.572535 272.327 
1.45739e-05 -1.12291e-05 2.69352e+25 -0.087808 -0.34149 272.261 
1.64852e-05 -1.12291e-05 2.69265e+25 0.103354 0.0429887 272.278 
1.19458e-06 -1.07512e-05 2.68907e+25 -3.54747 -0.0563065 272.651 
3.10592e-06 -1.07512e-05 2.68932e+25 -3.40659 -1.018 272.69 
5.01725e-06 -1.07512e-05 2.6912e+25 -3.2967 -1.13822 272.491 
6.92858e-06 -1.07512e-05 2.6919e+25 -2.42407 -1.40585 272.497 
8.83992e-06 -1.07512e-05 2.69154e+25 -1.73212 -1.18963 272.385 
1.07512e-05 -1.07512e-05 2.69239e+25 -1.14654 -1.19484 272.266 
1.26626e-05 -1.07512e-05 2.69298e+25 -0.506863 -0.74335 272.239 
1.45739e-05 -1.07512e-05 2.6923e+25 -0.15678 -0.429127 272.41 
1.64852e-05 -1.07512e-05 2.69266e+25 0.023379 0.0281995 272.288 
1.19458e-06 -1.02734e-05 2.69112e+25 -3.76275 -0.079057 272.449 
3.10592e-06 -1.02734e-05 2.6901e+25 -3.70126 -1.03597 272.621 
5.01725e-06 -1.02734e-05 2.69057e+25 -3.62188 -1.22793 272.571 
6.92858e-06 -1.02734e-05 2.69231e+25 -2.784 -1.61019 272.42 
8.83992e-06 -1.02734e-05 2.69306e+25 -1.87847 -1.42979 272.364 
1.07512e-05 -1.02734e-05 2.69177e+25 -1.12722 -1.27365 272.371 
1.26626e-05 -1.02734e-05 2.69392e+25 -0.573222 -0.869786 272.205 
1.45739e-05 -1.02734e-05 2.69339e+25 -0.0723188 -0.487044 272.231 
1.64852e-05 -1.02734e-05 2.69268e+25 0.0316368 0.00708645 272.353 
1.19458e-06 -9.79558e-06 2.69081e+25 -3.93169 -0.12688 272.464 
3.10592e-06 -9.79558e-06 2.68857e+25 -3.78622 -1.02451 272.649 
5.01725e-06 -9.79558e-06 2.68946e+25 -3.62452 -1.30875 272.579 
6.92858e-06 -9.79558e-06 2.6917e+25 -2.95027 -1.80742 272.397 
8.83992e-06 -9.79558e-06 2.6927e+25 -2.14961 -1.58085 272.398 
1.07512e-05 -9.79558e-06 2.69212e+25 -1.20815 -1.48673 272.385 
1.26626e-05 -9.79558e-06 2.69454e+25 -0.685526 -1.00894 272.272 
1.45739e-05 -9.79558e-06 2.69384e+25 -0.193944 -0.555584 272.22 
1.64852e-05 -9.79558e-06 2.69222e+25 -0.0921264 0.0751944 272.348 
1.19458e-06 -9.31775e-06 2.69167e+25 -4.12383 -0.162074 272.461 
3.10592e-06 -9.31775e-06 2.6895e+25 -4.01478 -1.02715 272.614 
5.01725e-06 -9.31775e-06 2.69055e+25 -3.72271 -1.37469 272.557 
6.92858e-06 -9.31775e-06 2.6915e+25 -3.17673 -2.10172 272.388 
8.83992e-06 -9.31775e-06 2.69127e+25 -2.45133 -1.74685 272.403 
1.07512e-05 -9.31775e-06 2.69247e+25 -1.54883 -1.75531 272.34 
1.26626e-05 -9.31775e-06 2.69309e+25 -0.679586 -1.22053 272.33 
1.45739e-05 -9.31775e-06 2.69312e+25 -0.405172 -0.538012 272.218 
1.64852e-05 -9.31775e-06 2.69205e+25 -0.094532 -0.00186617 272.383 
1.19458e-06 -8.83992e-06 2.69016e+25 -4.48929 -0.278275 272.532 
3.10592e-06 -8.83992e-06 2.69057e+25 -4.22818 -1.05593 272.529 
5.01725e-06 -8.83992e-06 2.69188e+25 -4.07606 -1.55556 272.453 
6.92858e-06 -8.83992e-06 2.69024e+25 -3.44536 -2.33875 272.541 
8.83992e-06 -8.83992e-06 2.69363e+25 -2.68264 -1.96249 272.311 
1.07512e-05 -8.83992e-06 2.69232e+25 -1.68251 -1.90126 272.353 
1.26626e-05 -8.83992e-06 2.69232e+25 -0.830588 -1.36955 272.373 
1.45739e-05 -8.83992e-06 2.69269e+25 -0.215905 -0.622117 272.349 
1.64852e-05 -8.83992e-06 2.69097e+25 -0.0903721 -0.139584 272.437 
1.19458e-06 -8.36208e-06 2.69007e+25 -4.74005 -0.34489 272.584 
3.10592e-06 -8.36208e-06 2.69081e+25 -4.60759 -1.08296 272.498 
5.01725e-06 -8.36208e-06 2.69139e+25 -4.24763 -1.77259 272.521 
6.92858e-06 -8.36208e-06 2.6914e+25 -3.49207 -2.46767 272.513 
8.83992e-06 -8.36208e-06 2.69442e+25 -2.69018 -2.24225 272.192 
1.07512e-05 -8.36208e-06 2.69177e+25 -1.55271 -2.15598 272.428 
1.26626e-05 -8.36208e-06 2.69201e+25 -1.03927 -1.44743 272.395 
1.45739e-05 -8.36208e-06 2.69169e+25 -0.21736 -0.78563 272.427 
1.64852e-05 -8.36208e-06 2.69207e+25 -0.0711222 -0.159475 272.357 
1.19458e-06 -7.88425e-06 2.6907e+25 -5.02 -0.441913 272.466 
3.10592e-06 -7.88425e-06 2.69054e+25 -4.84232 -1.11014 272.507 
5.01725e-06 -7.88425e-06 2.69011e+25 -4.37858 -1.86583 272.59 
6.92858e-06 -7.88425e-06 2.68971e+25 -3.70955 -2.67932 272.633 
8.83992e-06 -7.88425e-06 2.69259e+25 -2.71607 -2.53461 272.342 
1.07512e-05 -7.88425e-06 2.6913e+25 -1.66474 -2.47184 272.473 
1.26626e-05 -7.88425e-06 2.6912e+25 -1.10198 -1.54534 272.452 
1.45739e-05 -7.88425e-06 2.69118e+25 -0.238204 -0.935461 272.51 
1.64852e-05 -7.88425e-06 2.69038e+25 0.0700301 -0.254696 272.472 
1.19458e-06 -7.40642e-06 2.69087e+25 -5.35702 -0.536602 272.479 
3.10592e-06 -7.40642e-06 2.69093e+25 -5.19142 -1.14234 272.504 
5.01725e-06 -7.40642e-06 2.69111e+25 -4.45759 -2.05741 272.471 
6.92858e-06 -7.40642e-06 2.69087e+25 -3.82695 -2.77012 272.523 
8.83992e-06 -7.40642e-06 2.69317e+25 -2.78632 -2.77415 272.292 
1.07512e-05 -7.40642e-06 2.69122e+25 -1.84612 -2.72114 272.483 
1.26626e-05 -7.40642e-06 2.69154e+25 -1.12515 -1.71577 272.421 
1.45739e-05 -7.40642e-06 2.69172e+25 -0.426093 -1.09075 272.506 
1.64852e-05 -7.40642e-06 2.69108e+25 0.0878357 -0.229326 272.411 
1.19458e-06 -6.92858e-06 2.68977e+25 -5.57836 -0.486056 272.523 
3.10592e-06 -6.92858e-06 2.69051e+25 -5.37271 -1.28874 272.538 
5.01725e-06 -6.92858e-06 2.69154e+25 -4.77635 -2.21097 272.442 
6.92858e-06 -6.92858e-06 2.68998e+25 -3.92297 -3.03128 272.522 
8.83992e-06 -6.92858e-06 2.69253e+25 -2.86968 -3.0336 272.266 
1.07512e-05 -6.92858e-06 2.69122e+25 -2.16043 -2.96916 272.456 
1.26626e-05 -6.92858e-06 2.69198e+25 -1.15079 -1.94389 272.533 
1.45739e-05 -6.92858e-06 2.69086e+25 -0.54825 -1.25479 272.486 
1.64852e-05 -6.92858e-06 2.69204e+25 -0.0556082 -0.233455 272.48 
1.19458e-06 -6.45075e-06 2.69033e+25 -5.85282 -0.481862 272.591 
3.10592e-06 -6.45075e-06 2.6918e+25 -5.68285 -1.34255 272.356 
5.01725e-06 -6.45075e-06 2.69105e+25 -5.02631 -2.31188 272.546 
6.92858e-06 -6.45075e-06 2.69155e+25 -4.19548 -3.31239 272.454 
8.83992e-06 -6.45075e-06 2.69115e+25 -3.04199 -3.30343 272.448 
1.07512e-05 -6.45075e-06 2.69015e+25 -2.28276 -3.18934 272.523 
1.26626e-05 -6.45075e-06 2.69073e+25 -1.25229 -2.14333 272.486 
1.45739e-05 -6.45075e-06 2.6913e+25 -0.492863 -1.38823 272.439 
1.64852e-05 -6.45075e-06 2.69127e+25 -0.138547 -0.289122 272.518 
1.19458e-06 -5.97292e-06 2.68884e+25 -6.071 -0.472426 272.634 
3.10592e-06 -5.97292e-06 2.69189e+25 -5.87108 -1.46975 272.451 
5.01725e-06 -5.97292e-06 2.69037e+25 -5.3585 -2.49806 272.496 
6.92858e-06 -5.97292e-06 2.6904e+25 -4.59231 -3.55687 272.503 
8.83992e-06 -5.97292e-06 2.69266e+25 -3.40267 -3.60394 272.397 
1.07512e-05 -5.97292e-06 2.69014e+25 -2.47608 -3.38512 272.578 
1.26626e-05 -5.97292e-06 2.69096e+25 -1.29943 -2.36197 272.396 
1.45739e-05 -5.97292e-06 2.69096e+25 -0.48831 -1.60147 272.425 
1.64852e-05 -5.97292e-06 2.69037e+25 -0.0828363 -0.402254 272.512 
1.19458e-06 -5.49508e-06 2.68944e+25 -6.38381 -0.475865 272.639 
3.10592e-06 -5.49508e-06 2.69063e+25 -6.06046 -1.57753 272.469 
5.01725e-06 -5.49508e-06 2.69098e+25 -5.59857 -2.77017 272.497 
6.92858e-06 -5.49508e-06 2.69136e+25 -4.80794 -3.67832 272.486 
8.83992e-06 -5.49508e-06 2.69152e+25 -3.81519 -3.98834 272.414 
1.07512e-05 -5.49508e-06 2.69052e+25 -2.60716 -3.57912 272.598 
1.26626e-05 -5.49508e-06 2.69085e+25 -1.35709 -2.73415 272.447 
1.45739e-05 -5.49508e-06 2.69249e+25 -0.547036 -1.74697 272.445 
1.64852e-05 -5.49508e-06 2.68938e+25 -0.062476 -0.548606 272.559 
1.19458e-06 -5.01725e-06 2.68874e+25 -6.42212 -0.454141 272.667 
3.10592e-06 -5.01725e-06 2.69164e+25 -6.32989 -1.57182 272.346 
5.01725e-06 -5.01725e-06 2.69002e+25 -5.90442 -2.93094 272.474 
6.92858e-06 -5.01725e-06 2.69213e+25 -5.22252 -3.92557 272.439 
8.83992e-06 -5.01725e-06 2.69141e+25 -4.26758 -4.34623 272.457 
1.07512e-05 -5.01725e-06 2.6895e+25 -2.88146 -3.82663 272.58 
1.26626e-05 -5.01725e-06 2.68949e+25 -1.527 -3.05036 272.639 
1.45739e-05 -5.01725e-06 2.69145e+25 -0.620647 -1.90485 272.367 
1.64852e-05 -5.01725e-06 2.68962e+25 -0.0758723 -0.623148 272.665 
1.19458e-06 -4.53942e-06 2.69007e+25 -6.55328 -0.397348 272.553 
3.10592e-06 -4.53942e-06 2.69171e+25 -6.66709 -1.67794 272.364 
5.01725e-06 -4.53942e-06 2.69091e+25 -6.18981 -3.10315 272.505 
6.92858e-06 -4.53942e-06 2.69068e+25 -5.53166 -4.08476 272.475 
8.83992e-06 -4.53942e-06 2.69018e+25 -4.52825 -4.66736 272.571 
1.07512e-05 -4.53942e-06 2.68876e+25 -3.04056 -4.23239 272.672 
1.26626e-05 -4.53942e-06 2.68993e+25 -1.78017 -3.38791 272.601 
1.45739e-05 -4.53942e-06 2.69055e+25 -0.614122 -1.95779 272.58 
1.64852e-05 -4.53942e-06 2.68924e+25 -0.0583654 -0.594314 272.592 
1.19458e-06 -4.06158e-06 2.68944e+25 -6.7466 -0.341486 272.576 
3.10592e-06 -4.06158e-06 2.69193e+25 -6.90313 -1.76176 272.348 
5.01725e-06 -4.06158e-06 2.69057e+25 -6.47184 -3.20853 272.461 
6.92858e-06 -4.06158e-06 2.69108e+25 -5.8777 -4.30297 272.506 
8.83992e-06 -4.06158e-06 2.69073e+25 -4.78635 -4.95562 272.467 
1.07512e-05 -4.06158e-06 2.69022e+25 -3.22118 -4.62381 272.583 
1.26626e-05 -4.06158e-06 2.68958e+25 -1.84984 -3.75983 272.531 
1.45739e-05 -4.06158e-06 2.68864e+25 -0.627963 -2.08424 272.695 
1.64852e-05 -4.06158e-06 2.68953e+25 -0.035704 -0.659332 272.621 
1.19458e-06 -3.58375e-06 2.69086e+25 -7.13043 -0.207457 272.523 
3.10592e-06 -3.58375e-06 2.69228e+25 -7.20503 -1.78396 272.29 
5.01725e-06 -3.58375e-06 2.68989e+25 -6.72132 -3.2938 272.538 
6.92858e-06 -3.58375e-06 2.69008e+25 -6.1612 -4.58377 272.54 
8.83992e-06 -3.58375e-06 2.69013e+25 -4.9526 -5.14782 272.516 
1.07512e-05 -3.58375e-06 2.69067e+25 -3.47552 -5.06258 272.505 
1.26626e-05 -3.58375e-06 2.69082e+25 -1.94294 -4.13734 272.547 
1.45739e-05 -3.58375e-06 2.69098e+25 -0.705108 -2.32458 272.512 
1.64852e-05 -3.58375e-06 2.6901e+25 -0.0327965 -0.742308 272.573 
1.19458e-06 -3.10592e-06 2.69064e+25 -7.39799 -0.168902 272.438 
3.10592e-06 -3.10592e-06 2.69181e+25 -7.46023 -1.83772 272.335 
5.01725e-06 -3.10592e-06 2.68872e+25 -7.09129 -3.38144 272.614 
6.92858e-06 -3.10592e-06 2.68843e+25 -6.32714 -4.85168 272.645 
8.83992e-06 -3.10592e-06 2.69112e+25 -5.25714 -5.45262 272.491 
1.07512e-05 -3.10592e-06 2.69033e+25 -3.71064 -5.45356 272.423 
1.26626e-05 -3.10592e-06 2.69168e+25 -1.99861 -4.55707 272.469 
1.45739e-05 -3.10592e-06 2.6927e+25 -0.767793 -2.60682 272.266 
1.64852e-05 -3.10592e-06 2.68978e+25 0.0188028 -0.816097 272.543 
1.19458e-06 -2.62808e-06 2.69057e+25 -7.52112 -0.165433 272.419 
3.10592e-06 -2.62808e-06 2.69092e+25 -7.51525 -1.86262 272.341 
5.01725e-06 -2.62808e-06 2.69067e+25 -7.381 -3.44984 272.46 
6.92858e-06 -2.62808e-06 2.6903e+25 -6.61476 -5.03715 272.546 
8.83992e-06 -2.62808e-06 2.69047e+25 -5.44594 -5.77184 272.5 
1.07512e-05 -2.62808e-06 2.69164e+25 -3.97721 -5.81335 272.401 
1.26626e-05 -2.62808e-06 2.69168e+25 -2.13774 -4.92872 272.412 
1.45739e-05 -2.62808e-06 2.69328e+25 -0.758165 -2.88101 272.292 
1.64852e-05 -2.62808e-06 2.68963e+25 0.000331574 -0.882755 272.501 
1.19458e-06 -2.15025e-06 2.69143e+25 -7.53411 -0.112317 272.335 
3.10592e-06 -2.15025e-06 2.6919e+25 -7.75588 -1.76757 272.3 
5.01725e-06 -2.15025e-06 2.69117e+25 -7.60519 -3.63615 272.339 
6.92858e-06 -2.15025e-06 2.69059e+25 -6.757 -5.22 272.458 
8.83992e-06 -2.15025e-06 2.69025e+25 -5.65497 -6.13636 272.466 
1.07512e-05 -2.15025e-06 2.69149e+25 -4.17181 -6.23279 272.452 
1.26626e-05 -2.15025e-06 2.6921e+25 -2.34098 -5.29471 272.402 
1.45739e-05 -2.15025e-06 2.69322e+25 -0.897051 -3.20582 272.238 
1.64852e-05 -2.15025e-06 2.689e+25 -0.0478819 -0.977576 272.61 
1.19458e-06 -1.67242e-06 2.6914e+25 -7.83576 0.0292408 272.358 
3.10592e-06 -1.67242e-06 2.69215e+25 -8.08438 -1.8297 272.256 
5.01725e-06 -1.67242e-06 2.69183e+25 -7.81253 -3.82027 272.198 
6.92858e-06 -1.67242e-06 2.6908e+25 -7.10216 -5.36976 272.44 
8.83992e-06 -1.67242e-06 2.69017e+25 -5.98668 -6.60352 272.484 
1.07512e-05 -1.67242e-06 2.69046e+25 -4.29728 -6.57914 272.541 
1.26626e-05 -1.67242e-06 2.69283e+25 -2.52536 -5.63777 272.294 
1.45739e-05 -1.67242e-06 2.693e+25 -0.900556 -3.55814 272.263 
1.64852e-05 -1.67242e-06 2.68948e+25 -0.124944 -0.978479 272.563 
1.19458e-06 -1.19458e-06 2.68947e+25 -7.82398 0.238199 272.513 
3.10592e-06 -1.19458e-06 2.68971e+25 -8.21482 -1.85651 272.503 
5.01725e-06 -1.19458e-06 2.69205e+25 -8.17315 -3.98111 272.27 
6.92858e-06 -1.19458e-06 2.69117e+25 -7.42536 -5.5806 272.392 
8.83992e-06 -1.19458e-06 2.69008e+25 -6.27797 -6.93807 272.538 
1.07512e-05 -1.19458e-06 2.69017e+25 -4.38886 -7.07984 272.553 
1.26626e-05 -1.19458e-06 2.69189e+25 -2.71069 -6.09906 272.4 
1.45739e-05 -1.19458e-06 2.69225e+25 -0.954359 -3.96821 272.297 
1.64852e-05 -1.19458e-06 2.68959e+25 -0.0929657 -0.952177 272.544 
1.19458e-06 -7.1675e-07 2.68883e+25 -7.82257 0.413605 272.509 
3.10592e-06 -7.1675e-07 2.68958e+25 -8.29961 -1.75106 272.443 
5.01725e-06 -7.1675e-07 2.69233e+25 -8.40689 -4.06666 272.231 
6.92858e-06 -7.1675e-07 2.69134e+25 -7.60949 -5.87623 272.397 
8.83992e-06 -7.1675e-07 2.69152e+25 -6.55227 -7.23611 272.366 
1.07512e-05 -7.1675e-07 2.68911e+25 -4.89264 -7.58565 272.609 
1.26626e-05 -7.1675e-07 2.69138e+25 -2.97225 -6.57473 272.444 
1.45739e-05 -7.1675e-07 2.69248e+25 -1.05319 -4.2964 272.325 
1.64852e-05 -7.1675e-07 2.69034e+25 -0.127408 -1.07844 272.486 
1.19458e-06 -2.38917e-07 2.68846e+25 -7.7077 0.489786 272.509 
3.10592e-06 -2.38917e-07 2.68993e+25 -8.23016 -1.62003 272.409 
5.01725e-06 -2.38917e-07 2.69187e+25 -8.48667 -4.12792 272.224 
6.92858e-06 -2.38917e-07 2.69182e+25 -7.78213 -6.08107 272.33 
8.83992e-06 -2.38917e-07 2.69024e+25 -6.95357 -7.55693 272.422 
1.07512e-05 -2.38917e-07 2.69091e+25 -5.23328 -8.10767 272.475 
1.26626e-05 -2.38917e-07 2.69299e+25 -3.01758 -7.07623 272.233 
1.45739e-05 -2.38917e-07 2.69246e+25 -1.20888 -4.77852 272.345 
1.64852e-05 -2.38917e-07 2.68976e+25 -0.0218679 -1.2349 272.598 
2.38917e-07 -1.69631e-05 2.6878e+25 -0.176443 0.00286371 272.825 
2.15025e-06 -1.69631e-05 2.68901e+25 -0.146522 -0.0724004 272.771 
4.06158e-06 -1.69631e-05 2.68798e+25 -0.108374 0.0119357 272.844 
5.97292e-06 -1.69631e-05 2.68761e+25 -0.00370567 0.0027586 272.985 
7.88425e-06 -1.69631e-05 2.68815e+25 -0.0286379 0.0657553 272.835 
9.79558e-06 -1.69631e-05 2.68899e+25 -0.0733855 0.0187459 272.776 
1.17069e-05 -1.69631e-05 2.68853e+25 -0.0169108 -0.0304393 272.794 
1.36182e-05 -1.69631e-05 2.68908e+25 0.0446952 0.022577 272.812 
1.55296e-05 -1.69631e-05 2.68722e+25 0.0839883 -0.00145603 272.852 
2.38917e-07 -1.64852e-05 2.68979e+25 -0.527691 -0.0574678 272.645 
2.15025e-06 -1.64852e-05 2.6906e+25 -0.470022 -0.0596506 272.536 
4.06158e-06 -1.64852e-05 2.68955e+25 -0.428056 0.0222081 272.722 
5.97292e-06 -1.64852e-05 2.68983e+25 -0.195635 -0.0573517 272.671 
7.88425e-06 -1.64852e-05 2.69133e+25 -0.264674 0.135184 272.591 
9.79558e-06 -1.64852e-05 2.69229e+25 -0.177944 -0.0468912 272.491 
1.17069e-05 -1.64852e-05 2.69146e+25 0.0900913 -0.0315178 272.451 
1.36182e-05 -1.64852e-05 2.69066e+25 -0.0111444 0.0517517 272.554 
1.55296e-05 -1.64852e-05 2.68999e+25 -0.0242969 -0.0812739 272.576 
2.38917e-07 -1.60074e-05 2.69088e+25 -0.779687 -0.0566325 272.522 
2.15025e-06 -1.60074e-05 2.69104e+25 -0.847518 -0.0289262 272.507 
4.06158e-06 -1.60074e-05 2.69035e+25 -0.756607 0.0250815 272.636 
5.97292e-06 -1.60074e-05 2.69044e+25 -0.628098 -0.0817713 272.57 
7.88425e-06 -1.60074e-05 2.69194e+25 -0.372003 0.121909 272.462 
9.79558e-06 -1.60074e-05 2.69249e+25 -0.279645 -0.0641955 272.351 
1.17069e-05 -1.60074e-05 2.69099e+25 0.0028681 -0.0734557 272.519 
1.36182e-05 -1.60074e-05 2.69142e+25 -0.0635352 0.0901455 272.434 
1.55296e-05 -1.60074e-05 2.69138e+25 -0.0298507 -0.114068 272.408 
2.38917e-07 -1.55296e-05 2.69108e+25 -1.19174 -0.0669886 272.547 
2.15025e-06 -1.55296e-05 2.68975e+25 -1.18942 -0.0231368 272.596 
4.06158e-06 -1.55296e-05 2.6898e+25 -1.1449 0.0366497 272.588 
5.97292e-06 -1.55296e-05 2.69045e+25 -0.961603 -0.0885313 272.542 
7.88425e-06 -1.55296e-05 2.69182e+25 -0.564635 -0.0457487 272.493 
9.79558e-06 -1.55296e-05 2.69247e+25 -0.399748 -0.0271874 272.397 
1.17069e-05 -1.55296e-05 2.69102e+25 -0.103797 -0.134853 272.487 
1.36182e-05 -1.55296e-05 2.69212e+25 0.0746837 0.0916756 272.382 
1.55296e-05 -1.55296e-05 2.68956e+25 -0.0616037 -0.158908 272.53 
2.38917e-07 -1.50517e-05 2.69032e+25 -1.57661 -0.110975 272.511 
2.15025e-06 -1.50517e-05 2.69118e+25 -1.65554 -0.0589481 272.539 
4.06158e-06 -1.50517e-05 2.68923e+25 -1.49354 -0.0285752 272.658 
5.97292e-06 -1.50517e-05 2.69114e+25 -1.22037 -0.25717 272.516 
7.88425e-06 -1.50517e-05 2.691e+25 -0.590293 -0.201335 272.527 
9.79558e-06 -1.50517e-05 2.68986e+25 -0.449928 -0.0996105 272.507 
1.17069e-05 -1.50517e-05 2.69211e+25 -0.18011 -0.203579 272.442 
1.36182e-05 -1.50517e-05 2.69343e+25 -0.0387556 0.131801 272.281 
1.55296e-05 -1.50517e-05 2.6902e+25 0.0120815 -0.100383 272.516 
2.38917e-07 -1.45739e-05 2.6902e+25 -2.00102 -0.00602632 272.516 
2.15025e-06 -1.45739e-05 2.68979e+25 -1.94018 -0.104178 272.63 
4.06158e-06 -1.45739e-05 2.68972e+25 -1.5651 -0.207896 272.645 
5.97292e-06 -1.45739e-05 2.69259e+25 -1.33846 -0.462266 272.429 
7.88425e-06 -1.45739e-05 2.69016e+25 -0.760763 -0.281518 272.61 
9.79558e-06 -1.45739e-05 2.69063e+25 -0.505561 -0.245172 272.486 
1.17069e-05 -1.45739e-05 2.69236e+25 -0.203396 -0.3002 272.382 
1.36182e-05 -1.45739e-05 2.69347e+25 -0.0355513 0.0678793 272.233 
1.55296e-05 -1.45739e-05 2.693e+25 0.0606639 0.0148342 272.275 
2.38917e-07 -1.40961e-05 2.69013e+25 -2.25052 0.0496834 272.612 
2.15025e-06 -1.40961e-05 2.68967e+25 -2.23199 -0.150285 272.676 
4.06158e-06 -1.40961e-05 2.68944e+25 -1.71408 -0.293044 272.69 
5.97292e-06 -1.40961e-05 2.69186e+25 -1.44748 -0.541366 272.415 
7.88425e-06 -1.40961e-05 2.69028e+25 -1.00777 -0.315126 272.616 
9.79558e-06 -1.40961e-05 2.69219e+25 -0.490685 -0.352168 272.371 
1.17069e-05 -1.40961e-05 2.69297e+25 -0.256594 -0.35399 272.271 
1.36182e-05 -1.40961e-05 2.6937e+25 0.0338341 -0.0613915 272.246 
1.55296e-05 -1.40961e-05 2.69418e+25 0.16229 0.0286824 272.188 
2.38917e-07 -1.36182e-05 2.68924e+25 -2.63779 0.00160875 272.686 
2.15025e-06 -1.36182e-05 2.69033e+25 -2.40494 -0.232236 272.585 
4.06158e-06 -1.36182e-05 2.68955e+25 -2.07121 -0.428171 272.62 
5.97292e-06 -1.36182e-05 2.69194e+25 -1.47079 -0.542336 272.444 
7.88425e-06 -1.36182e-05 2.69099e+25 -1.21391 -0.396501 272.535 
9.79558e-06 -1.36182e-05 2.69167e+25 -0.641375 -0.474388 272.436 
1.17069e-05 -1.36182e-05 2.6928e+25 -0.4147 -0.409051 272.346 
1.36182e-05 -1.36182e-05 2.69304e+25 -0.155099 -0.233717 272.313 
1.55296e-05 -1.36182e-05 2.69299e+25 -0.0582328 -0.0411789 272.305 
2.38917e-07 -1.31404e-05 2.6883e+25 -2.7831 0.0692844 272.672 
2.15025e-06 -1.31404e-05 2.69157e+25 -2.54485 -0.305163 272.416 
4.06158e-06 -1.31404e-05 2.69146e+25 -2.22916 -0.545166 272.486 
5.97292e-06 -1.31404e-05 2.69054e+25 -1.67063 -0.602788 272.557 
7.88425e-06 -1.31404e-05 2.69088e+25 -1.25024 -0.537398 272.496 
9.79558e-06 -1.31404e-05 2.69152e+25 -0.70356 -0.58279 272.464 
1.17069e-05 -1.31404e-05 2.69284e+25 -0.55897 -0.463488 272.255 
1.36182e-05 -1.31404e-05 2.69205e+25 -0.185304 -0.342991 272.376 
1.55296e-05 -1.31404e-05 2.69308e+25 -0.077199 -0.0211539 272.308 
2.38917e-07 -1.26626e-05 2.68964e+25 -2.75682 0.05938 272.656 
2.15025e-06 -1.26626e-05 2.69134e+25 -2.75701 -0.333906 272.474 
4.06158e-06 -1.26626e-05 2.69089e+25 -2.36446 -0.586014 272.488 
5.97292e-06 -1.26626e-05 2.69032e+25 -1.8557 -0.642696 272.475 
7.88425e-06 -1.26626e-05 2.69097e+25 -1.49501 -0.771339 272.521 
9.79558e-06 -1.26626e-05 2.69163e+25 -0.929391 -0.706903 272.446 
1.17069e-05 -1.26626e-05 2.69257e+25 -0.38552 -0.491974 272.311 
1.36182e-05 -1.26626e-05 2.69407e+25 -0.346891 -0.348591 272.257 
1.55296e-05 -1.26626e-05 2.69344e+25 0.0340308 -0.0139996 272.277 
2.38917e-07 -1.21847e-05 2.68955e+25 -2.92521 0.0760015 272.63 
2.15025e-06 -1.21847e-05 2.69093e+25 -3.11161 -0.410512 272.481 
4.06158e-06 -1.21847e-05 2.69168e+25 -2.5426 -0.703093 272.502 
5.97292e-06 -1.21847e-05 2.6913e+25 -2.18907 -0.660282 272.386 
7.88425e-06 -1.21847e-05 2.69176e+25 -1.67284 -0.882335 272.48 
9.79558e-06 -1.21847e-05 2.69068e+25 -1.17668 -0.862261 272.51 
1.17069e-05 -1.21847e-05 2.692e+25 -0.46967 -0.575389 272.453 
1.36182e-05 -1.21847e-05 2.69271e+25 -0.346967 -0.333988 272.362 
1.55296e-05 -1.21847e-05 2.69384e+25 -0.0138271 -0.0987937 272.169 
2.38917e-07 -1.17069e-05 2.68774e+25 -3.14736 0.156131 272.863 
2.15025e-06 -1.17069e-05 2.69045e+25 -3.22125 -0.495666 272.608 
4.06158e-06 -1.17069e-05 2.6897e+25 -2.77256 -0.885838 272.666 
5.97292e-06 -1.17069e-05 2.69237e+25 -2.33728 -0.845189 272.355 
7.88425e-06 -1.17069e-05 2.69087e+25 -1.77942 -0.974177 272.497 
9.79558e-06 -1.17069e-05 2.69201e+25 -1.15946 -0.966701 272.405 
1.17069e-05 -1.17069e-05 2.69206e+25 -0.64483 -0.654755 272.375 
1.36182e-05 -1.17069e-05 2.69219e+25 -0.153796 -0.334674 272.448 
1.55296e-05 -1.17069e-05 2.69392e+25 -0.119877 -0.160264 272.197 
2.38917e-07 -1.12291e-05 2.68843e+25 -3.3504 0.214971 272.725 
2.15025e-06 -1.12291e-05 2.68922e+25 -3.27601 -0.526218 272.66 
4.06158e-06 -1.12291e-05 2.68869e+25 -2.99748 -0.949763 272.708 
5.97292e-06 -1.12291e-05 2.69155e+25 -2.64699 -1.00181 272.411 
7.88425e-06 -1.12291e-05 2.68965e+25 -1.88429 -1.18287 272.571 
9.79558e-06 -1.12291e-05 2.69046e+25 -1.17492 -1.04241 272.561 
1.17069e-05 -1.12291e-05 2.69198e+25 -0.735325 -0.695183 272.401 
1.36182e-05 -1.12291e-05 2.69163e+25 -0.0826836 -0.385507 272.465 
1.55296e-05 -1.12291e-05 2.69276e+25 -0.0149198 -0.14295 272.316 
2.38917e-07 -1.07512e-05 2.68884e+25 -3.60025 0.226014 272.769 
2.15025e-06 -1.07512e-05 2.68982e+25 -3.48485 -0.60509 272.674 
4.06158e-06 -1.07512e-05 2.689e+25 -3.32945 -1.01926 272.608 
5.97292e-06 -1.07512e-05 2.69099e+25 -2.95131 -1.20962 272.505 
7.88425e-06 -1.07512e-05 2.6918e+25 -2.01047 -1.35549 272.392 
9.79558e-06 -1.07512e-05 2.69124e+25 -1.37016 -1.1924 272.491 
1.17069e-05 -1.07512e-05 2.69235e+25 -0.801807 -0.877863 272.396 
1.36182e-05 -1.07512e-05 2.69181e+25 -0.226108 -0.405728 272.347 
1.55296e-05 -1.07512e-05 2.69331e+25 -0.0269267 -0.0966105 272.295 
2.38917e-07 -1.02734e-05 2.68781e+25 -3.8742 0.24238 272.765 
2.15025e-06 -1.02734e-05 2.69042e+25 -3.64147 -0.633098 272.53 
4.06158e-06 -1.02734e-05 2.68945e+25 -3.6489 -1.0002 272.652 
5.97292e-06 -1.02734e-05 2.69089e+25 -3.15214 -1.46848 272.463 
7.88425e-06 -1.02734e-05 2.69184e+25 -2.27124 -1.62688 272.351 
9.79558e-06 -1.02734e-05 2.69073e+25 -1.57401 -1.33224 272.481 
1.17069e-05 -1.02734e-05 2.69305e+25 -0.889896 -1.13483 272.338 
1.36182e-05 -1.02734e-05 2.69375e+25 -0.339397 -0.55819 272.229 
1.55296e-05 -1.02734e-05 2.69223e+25 -0.0144201 -0.147256 272.306 
2.38917e-07 -9.79558e-06 2.68868e+25 -4.07248 0.21945 272.746 
2.15025e-06 -9.79558e-06 2.69042e+25 -3.88558 -0.673197 272.505 
4.06158e-06 -9.79558e-06 2.68952e+25 -3.83179 -1.0083 272.658 
5.97292e-06 -9.79558e-06 2.69062e+25 -3.37413 -1.66703 272.536 
7.88425e-06 -9.79558e-06 2.69169e+25 -2.56814 -1.81564 272.37 
9.79558e-06 -9.79558e-06 2.69082e+25 -1.75577 -1.63117 272.453 
1.17069e-05 -9.79558e-06 2.69363e+25 -0.934835 -1.24651 272.263 
1.36182e-05 -9.79558e-06 2.69361e+25 -0.475588 -0.69606 272.184 
1.55296e-05 -9.79558e-06 2.69428e+25 -0.0947071 -0.177342 272.248 
2.38917e-07 -9.31775e-06 2.68875e+25 -4.22531 0.212865 272.72 
2.15025e-06 -9.31775e-06 2.6898e+25 -4.17285 -0.65996 272.606 
4.06158e-06 -9.31775e-06 2.69025e+25 -4.06693 -1.07535 272.575 
5.97292e-06 -9.31775e-06 2.68779e+25 -3.62174 -1.83803 272.783 
7.88425e-06 -9.31775e-06 2.69253e+25 -2.89542 -2.01623 272.362 
9.79558e-06 -9.31775e-06 2.69028e+25 -2.02664 -1.89014 272.538 
1.17069e-05 -9.31775e-06 2.69305e+25 -1.14818 -1.32692 272.309 
1.36182e-05 -9.31775e-06 2.69462e+25 -0.437226 -0.744085 272.206 
1.55296e-05 -9.31775e-06 2.69427e+25 -0.205597 -0.285019 272.248 
2.38917e-07 -8.83992e-06 2.68984e+25 -4.66156 0.174248 272.617 
2.15025e-06 -8.83992e-06 2.68945e+25 -4.25919 -0.710743 272.619 
4.06158e-06 -8.83992e-06 2.69132e+25 -4.22402 -1.10904 272.508 
5.97292e-06 -8.83992e-06 2.68837e+25 -3.75214 -1.94295 272.795 
7.88425e-06 -8.83992e-06 2.69372e+25 -3.05906 -2.08905 272.187 
9.79558e-06 -8.83992e-06 2.69103e+25 -2.06895 -2.11774 272.528 
1.17069e-05 -8.83992e-06 2.6914e+25 -1.19154 -1.58677 272.44 
1.36182e-05 -8.83992e-06 2.69299e+25 -0.515475 -0.908177 272.364 
1.55296e-05 -8.83992e-06 2.69276e+25 -0.15843 -0.377113 272.257 
2.38917e-07 -8.36208e-06 2.68955e+25 -4.88563 0.0785714 272.624 
2.15025e-06 -8.36208e-06 2.6903e+25 -4.56992 -0.722982 272.572 
4.06158e-06 -8.36208e-06 2.6915e+25 -4.4562 -1.15689 272.453 
5.97292e-06 -8.36208e-06 2.68913e+25 -3.839 -2.12158 272.706 
7.88425e-06 -8.36208e-06 2.69413e+25 -3.15394 -2.28206 272.224 
9.79558e-06 -8.36208e-06 2.69136e+25 -2.1662 -2.36893 272.472 
1.17069e-05 -8.36208e-06 2.69192e+25 -1.17983 -1.76921 272.39 
1.36182e-05 -8.36208e-06 2.68945e+25 -0.660354 -1.17622 272.574 
1.55296e-05 -8.36208e-06 2.69269e+25 -0.089892 -0.312596 272.35 
2.38917e-07 -7.88425e-06 2.68954e+25 -5.09517 -0.0270391 272.609 
2.15025e-06 -7.88425e-06 2.6914e+25 -4.81471 -0.7799 272.46 
4.06158e-06 -7.88425e-06 2.69209e+25 -4.52935 -1.33679 272.409 
5.97292e-06 -7.88425e-06 2.68888e+25 -4.03092 -2.30147 272.646 
7.88425e-06 -7.88425e-06 2.6928e+25 -3.26209 -2.55871 272.29 
9.79558e-06 -7.88425e-06 2.69108e+25 -2.32722 -2.61656 272.436 
1.17069e-05 -7.88425e-06 2.69339e+25 -1.36596 -1.92508 272.252 
1.36182e-05 -7.88425e-06 2.69016e+25 -0.580007 -1.41426 272.54 
1.55296e-05 -7.88425e-06 2.69255e+25 -0.16032 -0.305231 272.31 
2.38917e-07 -7.40642e-06 2.69051e+25 -5.3056 0.0200386 272.447 
2.15025e-06 -7.40642e-06 2.69241e+25 -5.27805 -0.834021 272.372 
4.06158e-06 -7.40642e-06 2.69145e+25 -4.84278 -1.47789 272.446 
5.97292e-06 -7.40642e-06 2.69001e+25 -4.18416 -2.45355 272.569 
7.88425e-06 -7.40642e-06 2.69227e+25 -3.30177 -2.78392 272.354 
9.79558e-06 -7.40642e-06 2.69063e+25 -2.3101 -2.84866 272.513 
1.17069e-05 -7.40642e-06 2.69308e+25 -1.46898 -2.06271 272.259 
1.36182e-05 -7.40642e-06 2.6903e+25 -0.756594 -1.61374 272.543 
1.55296e-05 -7.40642e-06 2.69293e+25 -0.154682 -0.400757 272.236 
2.38917e-07 -6.92858e-06 2.68947e+25 -5.43672 0.0912837 272.534 
2.15025e-06 -6.92858e-06 2.69099e+25 -5.57715 -0.946862 272.482 
4.06158e-06 -6.92858e-06 2.69079e+25 -5.08741 -1.66633 272.483 
5.97292e-06 -6.92858e-06 2.68936e+25 -4.4026 -2.66735 272.614 
7.88425e-06 -6.92858e-06 2.69064e+25 -3.42856 -3.06666 272.5 
9.79558e-06 -6.92858e-06 2.69196e+25 -2.45937 -3.02938 272.445 
1.17069e-05 -6.92858e-06 2.69127e+25 -1.53473 -2.18116 272.432 
1.36182e-05 -6.92858e-06 2.69169e+25 -0.865972 -1.7458 272.465 
1.55296e-05 -6.92858e-06 2.69254e+25 -0.209373 -0.589277 272.305 
2.38917e-07 -6.45075e-06 2.68922e+25 -5.89381 0.147902 272.671 
2.15025e-06 -6.45075e-06 2.68947e+25 -5.84786 -0.984004 272.52 
4.06158e-06 -6.45075e-06 2.6913e+25 -5.45975 -1.90965 272.479 
5.97292e-06 -6.45075e-06 2.69166e+25 -4.66994 -2.88253 272.493 
7.88425e-06 -6.45075e-06 2.6902e+25 -3.65253 -3.4109 272.603 
9.79558e-06 -6.45075e-06 2.6901e+25 -2.56058 -3.16429 272.483 
1.17069e-05 -6.45075e-06 2.69183e+25 -1.77753 -2.48152 272.405 
1.36182e-05 -6.45075e-06 2.69033e+25 -0.865403 -1.89837 272.498 
1.55296e-05 -6.45075e-06 2.69197e+25 -0.167379 -0.654635 272.4 
2.38917e-07 -5.97292e-06 2.68922e+25 -6.0654 0.172397 272.596 
2.15025e-06 -5.97292e-06 2.6902e+25 -5.94957 -0.952476 272.534 
4.06158e-06 -5.97292e-06 2.69188e+25 -5.65445 -2.01191 272.416 
5.97292e-06 -5.97292e-06 2.6918e+25 -5.05459 -3.0621 272.387 
7.88425e-06 -5.97292e-06 2.69169e+25 -3.96815 -3.74908 272.454 
9.79558e-06 -5.97292e-06 2.68981e+25 -2.74759 -3.35457 272.597 
1.17069e-05 -5.97292e-06 2.69294e+25 -1.94941 -2.79732 272.322 
1.36182e-05 -5.97292e-06 2.69231e+25 -0.852391 -2.06655 272.444 
1.55296e-05 -5.97292e-06 2.69179e+25 -0.235462 -0.720887 272.443 
2.38917e-07 -5.49508e-06 2.68962e+25 -6.18185 0.238542 272.616 
2.15025e-06 -5.49508e-06 2.69108e+25 -6.27472 -1.06769 272.445 
4.06158e-06 -5.49508e-06 2.6906e+25 -5.93091 -2.11951 272.473 
5.97292e-06 -5.49508e-06 2.69215e+25 -5.15999 -3.23436 272.409 
7.88425e-06 -5.49508e-06 2.69267e+25 -4.39245 -3.98745 272.371 
9.79558e-06 -5.49508e-06 2.68959e+25 -3.1494 -3.60643 272.659 
1.17069e-05 -5.49508e-06 2.693e+25 -1.95558 -3.10479 272.35 
1.36182e-05 -5.49508e-06 2.69243e+25 -0.883267 -2.28272 272.357 
1.55296e-05 -5.49508e-06 2.69021e+25 -0.321237 -0.834606 272.548 
2.38917e-07 -5.01725e-06 2.68868e+25 -6.35645 0.336745 272.654 
2.15025e-06 -5.01725e-06 2.69112e+25 -6.48944 -1.17958 272.489 
4.06158e-06 -5.01725e-06 2.69038e+25 -6.21649 -2.20722 272.507 
5.97292e-06 -5.01725e-06 2.69196e+25 -5.4333 -3.43005 272.395 
7.88425e-06 -5.01725e-06 2.69254e+25 -4.78193 -4.19235 272.383 
9.79558e-06 -5.01725e-06 2.68997e+25 -3.55514 -4.00795 272.595 
1.17069e-05 -5.01725e-06 2.69211e+25 -2.28119 -3.45029 272.418 
1.36182e-05 -5.01725e-06 2.69252e+25 -0.917781 -2.51589 272.296 
1.55296e-05 -5.01725e-06 2.69165e+25 -0.319899 -1.04232 272.458 
2.38917e-07 -4.53942e-06 2.68861e+25 -6.43288 0.383729 272.618 
2.15025e-06 -4.53942e-06 2.69077e+25 -6.77259 -1.17631 272.469 
4.06158e-06 -4.53942e-06 2.69022e+25 -6.44369 -2.33125 272.522 
5.97292e-06 -4.53942e-06 2.69105e+25 -5.8643 -3.64309 272.476 
7.88425e-06 -4.53942e-06 2.6912e+25 -5.16606 -4.39823 272.463 
9.79558e-06 -4.53942e-06 2.68996e+25 -3.83827 -4.41278 272.603 
1.17069e-05 -4.53942e-06 2.69058e+25 -2.44507 -3.69934 272.503 
1.36182e-05 -4.53942e-06 2.6915e+25 -1.00977 -2.82053 272.351 
1.55296e-05 -4.53942e-06 2.69208e+25 -0.278 -1.22992 272.389 
2.38917e-07 -4.06158e-06 2.68833e+25 -6.64578 0.453993 272.626 
2.15025e-06 -4.06158e-06 2.69186e+25 -6.92339 -1.09824 272.312 
4.06158e-06 -4.06158e-06 2.69095e+25 -6.63718 -2.46442 272.426 
5.97292e-06 -4.06158e-06 2.69079e+25 -6.28137 -3.8493 272.506 
7.88425e-06 -4.06158e-06 2.69115e+25 -5.30173 -4.60773 272.419 
9.79558e-06 -4.06158e-06 2.68988e+25 -4.16386 -4.7417 272.545 
1.17069e-05 -4.06158e-06 2.69091e+25 -2.51351 -3.96628 272.468 
1.36182e-05 -4.06158e-06 2.69074e+25 -1.08653 -3.16589 272.526 
1.55296e-05 -4.06158e-06 2.69166e+25 -0.241681 -1.42398 272.387 
2.38917e-07 -3.58375e-06 2.68951e+25 -6.89205 0.588598 272.648 
2.15025e-06 -3.58375e-06 2.69263e+25 -7.17545 -1.07314 272.27 
4.06158e-06 -3.58375e-06 2.69082e+25 -6.99344 -2.61036 272.402 
5.97292e-06 -3.58375e-06 2.68918e+25 -6.62751 -3.86494 272.606 
7.88425e-06 -3.58375e-06 2.6917e+25 -5.52654 -4.94393 272.425 
9.79558e-06 -3.58375e-06 2.6915e+25 -4.28111 -5.17875 272.481 
1.17069e-05 -3.58375e-06 2.69127e+25 -2.70663 -4.33478 272.453 
1.36182e-05 -3.58375e-06 2.69064e+25 -1.21507 -3.40853 272.591 
1.55296e-05 -3.58375e-06 2.69085e+25 -0.329683 -1.52353 272.471 
2.38917e-07 -3.10592e-06 2.68903e+25 -7.03788 0.653661 272.569 
2.15025e-06 -3.10592e-06 2.69108e+25 -7.36848 -0.965456 272.322 
4.06158e-06 -3.10592e-06 2.6925e+25 -7.32427 -2.76152 272.22 
5.97292e-06 -3.10592e-06 2.69066e+25 -6.82491 -4.03403 272.486 
7.88425e-06 -3.10592e-06 2.69104e+25 -5.76818 -5.27711 272.443 
9.79558e-06 -3.10592e-06 2.69215e+25 -4.52677 -5.59166 272.368 
1.17069e-05 -3.10592e-06 2.69166e+25 -2.79884 -4.7765 272.367 
1.36182e-05 -3.10592e-06 2.69123e+25 -1.41095 -3.70332 272.418 
1.55296e-05 -3.10592e-06 2.692e+25 -0.25534 -1.71418 272.368 
2.38917e-07 -2.62808e-06 2.68941e+25 -7.36186 0.809587 272.511 
2.15025e-06 -2.62808e-06 2.69133e+25 -7.38601 -1.01974 272.354 
4.06158e-06 -2.62808e-06 2.69301e+25 -7.62803 -2.83174 272.206 
5.97292e-06 -2.62808e-06 2.68984e+25 -6.93679 -4.28196 272.544 
7.88425e-06 -2.62808e-06 2.69e+25 -6.08448 -5.58071 272.488 
9.79558e-06 -2.62808e-06 2.69164e+25 -4.74644 -5.98627 272.369 
1.17069e-05 -2.62808e-06 2.69143e+25 -3.09504 -5.32332 272.435 
1.36182e-05 -2.62808e-06 2.69339e+25 -1.45581 -4.01387 272.266 
1.55296e-05 -2.62808e-06 2.69343e+25 -0.299834 -1.86729 272.233 
2.38917e-07 -2.15025e-06 2.68903e+25 -7.57792 0.912435 272.539 
2.15025e-06 -2.15025e-06 2.69051e+25 -7.83146 -0.971807 272.403 
4.06158e-06 -2.15025e-06 2.69291e+25 -7.82628 -2.79036 272.132 
5.97292e-06 -2.15025e-06 2.69153e+25 -7.11544 -4.50062 272.44 
7.88425e-06 -2.15025e-06 2.69079e+25 -6.34383 -5.79886 272.471 
9.79558e-06 -2.15025e-06 2.69243e+25 -4.86193 -6.34721 272.343 
1.17069e-05 -2.15025e-06 2.69138e+25 -3.25601 -5.79446 272.403 
1.36182e-05 -2.15025e-06 2.69172e+25 -1.56202 -4.38017 272.39 
1.55296e-05 -2.15025e-06 2.69204e+25 -0.235668 -2.1375 272.235 
2.38917e-07 -1.67242e-06 2.68946e+25 -7.52958 1.02724 272.541 
2.15025e-06 -1.67242e-06 2.69032e+25 -8.11063 -0.931885 272.428 
4.06158e-06 -1.67242e-06 2.69185e+25 -8.06699 -2.84671 272.26 
5.97292e-06 -1.67242e-06 2.69276e+25 -7.49773 -4.7186 272.289 
7.88425e-06 -1.67242e-06 2.69104e+25 -6.70962 -6.11286 272.366 
9.79558e-06 -1.67242e-06 2.69072e+25 -5.13162 -6.67583 272.47 
1.17069e-05 -1.67242e-06 2.69114e+25 -3.34877 -6.27707 272.426 
1.36182e-05 -1.67242e-06 2.69218e+25 -1.74061 -4.77499 272.336 
1.55296e-05 -1.67242e-06 2.69202e+25 -0.250051 -2.3042 272.274 
2.38917e-07 -1.19458e-06 2.68969e+25 -7.47619 1.11662 272.458 
2.15025e-06 -1.19458e-06 2.69016e+25 -8.10252 -0.859522 272.425 
4.06158e-06 -1.19458e-06 2.69262e+25 -8.20198 -2.9116 272.244 
5.97292e-06 -1.19458e-06 2.69046e+25 -7.85986 -4.88936 272.454 
7.88425e-06 -1.19458e-06 2.69201e+25 -6.99261 -6.40866 272.31 
9.79558e-06 -1.19458e-06 2.69005e+25 -5.53954 -7.11668 272.481 
1.17069e-05 -1.19458e-06 2.69199e+25 -3.58988 -6.69033 272.387 
1.36182e-05 -1.19458e-06 2.69339e+25 -1.81029 -5.2378 272.248 
1.55296e-05 -1.19458e-06 2.69331e+25 -0.393117 -2.61351 272.207 
2.38917e-07 -7.1675e-07 2.68949e+25 -7.4515 1.30367 272.467 
2.15025e-06 -7.1675e-07 2.69026e+25 -8.0555 -0.773175 272.379 
4.06158e-06 -7.1675e-07 2.69255e+25 -8.37883 -2.8854 272.202 
5.97292e-06 -7.1675e-07 2.68921e+25 -8.03211 -5.03861 272.445 
7.88425e-06 -7.1675e-07 2.69104e+25 -7.07175 -6.67103 272.319 
9.79558e-06 -7.1675e-07 2.6897e+25 -5.87137 -7.67235 272.503 
1.17069e-05 -7.1675e-07 2.69261e+25 -3.87233 -7.1209 272.304 
1.36182e-05 -7.1675e-07 2.69307e+25 -1.95314 -5.67914 272.201 
1.55296e-05 -7.1675e-07 2.69297e+25 -0.502794 -2.80018 272.27 
2.38917e-07 -2.38917e-07 2.69011e+25 -7.42652 1.49012 272.415 
2.15025e-06 -2.38917e-07 2.68983e+25 -7.98198 -0.649315 272.399 
4.06158e-06 -2.38917e-07 2.69156e+25 -8.29065 -2.75708 272.191 
5.97292e-06 -2.38917e-07 2.69035e+25 -8.1925 -5.22297 272.441 
7.88425e-06 -2.38917e-07 2.69209e+25 -7.35896 -6.87072 272.273 
9.79558e-06 -2.38917e-07 2.68882e+25 -6.14732 -8.13628 272.601 
1.17069e-05 -2.38917e-07 2.69131e+25 -4.2009 -7.73922 272.435 
1.36182e-05 -2.38917e-07 2.69332e+25 -2.19055 -6.16283 272.266 
1.55296e-05 -2.38917e-07 2.69291e+25 -0.500668 -3.0043 272.242 
7.1675e-07 -1.69631e-05 2.68856e+25 -0.170091 -0.00472075 272.757 
2.62808e-06 -1.69631e-05 2.68817e+25 -0.154176 0.0364723 272.855 
4.53942e-06 -1.69631e-05 2.68934e+25 -0.121603 -0.0121409 272.796 
6.45075e-06 -1.69631e-05 2.68739e+25 0.0350149 -0.0300424 272.896 
8.36208e-06 -1.69631e-05 2.68832e+25 -0.131566 0.025065 272.779 
1.02734e-05 -1.69631e-05 2.68885e+25 -0.0429116 -0.0285196 272.846 
1.21847e-05 -1.69631e-05 2.68903e+25 0.0204395 -0.0354354 272.713 
1.40961e-05 -1.69631e-05 2.688e+25 -0.0226457 0.0243198 272.794 
1.60074e-05 -1.69631e-05 2.68861e+25 0.0460496 0.014308 272.817 
7.1675e-07 -1.64852e-05 2.69007e+25 -0.473067 -0.022906 272.578 
2.62808e-06 -1.64852e-05 2.69093e+25 -0.487732 0.0819734 272.531 
4.53942e-06 -1.64852e-05 2.68951e+25 -0.38064 -0.0635456 272.654 
6.45075e-06 -1.64852e-05 2.68939e+25 -0.153936 -0.014024 272.724 
8.36208e-06 -1.64852e-05 2.69071e+25 -0.247638 0.0618669 272.542 
1.02734e-05 -1.64852e-05 2.69066e+25 -0.0803209 -0.108061 272.538 
1.21847e-05 -1.64852e-05 2.69249e+25 0.0953902 -0.0370344 272.426 
1.40961e-05 -1.64852e-05 2.69005e+25 -0.0454239 0.0499509 272.613 
1.60074e-05 -1.64852e-05 2.69195e+25 0.00855056 0.0671655 272.52 
7.1675e-07 -1.60074e-05 2.68997e+25 -0.81537 -0.059458 272.623 
2.62808e-06 -1.60074e-05 2.69123e+25 -0.786511 0.0176322 272.453 
4.53942e-06 -1.60074e-05 2.69042e+25 -0.811519 -0.0655312 272.568 
6.45075e-06 -1.60074e-05 2.68995e+25 -0.653337 -0.0324782 272.642 
8.36208e-06 -1.60074e-05 2.69166e+25 -0.302257 -0.0364941 272.49 
1.02734e-05 -1.60074e-05 2.69211e+25 -0.303681 -0.128668 272.424 
1.21847e-05 -1.60074e-05 2.69256e+25 0.0206143 -0.023974 272.405 
1.40961e-05 -1.60074e-05 2.69142e+25 -0.0290998 0.0205621 272.477 
1.60074e-05 -1.60074e-05 2.69217e+25 0.00944952 0.0411432 272.39 
7.1675e-07 -1.55296e-05 2.68998e+25 -1.1831 -0.0348099 272.58 
2.62808e-06 -1.55296e-05 2.69051e+25 -1.15968 -0.0340416 272.54 
4.53942e-06 -1.55296e-05 2.68974e+25 -1.11129 -0.026313 272.624 
6.45075e-06 -1.55296e-05 2.68999e+25 -0.883142 -0.101378 272.662 
8.36208e-06 -1.55296e-05 2.6921e+25 -0.394409 -0.105281 272.361 
1.02734e-05 -1.55296e-05 2.69241e+25 -0.391335 -0.198904 272.42 
1.21847e-05 -1.55296e-05 2.69057e+25 -0.0329062 -0.0507552 272.468 
1.40961e-05 -1.55296e-05 2.69225e+25 -0.000792718 0.0884727 272.298 
1.60074e-05 -1.55296e-05 2.69171e+25 -0.074716 0.0441973 272.477 
7.1675e-07 -1.50517e-05 2.69032e+25 -1.61354 0.0322965 272.55 
2.62808e-06 -1.50517e-05 2.69092e+25 -1.57159 -0.105474 272.556 
4.53942e-06 -1.50517e-05 2.68961e+25 -1.38993 -0.0639903 272.726 
6.45075e-06 -1.50517e-05 2.69113e+25 -0.975949 -0.284127 272.557 
8.36208e-06 -1.50517e-05 2.69145e+25 -0.594466 -0.148658 272.475 
1.02734e-05 -1.50517e-05 2.69178e+25 -0.325565 -0.20509 272.434 
1.21847e-05 -1.50517e-05 2.69188e+25 -0.0949443 -0.136547 272.4 
1.40961e-05 -1.50517e-05 2.69296e+25 -0.0203867 0.0750676 272.306 
1.60074e-05 -1.50517e-05 2.69128e+25 0.0125199 0.0237543 272.479 
7.1675e-07 -1.45739e-05 2.69006e+25 -2.07152 0.0547343 272.583 
2.62808e-06 -1.45739e-05 2.68974e+25 -1.89379 -0.158936 272.589 
4.53942e-06 -1.45739e-05 2.69028e+25 -1.41906 -0.122824 272.655 
6.45075e-06 -1.45739e-05 2.69312e+25 -1.23714 -0.43962 272.346 
8.36208e-06 -1.45739e-05 2.69054e+25 -0.723799 -0.124726 272.529 
1.02734e-05 -1.45739e-05 2.69169e+25 -0.343589 -0.333682 272.401 
1.21847e-05 -1.45739e-05 2.69254e+25 -0.158051 -0.151219 272.317 
1.40961e-05 -1.45739e-05 2.69279e+25 0.0715316 0.0203261 272.271 
1.60074e-05 -1.45739e-05 2.6939e+25 0.0539464 -0.070162 272.22 
7.1675e-07 -1.40961e-05 2.68893e+25 -2.23213 0.0922943 272.624 
2.62808e-06 -1.40961e-05 2.69067e+25 -2.15915 -0.21948 272.56 
4.53942e-06 -1.40961e-05 2.6895e+25 -1.63017 -0.244234 272.664 
6.45075e-06 -1.40961e-05 2.69226e+25 -1.35955 -0.52695 272.411 
8.36208e-06 -1.40961e-05 2.69151e+25 -0.925501 -0.128447 272.551 
1.02734e-05 -1.40961e-05 2.69232e+25 -0.421823 -0.462803 272.324 
1.21847e-05 -1.40961e-05 2.69357e+25 -0.207198 -0.167093 272.306 
1.40961e-05 -1.40961e-05 2.69305e+25 0.118995 0.00119197 272.286 
1.60074e-05 -1.40961e-05 2.69376e+25 0.148748 -0.0712197 272.315 
7.1675e-07 -1.36182e-05 2.68897e+25 -2.58778 0.0679117 272.645 
2.62808e-06 -1.36182e-05 2.68969e+25 -2.31999 -0.309327 272.561 
4.53942e-06 -1.36182e-05 2.69066e+25 -1.87966 -0.383306 272.501 
6.45075e-06 -1.36182e-05 2.69125e+25 -1.40429 -0.610646 272.487 
8.36208e-06 -1.36182e-05 2.69005e+25 -1.04211 -0.337632 272.57 
1.02734e-05 -1.36182e-05 2.69281e+25 -0.542123 -0.480567 272.342 
1.21847e-05 -1.36182e-05 2.69398e+25 -0.360729 -0.190386 272.295 
1.40961e-05 -1.36182e-05 2.69379e+25 -0.00258128 -0.0716744 272.209 
1.60074e-05 -1.36182e-05 2.69193e+25 -0.00982427 -0.0362968 272.407 
7.1675e-07 -1.31404e-05 2.68937e+25 -2.77575 -0.0677183 272.663 
2.62808e-06 -1.31404e-05 2.69117e+25 -2.48286 -0.40677 272.484 
4.53942e-06 -1.31404e-05 2.69208e+25 -2.18678 -0.564527 272.414 
6.45075e-06 -1.31404e-05 2.69109e+25 -1.61272 -0.68647 272.556 
8.36208e-06 -1.31404e-05 2.69257e+25 -1.09968 -0.522982 272.385 
1.02734e-05 -1.31404e-05 2.69114e+25 -0.608377 -0.589692 272.419 
1.21847e-05 -1.31404e-05 2.69286e+25 -0.485764 -0.266781 272.246 
1.40961e-05 -1.31404e-05 2.69411e+25 -0.126389 -0.186504 272.202 
1.60074e-05 -1.31404e-05 2.69123e+25 -0.0844652 -0.0470464 272.476 
7.1675e-07 -1.26626e-05 2.69052e+25 -2.75835 -0.110626 272.62 
2.62808e-06 -1.26626e-05 2.69126e+25 -2.67692 -0.495557 272.522 
4.53942e-06 -1.26626e-05 2.69113e+25 -2.26847 -0.682207 272.435 
6.45075e-06 -1.26626e-05 2.69141e+25 -1.87126 -0.688443 272.472 
8.36208e-06 -1.26626e-05 2.69203e+25 -1.34499 -0.66605 272.424 
1.02734e-05 -1.26626e-05 2.69262e+25 -0.819539 -0.65331 272.368 
1.21847e-05 -1.26626e-05 2.69223e+25 -0.354531 -0.319159 272.434 
1.40961e-05 -1.26626e-05 2.69363e+25 -0.338218 -0.217969 272.279 
1.60074e-05 -1.26626e-05 2.69059e+25 0.00121305 0.0521547 272.438 
7.1675e-07 -1.21847e-05 2.68986e+25 -3.01237 0.00483362 272.653 
2.62808e-06 -1.21847e-05 2.6895e+25 -3.01076 -0.577115 272.625 
4.53942e-06 -1.21847e-05 2.69112e+25 -2.37881 -0.837345 272.53 
6.45075e-06 -1.21847e-05 2.69209e+25 -1.99827 -0.800328 272.395 
8.36208e-06 -1.21847e-05 2.69119e+25 -1.56683 -0.735083 272.455 
1.02734e-05 -1.21847e-05 2.6911e+25 -1.00754 -0.827581 272.505 
1.21847e-05 -1.21847e-05 2.69155e+25 -0.415284 -0.319688 272.444 
1.40961e-05 -1.21847e-05 2.69277e+25 -0.286173 -0.304618 272.337 
1.60074e-05 -1.21847e-05 2.69362e+25 -0.00289154 0.0632869 272.261 
7.1675e-07 -1.17069e-05 2.68939e+25 -3.20056 0.0762512 272.62 
2.62808e-06 -1.17069e-05 2.69002e+25 -3.12583 -0.722468 272.595 
4.53942e-06 -1.17069e-05 2.6907e+25 -2.61373 -0.929233 272.58 
6.45075e-06 -1.17069e-05 2.6912e+25 -2.18705 -0.977251 272.44 
8.36208e-06 -1.17069e-05 2.69203e+25 -1.57851 -0.93254 272.417 
1.02734e-05 -1.17069e-05 2.69116e+25 -1.05201 -0.988584 272.471 
1.21847e-05 -1.17069e-05 2.69231e+25 -0.515633 -0.459443 272.366 
1.40961e-05 -1.17069e-05 2.6913e+25 -0.146853 -0.385803 272.425 
1.60074e-05 -1.17069e-05 2.69327e+25 -0.0419065 0.0756735 272.266 
7.1675e-07 -1.12291e-05 2.68927e+25 -3.4477 0.193428 272.683 
2.62808e-06 -1.12291e-05 2.68915e+25 -3.24734 -0.798145 272.685 
4.53942e-06 -1.12291e-05 2.69061e+25 -2.96187 -1.06925 272.574 
6.45075e-06 -1.12291e-05 2.69057e+25 -2.46883 -1.13227 272.493 
8.36208e-06 -1.12291e-05 2.69217e+25 -1.65751 -1.18322 272.434 
1.02734e-05 -1.12291e-05 2.69156e+25 -1.10063 -1.09662 272.461 
1.21847e-05 -1.12291e-05 2.69326e+25 -0.607453 -0.700589 272.308 
1.40961e-05 -1.12291e-05 2.69278e+25 -0.115735 -0.398378 272.395 
1.60074e-05 -1.12291e-05 2.69351e+25 0.00914896 0.0226216 272.243 
7.1675e-07 -1.07512e-05 2.6895e+25 -3.59412 0.215732 272.621 
2.62808e-06 -1.07512e-05 2.68821e+25 -3.4366 -0.859863 272.673 
4.53942e-06 -1.07512e-05 2.69041e+25 -3.31965 -1.09781 272.564 
6.45075e-06 -1.07512e-05 2.69032e+25 -2.67294 -1.4012 272.48 
8.36208e-06 -1.07512e-05 2.69156e+25 -1.87847 -1.32924 272.439 
1.02734e-05 -1.07512e-05 2.69087e+25 -1.24096 -1.19479 272.45 
1.21847e-05 -1.07512e-05 2.69284e+25 -0.647374 -0.809478 272.28 
1.40961e-05 -1.07512e-05 2.69187e+25 -0.152448 -0.403493 272.327 
1.60074e-05 -1.07512e-05 2.69289e+25 -0.021797 -0.0842582 272.252 
7.1675e-07 -1.02734e-05 2.68921e+25 -3.80841 0.147663 272.613 
2.62808e-06 -1.02734e-05 2.68943e+25 -3.68385 -0.841338 272.645 
4.53942e-06 -1.02734e-05 2.69054e+25 -3.66051 -1.08093 272.532 
6.45075e-06 -1.02734e-05 2.69162e+25 -2.94198 -1.59825 272.549 
8.36208e-06 -1.02734e-05 2.6926e+25 -2.06712 -1.4528 272.365 
1.02734e-05 -1.02734e-05 2.69164e+25 -1.30067 -1.3802 272.464 
1.21847e-05 -1.02734e-05 2.69357e+25 -0.695256 -0.929868 272.272 
1.40961e-05 -1.02734e-05 2.69364e+25 -0.181678 -0.48508 272.223 
1.60074e-05 -1.02734e-05 2.69348e+25 -0.000174831 -0.0858146 272.262 
7.1675e-07 -9.79558e-06 2.68987e+25 -3.99626 0.0650484 272.58 
2.62808e-06 -9.79558e-06 2.69006e+25 -3.81673 -0.846545 272.624 
4.53942e-06 -9.79558e-06 2.69058e+25 -3.72287 -1.18178 272.519 
6.45075e-06 -9.79558e-06 2.69004e+25 -3.19624 -1.82364 272.56 
8.36208e-06 -9.79558e-06 2.69242e+25 -2.3402 -1.66998 272.372 
1.02734e-05 -9.79558e-06 2.6914e+25 -1.51968 -1.62708 272.467 
1.21847e-05 -9.79558e-06 2.69338e+25 -0.8391 -1.07321 272.275 
1.40961e-05 -9.79558e-06 2.69392e+25 -0.329092 -0.597156 272.223 
1.60074e-05 -9.79558e-06 2.69269e+25 -0.0580141 -0.124436 272.295 
7.1675e-07 -9.31775e-06 2.68974e+25 -4.20333 -0.0534434 272.527 
2.62808e-06 -9.31775e-06 2.6902e+25 -4.08498 -0.968198 272.601 
4.53942e-06 -9.31775e-06 2.69113e+25 -3.94319 -1.349 272.512 
6.45075e-06 -9.31775e-06 2.68928e+25 -3.39281 -1.99572 272.633 
8.36208e-06 -9.31775e-06 2.69211e+25 -2.70718 -1.90837 272.382 
1.02734e-05 -9.31775e-06 2.69192e+25 -1.73444 -1.88278 272.44 
1.21847e-05 -9.31775e-06 2.69349e+25 -0.954518 -1.26978 272.204 
1.40961e-05 -9.31775e-06 2.69362e+25 -0.42225 -0.74904 272.216 
1.60074e-05 -9.31775e-06 2.69381e+25 -0.189061 -0.124031 272.268 
7.1675e-07 -8.83992e-06 2.69069e+25 -4.61996 -0.0973308 272.505 
2.62808e-06 -8.83992e-06 2.68949e+25 -4.30385 -1.02404 272.595 
4.53942e-06 -8.83992e-06 2.69159e+25 -4.21989 -1.48705 272.433 
6.45075e-06 -8.83992e-06 2.68858e+25 -3.64037 -2.19123 272.704 
8.36208e-06 -8.83992e-06 2.69325e+25 -2.9025 -2.15144 272.222 
1.02734e-05 -8.83992e-06 2.6906e+25 -1.85658 -2.10545 272.503 
1.21847e-05 -8.83992e-06 2.69445e+25 -0.942439 -1.52796 272.177 
1.40961e-05 -8.83992e-06 2.69144e+25 -0.363039 -0.767773 272.382 
1.60074e-05 -8.83992e-06 2.69269e+25 -0.11261 -0.0992079 272.307 
7.1675e-07 -8.36208e-06 2.68963e+25 -4.78506 -0.170654 272.633 
2.62808e-06 -8.36208e-06 2.6899e+25 -4.55367 -1.00458 272.601 
4.53942e-06 -8.36208e-06 2.69216e+25 -4.29899 -1.51712 272.433 
6.45075e-06 -8.36208e-06 2.69064e+25 -3.65328 -2.33414 272.64 
8.36208e-06 -8.36208e-06 2.69354e+25 -2.91072 -2.34148 272.252 
1.02734e-05 -8.36208e-06 2.69125e+25 -1.92634 -2.35038 272.442 
1.21847e-05 -8.36208e-06 2.69279e+25 -1.08307 -1.63901 272.267 
1.40961e-05 -8.36208e-06 2.6904e+25 -0.375096 -0.9454 272.534 
1.60074e-05 -8.36208e-06 2.69162e+25 -0.151991 -0.122864 272.395 
7.1675e-07 -7.88425e-06 2.69064e+25 -5.06997 -0.225451 272.56 
2.62808e-06 -7.88425e-06 2.6905e+25 -4.81605 -0.952144 272.621 
4.53942e-06 -7.88425e-06 2.69071e+25 -4.48001 -1.55884 272.519 
6.45075e-06 -7.88425e-06 2.68999e+25 -3.85695 -2.52273 272.656 
8.36208e-06 -7.88425e-06 2.6927e+25 -3.05487 -2.57922 272.246 
1.02734e-05 -7.88425e-06 2.69134e+25 -1.95613 -2.71603 272.466 
1.21847e-05 -7.88425e-06 2.69325e+25 -1.1973 -1.69574 272.315 
1.40961e-05 -7.88425e-06 2.68958e+25 -0.416716 -1.15969 272.548 
1.60074e-05 -7.88425e-06 2.6926e+25 -0.0538049 -0.180827 272.308 
7.1675e-07 -7.40642e-06 2.69243e+25 -5.34895 -0.164387 272.36 
2.62808e-06 -7.40642e-06 2.69107e+25 -5.20853 -0.943298 272.477 
4.53942e-06 -7.40642e-06 2.6904e+25 -4.68273 -1.69128 272.483 
6.45075e-06 -7.40642e-06 2.68996e+25 -3.96247 -2.71462 272.583 
8.36208e-06 -7.40642e-06 2.69267e+25 -3.01474 -2.82677 272.283 
1.02734e-05 -7.40642e-06 2.691e+25 -2.14771 -3.03499 272.518 
1.21847e-05 -7.40642e-06 2.69266e+25 -1.31338 -1.88584 272.321 
1.40961e-05 -7.40642e-06 2.6906e+25 -0.560327 -1.29048 272.547 
1.60074e-05 -7.40642e-06 2.69327e+25 0.062652 -0.387485 272.327 
7.1675e-07 -6.92858e-06 2.68967e+25 -5.53214 -0.150245 272.557 
2.62808e-06 -6.92858e-06 2.69176e+25 -5.50941 -1.0136 272.413 
4.53942e-06 -6.92858e-06 2.69091e+25 -4.87536 -1.87415 272.484 
6.45075e-06 -6.92858e-06 2.69066e+25 -4.24623 -2.89352 272.586 
8.36208e-06 -6.92858e-06 2.69227e+25 -3.14013 -3.08164 272.366 
1.02734e-05 -6.92858e-06 2.69158e+25 -2.34059 -3.14862 272.491 
1.21847e-05 -6.92858e-06 2.6908e+25 -1.39166 -2.04364 272.487 
1.40961e-05 -6.92858e-06 2.69052e+25 -0.722812 -1.47373 272.521 
1.60074e-05 -6.92858e-06 2.69223e+25 -0.160927 -0.465298 272.335 
7.1675e-07 -6.45075e-06 2.68818e+25 -5.86985 -0.120984 272.673 
2.62808e-06 -6.45075e-06 2.69193e+25 -5.80723 -1.13627 272.408 
4.53942e-06 -6.45075e-06 2.6914e+25 -5.17418 -2.05633 272.418 
6.45075e-06 -6.45075e-06 2.69085e+25 -4.43212 -3.10074 272.536 
8.36208e-06 -6.45075e-06 2.69122e+25 -3.31638 -3.37395 272.49 
1.02734e-05 -6.45075e-06 2.69034e+25 -2.40435 -3.29796 272.53 
1.21847e-05 -6.45075e-06 2.69126e+25 -1.44263 -2.28468 272.46 
1.40961e-05 -6.45075e-06 2.69195e+25 -0.661571 -1.63991 272.462 
1.60074e-05 -6.45075e-06 2.69213e+25 -0.127399 -0.523127 272.365 
7.1675e-07 -5.97292e-06 2.68912e+25 -6.1068 -0.178499 272.607 
2.62808e-06 -5.97292e-06 2.69178e+25 -5.93891 -1.18189 272.476 
4.53942e-06 -5.97292e-06 2.69186e+25 -5.57213 -2.23982 272.414 
6.45075e-06 -5.97292e-06 2.69257e+25 -4.79488 -3.38561 272.36 
8.36208e-06 -5.97292e-06 2.69149e+25 -3.74331 -3.65735 272.415 
1.02734e-05 -5.97292e-06 2.6894e+25 -2.61879 -3.38795 272.652 
1.21847e-05 -5.97292e-06 2.691e+25 -1.63802 -2.58489 272.46 
1.40961e-05 -5.97292e-06 2.69221e+25 -0.684158 -1.84333 272.399 
1.60074e-05 -5.97292e-06 2.69102e+25 -0.176202 -0.538295 272.479 
7.1675e-07 -5.49508e-06 2.68898e+25 -6.28103 -0.112995 272.621 
2.62808e-06 -5.49508e-06 2.69124e+25 -6.18158 -1.22386 272.407 
4.53942e-06 -5.49508e-06 2.69181e+25 -5.79151 -2.37593 272.403 
6.45075e-06 -5.49508e-06 2.69172e+25 -4.96513 -3.63589 272.38 
8.36208e-06 -5.49508e-06 2.69247e+25 -4.12764 -3.94343 272.381 
1.02734e-05 -5.49508e-06 2.68896e+25 -2.86837 -3.6042 272.718 
1.21847e-05 -5.49508e-06 2.69167e+25 -1.69116 -2.86413 272.477 
1.40961e-05 -5.49508e-06 2.69178e+25 -0.728969 -1.98778 272.322 
1.60074e-05 -5.49508e-06 2.69078e+25 -0.230511 -0.631186 272.547 
7.1675e-07 -5.01725e-06 2.68851e+25 -6.38587 -0.0363068 272.669 
2.62808e-06 -5.01725e-06 2.69252e+25 -6.35064 -1.36135 272.331 
4.53942e-06 -5.01725e-06 2.69105e+25 -6.0965 -2.61083 272.419 
6.45075e-06 -5.01725e-06 2.69109e+25 -5.3913 -3.73141 272.376 
8.36208e-06 -5.01725e-06 2.69097e+25 -4.57116 -4.18878 272.469 
1.02734e-05 -5.01725e-06 2.68971e+25 -3.15233 -3.88418 272.674 
1.21847e-05 -5.01725e-06 2.69074e+25 -1.88867 -3.20169 272.489 
1.40961e-05 -5.01725e-06 2.69125e+25 -0.677738 -2.12329 272.411 
1.60074e-05 -5.01725e-06 2.68991e+25 -0.0897921 -0.736509 272.556 
7.1675e-07 -4.53942e-06 2.68845e+25 -6.5189 0.0155541 272.641 
2.62808e-06 -4.53942e-06 2.69084e+25 -6.7915 -1.40106 272.426 
4.53942e-06 -4.53942e-06 2.68997e+25 -6.30707 -2.73683 272.525 
6.45075e-06 -4.53942e-06 2.69015e+25 -5.62342 -3.81053 272.568 
8.36208e-06 -4.53942e-06 2.6906e+25 -4.88874 -4.49991 272.469 
1.02734e-05 -4.53942e-06 2.69007e+25 -3.49406 -4.23198 272.622 
1.21847e-05 -4.53942e-06 2.69065e+25 -2.15249 -3.64001 272.495 
1.40961e-05 -4.53942e-06 2.69118e+25 -0.736779 -2.31658 272.516 
1.60074e-05 -4.53942e-06 2.69228e+25 -0.107806 -0.892781 272.35 
7.1675e-07 -4.06158e-06 2.6892e+25 -6.69241 0.0709008 272.636 
2.62808e-06 -4.06158e-06 2.69068e+25 -6.91248 -1.47483 272.367 
4.53942e-06 -4.06158e-06 2.69187e+25 -6.51263 -2.83504 272.398 
6.45075e-06 -4.06158e-06 2.68991e+25 -6.17508 -3.96968 272.559 
8.36208e-06 -4.06158e-06 2.69136e+25 -5.03858 -4.83848 272.476 
1.02734e-05 -4.06158e-06 2.68951e+25 -3.70901 -4.70321 272.66 
1.21847e-05 -4.06158e-06 2.69041e+25 -2.18054 -3.97208 272.54 
1.40961e-05 -4.06158e-06 2.68929e+25 -0.82051 -2.50101 272.565 
1.60074e-05 -4.06158e-06 2.69125e+25 -0.126107 -0.994095 272.425 
7.1675e-07 -3.58375e-06 2.69e+25 -6.99759 0.0831276 272.525 
2.62808e-06 -3.58375e-06 2.69069e+25 -7.23464 -1.45782 272.392 
4.53942e-06 -3.58375e-06 2.69136e+25 -6.81496 -2.92605 272.422 
6.45075e-06 -3.58375e-06 2.6899e+25 -6.42633 -4.26914 272.536 
8.36208e-06 -3.58375e-06 2.69107e+25 -5.1709 -5.10883 272.407 
1.02734e-05 -3.58375e-06 2.69052e+25 -3.84446 -5.14207 272.553 
1.21847e-05 -3.58375e-06 2.69112e+25 -2.34943 -4.32939 272.471 
1.40961e-05 -3.58375e-06 2.69095e+25 -0.964276 -2.79142 272.418 
1.60074e-05 -3.58375e-06 2.69001e+25 -0.214002 -1.1074 272.477 
7.1675e-07 -3.10592e-06 2.68904e+25 -7.2505 0.297062 272.538 
2.62808e-06 -3.10592e-06 2.69135e+25 -7.43724 -1.47453 272.328 
4.53942e-06 -3.10592e-06 2.69174e+25 -7.15807 -3.08153 272.329 
6.45075e-06 -3.10592e-06 2.68989e+25 -6.53475 -4.51298 272.596 
8.36208e-06 -3.10592e-06 2.69201e+25 -5.56706 -5.36096 272.34 
1.02734e-05 -3.10592e-06 2.691e+25 -4.11358 -5.55183 272.403 
1.21847e-05 -3.10592e-06 2.69104e+25 -2.3816 -4.64983 272.499 
1.40961e-05 -3.10592e-06 2.69184e+25 -1.11023 -3.05758 272.398 
1.60074e-05 -3.10592e-06 2.69131e+25 -0.0833592 -1.28247 272.391 
7.1675e-07 -2.62808e-06 2.6915e+25 -7.45607 0.490429 272.365 
2.62808e-06 -2.62808e-06 2.69169e+25 -7.45428 -1.31089 272.286 
4.53942e-06 -2.62808e-06 2.69251e+25 -7.55755 -3.21446 272.347 
6.45075e-06 -2.62808e-06 2.69053e+25 -6.80393 -4.72015 272.471 
8.36208e-06 -2.62808e-06 2.69154e+25 -5.7671 -5.63715 272.445 
1.02734e-05 -2.62808e-06 2.69238e+25 -4.3692 -5.94864 272.391 
1.21847e-05 -2.62808e-06 2.69254e+25 -2.52895 -5.07592 272.403 
1.40961e-05 -2.62808e-06 2.69191e+25 -1.09109 -3.43963 272.32 
1.60074e-05 -2.62808e-06 2.69054e+25 -0.116101 -1.42871 272.481 
7.1675e-07 -2.15025e-06 2.69118e+25 -7.56736 0.483658 272.342 
2.62808e-06 -2.15025e-06 2.6903e+25 -7.77553 -1.36059 272.422 
4.53942e-06 -2.15025e-06 2.69301e+25 -7.76103 -3.37525 272.149 
6.45075e-06 -2.15025e-06 2.69089e+25 -6.90025 -4.86111 272.409 
8.36208e-06 -2.15025e-06 2.69113e+25 -6.03915 -5.99053 272.431 
1.02734e-05 -2.15025e-06 2.69208e+25 -4.50926 -6.26008 272.317 
1.21847e-05 -2.15025e-06 2.69235e+25 -2.79545 -5.60781 272.386 
1.40961e-05 -2.15025e-06 2.69259e+25 -1.21023 -3.74506 272.324 
1.60074e-05 -2.15025e-06 2.69096e+25 -0.0802872 -1.50715 272.435 
7.1675e-07 -1.67242e-06 2.6898e+25 -7.6654 0.477833 272.473 
2.62808e-06 -1.67242e-06 2.69055e+25 -8.14272 -1.36563 272.459 
4.53942e-06 -1.67242e-06 2.69195e+25 -7.95695 -3.51586 272.259 
6.45075e-06 -1.67242e-06 2.69113e+25 -7.33355 -5.09255 272.394 
8.36208e-06 -1.67242e-06 2.69188e+25 -6.38939 -6.3334 272.43 
1.02734e-05 -1.67242e-06 2.6905e+25 -4.71475 -6.66847 272.539 
1.21847e-05 -1.67242e-06 2.69235e+25 -2.90242 -6.0343 272.351 
1.40961e-05 -1.67242e-06 2.69261e+25 -1.27276 -4.14987 272.349 
1.60074e-05 -1.67242e-06 2.69105e+25 -0.109627 -1.56719 272.431 
7.1675e-07 -1.19458e-06 2.68984e+25 -7.61722 0.66698 272.482 
2.62808e-06 -1.19458e-06 2.69029e+25 -8.17765 -1.34146 272.452 
4.53942e-06 -1.19458e-06 2.69223e+25 -8.22772 -3.54983 272.254 
6.45075e-06 -1.19458e-06 2.68973e+25 -7.67823 -5.32651 272.496 
8.36208e-06 -1.19458e-06 2.69061e+25 -6.60743 -6.74165 272.504 
1.02734e-05 -1.19458e-06 2.68972e+25 -4.96832 -7.21112 272.576 
1.21847e-05 -1.19458e-06 2.69163e+25 -3.20727 -6.43947 272.433 
1.40961e-05 -1.19458e-06 2.69305e+25 -1.41303 -4.55551 272.254 
1.60074e-05 -1.19458e-06 2.69202e+25 -0.158351 -1.65643 272.335 
7.1675e-07 -7.1675e-07 2.68806e+25 -7.6472 0.855909 272.544 
2.62808e-06 -7.1675e-07 2.68966e+25 -8.14043 -1.26683 272.432 
4.53942e-06 -7.1675e-07 2.69171e+25 -8.42256 -3.52934 272.219 
6.45075e-06 -7.1675e-07 2.69053e+25 -7.81615 -5.4929 272.411 
8.36208e-06 -7.1675e-07 2.69195e+25 -6.8254 -7.058 272.402 
1.02734e-05 -7.1675e-07 2.69067e+25 -5.3804 -7.76645 272.523 
1.21847e-05 -7.1675e-07 2.6918e+25 -3.38538 -6.8618 272.479 
1.40961e-05 -7.1675e-07 2.69402e+25 -1.46525 -5.01575 272.208 
1.60074e-05 -7.1675e-07 2.69147e+25 -0.328472 -1.85075 272.326 
7.1675e-07 -2.38917e-07 2.69042e+25 -7.61599 1.03287 272.36 
2.62808e-06 -2.38917e-07 2.69098e+25 -8.12893 -1.17316 272.372 
4.53942e-06 -2.38917e-07 2.69134e+25 -8.43239 -3.50627 272.348 
6.45075e-06 -2.38917e-07 2.69148e+25 -8.00891 -5.73652 272.344 
8.36208e-06 -2.38917e-07 2.69154e+25 -7.18686 -7.24507 272.337 
1.02734e-05 -2.38917e-07 2.68979e+25 -5.66961 -8.18398 272.494 
1.21847e-05 -2.38917e-07 2.69113e+25 -3.61646 -7.34001 272.486 
1.40961e-05 -2.38917e-07 2.69339e+25 -1.74793 -5.46784 272.178 
1.60074e-05 -2.38917e-07 2.69169e+25 -0.265787 -2.07685 272.323 
1.67242e-06 -1.69631e-05 2.68885e+25 -0.194495 0.0315581 272.752 
3.58375e-06 -1.69631e-05 2.68844e+25 -0.157537 -0.0435491 272.744 
5.49508e-06 -1.69631e-05 2.68795e+25 -0.00885927 0.0277775 272.846 
7.40642e-06 -1.69631e-05 2.68738e+25 -0.0116757 -0.00564598 272.823 
9.31775e-06 -1.69631e-05 2.68842e+25 -0.0918557 -0.0231248 272.769 
1.12291e-05 -1.69631e-05 2.68881e+25 -0.0104669 0.0273221 272.713 
1.31404e-05 -1.69631e-05 2.68783e+25 0.0424183 0.0142441 272.862 
1.50518e-05 -1.69631e-05 2.68784e+25 -0.0158097 -0.0421 272.873 
1.69631e-05 -1.69631e-05 2.687e+25 -0.0170635 0.00360233 272.996 
1.67242e-06 -1.64852e-05 2.69043e+25 -0.515988 -0.00964796 272.517 
3.58375e-06 -1.64852e-05 2.68902e+25 -0.400989 -0.0835082 272.691 
5.49508e-06 -1.64852e-05 2.69016e+25 -0.272095 -0.0470727 272.627 
7.40642e-06 -1.64852e-05 2.68974e+25 -0.195905 0.00447046 272.65 
9.31775e-06 -1.64852e-05 2.69109e+25 -0.222737 -0.0508938 272.588 
1.12291e-05 -1.64852e-05 2.69155e+25 0.0434841 -0.0182417 272.559 
1.31404e-05 -1.64852e-05 2.69115e+25 0.0583281 0.0839024 272.531 
1.50518e-05 -1.64852e-05 2.69103e+25 -0.0366534 -0.0353729 272.592 
1.69631e-05 -1.64852e-05 2.68983e+25 0.0386969 0.00761594 272.764 
1.67242e-06 -1.60074e-05 2.6918e+25 -0.734278 -0.0129035 272.441 
3.58375e-06 -1.60074e-05 2.68976e+25 -0.771943 -0.0886333 272.673 
5.49508e-06 -1.60074e-05 2.6909e+25 -0.668386 -0.199794 272.505 
7.40642e-06 -1.60074e-05 2.6916e+25 -0.500121 0.0071322 272.521 
9.31775e-06 -1.60074e-05 2.69398e+25 -0.23615 -0.0344632 272.356 
1.12291e-05 -1.60074e-05 2.69101e+25 -0.0808782 -0.102701 272.553 
1.31404e-05 -1.60074e-05 2.69169e+25 -0.0317101 0.12173 272.472 
1.50518e-05 -1.60074e-05 2.69011e+25 -0.0960637 -0.100008 272.541 
1.69631e-05 -1.60074e-05 2.68877e+25 -0.0317845 0.0254223 272.721 
1.67242e-06 -1.55296e-05 2.6906e+25 -1.22864 0.0165798 272.503 
3.58375e-06 -1.55296e-05 2.69104e+25 -1.10724 -0.101476 272.524 
5.49508e-06 -1.55296e-05 2.69116e+25 -1.1252 -0.273667 272.547 
7.40642e-06 -1.55296e-05 2.69096e+25 -0.683148 -0.113516 272.583 
9.31775e-06 -1.55296e-05 2.69348e+25 -0.387253 -0.018542 272.276 
1.12291e-05 -1.55296e-05 2.69113e+25 -0.192246 -0.167175 272.571 
1.31404e-05 -1.55296e-05 2.69142e+25 0.0211832 0.0613698 272.439 
1.50518e-05 -1.55296e-05 2.69072e+25 -0.0367876 -0.0871704 272.51 
1.69631e-05 -1.55296e-05 2.68862e+25 -0.0013384 -0.0255814 272.744 
1.67242e-06 -1.50517e-05 2.69007e+25 -1.65891 0.0803521 272.55 
3.58375e-06 -1.50517e-05 2.69004e+25 -1.57621 -0.0750496 272.579 
5.49508e-06 -1.50517e-05 2.69047e+25 -1.28024 -0.329104 272.578 
7.40642e-06 -1.50517e-05 2.69047e+25 -0.745655 -0.222592 272.573 
9.31775e-06 -1.50517e-05 2.69181e+25 -0.561667 -0.0360854 272.507 
1.12291e-05 -1.50517e-05 2.69144e+25 -0.2686 -0.296034 272.435 
1.31404e-05 -1.50517e-05 2.69234e+25 -0.0324154 0.0232639 272.397 
1.50518e-05 -1.50517e-05 2.69251e+25 0.105575 -0.0660916 272.39 
1.69631e-05 -1.50517e-05 2.68926e+25 -0.0114683 -0.051066 272.718 
1.67242e-06 -1.45739e-05 2.69012e+25 -2.0512 -0.0356752 272.613 
3.58375e-06 -1.45739e-05 2.69063e+25 -1.70182 -0.119839 272.547 
5.49508e-06 -1.45739e-05 2.69083e+25 -1.45118 -0.31591 272.508 
7.40642e-06 -1.45739e-05 2.68978e+25 -0.807999 -0.327807 272.587 
9.31775e-06 -1.45739e-05 2.69174e+25 -0.609484 -0.140875 272.457 
1.12291e-05 -1.45739e-05 2.6922e+25 -0.249038 -0.361883 272.457 
1.31404e-05 -1.45739e-05 2.69242e+25 -0.117378 0.0178341 272.356 
1.50518e-05 -1.45739e-05 2.6933e+25 0.163311 -0.0345688 272.3 
1.69631e-05 -1.45739e-05 2.68889e+25 0.0458771 -0.0194968 272.685 
1.67242e-06 -1.40961e-05 2.69041e+25 -2.26809 -0.104618 272.577 
3.58375e-06 -1.40961e-05 2.68984e+25 -1.83469 -0.301658 272.6 
5.49508e-06 -1.40961e-05 2.69142e+25 -1.44886 -0.345567 272.509 
7.40642e-06 -1.40961e-05 2.69076e+25 -1.1004 -0.48221 272.5 
9.31775e-06 -1.40961e-05 2.69164e+25 -0.651672 -0.28464 272.454 
1.12291e-05 -1.40961e-05 2.69264e+25 -0.348861 -0.409588 272.374 
1.31404e-05 -1.40961e-05 2.69363e+25 -0.10435 -0.0573685 272.288 
1.50518e-05 -1.40961e-05 2.69188e+25 0.0684973 -0.0162966 272.352 
1.69631e-05 -1.40961e-05 2.68889e+25 0.0191404 0.0728673 272.661 
1.67242e-06 -1.36182e-05 2.68929e+25 -2.46989 -0.140818 272.564 
3.58375e-06 -1.36182e-05 2.68987e+25 -2.15762 -0.385551 272.632 
5.49508e-06 -1.36182e-05 2.69202e+25 -1.53883 -0.42795 272.378 
7.40642e-06 -1.36182e-05 2.69033e+25 -1.32518 -0.574611 272.622 
9.31775e-06 -1.36182e-05 2.6921e+25 -0.719542 -0.408798 272.483 
1.12291e-05 -1.36182e-05 2.69258e+25 -0.431098 -0.479774 272.33 
1.31404e-05 -1.36182e-05 2.69187e+25 -0.25383 -0.156342 272.382 
1.50518e-05 -1.36182e-05 2.69376e+25 -0.0276064 -0.0406188 272.193 
1.69631e-05 -1.36182e-05 2.68873e+25 0.00588267 0.135485 272.735 
1.67242e-06 -1.31404e-05 2.68972e+25 -2.5378 -0.150843 272.562 
3.58375e-06 -1.31404e-05 2.6896e+25 -2.3113 -0.459329 272.573 
5.49508e-06 -1.31404e-05 2.692e+25 -1.71488 -0.530062 272.431 
7.40642e-06 -1.31404e-05 2.69119e+25 -1.4661 -0.753369 272.567 
9.31775e-06 -1.31404e-05 2.69208e+25 -0.84244 -0.500927 272.394 
1.12291e-05 -1.31404e-05 2.69248e+25 -0.547699 -0.438526 272.262 
1.31404e-05 -1.31404e-05 2.69328e+25 -0.337699 -0.259325 272.291 
1.50518e-05 -1.31404e-05 2.69451e+25 -0.0429605 -0.0122641 272.209 
1.69631e-05 -1.31404e-05 2.68872e+25 -0.0119545 0.0875973 272.711 
1.67242e-06 -1.26626e-05 2.69108e+25 -2.85305 -0.212271 272.526 
3.58375e-06 -1.26626e-05 2.69175e+25 -2.49371 -0.579772 272.479 
5.49508e-06 -1.26626e-05 2.69105e+25 -1.95945 -0.687735 272.484 
7.40642e-06 -1.26626e-05 2.69126e+25 -1.61768 -0.852098 272.519 
9.31775e-06 -1.26626e-05 2.69209e+25 -1.1 -0.667381 272.392 
1.12291e-05 -1.26626e-05 2.69209e+25 -0.485625 -0.472333 272.362 
1.31404e-05 -1.26626e-05 2.69317e+25 -0.342042 -0.328675 272.285 
1.50518e-05 -1.26626e-05 2.69342e+25 -0.104538 -0.148367 272.271 
1.69631e-05 -1.26626e-05 2.69039e+25 0.0128636 0.0721861 272.735 
1.67242e-06 -1.21847e-05 2.69141e+25 -3.11116 -0.208602 272.454 
3.58375e-06 -1.21847e-05 2.69179e+25 -2.72961 -0.713107 272.478 
5.49508e-06 -1.21847e-05 2.692e+25 -2.26176 -0.824008 272.454 
7.40642e-06 -1.21847e-05 2.69083e+25 -1.75335 -0.962839 272.503 
9.31775e-06 -1.21847e-05 2.69301e+25 -1.3372 -0.814212 272.279 
1.12291e-05 -1.21847e-05 2.69193e+25 -0.588693 -0.660695 272.46 
1.31404e-05 -1.21847e-05 2.69336e+25 -0.277591 -0.319108 272.279 
1.50518e-05 -1.21847e-05 2.69416e+25 -0.0679329 -0.168013 272.231 
1.69631e-05 -1.21847e-05 2.68931e+25 -0.00727852 0.0323187 272.711 
1.67242e-06 -1.17069e-05 2.68987e+25 -3.24149 -0.123557 272.592 
3.58375e-06 -1.17069e-05 2.68995e+25 -2.86192 -0.842009 272.592 
5.49508e-06 -1.17069e-05 2.69292e+25 -2.53429 -0.900957 272.285 
7.40642e-06 -1.17069e-05 2.6921e+25 -1.90687 -1.04536 272.436 
9.31775e-06 -1.17069e-05 2.69179e+25 -1.20667 -0.961233 272.343 
1.12291e-05 -1.17069e-05 2.69222e+25 -0.764891 -0.85047 272.377 
1.31404e-05 -1.17069e-05 2.69086e+25 -0.233603 -0.284462 272.449 
1.50518e-05 -1.17069e-05 2.69511e+25 -0.112483 -0.219091 272.201 
1.69631e-05 -1.17069e-05 2.68962e+25 -0.0241685 -0.00309987 272.591 
1.67242e-06 -1.12291e-05 2.68863e+25 -3.40356 -0.270697 272.664 
3.58375e-06 -1.12291e-05 2.68937e+25 -3.0798 -0.954694 272.69 
5.49508e-06 -1.12291e-05 2.69231e+25 -2.67804 -0.990682 272.299 
7.40642e-06 -1.12291e-05 2.69202e+25 -2.08738 -1.20318 272.464 
9.31775e-06 -1.12291e-05 2.69137e+25 -1.32345 -1.06586 272.442 
1.12291e-05 -1.12291e-05 2.69182e+25 -0.825612 -0.986551 272.371 
1.31404e-05 -1.12291e-05 2.69137e+25 -0.203294 -0.444512 272.402 
1.50518e-05 -1.12291e-05 2.69371e+25 -0.00500238 -0.235237 272.22 
1.69631e-05 -1.12291e-05 2.69041e+25 -0.00682105 -0.00702462 272.589 
1.67242e-06 -1.07512e-05 2.69003e+25 -3.53688 -0.344854 272.601 
3.58375e-06 -1.07512e-05 2.68956e+25 -3.37094 -1.00583 272.651 
5.49508e-06 -1.07512e-05 2.69107e+25 -3.16554 -1.06281 272.5 
7.40642e-06 -1.07512e-05 2.69121e+25 -2.2261 -1.4268 272.465 
9.31775e-06 -1.07512e-05 2.69136e+25 -1.53012 -1.2547 272.431 
1.12291e-05 -1.07512e-05 2.69226e+25 -1.05638 -1.14064 272.355 
1.31404e-05 -1.07512e-05 2.69288e+25 -0.36993 -0.668062 272.252 
1.50518e-05 -1.07512e-05 2.69289e+25 -0.0562954 -0.278093 272.305 
1.69631e-05 -1.07512e-05 2.69011e+25 0.0222802 0.0285241 272.6 
1.67242e-06 -1.02734e-05 2.69195e+25 -3.71341 -0.388439 272.477 
3.58375e-06 -1.02734e-05 2.69011e+25 -3.6645 -1.05647 272.61 
5.49508e-06 -1.02734e-05 2.69117e+25 -3.42616 -1.32172 272.524 
7.40642e-06 -1.02734e-05 2.6919e+25 -2.52246 -1.62913 272.365 
9.31775e-06 -1.02734e-05 2.69191e+25 -1.70491 -1.37271 272.369 
1.12291e-05 -1.02734e-05 2.69307e+25 -1.03119 -1.26255 272.321 
1.31404e-05 -1.02734e-05 2.69381e+25 -0.46128 -0.773242 272.273 
1.50518e-05 -1.02734e-05 2.69356e+25 -0.0597475 -0.348234 272.298 
1.69631e-05 -1.02734e-05 2.68982e+25 0.0164888 0.0769073 272.638 
1.67242e-06 -9.79558e-06 2.69038e+25 -3.84958 -0.412818 272.559 
3.58375e-06 -9.79558e-06 2.68935e+25 -3.8299 -1.08828 272.67 
5.49508e-06 -9.79558e-06 2.69086e+25 -3.53453 -1.50346 272.562 
7.40642e-06 -9.79558e-06 2.69157e+25 -2.7821 -1.88719 272.403 
9.31775e-06 -9.79558e-06 2.69209e+25 -2.04378 -1.5315 272.437 
1.12291e-05 -9.79558e-06 2.69251e+25 -1.02967 -1.35114 272.304 
1.31404e-05 -9.79558e-06 2.69321e+25 -0.560643 -0.890565 272.295 
1.50518e-05 -9.79558e-06 2.69329e+25 -0.163883 -0.390189 272.289 
1.69631e-05 -9.79558e-06 2.6901e+25 -0.0147909 0.040174 272.659 
1.67242e-06 -9.31775e-06 2.68997e+25 -4.15929 -0.38411 272.599 
3.58375e-06 -9.31775e-06 2.68965e+25 -4.03541 -1.02142 272.632 
5.49508e-06 -9.31775e-06 2.68978e+25 -3.69327 -1.62407 272.683 
7.40642e-06 -9.31775e-06 2.692e+25 -2.94195 -1.98386 272.35 
9.31775e-06 -9.31775e-06 2.69111e+25 -2.22641 -1.73572 272.503 
1.12291e-05 -9.31775e-06 2.69275e+25 -1.33503 -1.52515 272.347 
1.31404e-05 -9.31775e-06 2.69355e+25 -0.528788 -0.992551 272.265 
1.50518e-05 -9.31775e-06 2.69316e+25 -0.358326 -0.463072 272.282 
1.69631e-05 -9.31775e-06 2.69008e+25 -0.017483 -0.0406509 272.709 
1.67242e-06 -8.83992e-06 2.68961e+25 -4.37775 -0.414204 272.61 
3.58375e-06 -8.83992e-06 2.68992e+25 -4.26336 -0.967863 272.581 
5.49508e-06 -8.83992e-06 2.68996e+25 -3.87237 -1.7005 272.643 
7.40642e-06 -8.83992e-06 2.69271e+25 -3.2362 -2.15332 272.36 
9.31775e-06 -8.83992e-06 2.69095e+25 -2.36599 -2.02678 272.489 
1.12291e-05 -8.83992e-06 2.69295e+25 -1.438 -1.76671 272.308 
1.31404e-05 -8.83992e-06 2.69167e+25 -0.708012 -1.09821 272.362 
1.50518e-05 -8.83992e-06 2.69376e+25 -0.140524 -0.522812 272.259 
1.69631e-05 -8.83992e-06 2.68911e+25 -0.053394 -0.0721502 272.677 
1.67242e-06 -8.36208e-06 2.69014e+25 -4.62757 -0.569264 272.57 
3.58375e-06 -8.36208e-06 2.69056e+25 -4.52539 -1.019 272.51 
5.49508e-06 -8.36208e-06 2.68892e+25 -4.05943 -1.8755 272.677 
7.40642e-06 -8.36208e-06 2.69193e+25 -3.35336 -2.37518 272.404 
9.31775e-06 -8.36208e-06 2.69271e+25 -2.42444 -2.34477 272.356 
1.12291e-05 -8.36208e-06 2.69239e+25 -1.3337 -1.9858 272.421 
1.31404e-05 -8.36208e-06 2.69168e+25 -0.87317 -1.27026 272.445 
1.50518e-05 -8.36208e-06 2.69263e+25 -0.106808 -0.576931 272.345 
1.69631e-05 -8.36208e-06 2.68862e+25 -0.0195319 -0.156803 272.765 
1.67242e-06 -7.88425e-06 2.69139e+25 -4.86588 -0.645224 272.411 
3.58375e-06 -7.88425e-06 2.69097e+25 -4.74612 -1.11561 272.451 
5.49508e-06 -7.88425e-06 2.68903e+25 -4.23093 -2.08318 272.668 
7.40642e-06 -7.88425e-06 2.69201e+25 -3.52278 -2.49654 272.423 
9.31775e-06 -7.88425e-06 2.6914e+25 -2.5428 -2.52599 272.321 
1.12291e-05 -7.88425e-06 2.69232e+25 -1.49878 -2.11182 272.461 
1.31404e-05 -7.88425e-06 2.69001e+25 -0.891367 -1.51742 272.553 
1.50518e-05 -7.88425e-06 2.69235e+25 -0.120884 -0.614378 272.313 
1.69631e-05 -7.88425e-06 2.68779e+25 0.0249505 -0.128127 272.781 
1.67242e-06 -7.40642e-06 2.69097e+25 -5.33406 -0.746073 272.477 
3.58375e-06 -7.40642e-06 2.69073e+25 -4.98865 -1.32145 272.473 
5.49508e-06 -7.40642e-06 2.68977e+25 -4.30562 -2.24057 272.618 
7.40642e-06 -7.40642e-06 2.69198e+25 -3.58306 -2.82027 272.408 
9.31775e-06 -7.40642e-06 2.69243e+25 -2.54502 -2.77548 272.351 
1.12291e-05 -7.40642e-06 2.69108e+25 -1.60276 -2.24617 272.461 
1.31404e-05 -7.40642e-06 2.69052e+25 -0.914912 -1.77351 272.515 
1.50518e-05 -7.40642e-06 2.69099e+25 -0.314392 -0.661895 272.431 
1.69631e-05 -7.40642e-06 2.68862e+25 -0.0110303 -0.0514363 272.734 
1.67242e-06 -6.92858e-06 2.69018e+25 -5.66996 -0.734927 272.492 
3.58375e-06 -6.92858e-06 2.69e+25 -5.26451 -1.47009 272.52 
5.49508e-06 -6.92858e-06 2.68986e+25 -4.63589 -2.38566 272.548 
7.40642e-06 -6.92858e-06 2.69128e+25 -3.64516 -3.0621 272.467 
9.31775e-06 -6.92858e-06 2.69121e+25 -2.64702 -2.99075 272.355 
1.12291e-05 -6.92858e-06 2.69163e+25 -1.8505 -2.59902 272.45 
1.31404e-05 -6.92858e-06 2.69069e+25 -0.925144 -1.95118 272.479 
1.50518e-05 -6.92858e-06 2.69101e+25 -0.34931 -0.819737 272.444 
1.69631e-05 -6.92858e-06 2.68896e+25 0.0183992 -0.053969 272.687 
1.67242e-06 -6.45075e-06 2.68998e+25 -5.78319 -0.69043 272.585 
3.58375e-06 -6.45075e-06 2.69137e+25 -5.58389 -1.60288 272.5 
5.49508e-06 -6.45075e-06 2.69137e+25 -4.86287 -2.59324 272.456 
7.40642e-06 -6.45075e-06 2.69197e+25 -4.00465 -3.30547 272.484 
9.31775e-06 -6.45075e-06 2.69138e+25 -2.75712 -3.21212 272.447 
1.12291e-05 -6.45075e-06 2.69127e+25 -2.08643 -2.89186 272.45 
1.31404e-05 -6.45075e-06 2.68957e+25 -1.07423 -2.0932 272.537 
1.50518e-05 -6.45075e-06 2.68992e+25 -0.317752 -1.02512 272.555 
1.69631e-05 -6.45075e-06 2.689e+25 -0.0517355 -0.123965 272.751 
1.67242e-06 -5.97292e-06 2.68923e+25 -6.08777 -0.780841 272.631 
3.58375e-06 -5.97292e-06 2.6909e+25 -5.76758 -1.74904 272.476 
5.49508e-06 -5.97292e-06 2.69054e+25 -5.162 -2.731 272.552 
7.40642e-06 -5.97292e-06 2.69058e+25 -4.28636 -3.56914 272.542 
9.31775e-06 -5.97292e-06 2.69172e+25 -3.03287 -3.52752 272.508 
1.12291e-05 -5.97292e-06 2.69118e+25 -2.16534 -3.11715 272.44 
1.31404e-05 -5.97292e-06 2.69097e+25 -1.02899 -2.33466 272.525 
1.50518e-05 -5.97292e-06 2.69095e+25 -0.357034 -1.16069 272.421 
1.69631e-05 -5.97292e-06 2.68769e+25 0.0321345 -0.161002 272.818 
1.67242e-06 -5.49508e-06 2.68907e+25 -6.33127 -0.819413 272.569 
3.58375e-06 -5.49508e-06 2.69146e+25 -6.04291 -1.82024 272.486 
5.49508e-06 -5.49508e-06 2.69152e+25 -5.37171 -2.89063 272.5 
7.40642e-06 -5.49508e-06 2.69117e+25 -4.6379 -3.87695 272.487 
9.31775e-06 -5.49508e-06 2.69096e+25 -3.50962 -3.84519 272.542 
1.12291e-05 -5.49508e-06 2.69082e+25 -2.38122 -3.46549 272.496 
1.31404e-05 -5.49508e-06 2.69118e+25 -1.09288 -2.48919 272.427 
1.50518e-05 -5.49508e-06 2.69227e+25 -0.451459 -1.27399 272.371 
1.69631e-05 -5.49508e-06 2.68799e+25 -0.0130638 -0.15918 272.781 
1.67242e-06 -5.01725e-06 2.69052e+25 -6.50027 -0.79375 272.519 
3.58375e-06 -5.01725e-06 2.68993e+25 -6.30444 -1.89385 272.509 
5.49508e-06 -5.01725e-06 2.69075e+25 -5.67541 -3.15434 272.361 
7.40642e-06 -5.01725e-06 2.69163e+25 -4.97715 -4.0616 272.447 
9.31775e-06 -5.01725e-06 2.68967e+25 -3.89862 -4.15865 272.591 
1.12291e-05 -5.01725e-06 2.69137e+25 -2.5477 -3.78943 272.454 
1.31404e-05 -5.01725e-06 2.69232e+25 -1.24144 -2.76108 272.378 
1.50518e-05 -5.01725e-06 2.69114e+25 -0.459411 -1.35103 272.444 
1.69631e-05 -5.01725e-06 2.68771e+25 0.0151376 -0.20368 272.819 
1.67242e-06 -4.53942e-06 2.68915e+25 -6.63133 -0.724619 272.624 
3.58375e-06 -4.53942e-06 2.69052e+25 -6.50759 -1.93709 272.452 
5.49508e-06 -4.53942e-06 2.68951e+25 -6.06087 -3.34142 272.547 
7.40642e-06 -4.53942e-06 2.69022e+25 -5.36123 -4.29784 272.489 
9.31775e-06 -4.53942e-06 2.68984e+25 -4.19911 -4.50908 272.574 
1.12291e-05 -4.53942e-06 2.69154e+25 -2.70536 -4.02317 272.504 
1.31404e-05 -4.53942e-06 2.69082e+25 -1.38843 -3.13788 272.481 
1.50518e-05 -4.53942e-06 2.6909e+25 -0.474909 -1.55358 272.493 
1.69631e-05 -4.53942e-06 2.68738e+25 -0.0275546 -0.248258 272.862 
1.67242e-06 -4.06158e-06 2.69099e+25 -6.86775 -0.580949 272.504 
3.58375e-06 -4.06158e-06 2.69163e+25 -6.80243 -2.06039 272.382 
5.49508e-06 -4.06158e-06 2.68996e+25 -6.36315 -3.4768 272.56 
7.40642e-06 -4.06158e-06 2.69065e+25 -5.60362 -4.53192 272.425 
9.31775e-06 -4.06158e-06 2.69091e+25 -4.48779 -4.86051 272.489 
1.12291e-05 -4.06158e-06 2.69065e+25 -2.86361 -4.39946 272.531 
1.31404e-05 -4.06158e-06 2.6903e+25 -1.44958 -3.52876 272.519 
1.50518e-05 -4.06158e-06 2.69105e+25 -0.446662 -1.75165 272.498 
1.69631e-05 -4.06158e-06 2.68654e+25 0.00889238 -0.278273 272.906 
1.67242e-06 -3.58375e-06 2.6911e+25 -7.13639 -0.529603 272.35 
3.58375e-06 -3.58375e-06 2.69245e+25 -7.10476 -2.24144 272.289 
5.49508e-06 -3.58375e-06 2.68962e+25 -6.67048 -3.51307 272.545 
7.40642e-06 -3.58375e-06 2.68988e+25 -5.85093 -4.81306 272.563 
9.31775e-06 -3.58375e-06 2.69141e+25 -4.70419 -5.18233 272.485 
1.12291e-05 -3.58375e-06 2.69167e+25 -3.05547 -4.7408 272.43 
1.31404e-05 -3.58375e-06 2.68954e+25 -1.54033 -3.92217 272.534 
1.50518e-05 -3.58375e-06 2.69069e+25 -0.433216 -1.93089 272.47 
1.69631e-05 -3.58375e-06 2.68911e+25 -0.0424197 -0.282616 272.77 
1.67242e-06 -3.10592e-06 2.69122e+25 -7.36629 -0.559983 272.377 
3.58375e-06 -3.10592e-06 2.69249e+25 -7.41383 -2.29338 272.252 
5.49508e-06 -3.10592e-06 2.68966e+25 -7.00831 -3.57628 272.611 
7.40642e-06 -3.10592e-06 2.68991e+25 -6.11559 -5.12304 272.534 
9.31775e-06 -3.10592e-06 2.69122e+25 -4.91819 -5.54163 272.455 
1.12291e-05 -3.10592e-06 2.69192e+25 -3.32639 -5.13478 272.311 
1.31404e-05 -3.10592e-06 2.69123e+25 -1.70526 -4.25164 272.451 
1.50518e-05 -3.10592e-06 2.69229e+25 -0.527959 -2.13563 272.338 
1.69631e-05 -3.10592e-06 2.68737e+25 0.0421462 -0.284685 272.816 
1.67242e-06 -2.62808e-06 2.69201e+25 -7.45567 -0.600084 272.372 
3.58375e-06 -2.62808e-06 2.69198e+25 -7.58632 -2.28789 272.32 
5.49508e-06 -2.62808e-06 2.68936e+25 -7.20181 -3.79668 272.591 
7.40642e-06 -2.62808e-06 2.69032e+25 -6.31343 -5.40226 272.533 
9.31775e-06 -2.62808e-06 2.69147e+25 -5.08541 -5.9072 272.439 
1.12291e-05 -2.62808e-06 2.69315e+25 -3.53577 -5.59342 272.247 
1.31404e-05 -2.62808e-06 2.6916e+25 -1.75725 -4.52282 272.449 
1.50518e-05 -2.62808e-06 2.69369e+25 -0.516381 -2.41664 272.2 
1.69631e-05 -2.62808e-06 2.6884e+25 0.024895 -0.23954 272.677 
1.67242e-06 -2.15025e-06 2.69069e+25 -7.69948 -0.613914 272.335 
3.58375e-06 -2.15025e-06 2.69234e+25 -7.79273 -2.24477 272.239 
5.49508e-06 -2.15025e-06 2.69101e+25 -7.33563 -4.05181 272.408 
7.40642e-06 -2.15025e-06 2.69057e+25 -6.57678 -5.67413 272.465 
9.31775e-06 -2.15025e-06 2.69153e+25 -5.22022 -6.25565 272.437 
1.12291e-05 -2.15025e-06 2.69221e+25 -3.76629 -6.05849 272.362 
1.31404e-05 -2.15025e-06 2.69282e+25 -1.9623 -4.91041 272.359 
1.50518e-05 -2.15025e-06 2.69171e+25 -0.517857 -2.68146 272.275 
1.69631e-05 -2.15025e-06 2.68655e+25 -0.00652866 -0.23127 272.866 
1.67242e-06 -1.67242e-06 2.69134e+25 -8.03016 -0.404854 272.338 
3.58375e-06 -1.67242e-06 2.69253e+25 -8.04096 -2.20185 272.202 
5.49508e-06 -1.67242e-06 2.69179e+25 -7.659 -4.22692 272.275 
7.40642e-06 -1.67242e-06 2.69055e+25 -6.97353 -5.81457 272.439 
9.31775e-06 -1.67242e-06 2.69082e+25 -5.52452 -6.75052 272.472 
1.12291e-05 -1.67242e-06 2.69139e+25 -3.82938 -6.57668 272.459 
1.31404e-05 -1.67242e-06 2.69228e+25 -2.15447 -5.33022 272.339 
1.50518e-05 -1.67242e-06 2.69246e+25 -0.525002 -3.05767 272.26 
1.69631e-05 -1.67242e-06 2.68815e+25 -0.0639195 -0.308262 272.745 
1.67242e-06 -1.19458e-06 2.69008e+25 -7.98553 -0.297797 272.364 
3.58375e-06 -1.19458e-06 2.69085e+25 -8.25173 -2.18103 272.344 
5.49508e-06 -1.19458e-06 2.69001e+25 -8.04508 -4.33998 272.424 
7.40642e-06 -1.19458e-06 2.69139e+25 -7.18395 -6.00089 272.356 
9.31775e-06 -1.19458e-06 2.69083e+25 -5.9626 -7.13139 272.458 
1.12291e-05 -1.19458e-06 2.69039e+25 -3.94087 -6.97706 272.616 
1.31404e-05 -1.19458e-06 2.69368e+25 -2.26781 -5.72344 272.201 
1.50518e-05 -1.19458e-06 2.69285e+25 -0.672786 -3.32718 272.244 
1.69631e-05 -1.19458e-06 2.68784e+25 -0.0125194 -0.415453 272.795 
1.67242e-06 -7.1675e-07 2.69031e+25 -7.91977 -0.127907 272.393 
3.58375e-06 -7.1675e-07 2.69024e+25 -8.35486 -2.21367 272.386 
5.49508e-06 -7.1675e-07 2.69085e+25 -8.21186 -4.58888 272.504 
7.40642e-06 -7.1675e-07 2.69176e+25 -7.32317 -6.22304 272.389 
9.31775e-06 -7.1675e-07 2.69163e+25 -6.29728 -7.39812 272.346 
1.12291e-05 -7.1675e-07 2.69004e+25 -4.39162 -7.40857 272.52 
1.31404e-05 -7.1675e-07 2.69387e+25 -2.46365 -6.20948 272.188 
1.50518e-05 -7.1675e-07 2.69336e+25 -0.689822 -3.61864 272.168 
1.69631e-05 -7.1675e-07 2.68772e+25 0.0103966 -0.457136 272.715 
1.67242e-06 -2.38917e-07 2.69038e+25 -7.85033 0.0282462 272.351 
3.58375e-06 -2.38917e-07 2.69088e+25 -8.27342 -2.2004 272.336 
5.49508e-06 -2.38917e-07 2.69127e+25 -8.37976 -4.75779 272.379 
7.40642e-06 -2.38917e-07 2.68999e+25 -7.55206 -6.52226 272.381 
9.31775e-06 -2.38917e-07 2.68962e+25 -6.53032 -7.78212 272.508 
1.12291e-05 -2.38917e-07 2.69032e+25 -4.73424 -7.90123 272.428 
1.31404e-05 -2.38917e-07 2.69371e+25 -2.60768 -6.64263 272.196 
1.50518e-05 -2.38917e-07 2.69191e+25 -0.810741 -3.91996 272.339 
1.69631e-05 -2.38917e-07 2.68769e+25 -0.013183 -0.497124 272.771 
1.67242e-06 2.38917e-07 2.69083e+25 -7.81463 0.114471 272.325 
3.58375e-06 2.38917e-07 2.68999e+25 -8.28848 -2.25118 272.414 
5.49508e-06 2.38917e-07 2.68998e+25 -8.45234 -4.86946 272.427 
7.40642e-06 2.38917e-07 2.69148e+25 -7.97189 -6.71204 272.303 
9.31775e-06 2.38917e-07 2.69004e+25 -6.82301 -8.22206 272.535 
1.12291e-05 2.38917e-07 2.6897e+25 -5.01511 -8.42989 272.584 
1.31404e-05 2.38917e-07 2.69123e+25 -2.75044 -7.09698 272.46 
1.50518e-05 2.38917e-07 2.69116e+25 -0.915016 -4.23704 272.386 
1.69631e-05 2.38917e-07 2.68687e+25 -0.00796925 -0.48963 272.778 
1.67242e-06 7.1675e-07 2.68908e+25 -7.79163 0.267954 272.426 
3.58375e-06 7.1675e-07 2.6879e+25 -8.35835 -2.072 272.544 
5.49508e-06 7.1675e-07 2.68958e+25 -8.46388 -4.98643 272.439 
7.40642e-06 7.1675e-07 2.69086e+25 -8.06865 -6.89971 272.325 
9.31775e-06 7.1675e-07 2.69028e+25 -7.08092 -8.5944 272.542 
1.12291e-05 7.1675e-07 2.69153e+25 -5.19651 -9.02995 272.486 
1.31404e-05 7.1675e-07 2.69095e+25 -2.84254 -7.61578 272.517 
1.50518e-05 7.1675e-07 2.6905e+25 -1.14633 -4.57463 272.522 
1.69631e-05 7.1675e-07 2.68734e+25 -0.0314381 -0.549048 272.812 
1.67242e-06 1.19458e-06 2.68758e+25 -7.75094 0.391951 272.492 
3.58375e-06 1.19458e-06 2.68729e+25 -8.26224 -1.93007 272.584 
5.49508e-06 1.19458e-06 2.68979e+25 -8.42192 -4.99347 272.417 
7.40642e-06 1.19458e-06 2.68984e+25 -8.23957 -7.02608 272.484 
9.31775e-06 1.19458e-06 2.69157e+25 -7.19651 -8.92706 272.405 
1.12291e-05 1.19458e-06 2.69073e+25 -5.40948 -9.54816 272.474 
1.31404e-05 1.19458e-06 2.69032e+25 -3.0643 -8.17749 272.528 
1.50518e-05 1.19458e-06 2.69025e+25 -1.1443 -4.99025 272.602 
1.69631e-05 1.19458e-06 2.68675e+25 -0.090984 -0.698857 272.787 
1.67242e-06 1.67242e-06 2.68813e+25 -7.57708 0.534879 272.443 
3.58375e-06 1.67242e-06 2.688e+25 -8.15761 -1.87116 272.466 
5.49508e-06 1.67242e-06 2.68727e+25 -8.43045 -5.00547 272.572 
7.40642e-06 1.67242e-06 2.69136e+25 -8.32199 -7.21519 272.302 
9.31775e-06 1.67242e-06 2.69119e+25 -7.3166 -9.26932 272.317 
1.12291e-05 1.67242e-06 2.68974e+25 -5.5774 -10.0821 272.626 
1.31404e-05 1.67242e-06 2.68986e+25 -3.32575 -8.78194 272.556 
1.50518e-05 1.67242e-06 2.68985e+25 -1.08656 -5.4741 272.517 
1.69631e-05 1.67242e-06 2.68748e+25 0.00866393 -0.758592 272.781 
1.67242e-06 2.15025e-06 2.6881e+25 -7.14005 0.806749 272.477 
3.58375e-06 2.15025e-06 2.68758e+25 -7.75053 -1.74134 272.442 
5.49508e-06 2.15025e-06 2.68558e+25 -8.18302 -4.93553 272.759 
7.40642e-06 2.15025e-06 2.69139e+25 -8.08069 -7.36175 272.223 
9.31775e-06 2.15025e-06 2.69002e+25 -7.29626 -9.48941 272.462 
1.12291e-05 2.15025e-06 2.68926e+25 -5.68875 -10.6059 272.622 
1.31404e-05 2.15025e-06 2.69023e+25 -3.47427 -9.4163 272.528 
1.50518e-05 2.15025e-06 2.68947e+25 -1.07826 -5.96987 272.597 
1.69631e-05 2.15025e-06 2.6863e+25 -0.0456381 -0.790598 272.914 
1.67242e-06 2.62808e-06 2.68878e+25 -6.68742 0.952359 272.416 
3.58375e-06 2.62808e-06 2.68733e+25 -7.30826 -1.52828 272.475 
5.49508e-06 2.62808e-06 2.68567e+25 -7.8889 -4.84194 272.651 
7.40642e-06 2.62808e-06 2.69068e+25 -7.81604 -7.45245 272.301 
9.31775e-06 2.62808e-06 2.68889e+25 -7.39273 -9.76313 272.525 
1.12291e-05 2.62808e-06 2.68996e+25 -5.75765 -11.2281 272.443 
1.31404e-05 2.62808e-06 2.68869e+25 -3.50783 -9.93171 272.616 
1.50518e-05 2.62808e-06 2.68905e+25 -1.13211 -6.44903 272.663 
1.69631e-05 2.62808e-06 2.68623e+25 -0.0604112 -0.901605 272.88 
1.67242e-06 3.10592e-06 2.68928e+25 -6.21907 1.14485 272.407 
3.58375e-06 3.10592e-06 2.68887e+25 -6.92186 -1.33384 272.393 
5.49508e-06 3.10592e-06 2.68631e+25 -7.39549 -4.63244 272.62 
7.40642e-06 3.10592e-06 2.6895e+25 -7.76907 -7.47202 272.449 
9.31775e-06 3.10592e-06 2.68915e+25 -7.31639 -10.0081 272.427 
1.12291e-05 3.10592e-06 2.69114e+25 -5.88046 -11.6923 272.381 
1.31404e-05 3.10592e-06 2.68952e+25 -3.65865 -10.5188 272.608 
1.50518e-05 3.10592e-06 2.68918e+25 -1.2318 -7.02187 272.686 
1.69631e-05 3.10592e-06 2.68669e+25 0.0141105 -0.955802 272.802 
1.67242e-06 3.58375e-06 2.69016e+25 -5.99127 1.28146 272.262 
3.58375e-06 3.58375e-06 2.68892e+25 -6.53097 -1.23247 272.278 
5.49508e-06 3.58375e-06 2.6878e+25 -7.06015 -4.40609 272.473 
7.40642e-06 3.58375e-06 2.68865e+25 -7.54868 -7.40212 272.452 
9.31775e-06 3.58375e-06 2.69027e+25 -7.3371 -10.3467 272.362 
1.12291e-05 3.58375e-06 2.68974e+25 -6.07475 -12.2491 272.496 
1.31404e-05 3.58375e-06 2.69175e+25 -3.78338 -11.1947 272.486 
1.50518e-05 3.58375e-06 2.69059e+25 -1.24198 -7.5581 272.556 
1.69631e-05 3.58375e-06 2.6857e+25 -0.0150521 -0.955743 272.89 
1.67242e-06 4.06158e-06 2.68842e+25 -5.52156 1.41438 272.302 
3.58375e-06 4.06158e-06 2.68798e+25 -6.09735 -1.12401 272.343 
5.49508e-06 4.06158e-06 2.6878e+25 -6.69799 -4.1749 272.38 
7.40642e-06 4.06158e-06 2.68796e+25 -7.33783 -7.27976 272.498 
9.31775e-06 4.06158e-06 2.68911e+25 -7.19734 -10.5272 272.498 
1.12291e-05 4.06158e-06 2.69024e+25 -6.08701 -12.6635 272.45 
1.31404e-05 4.06158e-06 2.6916e+25 -3.85393 -11.8527 272.435 
1.50518e-05 4.06158e-06 2.69075e+25 -1.37128 -8.06425 272.557 
1.69631e-05 4.06158e-06 2.68748e+25 0.00219021 -0.976599 272.786 
1.67242e-06 4.53942e-06 2.68747e+25 -4.86319 1.45775 272.45 
3.58375e-06 4.53942e-06 2.68732e+25 -5.40976 -1.06375 272.485 
5.49508e-06 4.53942e-06 2.68671e+25 -6.17159 -4.00261 272.478 
7.40642e-06 4.53942e-06 2.6879e+25 -7.07147 -7.19802 272.418 
9.31775e-06 4.53942e-06 2.68835e+25 -6.9985 -10.6506 272.576 
1.12291e-05 4.53942e-06 2.69195e+25 -6.03094 -13.0064 272.369 
1.31404e-05 4.53942e-06 2.69012e+25 -4.03434 -12.5042 272.598 
1.50518e-05 4.53942e-06 2.68997e+25 -1.55767 -8.68698 272.614 
1.69631e-05 4.53942e-06 2.68763e+25 -0.056049 -1.08312 272.738 
1.67242e-06 5.01725e-06 2.68715e+25 -4.24547 1.52543 272.477 
3.58375e-06 5.01725e-06 2.6864e+25 -4.8599 -0.854066 272.429 
5.49508e-06 5.01725e-06 2.68615e+25 -5.704 -3.72492 272.583 
7.40642e-06 5.01725e-06 2.68794e+25 -6.43523 -7.03017 272.406 
9.31775e-06 5.01725e-06 2.68786e+25 -6.60482 -10.7694 272.543 
1.12291e-05 5.01725e-06 2.69141e+25 -5.83278 -13.4076 272.372 
1.31404e-05 5.01725e-06 2.68983e+25 -4.11853 -13.0306 272.587 
1.50518e-05 5.01725e-06 2.68939e+25 -1.71332 -9.34177 272.657 
1.69631e-05 5.01725e-06 2.6883e+25 -0.0523498 -1.2522 272.749 
1.67242e-06 5.49508e-06 2.68683e+25 -3.70233 1.73217 272.417 
3.58375e-06 5.49508e-06 2.68674e+25 -4.24766 -0.630016 272.448 
5.49508e-06 5.49508e-06 2.68566e+25 -5.20883 -3.53449 272.583 
7.40642e-06 5.49508e-06 2.68683e+25 -5.87405 -6.91706 272.561 
9.31775e-06 5.49508e-06 2.68745e+25 -6.2887 -10.8858 272.629 
1.12291e-05 5.49508e-06 2.69109e+25 -5.76478 -13.6216 272.424 
1.31404e-05 5.49508e-06 2.69119e+25 -4.15573 -13.6347 272.588 
1.50518e-05 5.49508e-06 2.68886e+25 -1.82753 -9.79863 272.734 
1.69631e-05 5.49508e-06 2.68817e+25 -0.0588864 -1.39778 272.752 
1.67242e-06 5.97292e-06 2.68776e+25 -3.1483 1.85128 272.286 
3.58375e-06 5.97292e-06 2.68628e+25 -3.71525 -0.421704 272.495 
5.49508e-06 5.97292e-06 2.68533e+25 -4.59672 -3.32495 272.606 
7.40642e-06 5.97292e-06 2.68786e+25 -5.41392 -6.8287 272.447 
9.31775e-06 5.97292e-06 2.68672e+25 -5.86516 -10.8727 272.706 
1.12291e-05 5.97292e-06 2.68964e+25 -5.76714 -13.8639 272.521 
1.31404e-05 5.97292e-06 2.68961e+25 -4.12501 -14.2425 272.672 
1.50518e-05 5.97292e-06 2.69044e+25 -1.70891 -10.3192 272.614 
1.69631e-05 5.97292e-06 2.68839e+25 -0.0903023 -1.5721 272.765 
1.67242e-06 6.45075e-06 2.68852e+25 -2.49804 2.03941 272.264 
3.58375e-06 6.45075e-06 2.6853e+25 -3.10918 -0.313602 272.558 
5.49508e-06 6.45075e-06 2.6852e+25 -3.83315 -3.2219 272.589 
7.40642e-06 6.45075e-06 2.68711e+25 -4.74894 -6.62393 272.491 
9.31775e-06 6.45075e-06 2.68738e+25 -5.6377 -10.6801 272.6 
1.12291e-05 6.45075e-06 2.68915e+25 -5.7113 -14.0227 272.607 
1.31404e-05 6.45075e-06 2.68981e+25 -4.16828 -14.8855 272.668 
1.50518e-05 6.45075e-06 2.69149e+25 -1.80863 -10.9732 272.602 
1.69631e-05 6.45075e-06 2.68775e+25 -0.0318226 -1.74854 272.833 
1.67242e-06 6.92858e-06 2.68618e+25 -1.78883 2.21324 272.413 
3.58375e-06 6.92858e-06 2.6851e+25 -2.45914 -0.153612 272.556 
5.49508e-06 6.92858e-06 2.68507e+25 -3.03432 -3.02514 272.605 
7.40642e-06 6.92858e-06 2.68566e+25 -4.00375 -6.35847 272.644 
9.31775e-06 6.92858e-06 2.68661e+25 -5.10321 -10.4398 272.642 
1.12291e-05 6.92858e-06 2.68868e+25 -5.56205 -14.0553 272.699 
1.31404e-05 6.92858e-06 2.6909e+25 -4.32628 -15.3076 272.581 
1.50518e-05 6.92858e-06 2.69234e+25 -1.74368 -11.5308 272.508 
1.69631e-05 6.92858e-06 2.68819e+25 -0.0322378 -1.84214 272.891 
1.67242e-06 7.40642e-06 2.68604e+25 -1.01021 2.31346 272.498 
3.58375e-06 7.40642e-06 2.68508e+25 -1.40792 -0.0187106 272.589 
5.49508e-06 7.40642e-06 2.68383e+25 -2.23186 -2.81783 272.687 
7.40642e-06 7.40642e-06 2.68584e+25 -3.21632 -6.00743 272.69 
9.31775e-06 7.40642e-06 2.68587e+25 -4.61151 -10.1615 272.684 
1.12291e-05 7.40642e-06 2.68863e+25 -5.35116 -14.1313 272.551 
1.31404e-05 7.40642e-06 2.69088e+25 -4.45823 -15.7661 272.532 
1.50518e-05 7.40642e-06 2.6924e+25 -1.95657 -12.2056 272.476 
1.69631e-05 7.40642e-06 2.68793e+25 -0.00173122 -1.90948 272.888 
1.67242e-06 7.88425e-06 2.68578e+25 -0.0875788 2.40539 272.566 
3.58375e-06 7.88425e-06 2.68483e+25 -0.427235 0.0982696 272.641 
5.49508e-06 7.88425e-06 2.68257e+25 -1.35452 -2.57513 272.82 
7.40642e-06 7.88425e-06 2.68421e+25 -2.58874 -5.63338 272.707 
9.31775e-06 7.88425e-06 2.68639e+25 -3.88649 -9.83574 272.661 
1.12291e-05 7.88425e-06 2.68927e+25 -4.79081 -14.034 272.568 
1.31404e-05 7.88425e-06 2.69119e+25 -4.47239 -16.1463 272.543 
1.50518e-05 7.88425e-06 2.69311e+25 -2.09553 -12.8962 272.436 
1.69631e-05 7.88425e-06 2.68741e+25 -0.0724397 -2.01801 272.989 
1.67242e-06 8.36208e-06 2.68573e+25 0.699051 2.39196 272.474 
3.58375e-06 8.36208e-06 2.68353e+25 0.442486 0.316196 272.691 
5.49508e-06 8.36208e-06 2.68393e+25 -0.398894 -2.34291 272.656 
7.40642e-06 8.36208e-06 2.68529e+25 -1.76716 -5.35492 272.644 
9.31775e-06 8.36208e-06 2.68509e+25 -3.06673 -9.47395 272.807 
1.12291e-05 8.36208e-06 2.68853e+25 -4.28859 -13.9859 272.591 
1.31404e-05 8.36208e-06 2.69226e+25 -4.21538 -16.545 272.611 
1.50518e-05 8.36208e-06 2.69384e+25 -2.07317 -13.5797 272.394 
1.69631e-05 8.36208e-06 2.68849e+25 -0.0717747 -2.15633 272.98 
1.67242e-06 8.83992e-06 2.68538e+25 1.67621 2.40786 272.58 
3.58375e-06 8.83992e-06 2.68487e+25 1.3168 0.382564 272.523 
5.49508e-06 8.83992e-06 2.68538e+25 0.613398 -2.08611 272.569 
7.40642e-06 8.83992e-06 2.68537e+25 -0.720008 -4.99609 272.586 
9.31775e-06 8.83992e-06 2.68561e+25 -2.157 -9.05517 272.787 
1.12291e-05 8.83992e-06 2.6882e+25 -3.78464 -13.7475 272.729 
1.31404e-05 8.83992e-06 2.69229e+25 -4.03503 -16.813 272.591 
1.50518e-05 8.83992e-06 2.69343e+25 -2.08469 -14.3866 272.496 
1.69631e-05 8.83992e-06 2.68961e+25 -0.10888 -2.39162 272.824 
1.67242e-06 9.31775e-06 2.68455e+25 2.37818 2.40501 272.644 
3.58375e-06 9.31775e-06 2.68515e+25 2.29586 0.545408 272.599 
5.49508e-06 9.31775e-06 2.68635e+25 1.5734 -1.70913 272.483 
7.40642e-06 9.31775e-06 2.68392e+25 0.390635 -4.67132 272.71 
9.31775e-06 9.31775e-06 2.68486e+25 -1.11047 -8.65063 272.849 
1.12291e-05 9.31775e-06 2.68955e+25 -2.97914 -13.4084 272.592 
1.31404e-05 9.31775e-06 2.69155e+25 -3.80616 -16.8841 272.583 
1.50518e-05 9.31775e-06 2.69329e+25 -2.0973 -15.0899 272.589 
1.69631e-05 9.31775e-06 2.68984e+25 -0.0893857 -2.66218 272.89 
1.67242e-06 9.79558e-06 2.68397e+25 3.2615 2.333 272.664 
3.58375e-06 9.79558e-06 2.6841e+25 3.3225 0.712394 272.689 
5.49508e-06 9.79558e-06 2.68424e+25 2.56019 -1.42587 272.655 
7.40642e-06 9.79558e-06 2.6828e+25 1.67282 -4.26298 272.778 
9.31775e-06 9.79558e-06 2.6849e+25 -0.0656834 -8.20508 272.821 
1.12291e-05 9.79558e-06 2.68906e+25 -2.27541 -12.9332 272.631 
1.31404e-05 9.79558e-06 2.69112e+25 -3.40254 -16.9184 272.739 
1.50518e-05 9.79558e-06 2.69359e+25 -2.22965 -15.6252 272.557 
1.69631e-05 9.79558e-06 2.69158e+25 -0.0468054 -2.82126 272.847 
1.67242e-06 1.02734e-05 2.68377e+25 4.24023 2.24843 272.625 
3.58375e-06 1.02734e-05 2.68471e+25 4.46793 0.784998 272.577 
5.49508e-06 1.02734e-05 2.68423e+25 3.84142 -1.26941 272.658 
7.40642e-06 1.02734e-05 2.68396e+25 2.9619 -4.02016 272.78 
9.31775e-06 1.02734e-05 2.68469e+25 1.07137 -7.69028 272.847 
1.12291e-05 1.02734e-05 2.68945e+25 -1.28176 -12.3515 272.678 
1.31404e-05 1.02734e-05 2.6915e+25 -3.01904 -16.837 272.751 
1.50518e-05 1.02734e-05 2.69603e+25 -2.3103 -16.0654 272.472 
1.69631e-05 1.02734e-05 2.69196e+25 -0.0892383 -3.00503 272.853 
1.67242e-06 1.07512e-05 2.68335e+25 5.35165 2.08682 272.766 
3.58375e-06 1.07512e-05 2.68531e+25 5.51767 0.754634 272.515 
5.49508e-06 1.07512e-05 2.68295e+25 5.21959 -1.08026 272.83 
7.40642e-06 1.07512e-05 2.68426e+25 4.33026 -3.68215 272.798 
9.31775e-06 1.07512e-05 2.68345e+25 2.44341 -7.10824 272.977 
1.12291e-05 1.07512e-05 2.68896e+25 -0.305744 -11.6851 272.758 
1.31404e-05 1.07512e-05 2.69153e+25 -2.52615 -16.6147 272.764 
1.50518e-05 1.07512e-05 2.697e+25 -2.29511 -16.5448 272.446 
1.69631e-05 1.07512e-05 2.69246e+25 -0.0871367 -3.21614 272.853 
1.67242e-06 1.12291e-05 2.683e+25 6.43483 1.93666 272.81 
3.58375e-06 1.12291e-05 2.68485e+25 6.79497 0.632009 272.586 
5.49508e-06 1.12291e-05 2.68396e+25 6.73409 -0.925642 272.722 
7.40642e-06 1.12291e-05 2.68515e+25 5.72847 -3.36346 272.761 
9.31775e-06 1.12291e-05 2.68482e+25 3.85228 -6.49125 272.94 
1.12291e-05 1.12291e-05 2.68787e+25 0.897581 -10.9121 272.9 
1.31404e-05 1.12291e-05 2.69208e+25 -2.03693 -16.1589 272.85 
1.50518e-05 1.12291e-05 2.69634e+25 -2.27949 -17.0362 272.601 
1.69631e-05 1.12291e-05 2.69531e+25 -0.0955819 -3.44471 272.808 
1.67242e-06 1.17069e-05 2.68281e+25 7.69319 1.87655 272.773 
3.58375e-06 1.17069e-05 2.68495e+25 8.12275 0.568861 272.639 
5.49508e-06 1.17069e-05 2.68515e+25 8.11646 -0.804989 272.562 
7.40642e-06 1.17069e-05 2.68626e+25 7.12018 -3.04335 272.588 
9.31775e-06 1.17069e-05 2.68535e+25 5.32237 -5.86476 272.854 
1.12291e-05 1.17069e-05 2.68895e+25 2.21316 -9.9889 272.795 
1.31404e-05 1.17069e-05 2.69254e+25 -1.24667 -15.4851 272.803 
1.50518e-05 1.17069e-05 2.69741e+25 -2.16489 -17.5046 272.715 
1.69631e-05 1.17069e-05 2.69594e+25 -0.0789871 -3.67604 272.82 
1.67242e-06 1.21847e-05 2.6836e+25 9.25844 1.80441 272.649 
3.58375e-06 1.21847e-05 2.68466e+25 9.64007 0.488074 272.636 
5.49508e-06 1.21847e-05 2.68541e+25 9.67774 -0.749835 272.578 
7.40642e-06 1.21847e-05 2.68544e+25 8.81364 -2.6695 272.667 
9.31775e-06 1.21847e-05 2.68643e+25 6.93509 -5.27596 272.814 
1.12291e-05 1.21847e-05 2.68861e+25 3.74547 -8.97336 272.9 
1.31404e-05 1.21847e-05 2.69395e+25 -0.420823 -14.7181 272.85 
1.50518e-05 1.21847e-05 2.69828e+25 -2.10917 -17.7926 272.769 
1.69631e-05 1.21847e-05 2.69747e+25 -0.0992312 -3.8905 272.88 
1.67242e-06 1.26626e-05 2.68518e+25 10.7618 1.72197 272.616 
3.58375e-06 1.26626e-05 2.68567e+25 11.2754 0.366451 272.521 
5.49508e-06 1.26626e-05 2.68472e+25 11.5237 -0.644 272.67 
7.40642e-06 1.26626e-05 2.68583e+25 10.5106 -2.4119 272.666 
9.31775e-06 1.26626e-05 2.6862e+25 8.68138 -4.64939 272.788 
1.12291e-05 1.26626e-05 2.68993e+25 5.43746 -8.05007 272.824 
1.31404e-05 1.26626e-05 2.69506e+25 0.555598 -13.7579 272.801 
1.50518e-05 1.26626e-05 2.70027e+25 -1.88072 -17.8255 272.707 
1.69631e-05 1.26626e-05 2.69881e+25 -0.135769 -4.19383 272.923 
1.67242e-06 1.31404e-05 2.68558e+25 12.4262 1.51174 272.599 
3.58375e-06 1.31404e-05 2.68651e+25 13.1577 0.302715 272.52 
5.49508e-06 1.31404e-05 2.68436e+25 13.1849 -0.562519 272.716 
7.40642e-06 1.31404e-05 2.68503e+25 12.3765 -2.02957 272.794 
9.31775e-06 1.31404e-05 2.68746e+25 10.5414 -4.03789 272.802 
1.12291e-05 1.31404e-05 2.69003e+25 7.17121 -7.07047 272.924 
1.31404e-05 1.31404e-05 2.6959e+25 1.91306 -12.5816 272.844 
1.50518e-05 1.31404e-05 2.70234e+25 -1.77503 -17.7236 272.762 
1.69631e-05 1.31404e-05 2.70115e+25 -0.129771 -4.54401 272.906 
1.67242e-06 1.36182e-05 2.68433e+25 14.4163 1.2169 272.652 
3.58375e-06 1.36182e-05 2.68559e+25 15.1409 0.177462 272.573 
5.49508e-06 1.36182e-05 2.68377e+25 15.0723 -0.493952 272.738 
7.40642e-06 1.36182e-05 2.68652e+25 14.4695 -1.6817 272.78 
9.31775e-06 1.36182e-05 2.68704e+25 12.5392 -3.44863 272.814 
1.12291e-05 1.36182e-05 2.69088e+25 9.16064 -5.92435 272.888 
1.31404e-05 1.36182e-05 2.69529e+25 3.56319 -10.99 273.005 
1.50518e-05 1.36182e-05 2.70403e+25 -1.52763 -17.3366 272.794 
1.69631e-05 1.36182e-05 2.70518e+25 -0.136745 -4.89868 272.829 
1.67242e-06 1.40961e-05 2.6847e+25 16.6321 0.925334 272.619 
3.58375e-06 1.40961e-05 2.68506e+25 17.1987 0.0355753 272.584 
5.49508e-06 1.40961e-05 2.68458e+25 17.2602 -0.450386 272.754 
7.40642e-06 1.40961e-05 2.68553e+25 16.6894 -1.37795 272.747 
9.31775e-06 1.40961e-05 2.68786e+25 14.759 -2.85626 272.803 
1.12291e-05 1.40961e-05 2.69137e+25 11.2397 -4.70403 272.868 
1.31404e-05 1.40961e-05 2.69535e+25 5.65031 -9.3543 273.087 
1.50518e-05 1.40961e-05 2.70516e+25 -1.06998 -16.535 272.876 
1.69631e-05 1.40961e-05 2.70817e+25 -0.262069 -5.36325 272.812 
1.67242e-06 1.45739e-05 2.68598e+25 19.1068 0.729421 272.578 
3.58375e-06 1.45739e-05 2.68477e+25 19.6284 -0.0305975 272.601 
5.49508e-06 1.45739e-05 2.68529e+25 19.417 -0.371422 272.644 
7.40642e-06 1.45739e-05 2.68657e+25 18.7878 -1.01329 272.637 
9.31775e-06 1.45739e-05 2.68803e+25 16.9527 -2.2591 272.808 
1.12291e-05 1.45739e-05 2.6916e+25 13.7562 -3.62335 272.854 
1.31404e-05 1.45739e-05 2.69512e+25 8.08216 -7.53709 273.169 
1.50518e-05 1.45739e-05 2.70717e+25 -0.0376916 -15.2235 272.908 
1.69631e-05 1.45739e-05 2.71305e+25 -0.301573 -6.01429 272.891 
1.67242e-06 1.50518e-05 2.68488e+25 21.6905 0.509805 272.685 
3.58375e-06 1.50518e-05 2.68462e+25 21.945 -0.0357891 272.621 
5.49508e-06 1.50518e-05 2.68593e+25 22.0142 -0.262306 272.593 
7.40642e-06 1.50518e-05 2.68641e+25 21.2959 -0.73138 272.696 
9.31775e-06 1.50518e-05 2.68986e+25 19.5671 -1.6456 272.689 
1.12291e-05 1.50518e-05 2.69316e+25 16.5942 -2.66911 272.796 
1.31404e-05 1.50518e-05 2.69699e+25 11.1537 -5.71704 273.129 
1.50518e-05 1.50518e-05 2.70852e+25 1.60696 -13.2135 273.067 
1.69631e-05 1.50518e-05 2.71945e+25 -0.405538 -6.74805 272.965 
1.67242e-06 1.55296e-05 2.68554e+25 24.3475 0.29664 272.602 
3.58375e-06 1.55296e-05 2.68549e+25 24.6612 -0.0340175 272.591 
5.49508e-06 1.55296e-05 2.68771e+25 24.6506 -0.219891 272.515 
7.40642e-06 1.55296e-05 2.6862e+25 23.8512 -0.434664 272.753 
9.31775e-06 1.55296e-05 2.68915e+25 22.4597 -1.02515 272.745 
1.12291e-05 1.55296e-05 2.69377e+25 19.7785 -1.73739 272.747 
1.31404e-05 1.55296e-05 2.69745e+25 14.8971 -3.84074 273.165 
1.50518e-05 1.55296e-05 2.71043e+25 4.52359 -10.3689 273.174 
1.69631e-05 1.55296e-05 2.72635e+25 -0.55541 -7.78548 273.04 
1.67242e-06 1.60074e-05 2.68433e+25 27.1782 0.149209 272.764 
3.58375e-06 1.60074e-05 2.68533e+25 27.4243 -0.00618873 272.705 
5.49508e-06 1.60074e-05 2.68732e+25 27.3902 -0.0510624 272.566 
7.40642e-06 1.60074e-05 2.68687e+25 26.6751 -0.168893 272.697 
9.31775e-06 1.60074e-05 2.68993e+25 25.6128 -0.549656 272.655 
1.12291e-05 1.60074e-05 2.69389e+25 23.4521 -1.01944 272.814 
1.31404e-05 1.60074e-05 2.6988e+25 19.4299 -2.22848 273.03 
1.50518e-05 1.60074e-05 2.71206e+25 9.3368 -6.88369 273.252 
1.69631e-05 1.60074e-05 2.74175e+25 -0.760603 -9.11772 273.126 
1.67242e-06 1.64852e-05 2.68513e+25 30.0843 0.0863885 272.718 
3.58375e-06 1.64852e-05 2.68641e+25 30.2432 -0.0384346 272.594 
5.49508e-06 1.64852e-05 2.68733e+25 30.1669 0.00577598 272.474 
7.40642e-06 1.64852e-05 2.68694e+25 29.7249 -0.0175923 272.729 
9.31775e-06 1.64852e-05 2.68835e+25 28.9474 -0.263406 272.795 
1.12291e-05 1.64852e-05 2.69201e+25 27.5374 -0.454521 272.871 
1.31404e-05 1.64852e-05 2.69949e+25 24.5804 -0.926985 272.936 
1.50518e-05 1.64852e-05 2.7112e+25 16.9706 -3.15379 273.321 
1.69631e-05 1.64852e-05 2.77093e+25 -0.444973 -10.1649 273.295 
1.67242e-06 1.69631e-05 2.68372e+25 32.7636 0.0494073 272.816 
3.58375e-06 1.69631e-05 2.68412e+25 32.864 -0.0280968 272.793 
5.49508e-06 1.69631e-05 2.68489e+25 32.7599 0.0129484 272.751 
7.40642e-06 1.69631e-05 2.68539e+25 32.697 0.0399864 272.906 
9.31775e-06 1.69631e-05 2.68707e+25 32.3175 -0.0676013 272.869 
1.12291e-05 1.69631e-05 2.69145e+25 31.6233 -0.0782774 272.991 
1.31404e-05 1.69631e-05 2.69697e+25 30.4517 -0.147593 273.063 
1.50518e-05 1.69631e-05 2.70982e+25 26.9763 -0.638151 273.283 
1.69631e-05 1.69631e-05 2.84359e+25 4.57487 -6.68526 273.959 
2.38917e-07 2.38917e-07 2.69073e+25 -7.32915 1.6838 272.306 
2.15025e-06 2.38917e-07 2.6902e+25 -7.90813 -0.474649 272.344 
4.06158e-06 2.38917e-07 2.691e+25 -8.36383 -2.68095 272.382 
5.97292e-06 2.38917e-07 2.69021e+25 -8.31553 -5.38912 272.42 
7.88425e-06 2.38917e-07 2.6911e+25 -7.69272 -7.13055 272.366 
9.79558e-06 2.38917e-07 2.69087e+25 -6.40792 -8.54713 272.511 
1.17069e-05 2.38917e-07 2.69116e+25 -4.41683 -8.30497 272.494 
1.36182e-05 2.38917e-07 2.69233e+25 -2.29043 -6.60332 272.391 
1.55296e-05 2.38917e-07 2.6913e+25 -0.627342 -3.26548 272.396 
2.38917e-07 7.1675e-07 2.68909e+25 -7.35021 1.80917 272.442 
2.15025e-06 7.1675e-07 2.689e+25 -7.98943 -0.316978 272.425 
4.06158e-06 7.1675e-07 2.68949e+25 -8.47598 -2.68148 272.447 
5.97292e-06 7.1675e-07 2.68997e+25 -8.41001 -5.49001 272.425 
7.88425e-06 7.1675e-07 2.69006e+25 -7.90835 -7.36574 272.468 
9.79558e-06 7.1675e-07 2.69177e+25 -6.67744 -8.96607 272.425 
1.17069e-05 7.1675e-07 2.69061e+25 -4.62911 -8.90353 272.53 
1.36182e-05 7.1675e-07 2.69134e+25 -2.29645 -7.10316 272.452 
1.55296e-05 7.1675e-07 2.69029e+25 -0.722379 -3.64109 272.558 
2.38917e-07 1.19458e-06 2.68826e+25 -7.24883 1.98596 272.524 
2.15025e-06 1.19458e-06 2.6891e+25 -7.95056 -0.10054 272.405 
4.06158e-06 1.19458e-06 2.68683e+25 -8.36238 -2.6229 272.637 
5.97292e-06 1.19458e-06 2.6889e+25 -8.45976 -5.55182 272.419 
7.88425e-06 1.19458e-06 2.69061e+25 -8.04322 -7.60458 272.456 
9.79558e-06 1.19458e-06 2.69074e+25 -6.85464 -9.33788 272.406 
1.17069e-05 1.19458e-06 2.69121e+25 -4.87055 -9.46357 272.465 
1.36182e-05 1.19458e-06 2.69113e+25 -2.51798 -7.62118 272.485 
1.55296e-05 1.19458e-06 2.69155e+25 -0.698183 -4.04065 272.46 
2.38917e-07 1.67242e-06 2.68816e+25 -6.90103 2.15993 272.448 
2.15025e-06 1.67242e-06 2.68855e+25 -7.69879 0.0524745 272.39 
4.06158e-06 1.67242e-06 2.68722e+25 -8.23129 -2.54045 272.577 
5.97292e-06 1.67242e-06 2.68778e+25 -8.39535 -5.54983 272.58 
7.88425e-06 1.67242e-06 2.69234e+25 -8.10977 -7.8071 272.23 
9.79558e-06 1.67242e-06 2.69103e+25 -7.01331 -9.72055 272.331 
1.17069e-05 1.67242e-06 2.68901e+25 -5.03781 -10.0466 272.611 
1.36182e-05 1.67242e-06 2.68987e+25 -2.7219 -8.17425 272.531 
1.55296e-05 1.67242e-06 2.69025e+25 -0.672803 -4.4524 272.484 
2.38917e-07 2.15025e-06 2.68832e+25 -6.78467 2.33179 272.435 
2.15025e-06 2.15025e-06 2.68843e+25 -7.345 0.0982108 272.463 
4.06158e-06 2.15025e-06 2.68894e+25 -7.87286 -2.42562 272.399 
5.97292e-06 2.15025e-06 2.68707e+25 -8.25704 -5.55137 272.614 
7.88425e-06 2.15025e-06 2.69096e+25 -7.91808 -7.9921 272.309 
9.79558e-06 2.15025e-06 2.69025e+25 -7.03591 -10.0843 272.434 
1.17069e-05 2.15025e-06 2.68966e+25 -5.09348 -10.6301 272.608 
1.36182e-05 2.15025e-06 2.69026e+25 -2.87327 -8.74407 272.565 
1.55296e-05 2.15025e-06 2.68907e+25 -0.685411 -4.747 272.538 
2.38917e-07 2.62808e-06 2.68788e+25 -6.32828 2.54536 272.423 
2.15025e-06 2.62808e-06 2.68757e+25 -6.79313 0.225009 272.57 
4.06158e-06 2.62808e-06 2.68684e+25 -7.54092 -2.25985 272.471 
5.97292e-06 2.62808e-06 2.6873e+25 -7.97375 -5.47319 272.576 
7.88425e-06 2.62808e-06 2.6917e+25 -7.79211 -8.11123 272.249 
9.79558e-06 2.62808e-06 2.69047e+25 -7.1044 -10.3961 272.444 
1.17069e-05 2.62808e-06 2.69035e+25 -5.20305 -11.1676 272.508 
1.36182e-05 2.62808e-06 2.69048e+25 -2.94423 -9.34696 272.491 
1.55296e-05 2.62808e-06 2.68988e+25 -0.739751 -5.10608 272.653 
2.38917e-07 3.10592e-06 2.6875e+25 -5.66201 2.75492 272.534 
2.15025e-06 3.10592e-06 2.68769e+25 -6.44675 0.436826 272.438 
4.06158e-06 3.10592e-06 2.68765e+25 -7.03066 -2.1483 272.487 
5.97292e-06 3.10592e-06 2.68714e+25 -7.61183 -5.38101 272.551 
7.88425e-06 3.10592e-06 2.68927e+25 -7.77303 -8.13492 272.409 
9.79558e-06 3.10592e-06 2.69049e+25 -7.09519 -10.6412 272.387 
1.17069e-05 3.10592e-06 2.6903e+25 -5.4407 -11.7141 272.468 
1.36182e-05 3.10592e-06 2.69076e+25 -3.00944 -9.96359 272.505 
1.55296e-05 3.10592e-06 2.6898e+25 -0.662796 -5.51365 272.579 
2.38917e-07 3.58375e-06 2.687e+25 -5.27313 2.91749 272.441 
2.15025e-06 3.58375e-06 2.68915e+25 -6.08415 0.596082 272.381 
4.06158e-06 3.58375e-06 2.68819e+25 -6.63096 -2.0145 272.375 
5.97292e-06 3.58375e-06 2.68833e+25 -7.31303 -5.18431 272.474 
7.88425e-06 3.58375e-06 2.68944e+25 -7.64793 -8.07746 272.377 
9.79558e-06 3.58375e-06 2.68996e+25 -7.04167 -10.8498 272.415 
1.17069e-05 3.58375e-06 2.68964e+25 -5.56194 -12.1627 272.543 
1.36182e-05 3.58375e-06 2.69121e+25 -3.0076 -10.6667 272.442 
1.55296e-05 3.58375e-06 2.69008e+25 -0.780434 -6.03129 272.571 
2.38917e-07 4.06158e-06 2.6881e+25 -4.97551 3.01432 272.433 
2.15025e-06 4.06158e-06 2.68879e+25 -5.54753 0.635063 272.378 
4.06158e-06 4.06158e-06 2.68835e+25 -6.15491 -1.94298 272.447 
5.97292e-06 4.06158e-06 2.68747e+25 -6.86393 -4.98789 272.49 
7.88425e-06 4.06158e-06 2.6898e+25 -7.44541 -7.9916 272.408 
9.79558e-06 4.06158e-06 2.68972e+25 -7.04513 -11.108 272.476 
1.17069e-05 4.06158e-06 2.69061e+25 -5.69025 -12.6362 272.457 
1.36182e-05 4.06158e-06 2.69043e+25 -3.27972 -11.3577 272.546 
1.55296e-05 4.06158e-06 2.68993e+25 -0.799882 -6.51806 272.592 
2.38917e-07 4.53942e-06 2.68673e+25 -4.59808 3.13278 272.469 
2.15025e-06 4.53942e-06 2.68805e+25 -4.98554 0.749887 272.456 
4.06158e-06 4.53942e-06 2.68772e+25 -5.60418 -1.76906 272.474 
5.97292e-06 4.53942e-06 2.68802e+25 -6.35645 -4.80908 272.412 
7.88425e-06 4.53942e-06 2.68822e+25 -7.12884 -7.96096 272.406 
9.79558e-06 4.53942e-06 2.68772e+25 -6.75892 -11.323 272.626 
1.17069e-05 4.53942e-06 2.69106e+25 -5.5796 -13.1682 272.355 
1.36182e-05 4.53942e-06 2.68974e+25 -3.42627 -11.9258 272.626 
1.55296e-05 4.53942e-06 2.69072e+25 -1.02115 -6.97569 272.592 
2.38917e-07 5.01725e-06 2.68696e+25 -4.11678 3.26008 272.487 
2.15025e-06 5.01725e-06 2.68685e+25 -4.41034 0.935728 272.487 
4.06158e-06 5.01725e-06 2.6869e+25 -5.06576 -1.6064 272.422 
5.97292e-06 5.01725e-06 2.6866e+25 -5.95224 -4.59451 272.5 
7.88425e-06 5.01725e-06 2.68888e+25 -6.57668 -7.86735 272.402 
9.79558e-06 5.01725e-06 2.68758e+25 -6.41595 -11.6253 272.639 
1.17069e-05 5.01725e-06 2.69213e+25 -5.48033 -13.5839 272.335 
1.36182e-05 5.01725e-06 2.68946e+25 -3.57595 -12.4975 272.68 
1.55296e-05 5.01725e-06 2.68922e+25 -1.20644 -7.39126 272.634 
2.38917e-07 5.49508e-06 2.68664e+25 -3.42722 3.2909 272.455 
2.15025e-06 5.49508e-06 2.68725e+25 -3.91396 1.07636 272.455 
4.06158e-06 5.49508e-06 2.68557e+25 -4.5892 -1.33923 272.611 
5.97292e-06 5.49508e-06 2.68608e+25 -5.42925 -4.30506 272.521 
7.88425e-06 5.49508e-06 2.68715e+25 -5.92515 -7.78367 272.521 
9.79558e-06 5.49508e-06 2.68834e+25 -6.19928 -11.751 272.544 
1.17069e-05 5.49508e-06 2.69172e+25 -5.52831 -13.9009 272.323 
1.36182e-05 5.49508e-06 2.68955e+25 -3.50395 -13.1659 272.616 
1.55296e-05 5.49508e-06 2.68988e+25 -1.28899 -7.95043 272.606 
2.38917e-07 5.97292e-06 2.6872e+25 -2.70687 3.42648 272.434 
2.15025e-06 5.97292e-06 2.68785e+25 -3.32963 1.35324 272.35 
4.06158e-06 5.97292e-06 2.6852e+25 -3.83061 -1.13548 272.553 
5.97292e-06 5.97292e-06 2.68624e+25 -4.7241 -4.19616 272.578 
7.88425e-06 5.97292e-06 2.68846e+25 -5.50634 -7.66933 272.393 
9.79558e-06 5.97292e-06 2.689e+25 -5.99386 -11.7407 272.489 
1.17069e-05 5.97292e-06 2.69136e+25 -5.53609 -14.1391 272.406 
1.36182e-05 5.97292e-06 2.69122e+25 -3.50244 -13.7947 272.529 
1.55296e-05 5.97292e-06 2.69057e+25 -1.12193 -8.57228 272.584 
2.38917e-07 6.45075e-06 2.6866e+25 -2.01693 3.66694 272.552 
2.15025e-06 6.45075e-06 2.6873e+25 -2.65737 1.54065 272.378 
4.06158e-06 6.45075e-06 2.68446e+25 -3.28221 -0.916006 272.639 
5.97292e-06 6.45075e-06 2.68427e+25 -3.9753 -4.04954 272.642 
7.88425e-06 6.45075e-06 2.6861e+25 -4.9513 -7.57752 272.638 
9.79558e-06 6.45075e-06 2.6881e+25 -5.79901 -11.6598 272.609 
1.17069e-05 6.45075e-06 2.69041e+25 -5.50894 -14.4035 272.477 
1.36182e-05 6.45075e-06 2.69113e+25 -3.65636 -14.3011 272.542 
1.55296e-05 6.45075e-06 2.69175e+25 -1.20415 -9.10412 272.535 
2.38917e-07 6.92858e-06 2.68577e+25 -1.38117 3.80818 272.524 
2.15025e-06 6.92858e-06 2.68697e+25 -1.88742 1.65765 272.395 
4.06158e-06 6.92858e-06 2.68495e+25 -2.5481 -0.815414 272.595 
5.97292e-06 6.92858e-06 2.68438e+25 -3.28088 -3.87133 272.671 
7.88425e-06 6.92858e-06 2.68588e+25 -4.35672 -7.2998 272.633 
9.79558e-06 6.92858e-06 2.68735e+25 -5.33706 -11.4766 272.665 
1.17069e-05 6.92858e-06 2.69012e+25 -5.4087 -14.6691 272.481 
1.36182e-05 6.92858e-06 2.69099e+25 -3.80994 -14.849 272.528 
1.55296e-05 6.92858e-06 2.69162e+25 -1.17893 -9.67 272.501 
2.38917e-07 7.40642e-06 2.68509e+25 -0.770024 3.85892 272.598 
2.15025e-06 7.40642e-06 2.68526e+25 -1.12066 1.79316 272.556 
4.06158e-06 7.40642e-06 2.68498e+25 -1.54289 -0.665838 272.65 
5.97292e-06 7.40642e-06 2.68266e+25 -2.45801 -3.59717 272.784 
7.88425e-06 7.40642e-06 2.68437e+25 -3.59942 -6.93441 272.799 
9.79558e-06 7.40642e-06 2.68749e+25 -4.79252 -11.3318 272.573 
1.17069e-05 7.40642e-06 2.68959e+25 -5.21575 -14.9067 272.578 
1.36182e-05 7.40642e-06 2.69174e+25 -3.92436 -15.4692 272.51 
1.55296e-05 7.40642e-06 2.69303e+25 -1.26552 -10.2597 272.407 
2.38917e-07 7.88425e-06 2.68489e+25 -0.0998817 3.93723 272.605 
2.15025e-06 7.88425e-06 2.68501e+25 -0.15245 1.84753 272.47 
4.06158e-06 7.88425e-06 2.68315e+25 -0.703185 -0.429401 272.699 
5.97292e-06 7.88425e-06 2.6834e+25 -1.60111 -3.38339 272.746 
7.88425e-06 7.88425e-06 2.68462e+25 -2.86669 -6.59881 272.8 
9.79558e-06 7.88425e-06 2.68714e+25 -4.24157 -11.0989 272.645 
1.17069e-05 7.88425e-06 2.68909e+25 -4.91763 -14.968 272.602 
1.36182e-05 7.88425e-06 2.69114e+25 -4.00666 -16.0351 272.574 
1.55296e-05 7.88425e-06 2.69226e+25 -1.42306 -10.9286 272.571 
2.38917e-07 8.36208e-06 2.68578e+25 0.574936 3.75691 272.509 
2.15025e-06 8.36208e-06 2.68543e+25 0.686024 1.93975 272.495 
4.06158e-06 8.36208e-06 2.68284e+25 0.311262 -0.201385 272.755 
5.97292e-06 8.36208e-06 2.68466e+25 -0.700135 -3.02874 272.594 
7.88425e-06 8.36208e-06 2.68469e+25 -2.09944 -6.30432 272.706 
9.79558e-06 8.36208e-06 2.68623e+25 -3.51389 -10.6563 272.724 
1.17069e-05 8.36208e-06 2.69059e+25 -4.37359 -14.8466 272.532 
1.36182e-05 8.36208e-06 2.69159e+25 -3.83305 -16.5362 272.558 
1.55296e-05 8.36208e-06 2.69314e+25 -1.37686 -11.5427 272.488 
2.38917e-07 8.83992e-06 2.68521e+25 1.40561 3.65313 272.563 
2.15025e-06 8.83992e-06 2.68492e+25 1.59761 2.03747 272.582 
4.06158e-06 8.83992e-06 2.68357e+25 1.24739 -0.0505748 272.708 
5.97292e-06 8.83992e-06 2.68689e+25 0.249666 -2.68562 272.439 
7.88425e-06 8.83992e-06 2.68466e+25 -1.07949 -5.96172 272.648 
9.79558e-06 8.83992e-06 2.68579e+25 -2.5811 -10.2511 272.761 
1.17069e-05 8.83992e-06 2.6898e+25 -3.99917 -14.7804 272.557 
1.36182e-05 8.83992e-06 2.69199e+25 -3.77555 -16.8369 272.607 
1.55296e-05 8.83992e-06 2.69424e+25 -1.33558 -12.1273 272.528 
2.38917e-07 9.31775e-06 2.68477e+25 2.02401 3.55935 272.579 
2.15025e-06 9.31775e-06 2.68347e+25 2.46898 2.01415 272.621 
4.06158e-06 9.31775e-06 2.68367e+25 2.07869 0.112352 272.68 
5.97292e-06 9.31775e-06 2.68686e+25 1.2447 -2.40939 272.468 
7.88425e-06 9.31775e-06 2.68488e+25 0.0364087 -5.61908 272.707 
9.79558e-06 9.31775e-06 2.68584e+25 -1.55212 -9.81284 272.77 
1.17069e-05 9.31775e-06 2.6902e+25 -3.39382 -14.4876 272.594 
1.36182e-05 9.31775e-06 2.69128e+25 -3.63245 -17.1612 272.682 
1.55296e-05 9.31775e-06 2.69229e+25 -1.50679 -12.7665 272.66 
2.38917e-07 9.79558e-06 2.68332e+25 2.90443 3.37322 272.744 
2.15025e-06 9.79558e-06 2.68406e+25 3.32231 1.9403 272.58 
4.06158e-06 9.79558e-06 2.68355e+25 3.18759 0.258936 272.702 
5.97292e-06 9.79558e-06 2.68501e+25 2.39551 -2.21303 272.565 
7.88425e-06 9.79558e-06 2.68386e+25 1.29721 -5.18785 272.736 
9.79558e-06 9.79558e-06 2.68642e+25 -0.61524 -9.26711 272.743 
1.17069e-05 9.79558e-06 2.68998e+25 -2.72371 -14.1101 272.691 
1.36182e-05 9.79558e-06 2.69109e+25 -3.32826 -17.3922 272.729 
1.55296e-05 9.79558e-06 2.69331e+25 -1.70344 -13.3585 272.62 
2.38917e-07 1.02734e-05 2.68262e+25 3.88081 3.25488 272.802 
2.15025e-06 1.02734e-05 2.68397e+25 4.38116 1.81964 272.702 
4.06158e-06 1.02734e-05 2.6834e+25 4.40873 0.398235 272.665 
5.97292e-06 1.02734e-05 2.68431e+25 3.67116 -2.02481 272.701 
7.88425e-06 1.02734e-05 2.68484e+25 2.65754 -4.73641 272.79 
9.79558e-06 1.02734e-05 2.68457e+25 0.45315 -8.64252 272.889 
1.17069e-05 1.02734e-05 2.69109e+25 -1.89412 -13.6047 272.63 
1.36182e-05 1.02734e-05 2.69324e+25 -3.04354 -17.5371 272.692 
1.55296e-05 1.02734e-05 2.69525e+25 -1.65723 -14.0447 272.573 
2.38917e-07 1.07512e-05 2.68353e+25 4.79021 3.12772 272.698 
2.15025e-06 1.07512e-05 2.68483e+25 5.44402 1.72865 272.652 
4.06158e-06 1.07512e-05 2.68443e+25 5.59318 0.454968 272.684 
5.97292e-06 1.07512e-05 2.68351e+25 5.0178 -1.83945 272.78 
7.88425e-06 1.07512e-05 2.6851e+25 3.92744 -4.33231 272.739 
9.79558e-06 1.07512e-05 2.68501e+25 1.8153 -7.98002 273.03 
1.17069e-05 1.07512e-05 2.69009e+25 -1.00139 -13.0123 272.762 
1.36182e-05 1.07512e-05 2.69296e+25 -2.77288 -17.4653 272.731 
1.55296e-05 1.07512e-05 2.69685e+25 -1.7119 -14.7446 272.562 
2.38917e-07 1.12291e-05 2.68543e+25 5.9349 2.91455 272.612 
2.15025e-06 1.12291e-05 2.68274e+25 6.53513 1.69931 272.858 
4.06158e-06 1.12291e-05 2.68468e+25 6.86767 0.412578 272.695 
5.97292e-06 1.12291e-05 2.68443e+25 6.53643 -1.5863 272.714 
7.88425e-06 1.12291e-05 2.68566e+25 5.35957 -3.93233 272.749 
9.79558e-06 1.12291e-05 2.68548e+25 3.20932 -7.36371 272.971 
1.17069e-05 1.12291e-05 2.6892e+25 0.097256 -12.34 272.874 
1.36182e-05 1.12291e-05 2.69322e+25 -2.49653 -17.1979 272.789 
1.55296e-05 1.12291e-05 2.69745e+25 -1.73671 -15.4238 272.574 
2.38917e-07 1.17069e-05 2.68358e+25 7.26343 2.74829 272.701 
2.15025e-06 1.17069e-05 2.68455e+25 7.81682 1.50817 272.63 
4.06158e-06 1.17069e-05 2.68432e+25 8.20117 0.342933 272.69 
5.97292e-06 1.17069e-05 2.68432e+25 7.96724 -1.36908 272.645 
7.88425e-06 1.17069e-05 2.68531e+25 6.80725 -3.59547 272.705 
9.79558e-06 1.17069e-05 2.68565e+25 4.70376 -6.69958 272.933 
1.17069e-05 1.17069e-05 2.69063e+25 1.20956 -11.4697 272.769 
1.36182e-05 1.17069e-05 2.69368e+25 -1.86584 -16.768 272.831 
1.55296e-05 1.17069e-05 2.69934e+25 -1.6712 -15.9279 272.606 
2.38917e-07 1.21847e-05 2.68355e+25 8.768 2.46354 272.826 
2.15025e-06 1.21847e-05 2.68392e+25 9.2977 1.34024 272.68 
4.06158e-06 1.21847e-05 2.68568e+25 9.77894 0.297574 272.51 
5.97292e-06 1.21847e-05 2.68478e+25 9.57947 -1.15533 272.645 
7.88425e-06 1.21847e-05 2.68618e+25 8.41401 -3.26561 272.611 
9.79558e-06 1.21847e-05 2.68556e+25 6.30273 -6.02159 273.03 
1.17069e-05 1.21847e-05 2.69196e+25 2.59578 -10.2882 272.834 
1.36182e-05 1.21847e-05 2.69542e+25 -1.2821 -16.1511 272.795 
1.55296e-05 1.21847e-05 2.69883e+25 -1.74572 -16.4868 272.742 
2.38917e-07 1.26626e-05 2.68422e+25 10.1065 2.10946 272.718 
2.15025e-06 1.26626e-05 2.68446e+25 10.8676 1.32944 272.517 
4.06158e-06 1.26626e-05 2.68576e+25 11.3698 0.171211 272.589 
5.97292e-06 1.26626e-05 2.68411e+25 11.3184 -0.935031 272.834 
7.88425e-06 1.26626e-05 2.68685e+25 10.1667 -2.80629 272.657 
9.79558e-06 1.26626e-05 2.68657e+25 8.0385 -5.40038 272.922 
1.17069e-05 1.26626e-05 2.69069e+25 4.42939 -9.13434 272.871 
1.36182e-05 1.26626e-05 2.69736e+25 -0.438998 -15.315 272.711 
1.55296e-05 1.26626e-05 2.70064e+25 -1.69754 -16.971 272.77 
2.38917e-07 1.31404e-05 2.68438e+25 11.6949 1.78533 272.711 
2.15025e-06 1.31404e-05 2.68633e+25 12.6277 1.17278 272.484 
4.06158e-06 1.31404e-05 2.68487e+25 13.2476 0.0544254 272.58 
5.97292e-06 1.31404e-05 2.68377e+25 13.1652 -0.790825 272.791 
7.88425e-06 1.31404e-05 2.68606e+25 11.997 -2.41315 272.705 
9.79558e-06 1.31404e-05 2.68708e+25 9.86456 -4.66128 272.883 
1.17069e-05 1.31404e-05 2.69046e+25 6.07519 -8.02061 272.878 
1.36182e-05 1.31404e-05 2.69805e+25 0.610699 -14.2016 272.705 
1.55296e-05 1.31404e-05 2.70254e+25 -1.77012 -17.2369 272.783 
2.38917e-07 1.36182e-05 2.68386e+25 13.5665 1.53447 272.749 
2.15025e-06 1.36182e-05 2.6861e+25 14.727 0.939229 272.5 
4.06158e-06 1.36182e-05 2.68412e+25 15.1657 0.078642 272.722 
5.97292e-06 1.36182e-05 2.68411e+25 15.0416 -0.794485 272.789 
7.88425e-06 1.36182e-05 2.68542e+25 14.0955 -1.99688 272.859 
9.79558e-06 1.36182e-05 2.68829e+25 11.9069 -3.89333 272.842 
1.17069e-05 1.36182e-05 2.6903e+25 7.91584 -6.76831 272.975 
1.36182e-05 1.36182e-05 2.69715e+25 1.95986 -12.8381 272.986 
1.55296e-05 1.36182e-05 2.70649e+25 -1.83669 -17.3214 272.657 
2.38917e-07 1.40961e-05 2.68409e+25 15.847 1.24244 272.821 
2.15025e-06 1.40961e-05 2.68512e+25 16.8904 0.658336 272.512 
4.06158e-06 1.40961e-05 2.68508e+25 17.2779 0.076197 272.678 
5.97292e-06 1.40961e-05 2.68382e+25 17.1474 -0.700157 272.829 
7.88425e-06 1.40961e-05 2.6859e+25 16.259 -1.53109 272.724 
9.79558e-06 1.40961e-05 2.68837e+25 14.0284 -3.15656 272.845 
1.17069e-05 1.40961e-05 2.69206e+25 10.0188 -5.48554 272.95 
1.36182e-05 1.40961e-05 2.6971e+25 3.86435 -11.1885 273.075 
1.55296e-05 1.40961e-05 2.70855e+25 -1.6705 -17.2319 272.707 
2.38917e-07 1.45739e-05 2.6847e+25 18.2871 0.914482 272.649 
2.15025e-06 1.45739e-05 2.68602e+25 19.1859 0.488765 272.631 
4.06158e-06 1.45739e-05 2.6857e+25 19.6037 0.032756 272.578 
5.97292e-06 1.45739e-05 2.68495e+25 19.3751 -0.568225 272.756 
7.88425e-06 1.45739e-05 2.68801e+25 18.4787 -1.17777 272.585 
9.79558e-06 1.45739e-05 2.68914e+25 16.3023 -2.4438 272.827 
1.17069e-05 1.45739e-05 2.69159e+25 12.6582 -4.30299 273.029 
1.36182e-05 1.45739e-05 2.69853e+25 6.13571 -9.26248 273.058 
1.55296e-05 1.45739e-05 2.71122e+25 -1.35285 -16.6202 272.828 
2.38917e-07 1.50518e-05 2.68501e+25 20.9112 0.572331 272.613 
2.15025e-06 1.50518e-05 2.68479e+25 21.8957 0.39037 272.666 
4.06158e-06 1.50518e-05 2.68459e+25 21.9842 0.0734175 272.698 
5.97292e-06 1.50518e-05 2.68623e+25 21.9297 -0.548883 272.681 
7.88425e-06 1.50518e-05 2.68676e+25 20.9691 -0.84511 272.756 
9.79558e-06 1.50518e-05 2.6905e+25 18.9698 -1.79974 272.687 
1.17069e-05 1.50518e-05 2.69316e+25 15.5812 -3.07822 272.953 
1.36182e-05 1.50518e-05 2.6997e+25 9.04882 -7.05405 273.019 
1.55296e-05 1.50518e-05 2.71376e+25 -0.485649 -15.3432 272.898 
2.38917e-07 1.55296e-05 2.68698e+25 23.6761 0.315076 272.484 
2.15025e-06 1.55296e-05 2.68508e+25 24.5327 0.254166 272.646 
4.06158e-06 1.55296e-05 2.68513e+25 24.7124 -0.0300596 272.701 
5.97292e-06 1.55296e-05 2.68593e+25 24.484 -0.387081 272.679 
7.88425e-06 1.55296e-05 2.68629e+25 23.5391 -0.531919 272.829 
9.79558e-06 1.55296e-05 2.69036e+25 21.8583 -1.20604 272.673 
1.17069e-05 1.55296e-05 2.69298e+25 18.963 -2.09894 272.929 
1.36182e-05 1.55296e-05 2.70004e+25 12.9311 -4.83242 273.132 
1.55296e-05 1.55296e-05 2.7171e+25 1.38857 -13.1045 273.117 
2.38917e-07 1.60074e-05 2.68685e+25 26.726 0.0854255 272.556 
2.15025e-06 1.60074e-05 2.68564e+25 27.245 0.133725 272.554 
4.06158e-06 1.60074e-05 2.68556e+25 27.4227 -0.07429 272.618 
5.97292e-06 1.60074e-05 2.6871e+25 27.2725 -0.17947 272.513 
7.88425e-06 1.60074e-05 2.68654e+25 26.5326 -0.294987 272.767 
9.79558e-06 1.60074e-05 2.69052e+25 25.1286 -0.594989 272.716 
1.17069e-05 1.60074e-05 2.69454e+25 22.6331 -1.18994 272.776 
1.36182e-05 1.60074e-05 2.7007e+25 17.7081 -2.73625 273.138 
1.55296e-05 1.60074e-05 2.7187e+25 5.33032 -9.49957 273.301 
2.38917e-07 1.64852e-05 2.6851e+25 29.8405 0.074407 272.691 
2.15025e-06 1.64852e-05 2.685e+25 30.1298 0.0279397 272.702 
4.06158e-06 1.64852e-05 2.68604e+25 30.1947 -0.0521246 272.643 
5.97292e-06 1.64852e-05 2.68805e+25 30.0181 -0.036699 272.564 
7.88425e-06 1.64852e-05 2.68667e+25 29.6054 -0.197405 272.85 
9.79558e-06 1.64852e-05 2.68965e+25 28.6783 -0.192138 272.782 
1.17069e-05 1.64852e-05 2.69387e+25 26.9851 -0.445559 272.816 
1.36182e-05 1.64852e-05 2.70096e+25 23.4142 -1.13108 273.054 
1.55296e-05 1.64852e-05 2.71934e+25 12.9204 -4.92942 273.371 
2.38917e-07 1.69631e-05 2.68399e+25 32.7663 0.0538349 272.888 
2.15025e-06 1.69631e-05 2.68333e+25 32.8393 0.00358472 272.897 
4.06158e-06 1.69631e-05 2.68383e+25 32.8795 0.0368532 272.829 
5.97292e-06 1.69631e-05 2.68416e+25 32.8419 0.0169818 272.877 
7.88425e-06 1.69631e-05 2.68548e+25 32.6711 -0.0754933 272.916 
9.79558e-06 1.69631e-05 2.68805e+25 32.1901 -0.018464 272.882 
1.17069e-05 1.69631e-05 2.69258e+25 31.4164 -0.109881 272.915 
1.36182e-05 1.69631e-05 2.70042e+25 29.9226 -0.19477 273.023 
1.55296e-05 1.69631e-05 2.71646e+25 24.8592 -1.09434 273.428 
7.1675e-07 2.38917e-07 2.69062e+25 -7.50127 1.17363 272.374 
2.62808e-06 2.38917e-07 2.68996e+25 -8.11594 -1.01647 272.38 
4.53942e-06 2.38917e-07 2.68974e+25 -8.45546 -3.3391 272.444 
6.45075e-06 2.38917e-07 2.69089e+25 -8.26647 -5.86005 272.333 
8.36208e-06 2.38917e-07 2.69086e+25 -7.50424 -7.41165 272.372 
1.02734e-05 2.38917e-07 2.69072e+25 -6.00929 -8.59733 272.494 
1.21847e-05 2.38917e-07 2.69099e+25 -3.79035 -7.98303 272.436 
1.40961e-05 2.38917e-07 2.69141e+25 -1.76478 -5.97245 272.38 
1.60074e-05 2.38917e-07 2.68994e+25 -0.330363 -2.37076 272.486 
7.1675e-07 7.1675e-07 2.68885e+25 -7.4631 1.33898 272.438 
2.62808e-06 7.1675e-07 2.68824e+25 -8.16392 -0.834743 272.548 
4.53942e-06 7.1675e-07 2.68908e+25 -8.48207 -3.23368 272.453 
6.45075e-06 7.1675e-07 2.69036e+25 -8.2893 -5.87932 272.376 
8.36208e-06 7.1675e-07 2.68937e+25 -7.58231 -7.69593 272.551 
1.02734e-05 7.1675e-07 2.69076e+25 -6.22531 -9.03925 272.449 
1.21847e-05 7.1675e-07 2.69063e+25 -3.99065 -8.58603 272.472 
1.40961e-05 7.1675e-07 2.69173e+25 -1.79204 -6.49142 272.368 
1.60074e-05 7.1675e-07 2.69089e+25 -0.412327 -2.58388 272.483 
7.1675e-07 1.19458e-06 2.69051e+25 -7.42987 1.52112 272.331 
2.62808e-06 1.19458e-06 2.68955e+25 -8.0716 -0.740283 272.374 
4.53942e-06 1.19458e-06 2.68899e+25 -8.37291 -3.26557 272.413 
6.45075e-06 1.19458e-06 2.69022e+25 -8.413 -6.00731 272.338 
8.36208e-06 1.19458e-06 2.69066e+25 -7.7785 -8.03868 272.482 
1.02734e-05 1.19458e-06 2.69009e+25 -6.40489 -9.56867 272.417 
1.21847e-05 1.19458e-06 2.69064e+25 -4.35064 -9.23694 272.55 
1.40961e-05 1.19458e-06 2.69145e+25 -2.04017 -6.91266 272.379 
1.60074e-05 1.19458e-06 2.69043e+25 -0.361609 -2.83569 272.461 
7.1675e-07 1.67242e-06 2.68872e+25 -7.11618 1.78641 272.428 
2.62808e-06 1.67242e-06 2.68916e+25 -7.82647 -0.644779 272.393 
4.53942e-06 1.67242e-06 2.68836e+25 -8.30783 -3.22488 272.487 
6.45075e-06 1.67242e-06 2.68874e+25 -8.38433 -6.02455 272.461 
8.36208e-06 1.67242e-06 2.69038e+25 -7.92007 -8.28117 272.405 
1.02734e-05 1.67242e-06 2.69243e+25 -6.61568 -10.0172 272.308 
1.21847e-05 1.67242e-06 2.68874e+25 -4.48678 -9.76653 272.648 
1.40961e-05 1.67242e-06 2.69032e+25 -2.1603 -7.44928 272.504 
1.60074e-05 1.67242e-06 2.69058e+25 -0.33243 -3.09168 272.493 
7.1675e-07 2.15025e-06 2.68886e+25 -6.85017 1.87346 272.456 
2.62808e-06 2.15025e-06 2.68841e+25 -7.41069 -0.490417 272.357 
4.53942e-06 2.15025e-06 2.68814e+25 -8.03239 -3.11681 272.511 
6.45075e-06 2.15025e-06 2.68774e+25 -8.307 -6.0011 272.532 
8.36208e-06 2.15025e-06 2.68933e+25 -7.75856 -8.48576 272.435 
1.02734e-05 2.15025e-06 2.69134e+25 -6.63207 -10.4545 272.36 
1.21847e-05 2.15025e-06 2.69004e+25 -4.51323 -10.2779 272.646 
1.40961e-05 2.15025e-06 2.6907e+25 -2.21528 -8.06666 272.542 
1.60074e-05 2.15025e-06 2.69041e+25 -0.396001 -3.36997 272.573 
7.1675e-07 2.62808e-06 2.68921e+25 -6.50001 1.90991 272.299 
2.62808e-06 2.62808e-06 2.68838e+25 -6.99544 -0.292988 272.465 
4.53942e-06 2.62808e-06 2.68774e+25 -7.6215 -3.06943 272.589 
6.45075e-06 2.62808e-06 2.68818e+25 -7.98709 -6.01888 272.527 
8.36208e-06 2.62808e-06 2.68914e+25 -7.68969 -8.65116 272.452 
1.02734e-05 2.62808e-06 2.69058e+25 -6.79524 -10.8517 272.427 
1.21847e-05 2.62808e-06 2.68933e+25 -4.67254 -10.8783 272.63 
1.40961e-05 2.62808e-06 2.69048e+25 -2.38834 -8.71162 272.525 
1.60074e-05 2.62808e-06 2.69044e+25 -0.36182 -3.65026 272.546 
7.1675e-07 3.10592e-06 2.68816e+25 -5.86182 2.0952 272.351 
2.62808e-06 3.10592e-06 2.68895e+25 -6.57958 -0.129153 272.402 
4.53942e-06 3.10592e-06 2.68811e+25 -7.13951 -2.99456 272.456 
6.45075e-06 3.10592e-06 2.68768e+25 -7.69574 -6.05759 272.562 
8.36208e-06 3.10592e-06 2.68951e+25 -7.76204 -8.73888 272.351 
1.02734e-05 3.10592e-06 2.69132e+25 -6.83383 -11.181 272.343 
1.21847e-05 3.10592e-06 2.6905e+25 -4.88207 -11.4237 272.599 
1.40961e-05 3.10592e-06 2.69106e+25 -2.36015 -9.26237 272.499 
1.60074e-05 3.10592e-06 2.69093e+25 -0.307214 -3.98641 272.527 
7.1675e-07 3.58375e-06 2.68816e+25 -5.46516 2.3151 272.377 
2.62808e-06 3.58375e-06 2.68755e+25 -6.21127 -0.0519324 272.505 
4.53942e-06 3.58375e-06 2.6874e+25 -6.74653 -2.89484 272.463 
6.45075e-06 3.58375e-06 2.68858e+25 -7.45924 -5.99468 272.423 
8.36208e-06 3.58375e-06 2.68924e+25 -7.74424 -8.73461 272.427 
1.02734e-05 3.58375e-06 2.69038e+25 -6.76989 -11.5171 272.393 
1.21847e-05 3.58375e-06 2.69033e+25 -5.04394 -12.0455 272.466 
1.40961e-05 3.58375e-06 2.69186e+25 -2.34719 -9.84323 272.442 
1.60074e-05 3.58375e-06 2.69024e+25 -0.303974 -4.31864 272.548 
7.1675e-07 4.06158e-06 2.6879e+25 -5.12656 2.59517 272.414 
2.62808e-06 4.06158e-06 2.68777e+25 -5.7 0.192802 272.508 
4.53942e-06 4.06158e-06 2.68801e+25 -6.29115 -2.74332 272.44 
6.45075e-06 4.06158e-06 2.68755e+25 -7.04531 -5.8771 272.543 
8.36208e-06 4.06158e-06 2.68951e+25 -7.40878 -8.77696 272.4 
1.02734e-05 4.06158e-06 2.68949e+25 -6.80123 -11.8113 272.507 
1.21847e-05 4.06158e-06 2.69058e+25 -5.09005 -12.651 272.529 
1.40961e-05 4.06158e-06 2.69115e+25 -2.59915 -10.4644 272.483 
1.60074e-05 4.06158e-06 2.69062e+25 -0.416164 -4.62546 272.493 
7.1675e-07 4.53942e-06 2.68732e+25 -4.71032 2.74921 272.421 
2.62808e-06 4.53942e-06 2.68775e+25 -5.13244 0.380377 272.395 
4.53942e-06 4.53942e-06 2.68622e+25 -5.76124 -2.55653 272.503 
6.45075e-06 4.53942e-06 2.68762e+25 -6.57448 -5.59737 272.45 
8.36208e-06 4.53942e-06 2.68901e+25 -7.12698 -8.87239 272.472 
1.02734e-05 4.53942e-06 2.68937e+25 -6.55288 -12.0635 272.534 
1.21847e-05 4.53942e-06 2.69105e+25 -5.12703 -13.1789 272.433 
1.40961e-05 4.53942e-06 2.69017e+25 -2.91697 -11.1461 272.596 
1.60074e-05 4.53942e-06 2.69119e+25 -0.653766 -5.00589 272.452 
7.1675e-07 5.01725e-06 2.68707e+25 -4.15727 2.78609 272.406 
2.62808e-06 5.01725e-06 2.68616e+25 -4.5751 0.510229 272.525 
4.53942e-06 5.01725e-06 2.68618e+25 -5.28252 -2.35455 272.527 
6.45075e-06 5.01725e-06 2.68721e+25 -6.20601 -5.40052 272.431 
8.36208e-06 5.01725e-06 2.6884e+25 -6.6561 -8.92561 272.447 
1.02734e-05 5.01725e-06 2.6895e+25 -6.18538 -12.2296 272.551 
1.21847e-05 5.01725e-06 2.69179e+25 -5.10858 -13.5667 272.339 
1.40961e-05 5.01725e-06 2.68973e+25 -2.92775 -11.7417 272.622 
1.60074e-05 5.01725e-06 2.69097e+25 -0.732623 -5.3378 272.523 
7.1675e-07 5.49508e-06 2.68686e+25 -3.48968 2.80033 272.489 
2.62808e-06 5.49508e-06 2.68608e+25 -4.06474 0.640703 272.535 
4.53942e-06 5.49508e-06 2.68617e+25 -4.78635 -2.18547 272.553 
6.45075e-06 5.49508e-06 2.68614e+25 -5.60923 -5.31577 272.591 
8.36208e-06 5.49508e-06 2.68725e+25 -6.06456 -8.80221 272.597 
1.02734e-05 5.49508e-06 2.68971e+25 -6.08335 -12.4194 272.45 
1.21847e-05 5.49508e-06 2.69247e+25 -5.17108 -13.9599 272.37 
1.40961e-05 5.49508e-06 2.68968e+25 -2.84878 -12.2969 272.584 
1.60074e-05 5.49508e-06 2.69105e+25 -0.68049 -5.87548 272.474 
7.1675e-07 5.97292e-06 2.68838e+25 -2.86386 2.93433 272.319 
2.62808e-06 5.97292e-06 2.6851e+25 -3.47757 0.698173 272.58 
4.53942e-06 5.97292e-06 2.68407e+25 -4.11713 -1.92111 272.712 
6.45075e-06 5.97292e-06 2.68503e+25 -4.86761 -5.08635 272.694 
8.36208e-06 5.97292e-06 2.68705e+25 -5.63885 -8.62523 272.563 
1.02734e-05 5.97292e-06 2.68868e+25 -6.05699 -12.4906 272.545 
1.21847e-05 5.97292e-06 2.69021e+25 -5.19858 -14.4292 272.507 
1.40961e-05 5.97292e-06 2.69123e+25 -2.9391 -12.9236 272.503 
1.60074e-05 5.97292e-06 2.69127e+25 -0.641675 -6.33004 272.449 
7.1675e-07 6.45075e-06 2.68716e+25 -2.19934 3.0599 272.409 
2.62808e-06 6.45075e-06 2.68826e+25 -2.86607 0.83765 272.365 
4.53942e-06 6.45075e-06 2.68432e+25 -3.4562 -1.6418 272.745 
6.45075e-06 6.45075e-06 2.68514e+25 -4.22206 -4.86929 272.644 
8.36208e-06 6.45075e-06 2.68619e+25 -5.16957 -8.42872 272.649 
1.02734e-05 6.45075e-06 2.68763e+25 -5.85203 -12.4691 272.705 
1.21847e-05 6.45075e-06 2.68784e+25 -5.19895 -14.902 272.699 
1.40961e-05 6.45075e-06 2.69187e+25 -3.10839 -13.5493 272.467 
1.60074e-05 6.45075e-06 2.69164e+25 -0.69577 -6.74326 272.54 
7.1675e-07 6.92858e-06 2.68676e+25 -1.52066 3.23061 272.404 
2.62808e-06 6.92858e-06 2.68643e+25 -2.04086 1.01051 272.408 
4.53942e-06 6.92858e-06 2.68306e+25 -2.63169 -1.47469 272.765 
6.45075e-06 6.92858e-06 2.68581e+25 -3.53068 -4.53518 272.622 
8.36208e-06 6.92858e-06 2.68596e+25 -4.66681 -8.17805 272.682 
1.02734e-05 6.92858e-06 2.68808e+25 -5.50828 -12.413 272.619 
1.21847e-05 6.92858e-06 2.68951e+25 -5.09581 -15.2408 272.663 
1.40961e-05 6.92858e-06 2.69173e+25 -3.14775 -14.215 272.58 
1.60074e-05 6.92858e-06 2.692e+25 -0.650009 -7.24481 272.511 
7.1675e-07 7.40642e-06 2.68613e+25 -0.845174 3.3641 272.488 
2.62808e-06 7.40642e-06 2.6845e+25 -1.17569 1.14861 272.627 
4.53942e-06 7.40642e-06 2.68329e+25 -1.75516 -1.36595 272.698 
6.45075e-06 7.40642e-06 2.68516e+25 -2.65376 -4.34232 272.587 
8.36208e-06 7.40642e-06 2.68502e+25 -3.90825 -7.88955 272.736 
1.02734e-05 7.40642e-06 2.6881e+25 -4.97288 -12.2346 272.571 
1.21847e-05 7.40642e-06 2.69037e+25 -5.06018 -15.4854 272.631 
1.40961e-05 7.40642e-06 2.69177e+25 -3.27196 -14.8612 272.474 
1.60074e-05 7.40642e-06 2.69228e+25 -0.665309 -7.73877 272.555 
7.1675e-07 7.88425e-06 2.68551e+25 -0.135344 3.37941 272.481 
2.62808e-06 7.88425e-06 2.68446e+25 -0.237839 1.24154 272.55 
4.53942e-06 7.88425e-06 2.6831e+25 -0.955032 -1.14535 272.724 
6.45075e-06 7.88425e-06 2.68548e+25 -1.91571 -4.03788 272.585 
8.36208e-06 7.88425e-06 2.68391e+25 -3.18591 -7.60771 272.783 
1.02734e-05 7.88425e-06 2.68726e+25 -4.54514 -12.0148 272.659 
1.21847e-05 7.88425e-06 2.68984e+25 -4.9019 -15.6191 272.62 
1.40961e-05 7.88425e-06 2.69286e+25 -3.41175 -15.5076 272.47 
1.60074e-05 7.88425e-06 2.69026e+25 -0.853855 -8.29369 272.714 
7.1675e-07 8.36208e-06 2.68371e+25 0.772171 3.41086 272.72 
2.62808e-06 8.36208e-06 2.68439e+25 0.605313 1.28656 272.616 
4.53942e-06 8.36208e-06 2.68293e+25 0.0789981 -0.865116 272.814 
6.45075e-06 8.36208e-06 2.68484e+25 -1.06774 -3.69064 272.61 
8.36208e-06 8.36208e-06 2.68566e+25 -2.40797 -7.26008 272.711 
1.02734e-05 8.36208e-06 2.68719e+25 -3.89275 -11.7859 272.723 
1.21847e-05 8.36208e-06 2.69023e+25 -4.50252 -15.5957 272.537 
1.40961e-05 8.36208e-06 2.693e+25 -3.38883 -16.0953 272.461 
1.60074e-05 8.36208e-06 2.69062e+25 -0.803624 -8.82042 272.773 
7.1675e-07 8.83992e-06 2.68359e+25 1.47834 3.31768 272.665 
2.62808e-06 8.83992e-06 2.68437e+25 1.51504 1.3902 272.546 
4.53942e-06 8.83992e-06 2.6845e+25 1.02699 -0.633286 272.658 
6.45075e-06 8.83992e-06 2.68486e+25 -0.0438773 -3.35379 272.579 
8.36208e-06 8.83992e-06 2.68416e+25 -1.39361 -6.99527 272.711 
1.02734e-05 8.83992e-06 2.68765e+25 -3.01902 -11.4356 272.729 
1.21847e-05 8.83992e-06 2.69156e+25 -4.07739 -15.4808 272.53 
1.40961e-05 8.83992e-06 2.69209e+25 -3.36313 -16.6262 272.572 
1.60074e-05 8.83992e-06 2.6923e+25 -0.814449 -9.30665 272.67 
7.1675e-07 9.31775e-06 2.68496e+25 2.19555 3.11768 272.572 
2.62808e-06 9.31775e-06 2.68384e+25 2.43057 1.47851 272.714 
4.53942e-06 9.31775e-06 2.68479e+25 2.00691 -0.539623 272.528 
6.45075e-06 9.31775e-06 2.68525e+25 1.03872 -3.10399 272.704 
8.36208e-06 9.31775e-06 2.68573e+25 -0.348875 -6.62286 272.653 
1.02734e-05 9.31775e-06 2.68756e+25 -2.04305 -10.9263 272.701 
1.21847e-05 9.31775e-06 2.69208e+25 -3.68819 -15.3795 272.509 
1.40961e-05 9.31775e-06 2.69178e+25 -3.23348 -17.1512 272.723 
1.60074e-05 9.31775e-06 2.69223e+25 -0.90941 -9.80767 272.681 
7.1675e-07 9.79558e-06 2.6853e+25 3.0812 2.97336 272.604 
2.62808e-06 9.79558e-06 2.6836e+25 3.47478 1.45829 272.666 
4.53942e-06 9.79558e-06 2.68483e+25 2.98719 -0.369141 272.601 
6.45075e-06 9.79558e-06 2.68567e+25 2.24366 -2.88661 272.569 
8.36208e-06 9.79558e-06 2.68513e+25 0.818696 -6.23247 272.723 
1.02734e-05 9.79558e-06 2.68712e+25 -1.16595 -10.4363 272.769 
1.21847e-05 9.79558e-06 2.68954e+25 -3.062 -15.1452 272.706 
1.40961e-05 9.79558e-06 2.69424e+25 -3.0686 -17.5729 272.609 
1.60074e-05 9.79558e-06 2.69434e+25 -0.994342 -10.4662 272.588 
7.1675e-07 1.02734e-05 2.68425e+25 3.94632 2.81642 272.686 
2.62808e-06 1.02734e-05 2.684e+25 4.4393 1.39561 272.659 
4.53942e-06 1.02734e-05 2.68326e+25 4.26269 -0.13227 272.679 
6.45075e-06 1.02734e-05 2.68472e+25 3.42031 -2.65898 272.622 
8.36208e-06 1.02734e-05 2.68367e+25 2.14984 -5.72925 272.889 
1.02734e-05 1.02734e-05 2.68633e+25 -0.216346 -9.85205 272.883 
1.21847e-05 1.02734e-05 2.69181e+25 -2.39787 -14.7801 272.594 
1.40961e-05 1.02734e-05 2.69327e+25 -2.93117 -17.8006 272.609 
1.60074e-05 1.02734e-05 2.69512e+25 -1.00376 -11.0778 272.61 
7.1675e-07 1.07512e-05 2.68495e+25 5.00895 2.65069 272.661 
2.62808e-06 1.07512e-05 2.6844e+25 5.4362 1.4212 272.642 
4.53942e-06 1.07512e-05 2.68284e+25 5.58076 -0.0185831 272.778 
6.45075e-06 1.07512e-05 2.68498e+25 4.78766 -2.45543 272.681 
8.36208e-06 1.07512e-05 2.6861e+25 3.4705 -5.22881 272.737 
1.02734e-05 1.07512e-05 2.68533e+25 1.12887 -9.15236 273.012 
1.21847e-05 1.07512e-05 2.69117e+25 -1.57758 -14.3139 272.723 
1.40961e-05 1.07512e-05 2.69434e+25 -2.79204 -17.9352 272.648 
1.60074e-05 1.07512e-05 2.69568e+25 -1.00159 -11.7528 272.617 
7.1675e-07 1.12291e-05 2.68449e+25 6.06232 2.48327 272.65 
2.62808e-06 1.12291e-05 2.68339e+25 6.63449 1.36145 272.784 
4.53942e-06 1.12291e-05 2.683e+25 6.81136 0.110916 272.792 
6.45075e-06 1.12291e-05 2.68566e+25 6.27286 -2.18629 272.656 
8.36208e-06 1.12291e-05 2.68515e+25 4.94078 -4.72133 272.775 
1.02734e-05 1.12291e-05 2.68573e+25 2.52584 -8.41191 272.968 
1.21847e-05 1.12291e-05 2.69044e+25 -0.675465 -13.6257 272.769 
1.40961e-05 1.12291e-05 2.69526e+25 -2.76791 -17.9137 272.71 
1.60074e-05 1.12291e-05 2.69763e+25 -1.07732 -12.3776 272.597 
7.1675e-07 1.17069e-05 2.68383e+25 7.4915 2.29634 272.655 
2.62808e-06 1.17069e-05 2.68399e+25 8.03878 1.20574 272.66 
4.53942e-06 1.17069e-05 2.68422e+25 8.24722 0.150045 272.624 
6.45075e-06 1.17069e-05 2.68581e+25 7.72323 -1.89056 272.568 
8.36208e-06 1.17069e-05 2.68615e+25 6.46767 -4.25209 272.736 
1.02734e-05 1.17069e-05 2.68695e+25 4.03792 -7.74651 272.992 
1.21847e-05 1.17069e-05 2.69243e+25 0.244305 -12.7754 272.736 
1.40961e-05 1.17069e-05 2.69583e+25 -2.27014 -17.7291 272.671 
1.60074e-05 1.17069e-05 2.69898e+25 -1.07341 -13.0626 272.547 
7.1675e-07 1.21847e-05 2.68483e+25 8.99015 2.10787 272.63 
2.62808e-06 1.21847e-05 2.68461e+25 9.39033 1.06711 272.582 
4.53942e-06 1.21847e-05 2.68539e+25 9.78118 0.12507 272.521 
6.45075e-06 1.21847e-05 2.68532e+25 9.35746 -1.67692 272.692 
8.36208e-06 1.21847e-05 2.68765e+25 8.02711 -3.85805 272.616 
1.02734e-05 1.21847e-05 2.68484e+25 5.5807 -6.99361 273.161 
1.21847e-05 1.21847e-05 2.69239e+25 1.44465 -11.8579 272.778 
1.40961e-05 1.21847e-05 2.69569e+25 -1.83608 -17.3188 272.824 
1.60074e-05 1.21847e-05 2.70056e+25 -1.10467 -13.7005 272.565 
7.1675e-07 1.26626e-05 2.68536e+25 10.4075 1.94033 272.596 
2.62808e-06 1.26626e-05 2.68559e+25 10.9382 0.916753 272.584 
4.53942e-06 1.26626e-05 2.68514e+25 11.5354 0.0277409 272.606 
6.45075e-06 1.26626e-05 2.68332e+25 11.0621 -1.4283 272.8 
8.36208e-06 1.26626e-05 2.6873e+25 9.72568 -3.42436 272.585 
1.02734e-05 1.26626e-05 2.68649e+25 7.24005 -6.07038 272.96 
1.21847e-05 1.26626e-05 2.69251e+25 3.20989 -10.6123 272.83 
1.40961e-05 1.26626e-05 2.69898e+25 -1.24425 -16.8183 272.649 
1.60074e-05 1.26626e-05 2.70142e+25 -1.22379 -14.3189 272.694 
7.1675e-07 1.31404e-05 2.68402e+25 11.9747 1.71131 272.754 
2.62808e-06 1.31404e-05 2.68528e+25 12.8434 0.77269 272.599 
4.53942e-06 1.31404e-05 2.68589e+25 13.2693 -0.0260946 272.538 
6.45075e-06 1.31404e-05 2.68351e+25 13.0437 -1.18601 272.817 
8.36208e-06 1.31404e-05 2.68704e+25 11.5281 -2.94721 272.7 
1.02734e-05 1.31404e-05 2.68837e+25 9.06286 -5.19213 272.905 
1.21847e-05 1.31404e-05 2.69175e+25 4.7796 -9.21979 272.882 
1.40961e-05 1.31404e-05 2.69884e+25 -0.56271 -15.9526 272.776 
1.60074e-05 1.31404e-05 2.70435e+25 -1.35908 -14.8743 272.602 
7.1675e-07 1.36182e-05 2.6833e+25 13.851 1.4079 272.816 
2.62808e-06 1.36182e-05 2.6858e+25 14.9305 0.575606 272.506 
4.53942e-06 1.36182e-05 2.68466e+25 15.1228 0.0189387 272.679 
6.45075e-06 1.36182e-05 2.68429e+25 15.0004 -1.02529 272.82 
8.36208e-06 1.36182e-05 2.68681e+25 13.576 -2.41573 272.815 
1.02734e-05 1.36182e-05 2.68945e+25 11.1402 -4.38561 272.775 
1.21847e-05 1.36182e-05 2.69443e+25 6.55339 -7.87251 272.843 
1.40961e-05 1.36182e-05 2.70012e+25 0.537735 -14.7204 272.873 
1.60074e-05 1.36182e-05 2.70853e+25 -1.51181 -15.4569 272.536 
7.1675e-07 1.40961e-05 2.68262e+25 16.1491 1.11789 272.829 
2.62808e-06 1.40961e-05 2.68566e+25 17.0544 0.510534 272.528 
4.53942e-06 1.40961e-05 2.68546e+25 17.2814 0.072295 272.644 
6.45075e-06 1.40961e-05 2.68428e+25 17.0143 -0.931684 272.859 
8.36208e-06 1.40961e-05 2.686e+25 15.8238 -1.89471 272.805 
1.02734e-05 1.40961e-05 2.68924e+25 13.2377 -3.63664 272.885 
1.21847e-05 1.40961e-05 2.69227e+25 8.78098 -6.52273 272.968 
1.40961e-05 1.40961e-05 2.70025e+25 2.06979 -13.1704 272.921 
1.60074e-05 1.40961e-05 2.71088e+25 -1.57774 -15.9423 272.588 
7.1675e-07 1.45739e-05 2.68505e+25 18.5325 0.874266 272.658 
2.62808e-06 1.45739e-05 2.68438e+25 19.339 0.369038 272.609 
4.53942e-06 1.45739e-05 2.686e+25 19.6113 0.0755306 272.629 
6.45075e-06 1.45739e-05 2.68447e+25 19.2518 -0.80323 272.824 
8.36208e-06 1.45739e-05 2.68656e+25 18.1228 -1.46007 272.719 
1.02734e-05 1.45739e-05 2.69027e+25 15.5742 -2.74828 272.812 
1.21847e-05 1.45739e-05 2.6917e+25 11.3488 -5.10458 273.154 
1.40961e-05 1.45739e-05 2.70252e+25 3.96732 -11.1545 272.963 
1.60074e-05 1.45739e-05 2.71315e+25 -1.6931 -16.3032 272.723 
7.1675e-07 1.50518e-05 2.6849e+25 21.2188 0.608129 272.738 
2.62808e-06 1.50518e-05 2.68575e+25 21.9826 0.218006 272.641 
4.53942e-06 1.50518e-05 2.68481e+25 22.0313 0.0241341 272.692 
6.45075e-06 1.50518e-05 2.68511e+25 21.7909 -0.556579 272.77 
8.36208e-06 1.50518e-05 2.6882e+25 20.6018 -1.02404 272.701 
1.02734e-05 1.50518e-05 2.69218e+25 18.2553 -1.96521 272.739 
1.21847e-05 1.50518e-05 2.69197e+25 14.2853 -3.74178 273.15 
1.40961e-05 1.50518e-05 2.704e+25 6.62965 -8.78325 273.024 
1.60074e-05 1.50518e-05 2.71848e+25 -1.58903 -16.2027 272.854 
7.1675e-07 1.55296e-05 2.6864e+25 23.9387 0.294001 272.572 
2.62808e-06 1.55296e-05 2.68442e+25 24.6275 0.211764 272.674 
4.53942e-06 1.55296e-05 2.68592e+25 24.7614 0.0357125 272.651 
6.45075e-06 1.55296e-05 2.68517e+25 24.3603 -0.414505 272.753 
8.36208e-06 1.55296e-05 2.68739e+25 23.2958 -0.721702 272.804 
1.02734e-05 1.55296e-05 2.69219e+25 21.2342 -1.29422 272.619 
1.21847e-05 1.55296e-05 2.6939e+25 17.8847 -2.42765 272.998 
1.40961e-05 1.55296e-05 2.70404e+25 10.4942 -6.17725 273.073 
1.60074e-05 1.55296e-05 2.72187e+25 -0.953818 -15.1249 272.979 
7.1675e-07 1.60074e-05 2.68698e+25 26.8225 0.184073 272.579 
2.62808e-06 1.60074e-05 2.6847e+25 27.316 0.140426 272.651 
4.53942e-06 1.60074e-05 2.68634e+25 27.4891 -0.0167367 272.654 
6.45075e-06 1.60074e-05 2.6865e+25 27.1061 -0.299525 272.659 
8.36208e-06 1.60074e-05 2.68623e+25 26.2855 -0.472007 272.834 
1.02734e-05 1.60074e-05 2.69197e+25 24.6305 -0.738446 272.595 
1.21847e-05 1.60074e-05 2.69565e+25 21.7989 -1.41744 272.868 
1.40961e-05 1.60074e-05 2.70378e+25 15.578 -3.625 273.096 
1.60074e-05 1.60074e-05 2.72727e+25 1.23882 -12.5409 273.186 
7.1675e-07 1.64852e-05 2.68596e+25 29.8637 0.0224324 272.711 
2.62808e-06 1.64852e-05 2.68431e+25 30.2218 0.0869563 272.716 
4.53942e-06 1.64852e-05 2.68604e+25 30.1661 -0.0808431 272.587 
6.45075e-06 1.64852e-05 2.68731e+25 29.9511 -0.164572 272.636 
8.36208e-06 1.64852e-05 2.687e+25 29.4594 -0.176145 272.798 
1.02734e-05 1.64852e-05 2.69074e+25 28.3443 -0.367341 272.753 
1.21847e-05 1.64852e-05 2.69465e+25 26.3268 -0.613513 272.9 
1.40961e-05 1.64852e-05 2.70344e+25 21.8606 -1.53756 273.094 
1.60074e-05 1.64852e-05 2.73009e+25 7.62282 -7.76442 273.542 
7.1675e-07 1.69631e-05 2.68432e+25 32.8025 0.0143873 272.842 
2.62808e-06 1.69631e-05 2.68227e+25 32.8643 -0.00274296 272.999 
4.53942e-06 1.69631e-05 2.68338e+25 32.8142 -0.0472744 272.883 
6.45075e-06 1.69631e-05 2.68521e+25 32.7438 -0.025258 272.768 
8.36208e-06 1.69631e-05 2.68664e+25 32.5105 -0.0523106 272.943 
1.02734e-05 1.69631e-05 2.68894e+25 32.0662 -0.0753867 272.89 
1.21847e-05 1.69631e-05 2.69253e+25 31.1919 -0.0751283 273.085 
1.40961e-05 1.69631e-05 2.70357e+25 29.2638 -0.306328 273.006 
1.60074e-05 1.69631e-05 2.72803e+25 21.1535 -2.02139 273.568 
1.19458e-06 2.38917e-07 2.68933e+25 -7.66599 0.635283 272.4 
3.10592e-06 2.38917e-07 2.68934e+25 -8.25452 -1.47599 272.424 
5.01725e-06 2.38917e-07 2.68947e+25 -8.50458 -4.20061 272.409 
6.92858e-06 2.38917e-07 2.692e+25 -8.15954 -6.28642 272.232 
8.83992e-06 2.38917e-07 2.6897e+25 -7.18773 -7.88204 272.517 
1.07512e-05 2.38917e-07 2.68991e+25 -5.51809 -8.59838 272.57 
1.26626e-05 2.38917e-07 2.69214e+25 -3.23104 -7.57773 272.402 
1.45739e-05 2.38917e-07 2.69133e+25 -1.30733 -5.29168 272.35 
1.64852e-05 2.38917e-07 2.68978e+25 -0.121726 -1.36787 272.61 
1.19458e-06 7.1675e-07 2.68855e+25 -7.62454 0.818597 272.436 
3.10592e-06 7.1675e-07 2.68839e+25 -8.258 -1.45562 272.545 
5.01725e-06 7.1675e-07 2.68991e+25 -8.50605 -4.22893 272.343 
6.92858e-06 7.1675e-07 2.69204e+25 -8.16095 -6.43901 272.204 
8.83992e-06 7.1675e-07 2.68887e+25 -7.31262 -8.19862 272.476 
1.07512e-05 7.1675e-07 2.69007e+25 -5.74454 -9.09709 272.627 
1.26626e-05 7.1675e-07 2.6907e+25 -3.4016 -8.11857 272.517 
1.45739e-05 7.1675e-07 2.69121e+25 -1.44463 -5.59136 272.382 
1.64852e-05 7.1675e-07 2.68911e+25 -0.199695 -1.59415 272.63 
1.19458e-06 1.19458e-06 2.68843e+25 -7.68087 0.962093 272.447 
3.10592e-06 1.19458e-06 2.68693e+25 -8.13344 -1.37599 272.49 
5.01725e-06 1.19458e-06 2.68975e+25 -8.35218 -4.14386 272.451 
6.92858e-06 1.19458e-06 2.69098e+25 -8.34339 -6.52292 272.349 
8.83992e-06 1.19458e-06 2.69048e+25 -7.52671 -8.38876 272.468 
1.07512e-05 1.19458e-06 2.69036e+25 -5.89971 -9.59031 272.528 
1.26626e-05 1.19458e-06 2.69086e+25 -3.67753 -8.71543 272.506 
1.45739e-05 1.19458e-06 2.69021e+25 -1.61307 -5.97952 272.567 
1.64852e-05 1.19458e-06 2.68877e+25 -0.191549 -1.7432 272.656 
1.19458e-06 1.67242e-06 2.68931e+25 -7.31029 1.15676 272.363 
3.10592e-06 1.67242e-06 2.68904e+25 -8.00838 -1.21493 272.436 
5.01725e-06 1.67242e-06 2.68816e+25 -8.39039 -4.10684 272.586 
6.92858e-06 1.67242e-06 2.68901e+25 -8.40242 -6.53815 272.489 
8.83992e-06 1.67242e-06 2.69052e+25 -7.63404 -8.69281 272.363 
1.07512e-05 1.67242e-06 2.69016e+25 -6.12859 -10.0982 272.464 
1.26626e-05 1.67242e-06 2.68949e+25 -3.96102 -9.36796 272.604 
1.45739e-05 1.67242e-06 2.69006e+25 -1.58779 -6.4481 272.521 
1.64852e-05 1.67242e-06 2.68865e+25 -0.10776 -1.90369 272.623 
1.19458e-06 2.15025e-06 2.68957e+25 -6.95243 1.36593 272.295 
3.10592e-06 2.15025e-06 2.68749e+25 -7.62113 -1.0328 272.495 
5.01725e-06 2.15025e-06 2.68646e+25 -8.14365 -4.06774 272.706 
6.92858e-06 2.15025e-06 2.68832e+25 -8.241 -6.6144 272.488 
8.83992e-06 2.15025e-06 2.68892e+25 -7.55169 -8.99835 272.502 
1.07512e-05 2.15025e-06 2.69109e+25 -6.19158 -10.6015 272.448 
1.26626e-05 2.15025e-06 2.69085e+25 -3.98853 -9.90433 272.58 
1.45739e-05 2.15025e-06 2.69054e+25 -1.60909 -6.99913 272.594 
1.64852e-05 2.15025e-06 2.68979e+25 -0.13332 -2.09191 272.646 
1.19458e-06 2.62808e-06 2.69004e+25 -6.55744 1.50358 272.308 
3.10592e-06 2.62808e-06 2.68744e+25 -7.12777 -0.921659 272.418 
5.01725e-06 2.62808e-06 2.68713e+25 -7.74227 -3.93465 272.607 
6.92858e-06 2.62808e-06 2.6884e+25 -7.89771 -6.75339 272.525 
8.83992e-06 2.62808e-06 2.68842e+25 -7.55501 -9.16346 272.571 
1.07512e-05 2.62808e-06 2.69056e+25 -6.36988 -11.0699 272.396 
1.26626e-05 2.62808e-06 2.68969e+25 -4.03282 -10.4433 272.609 
1.45739e-05 2.62808e-06 2.6907e+25 -1.77271 -7.61208 272.498 
1.64852e-05 2.62808e-06 2.68922e+25 -0.157472 -2.25379 272.579 
1.19458e-06 3.10592e-06 2.689e+25 -6.00319 1.5658 272.339 
3.10592e-06 3.10592e-06 2.68834e+25 -6.754 -0.769152 272.437 
5.01725e-06 3.10592e-06 2.6865e+25 -7.22383 -3.82056 272.506 
6.92858e-06 3.10592e-06 2.68716e+25 -7.74195 -6.76481 272.566 
8.83992e-06 3.10592e-06 2.68955e+25 -7.64809 -9.33909 272.375 
1.07512e-05 3.10592e-06 2.69206e+25 -6.38882 -11.6501 272.307 
1.26626e-05 3.10592e-06 2.69045e+25 -4.29231 -11.0702 272.542 
1.45739e-05 3.10592e-06 2.69109e+25 -1.80956 -8.21534 272.475 
1.64852e-05 3.10592e-06 2.68914e+25 -0.0579062 -2.38579 272.619 
1.19458e-06 3.58375e-06 2.6891e+25 -5.8501 1.86307 272.324 
3.10592e-06 3.58375e-06 2.68869e+25 -6.34624 -0.546472 272.332 
5.01725e-06 3.58375e-06 2.68683e+25 -6.82813 -3.67008 272.523 
6.92858e-06 3.58375e-06 2.68707e+25 -7.46859 -6.71664 272.56 
8.83992e-06 3.58375e-06 2.69017e+25 -7.59905 -9.61566 272.403 
1.07512e-05 3.58375e-06 2.69115e+25 -6.48624 -12.0549 272.363 
1.26626e-05 3.58375e-06 2.6913e+25 -4.40804 -11.6695 272.428 
1.45739e-05 3.58375e-06 2.69003e+25 -1.80576 -8.80135 272.578 
1.64852e-05 3.58375e-06 2.68991e+25 -0.0806368 -2.51389 272.562 
1.19458e-06 4.06158e-06 2.68792e+25 -5.31558 2.07964 272.406 
3.10592e-06 4.06158e-06 2.68739e+25 -5.99167 -0.406265 272.447 
5.01725e-06 4.06158e-06 2.68752e+25 -6.51264 -3.52314 272.47 
6.92858e-06 4.06158e-06 2.68828e+25 -7.24854 -6.6578 272.463 
8.83992e-06 4.06158e-06 2.6887e+25 -7.29204 -9.76773 272.465 
1.07512e-05 4.06158e-06 2.69115e+25 -6.43177 -12.3927 272.353 
1.26626e-05 4.06158e-06 2.69016e+25 -4.517 -12.2899 272.546 
1.45739e-05 4.06158e-06 2.69009e+25 -1.93052 -9.40261 272.608 
1.64852e-05 4.06158e-06 2.68928e+25 -0.127745 -2.69549 272.572 
1.19458e-06 4.53942e-06 2.68751e+25 -4.82061 2.22502 272.402 
3.10592e-06 4.53942e-06 2.68772e+25 -5.26805 -0.163634 272.402 
5.01725e-06 4.53942e-06 2.68632e+25 -5.91258 -3.30831 272.529 
6.92858e-06 4.53942e-06 2.68857e+25 -6.8757 -6.45811 272.376 
8.83992e-06 4.53942e-06 2.68833e+25 -7.04072 -9.8393 272.501 
1.07512e-05 4.53942e-06 2.69048e+25 -6.3597 -12.7031 272.477 
1.26626e-05 4.53942e-06 2.69051e+25 -4.61374 -12.8824 272.526 
1.45739e-05 4.53942e-06 2.69083e+25 -2.25172 -10.0573 272.574 
1.64852e-05 4.53942e-06 2.69083e+25 -0.296472 -2.9361 272.449 
1.19458e-06 5.01725e-06 2.68781e+25 -4.16066 2.29668 272.465 
3.10592e-06 5.01725e-06 2.68766e+25 -4.67548 -0.0421455 272.429 
5.01725e-06 5.01725e-06 2.68657e+25 -5.5189 -3.13171 272.523 
6.92858e-06 5.01725e-06 2.68763e+25 -6.29223 -6.2414 272.498 
8.83992e-06 5.01725e-06 2.68783e+25 -6.67514 -9.88942 272.583 
1.07512e-05 5.01725e-06 2.69054e+25 -6.0364 -12.839 272.379 
1.26626e-05 5.01725e-06 2.69102e+25 -4.66369 -13.4231 272.483 
1.45739e-05 5.01725e-06 2.68929e+25 -2.28797 -10.7118 272.685 
1.64852e-05 5.01725e-06 2.69076e+25 -0.363863 -3.32107 272.506 
1.19458e-06 5.49508e-06 2.68697e+25 -3.55492 2.36462 272.459 
3.10592e-06 5.49508e-06 2.68602e+25 -4.15446 0.0451185 272.494 
5.01725e-06 5.49508e-06 2.6857e+25 -4.98903 -2.89463 272.597 
6.92858e-06 5.49508e-06 2.68695e+25 -5.72914 -6.11829 272.577 
8.83992e-06 5.49508e-06 2.68665e+25 -6.22829 -9.81629 272.639 
1.07512e-05 5.49508e-06 2.68931e+25 -5.91629 -13.0093 272.528 
1.26626e-05 5.49508e-06 2.6905e+25 -4.72381 -13.9397 272.506 
1.45739e-05 5.49508e-06 2.68942e+25 -2.32833 -11.3282 272.654 
1.64852e-05 5.49508e-06 2.69002e+25 -0.27059 -3.661 272.607 
1.19458e-06 5.97292e-06 2.68822e+25 -3.00065 2.4998 272.289 
3.10592e-06 5.97292e-06 2.68517e+25 -3.58729 0.137316 272.579 
5.01725e-06 5.97292e-06 2.6859e+25 -4.40476 -2.66991 272.512 
6.92858e-06 5.97292e-06 2.68629e+25 -5.15819 -5.90366 272.615 
8.83992e-06 5.97292e-06 2.68636e+25 -5.80068 -9.67943 272.627 
1.07512e-05 5.97292e-06 2.68751e+25 -5.97043 -13.1559 272.644 
1.26626e-05 5.97292e-06 2.68864e+25 -4.71034 -14.4343 272.7 
1.45739e-05 5.97292e-06 2.69052e+25 -2.31035 -11.8603 272.529 
1.64852e-05 5.97292e-06 2.69022e+25 -0.310829 -3.8982 272.615 
1.19458e-06 6.45075e-06 2.68833e+25 -2.33577 2.58424 272.285 
3.10592e-06 6.45075e-06 2.68551e+25 -2.96451 0.245646 272.515 
5.01725e-06 6.45075e-06 2.68457e+25 -3.68592 -2.44426 272.702 
6.92858e-06 6.45075e-06 2.686e+25 -4.46688 -5.54433 272.607 
8.83992e-06 6.45075e-06 2.68666e+25 -5.3694 -9.53676 272.602 
1.07512e-05 6.45075e-06 2.68759e+25 -5.79148 -13.3033 272.721 
1.26626e-05 6.45075e-06 2.68833e+25 -4.72374 -14.9529 272.699 
1.45739e-05 6.45075e-06 2.69049e+25 -2.39731 -12.4301 272.587 
1.64852e-05 6.45075e-06 2.6899e+25 -0.276004 -4.21102 272.684 
1.19458e-06 6.92858e-06 2.68701e+25 -1.67801 2.74224 272.368 
3.10592e-06 6.92858e-06 2.68547e+25 -2.26175 0.426081 272.592 
5.01725e-06 6.92858e-06 2.68368e+25 -2.80947 -2.2422 272.701 
6.92858e-06 6.92858e-06 2.68603e+25 -3.80108 -5.34638 272.543 
8.83992e-06 6.92858e-06 2.68568e+25 -4.92866 -9.32295 272.696 
1.07512e-05 6.92858e-06 2.68781e+25 -5.58213 -13.3925 272.647 
1.26626e-05 6.92858e-06 2.69084e+25 -4.71704 -15.4486 272.536 
1.45739e-05 6.92858e-06 2.69183e+25 -2.46471 -13.1907 272.536 
1.64852e-05 6.92858e-06 2.69037e+25 -0.249371 -4.53232 272.715 
1.19458e-06 7.40642e-06 2.68699e+25 -0.881108 2.86379 272.385 
3.10592e-06 7.40642e-06 2.68568e+25 -1.29576 0.577888 272.516 
5.01725e-06 7.40642e-06 2.68259e+25 -1.95773 -1.97185 272.815 
6.92858e-06 7.40642e-06 2.68537e+25 -2.85593 -5.10853 272.632 
8.83992e-06 7.40642e-06 2.68521e+25 -4.22759 -9.0811 272.74 
1.07512e-05 7.40642e-06 2.68841e+25 -5.22552 -13.2009 272.619 
1.26626e-05 7.40642e-06 2.69051e+25 -4.84413 -15.8178 272.597 
1.45739e-05 7.40642e-06 2.69327e+25 -2.65527 -13.9043 272.438 
1.64852e-05 7.40642e-06 2.68924e+25 -0.182722 -4.87761 272.795 
1.19458e-06 7.88425e-06 2.68588e+25 -0.124022 2.87727 272.471 
3.10592e-06 7.88425e-06 2.68463e+25 -0.326898 0.654871 272.58 
5.01725e-06 7.88425e-06 2.68317e+25 -1.14834 -1.74552 272.842 
6.92858e-06 7.88425e-06 2.68588e+25 -2.28587 -4.84555 272.609 
8.83992e-06 7.88425e-06 2.68548e+25 -3.54076 -8.64977 272.717 
1.07512e-05 7.88425e-06 2.68759e+25 -4.69292 -13.0521 272.697 
1.26626e-05 7.88425e-06 2.69045e+25 -4.73296 -16.0514 272.576 
1.45739e-05 7.88425e-06 2.6942e+25 -2.72197 -14.5239 272.362 
1.64852e-05 7.88425e-06 2.68927e+25 -0.40886 -5.27106 272.803 
1.19458e-06 8.36208e-06 2.68393e+25 0.72462 2.86938 272.648 
3.10592e-06 8.36208e-06 2.68452e+25 0.58516 0.742275 272.613 
5.01725e-06 8.36208e-06 2.68292e+25 -0.206244 -1.59124 272.815 
6.92858e-06 8.36208e-06 2.68684e+25 -1.41678 -4.47205 272.502 
8.83992e-06 8.36208e-06 2.68612e+25 -2.72661 -8.33325 272.718 
1.07512e-05 8.36208e-06 2.68826e+25 -4.12077 -12.8895 272.677 
1.26626e-05 8.36208e-06 2.69137e+25 -4.46668 -16.2192 272.595 
1.45739e-05 8.36208e-06 2.69412e+25 -2.77842 -15.1818 272.354 
1.64852e-05 8.36208e-06 2.68919e+25 -0.290964 -5.69953 272.82 
1.19458e-06 8.83992e-06 2.68485e+25 1.59453 2.82313 272.603 
3.10592e-06 8.83992e-06 2.68445e+25 1.37864 0.810067 272.584 
5.01725e-06 8.83992e-06 2.68458e+25 0.880942 -1.34139 272.644 
6.92858e-06 8.83992e-06 2.68607e+25 -0.387491 -4.11512 272.572 
8.83992e-06 8.83992e-06 2.68476e+25 -1.75717 -7.9376 272.791 
1.07512e-05 8.83992e-06 2.68764e+25 -3.46116 -12.581 272.784 
1.26626e-05 8.83992e-06 2.69129e+25 -4.15124 -16.3031 272.493 
1.45739e-05 8.83992e-06 2.6935e+25 -2.82382 -15.8428 272.492 
1.64852e-05 8.83992e-06 2.69016e+25 -0.47151 -6.04988 272.753 
1.19458e-06 9.31775e-06 2.68433e+25 2.37806 2.73369 272.551 
3.10592e-06 9.31775e-06 2.68465e+25 2.4539 0.872154 272.618 
5.01725e-06 9.31775e-06 2.68576e+25 1.85423 -1.11878 272.486 
6.92858e-06 9.31775e-06 2.68561e+25 0.760195 -3.74658 272.593 
8.83992e-06 9.31775e-06 2.68594e+25 -0.698949 -7.55854 272.729 
1.07512e-05 9.31775e-06 2.68834e+25 -2.50591 -12.1304 272.65 
1.26626e-05 9.31775e-06 2.6912e+25 -3.76257 -16.3009 272.603 
1.45739e-05 9.31775e-06 2.69264e+25 -2.66702 -16.4296 272.567 
1.64852e-05 9.31775e-06 2.69215e+25 -0.375422 -6.38674 272.718 
1.19458e-06 9.79558e-06 2.68522e+25 3.16954 2.64934 272.552 
3.10592e-06 9.79558e-06 2.68375e+25 3.40105 0.931954 272.628 
5.01725e-06 9.79558e-06 2.68453e+25 2.77419 -0.918899 272.687 
6.92858e-06 9.79558e-06 2.68436e+25 1.97324 -3.49177 272.654 
8.83992e-06 9.79558e-06 2.68558e+25 0.358184 -7.16714 272.72 
1.07512e-05 9.79558e-06 2.68956e+25 -1.73063 -11.6009 272.627 
1.26626e-05 9.79558e-06 2.69128e+25 -3.32628 -16.1989 272.636 
1.45739e-05 9.79558e-06 2.69412e+25 -2.68407 -16.9056 272.553 
1.64852e-05 9.79558e-06 2.69328e+25 -0.42636 -6.83237 272.636 
1.19458e-06 1.02734e-05 2.68458e+25 4.1282 2.5527 272.603 
3.10592e-06 1.02734e-05 2.68506e+25 4.47855 0.994157 272.585 
5.01725e-06 1.02734e-05 2.68371e+25 4.0469 -0.748335 272.693 
6.92858e-06 1.02734e-05 2.68552e+25 3.25743 -3.2204 272.602 
8.83992e-06 1.02734e-05 2.6845e+25 1.65861 -6.66622 272.866 
1.07512e-05 1.02734e-05 2.68773e+25 -0.732204 -11.1108 272.791 
1.26626e-05 1.02734e-05 2.69106e+25 -2.77019 -15.9371 272.707 
1.45739e-05 1.02734e-05 2.69578e+25 -2.67088 -17.3094 272.493 
1.64852e-05 1.02734e-05 2.69321e+25 -0.436292 -7.39366 272.713 
1.19458e-06 1.07512e-05 2.6851e+25 5.16448 2.3863 272.612 
3.10592e-06 1.07512e-05 2.68475e+25 5.47492 0.944121 272.629 
5.01725e-06 1.07512e-05 2.68368e+25 5.38501 -0.487001 272.795 
6.92858e-06 1.07512e-05 2.68499e+25 4.55073 -3.01498 272.703 
8.83992e-06 1.07512e-05 2.68504e+25 2.9771 -6.15603 272.805 
1.07512e-05 1.07512e-05 2.6867e+25 0.39497 -10.5181 272.916 
1.26626e-05 1.07512e-05 2.6911e+25 -2.08755 -15.5106 272.805 
1.45739e-05 1.07512e-05 2.69589e+25 -2.67733 -17.5275 272.532 
1.64852e-05 1.07512e-05 2.69445e+25 -0.400414 -7.80296 272.718 
1.19458e-06 1.12291e-05 2.68407e+25 6.29619 2.21643 272.687 
3.10592e-06 1.12291e-05 2.68431e+25 6.70642 0.905752 272.682 
5.01725e-06 1.12291e-05 2.68458e+25 6.78547 -0.427112 272.678 
6.92858e-06 1.12291e-05 2.68452e+25 5.98401 -2.7903 272.723 
8.83992e-06 1.12291e-05 2.68527e+25 4.405 -5.62781 272.864 
1.07512e-05 1.12291e-05 2.68732e+25 1.78342 -9.76753 272.889 
1.26626e-05 1.12291e-05 2.69214e+25 -1.41384 -14.9316 272.717 
1.45739e-05 1.12291e-05 2.6968e+25 -2.65267 -17.7644 272.529 
1.64852e-05 1.12291e-05 2.69731e+25 -0.519139 -8.33332 272.646 
1.19458e-06 1.17069e-05 2.68372e+25 7.60914 2.08799 272.706 
3.10592e-06 1.17069e-05 2.68381e+25 8.11469 0.88759 272.697 
5.01725e-06 1.17069e-05 2.68503e+25 8.17854 -0.393296 272.574 
6.92858e-06 1.17069e-05 2.68651e+25 7.43104 -2.50689 272.629 
8.83992e-06 1.17069e-05 2.6862e+25 5.93685 -5.0659 272.793 
1.07512e-05 1.17069e-05 2.68748e+25 3.18144 -8.82744 272.891 
1.26626e-05 1.17069e-05 2.69252e+25 -0.572818 -14.2473 272.791 
1.45739e-05 1.17069e-05 2.69817e+25 -2.43239 -17.9077 272.511 
1.64852e-05 1.17069e-05 2.69959e+25 -0.425951 -8.83519 272.534 
1.19458e-06 1.21847e-05 2.68503e+25 9.12797 1.97042 272.597 
3.10592e-06 1.21847e-05 2.68427e+25 9.54776 0.850581 272.725 
5.01725e-06 1.21847e-05 2.68544e+25 9.82896 -0.294125 272.56 
6.92858e-06 1.21847e-05 2.68493e+25 9.09695 -2.24153 272.686 
8.83992e-06 1.21847e-05 2.68614e+25 7.53962 -4.46598 272.798 
1.07512e-05 1.21847e-05 2.68737e+25 4.66683 -7.87657 272.907 
1.26626e-05 1.21847e-05 2.69391e+25 0.463966 -13.4217 272.779 
1.45739e-05 1.21847e-05 2.69716e+25 -2.09729 -17.8813 272.743 
1.64852e-05 1.21847e-05 2.70086e+25 -0.493801 -9.36653 272.623 
1.19458e-06 1.26626e-05 2.68537e+25 10.5997 1.78488 272.606 
3.10592e-06 1.26626e-05 2.68523e+25 11.0907 0.682747 272.529 
5.01725e-06 1.26626e-05 2.68485e+25 11.5353 -0.236351 272.623 
6.92858e-06 1.26626e-05 2.68559e+25 10.8433 -1.96971 272.709 
8.83992e-06 1.26626e-05 2.6864e+25 9.20996 -3.93536 272.804 
1.07512e-05 1.26626e-05 2.68941e+25 6.34182 -6.97554 272.861 
1.26626e-05 1.26626e-05 2.69298e+25 1.7238 -12.2767 272.839 
1.45739e-05 1.26626e-05 2.70047e+25 -1.7148 -17.6431 272.686 
1.64852e-05 1.26626e-05 2.70281e+25 -0.631313 -9.89445 272.582 
1.19458e-06 1.31404e-05 2.68503e+25 12.1946 1.61707 272.613 
3.10592e-06 1.31404e-05 2.68502e+25 13.0714 0.451489 272.64 
5.01725e-06 1.31404e-05 2.6847e+25 13.2835 -0.225098 272.672 
6.92858e-06 1.31404e-05 2.68533e+25 12.7575 -1.64858 272.74 
8.83992e-06 1.31404e-05 2.68717e+25 11.0811 -3.44663 272.724 
1.07512e-05 1.31404e-05 2.68866e+25 8.15019 -6.08741 272.963 
1.26626e-05 1.31404e-05 2.69541e+25 3.43887 -10.7463 272.702 
1.45739e-05 1.31404e-05 2.7009e+25 -1.40953 -17.2423 272.73 
1.64852e-05 1.31404e-05 2.70516e+25 -0.660141 -10.5053 272.55 
1.19458e-06 1.36182e-05 2.68433e+25 14.123 1.37056 272.709 
3.10592e-06 1.36182e-05 2.68603e+25 14.9961 0.365399 272.486 
5.01725e-06 1.36182e-05 2.6846e+25 15.0701 -0.221469 272.795 
6.92858e-06 1.36182e-05 2.6854e+25 14.7441 -1.32907 272.765 
8.83992e-06 1.36182e-05 2.6871e+25 13.0603 -3.00174 272.771 
1.07512e-05 1.36182e-05 2.69079e+25 10.2994 -5.13173 272.83 
1.26626e-05 1.36182e-05 2.69443e+25 5.11815 -9.31341 272.88 
1.45739e-05 1.36182e-05 2.70064e+25 -0.703095 -16.421 272.861 
1.64852e-05 1.36182e-05 2.70816e+25 -0.774793 -11.2348 272.592 
1.19458e-06 1.40961e-05 2.68362e+25 16.3956 1.12126 272.74 
3.10592e-06 1.40961e-05 2.68593e+25 17.1171 0.28439 272.552 
5.01725e-06 1.40961e-05 2.68515e+25 17.2866 -0.205077 272.618 
6.92858e-06 1.40961e-05 2.68628e+25 16.9479 -1.12641 272.744 
8.83992e-06 1.40961e-05 2.68727e+25 15.3 -2.50133 272.797 
1.07512e-05 1.40961e-05 2.69067e+25 12.2929 -4.10937 272.843 
1.26626e-05 1.40961e-05 2.69427e+25 7.26876 -7.79082 273.051 
1.45739e-05 1.40961e-05 2.70292e+25 0.343733 -15.0235 272.853 
1.64852e-05 1.40961e-05 2.7114e+25 -0.953571 -12.0035 272.669 
1.19458e-06 1.45739e-05 2.6848e+25 18.8085 0.839688 272.668 
3.10592e-06 1.45739e-05 2.68549e+25 19.5043 0.185849 272.614 
5.01725e-06 1.45739e-05 2.68474e+25 19.5824 -0.160983 272.686 
6.92858e-06 1.45739e-05 2.68628e+25 19.0368 -0.978247 272.712 
8.83992e-06 1.45739e-05 2.68737e+25 17.5758 -1.89313 272.741 
1.07512e-05 1.45739e-05 2.69176e+25 14.7172 -3.16584 272.826 
1.26626e-05 1.45739e-05 2.6938e+25 9.80605 -6.20305 273.159 
1.45739e-05 1.45739e-05 2.70418e+25 1.80986 -13.1495 272.984 
1.64852e-05 1.45739e-05 2.7139e+25 -1.14873 -12.7453 272.783 
1.19458e-06 1.50518e-05 2.68413e+25 21.4772 0.576976 272.71 
3.10592e-06 1.50518e-05 2.68552e+25 22.0038 0.101963 272.627 
5.01725e-06 1.50518e-05 2.68447e+25 22.0109 -0.089698 272.688 
6.92858e-06 1.50518e-05 2.68659e+25 21.5307 -0.781775 272.707 
8.83992e-06 1.50518e-05 2.68782e+25 20.1318 -1.3236 272.716 
1.07512e-05 1.50518e-05 2.69273e+25 17.4465 -2.33196 272.655 
1.26626e-05 1.50518e-05 2.69517e+25 12.8804 -4.59323 273.108 
1.45739e-05 1.50518e-05 2.70609e+25 4.12518 -10.8663 273.062 
1.64852e-05 1.50518e-05 2.71904e+25 -1.32969 -13.5414 272.951 
1.19458e-06 1.55296e-05 2.68646e+25 24.1682 0.368001 272.562 
3.10592e-06 1.55296e-05 2.68574e+25 24.636 0.130771 272.54 
5.01725e-06 1.55296e-05 2.6863e+25 24.7134 -0.0720682 272.559 
6.92858e-06 1.55296e-05 2.68516e+25 24.179 -0.467022 272.859 
8.83992e-06 1.55296e-05 2.68767e+25 23.0133 -0.839032 272.709 
1.07512e-05 1.55296e-05 2.6935e+25 20.5854 -1.57861 272.619 
1.26626e-05 1.55296e-05 2.69514e+25 16.5383 -3.08693 273.07 
1.45739e-05 1.55296e-05 2.70793e+25 7.61831 -8.08569 273.054 
1.64852e-05 1.55296e-05 2.72599e+25 -1.57694 -14.1898 273.033 
1.19458e-06 1.60074e-05 2.68641e+25 26.9397 0.154276 272.589 
3.10592e-06 1.60074e-05 2.6858e+25 27.4189 0.0446598 272.608 
5.01725e-06 1.60074e-05 2.68604e+25 27.5516 -0.0471641 272.645 
6.92858e-06 1.60074e-05 2.68558e+25 26.9252 -0.25743 272.792 
8.83992e-06 1.60074e-05 2.6882e+25 25.9301 -0.506484 272.789 
1.07512e-05 1.60074e-05 2.69308e+25 24.0971 -0.900391 272.666 
1.26626e-05 1.60074e-05 2.69656e+25 20.7894 -1.70818 272.976 
1.45739e-05 1.60074e-05 2.70814e+25 12.8377 -4.95971 273.113 
1.64852e-05 1.60074e-05 2.73704e+25 -1.22315 -13.9639 273.175 
1.19458e-06 1.64852e-05 2.68549e+25 30.0287 0.00139779 272.724 
3.10592e-06 1.64852e-05 2.6843e+25 30.25 0.0216967 272.696 
5.01725e-06 1.64852e-05 2.68666e+25 30.1601 -0.008409 272.605 
6.92858e-06 1.64852e-05 2.68593e+25 29.8562 -0.0381082 272.696 
8.83992e-06 1.64852e-05 2.68792e+25 29.2471 -0.197877 272.742 
1.07512e-05 1.64852e-05 2.69229e+25 27.9417 -0.383679 272.763 
1.26626e-05 1.64852e-05 2.6968e+25 25.5493 -0.672083 272.891 
1.45739e-05 1.64852e-05 2.70862e+25 19.8182 -2.21466 273.038 
1.64852e-05 1.64852e-05 2.74957e+25 1.91838 -11.1634 273.47 
1.19458e-06 1.69631e-05 2.68468e+25 32.7646 -0.0535394 272.771 
3.10592e-06 1.69631e-05 2.68319e+25 32.8898 0.0103841 272.88 
5.01725e-06 1.69631e-05 2.68437e+25 32.7639 0.00108384 272.739 
6.92858e-06 1.69631e-05 2.68454e+25 32.6782 -0.0145257 272.885 
8.83992e-06 1.69631e-05 2.68659e+25 32.4282 -0.0090029 272.905 
1.07512e-05 1.69631e-05 2.69084e+25 31.8657 -0.0725274 272.886 
1.26626e-05 1.69631e-05 2.69462e+25 30.8276 -0.148703 273.022 
1.45739e-05 1.69631e-05 2.70667e+25 28.3264 -0.402838 273.128 
1.64852e-05 1.69631e-05 2.75857e+25 14.569 -3.86082 273.757 
