ITEM: TIMESTEP
640000
ITEM: NUMBER OF CELLS
5184
ITEM: BOX BOUNDS ss ss pp
-1.7202e-05 1.7202e-05
-1.7202e-05 1.7202e-05
-0.5 0.5
ITEM: CELLS xc yc f_1[1] f_1[2] f_1[3] f_1[4] 
-1.69631e-05 -1.69631e-05 2.68365e+25 0.0604721 -0.0656669 272.952 
-1.50517e-05 -1.69631e-05 2.6845e+25 -0.0620389 -0.00293665 272.802 
-1.31404e-05 -1.69631e-05 2.68406e+25 0.0193001 0.0208989 272.874 
-1.12291e-05 -1.69631e-05 2.6837e+25 -0.0279094 0.0486465 272.823 
-9.31775e-06 -1.69631e-05 2.6848e+25 -0.111097 -0.00390489 272.799 
-7.40642e-06 -1.69631e-05 2.68618e+25 -0.0376668 0.0102305 272.763 
-5.49508e-06 -1.69631e-05 2.68467e+25 -0.188594 -0.00908927 272.835 
-3.58375e-06 -1.69631e-05 2.68549e+25 -0.155614 0.0465056 272.85 
-1.67242e-06 -1.69631e-05 2.68488e+25 -0.216173 -0.0140635 272.83 
-1.69631e-05 -1.64852e-05 2.68398e+25 -0.00230772 -0.0916967 272.813 
-1.50517e-05 -1.64852e-05 2.68766e+25 -0.0041146 0.0368513 272.487 
-1.31404e-05 -1.64852e-05 2.68697e+25 0.000614461 0.0314817 272.497 
-1.12291e-05 -1.64852e-05 2.68642e+25 -0.0604895 0.0621446 272.568 
-9.31775e-06 -1.64852e-05 2.68745e+25 -0.310727 -0.0601245 272.521 
-7.40642e-06 -1.64852e-05 2.68884e+25 -0.168811 -0.0263379 272.345 
-5.49508e-06 -1.64852e-05 2.68782e+25 -0.364086 0.0265941 272.386 
-3.58375e-06 -1.64852e-05 2.68733e+25 -0.404387 0.0810147 272.548 
-1.67242e-06 -1.64852e-05 2.6863e+25 -0.436599 -0.0680501 272.716 
-1.69631e-05 -1.60074e-05 2.68539e+25 -0.0390012 -0.067369 272.724 
-1.50517e-05 -1.60074e-05 2.6891e+25 0.0517499 0.135541 272.435 
-1.31404e-05 -1.60074e-05 2.68989e+25 -0.109126 -0.0181911 272.24 
-1.12291e-05 -1.60074e-05 2.68941e+25 0.0551397 0.0627229 272.331 
-9.31775e-06 -1.60074e-05 2.68806e+25 -0.383121 -0.0897304 272.391 
-7.40642e-06 -1.60074e-05 2.69075e+25 -0.438931 -0.037759 272.168 
-5.49508e-06 -1.60074e-05 2.69047e+25 -0.672102 0.0885183 272.162 
-3.58375e-06 -1.60074e-05 2.68858e+25 -0.724557 0.0734054 272.363 
-1.67242e-06 -1.60074e-05 2.68826e+25 -0.761019 -0.0729555 272.489 
-1.69631e-05 -1.55296e-05 2.68499e+25 -0.00859114 -0.0214545 272.801 
-1.50517e-05 -1.55296e-05 2.69105e+25 -0.0208519 0.210913 272.277 
-1.31404e-05 -1.55296e-05 2.69006e+25 -0.0979322 -0.0713424 272.235 
-1.12291e-05 -1.55296e-05 2.68867e+25 -0.15063 0.0943559 272.357 
-9.31775e-06 -1.55296e-05 2.68973e+25 -0.308629 -0.0515352 272.245 
-7.40642e-06 -1.55296e-05 2.69037e+25 -0.527875 0.0120868 272.203 
-5.49508e-06 -1.55296e-05 2.69023e+25 -0.931268 0.170611 272.114 
-3.58375e-06 -1.55296e-05 2.69033e+25 -1.03709 0.111307 272.184 
-1.67242e-06 -1.55296e-05 2.68858e+25 -1.01926 -0.0163588 272.391 
-1.69631e-05 -1.50517e-05 2.6854e+25 -0.00541672 -0.0262997 272.807 
-1.50517e-05 -1.50517e-05 2.69174e+25 0.0742884 0.225076 272.114 
-1.31404e-05 -1.50517e-05 2.69086e+25 -0.0160061 -0.0853723 272.148 
-1.12291e-05 -1.50517e-05 2.68983e+25 -0.301442 0.0598219 272.234 
-9.31775e-06 -1.50517e-05 2.69057e+25 -0.355965 0.0528774 272.159 
-7.40642e-06 -1.50517e-05 2.6902e+25 -0.790715 0.121384 272.156 
-5.49508e-06 -1.50517e-05 2.69179e+25 -1.10843 0.231765 272.052 
-3.58375e-06 -1.50517e-05 2.69269e+25 -1.21604 0.0737856 271.92 
-1.67242e-06 -1.50517e-05 2.68943e+25 -1.43478 0.0609202 272.283 
-1.69631e-05 -1.45739e-05 2.68635e+25 0.0137487 -0.036878 272.707 
-1.50517e-05 -1.45739e-05 2.69154e+25 0.0667382 0.170489 272.053 
-1.31404e-05 -1.45739e-05 2.69263e+25 -0.124991 0.0295792 271.937 
-1.12291e-05 -1.45739e-05 2.68952e+25 -0.339679 0.115921 272.242 
-9.31775e-06 -1.45739e-05 2.69168e+25 -0.505317 0.222418 272.083 
-7.40642e-06 -1.45739e-05 2.69035e+25 -1.06437 0.203072 272.208 
-5.49508e-06 -1.45739e-05 2.69286e+25 -1.40741 0.339926 271.95 
-3.58375e-06 -1.45739e-05 2.69311e+25 -1.49409 0.0491215 271.947 
-1.67242e-06 -1.45739e-05 2.69045e+25 -1.66401 0.086523 272.163 
-1.69631e-05 -1.40961e-05 2.68537e+25 0.0327001 -0.0502752 272.76 
-1.50517e-05 -1.40961e-05 2.69198e+25 -0.0665724 0.154131 272.062 
-1.31404e-05 -1.40961e-05 2.69261e+25 -0.310723 0.124733 271.95 
-1.12291e-05 -1.40961e-05 2.6896e+25 -0.437922 0.225666 272.243 
-9.31775e-06 -1.40961e-05 2.69093e+25 -0.703016 0.376598 271.999 
-7.40642e-06 -1.40961e-05 2.6901e+25 -1.20523 0.256436 272.234 
-5.49508e-06 -1.40961e-05 2.69306e+25 -1.50519 0.441584 271.853 
-3.58375e-06 -1.40961e-05 2.69183e+25 -1.82932 0.00414528 272.07 
-1.67242e-06 -1.40961e-05 2.69199e+25 -1.81068 0.0582292 272.05 
-1.69631e-05 -1.36182e-05 2.68452e+25 0.00144762 -0.0865104 272.786 
-1.50517e-05 -1.36182e-05 2.69026e+25 -0.221934 0.178949 272.227 
-1.31404e-05 -1.36182e-05 2.69328e+25 -0.414954 0.161722 271.967 
-1.12291e-05 -1.36182e-05 2.69143e+25 -0.621818 0.300437 272.081 
-9.31775e-06 -1.36182e-05 2.69315e+25 -0.934152 0.417927 271.895 
-7.40642e-06 -1.36182e-05 2.69347e+25 -1.39621 0.357863 271.936 
-5.49508e-06 -1.36182e-05 2.69281e+25 -1.59801 0.517903 271.939 
-3.58375e-06 -1.36182e-05 2.69282e+25 -2.012 -0.0199022 271.954 
-1.67242e-06 -1.36182e-05 2.6924e+25 -1.91289 0.0791177 271.989 
-1.69631e-05 -1.31404e-05 2.68466e+25 -0.0080079 -0.0716466 272.808 
-1.50517e-05 -1.31404e-05 2.69079e+25 -0.278929 0.271405 272.133 
-1.31404e-05 -1.31404e-05 2.69205e+25 -0.3547 0.198415 271.998 
-1.12291e-05 -1.31404e-05 2.69147e+25 -0.699785 0.332031 271.981 
-9.31775e-06 -1.31404e-05 2.69376e+25 -1.20016 0.429111 271.915 
-7.40642e-06 -1.31404e-05 2.69396e+25 -1.61414 0.476277 271.884 
-5.49508e-06 -1.31404e-05 2.69278e+25 -1.71784 0.51787 271.877 
-3.58375e-06 -1.31404e-05 2.6931e+25 -2.09919 -0.000424549 271.949 
-1.67242e-06 -1.31404e-05 2.69215e+25 -2.2196 0.178991 271.939 
-1.69631e-05 -1.26626e-05 2.6838e+25 -0.00431354 -0.0635704 272.842 
-1.50517e-05 -1.26626e-05 2.68939e+25 -0.161232 0.310615 272.228 
-1.31404e-05 -1.26626e-05 2.69157e+25 -0.343878 0.266979 272.069 
-1.12291e-05 -1.26626e-05 2.69157e+25 -0.766291 0.479545 272.055 
-9.31775e-06 -1.26626e-05 2.69291e+25 -1.27083 0.548263 271.922 
-7.40642e-06 -1.26626e-05 2.69289e+25 -1.79232 0.590083 271.896 
-5.49508e-06 -1.26626e-05 2.69224e+25 -1.93397 0.544763 271.936 
-3.58375e-06 -1.26626e-05 2.69332e+25 -2.2159 0.149656 271.84 
-1.67242e-06 -1.26626e-05 2.69184e+25 -2.47589 0.236615 272.026 
-1.69631e-05 -1.21847e-05 2.68496e+25 0.00674299 -0.0423156 272.817 
-1.50517e-05 -1.21847e-05 2.6915e+25 -0.102476 0.306347 272.024 
-1.31404e-05 -1.21847e-05 2.69089e+25 -0.4073 0.334516 272.02 
-1.12291e-05 -1.21847e-05 2.6916e+25 -0.821086 0.646557 272.07 
-9.31775e-06 -1.21847e-05 2.69312e+25 -1.51087 0.695373 271.911 
-7.40642e-06 -1.21847e-05 2.69325e+25 -1.91723 0.694119 271.905 
-5.49508e-06 -1.21847e-05 2.69297e+25 -2.13631 0.550401 271.965 
-3.58375e-06 -1.21847e-05 2.69447e+25 -2.30378 0.281855 271.914 
-1.67242e-06 -1.21847e-05 2.69194e+25 -2.56364 0.215037 271.962 
-1.69631e-05 -1.17069e-05 2.68478e+25 0.0208886 -0.0680287 272.844 
-1.50517e-05 -1.17069e-05 2.69259e+25 -0.180411 0.473585 271.955 
-1.31404e-05 -1.17069e-05 2.69263e+25 -0.493875 0.390357 272.036 
-1.12291e-05 -1.17069e-05 2.69114e+25 -0.958381 0.816006 272.1 
-9.31775e-06 -1.17069e-05 2.69335e+25 -1.60026 0.815967 271.865 
-7.40642e-06 -1.17069e-05 2.69203e+25 -2.05752 0.77344 271.96 
-5.49508e-06 -1.17069e-05 2.69212e+25 -2.27287 0.530835 272.025 
-3.58375e-06 -1.17069e-05 2.69333e+25 -2.62425 0.356094 271.988 
-1.67242e-06 -1.17069e-05 2.69199e+25 -2.78192 0.207857 271.98 
-1.69631e-05 -1.12291e-05 2.68593e+25 -0.0164127 -0.0423659 272.783 
-1.50517e-05 -1.12291e-05 2.69218e+25 -0.219714 0.556239 272.064 
-1.31404e-05 -1.12291e-05 2.69294e+25 -0.592741 0.448253 271.973 
-1.12291e-05 -1.12291e-05 2.69155e+25 -1.00327 0.927018 272.04 
-9.31775e-06 -1.12291e-05 2.69184e+25 -1.57451 1.01208 272.025 
-7.40642e-06 -1.12291e-05 2.69281e+25 -2.10146 0.877353 272.03 
-5.49508e-06 -1.12291e-05 2.69269e+25 -2.48803 0.654465 271.965 
-3.58375e-06 -1.12291e-05 2.69196e+25 -2.8339 0.386614 272.114 
-1.67242e-06 -1.12291e-05 2.69143e+25 -3.0688 0.219898 272.077 
-1.69631e-05 -1.07512e-05 2.68513e+25 0.027035 -0.0898124 272.747 
-1.50517e-05 -1.07512e-05 2.69188e+25 -0.218893 0.566245 272.039 
-1.31404e-05 -1.07512e-05 2.6928e+25 -0.526835 0.538882 271.96 
-1.12291e-05 -1.07512e-05 2.69245e+25 -1.13621 1.02883 271.976 
-9.31775e-06 -1.07512e-05 2.69163e+25 -1.60777 1.28938 271.97 
-7.40642e-06 -1.07512e-05 2.692e+25 -2.38374 0.903787 272.022 
-5.49508e-06 -1.07512e-05 2.6933e+25 -2.59907 0.838843 271.88 
-3.58375e-06 -1.07512e-05 2.69279e+25 -3.0492 0.485714 272.039 
-1.67242e-06 -1.07512e-05 2.6911e+25 -3.42598 0.299526 272.136 
-1.69631e-05 -1.02734e-05 2.6847e+25 -0.0511832 -0.0424781 272.791 
-1.50517e-05 -1.02734e-05 2.6923e+25 -0.0804678 0.578669 272.023 
-1.31404e-05 -1.02734e-05 2.69141e+25 -0.59133 0.652109 272.063 
-1.12291e-05 -1.02734e-05 2.69131e+25 -1.18732 1.17581 272.107 
-9.31775e-06 -1.02734e-05 2.69144e+25 -1.84809 1.49507 272.079 
-7.40642e-06 -1.02734e-05 2.6916e+25 -2.44102 0.977801 271.996 
-5.49508e-06 -1.02734e-05 2.69319e+25 -2.81272 0.936047 271.934 
-3.58375e-06 -1.02734e-05 2.69259e+25 -3.24106 0.636065 271.903 
-1.67242e-06 -1.02734e-05 2.69095e+25 -3.77235 0.368283 272.087 
-1.69631e-05 -9.79558e-06 2.68526e+25 -0.0360458 0.0636711 272.767 
-1.50517e-05 -9.79558e-06 2.69202e+25 -0.0668566 0.673348 272.058 
-1.31404e-05 -9.79558e-06 2.69333e+25 -0.605385 0.871977 271.927 
-1.12291e-05 -9.79558e-06 2.69278e+25 -1.27403 1.26931 271.946 
-9.31775e-06 -9.79558e-06 2.69128e+25 -1.93968 1.69326 272.122 
-7.40642e-06 -9.79558e-06 2.69119e+25 -2.4707 1.14182 272.036 
-5.49508e-06 -9.79558e-06 2.69371e+25 -3.22306 0.977895 271.851 
-3.58375e-06 -9.79558e-06 2.69286e+25 -3.46565 0.825751 271.966 
-1.67242e-06 -9.79558e-06 2.69057e+25 -3.90512 0.445958 272.111 
-1.69631e-05 -9.31775e-06 2.68613e+25 -0.00233347 0.0945206 272.709 
-1.50517e-05 -9.31775e-06 2.6909e+25 -0.07185 0.681252 272.174 
-1.31404e-05 -9.31775e-06 2.69384e+25 -0.568372 1.11098 271.895 
-1.12291e-05 -9.31775e-06 2.69469e+25 -1.32596 1.43216 271.736 
-9.31775e-06 -9.31775e-06 2.6911e+25 -1.97666 1.7604 272.08 
-7.40642e-06 -9.31775e-06 2.69063e+25 -2.52829 1.33259 272.13 
-5.49508e-06 -9.31775e-06 2.69417e+25 -3.4666 1.12527 271.782 
-3.58375e-06 -9.31775e-06 2.69169e+25 -3.84604 0.935681 272.045 
-1.67242e-06 -9.31775e-06 2.6912e+25 -4.16262 0.408502 272.099 
-1.69631e-05 -8.83992e-06 2.68405e+25 0.00143857 0.115244 272.833 
-1.50517e-05 -8.83992e-06 2.69063e+25 -0.159786 0.712626 272.115 
-1.31404e-05 -8.83992e-06 2.69417e+25 -0.535773 1.29963 271.795 
-1.12291e-05 -8.83992e-06 2.69393e+25 -1.33761 1.68145 271.829 
-9.31775e-06 -8.83992e-06 2.69251e+25 -2.04186 1.80817 272.049 
-7.40642e-06 -8.83992e-06 2.69018e+25 -2.73691 1.61707 272.154 
-5.49508e-06 -8.83992e-06 2.69455e+25 -3.58487 1.26953 271.756 
-3.58375e-06 -8.83992e-06 2.69292e+25 -4.1431 0.98996 271.972 
-1.67242e-06 -8.83992e-06 2.69005e+25 -4.52315 0.426814 272.221 
-1.69631e-05 -8.36208e-06 2.68469e+25 0.0014844 0.128093 272.875 
-1.50517e-05 -8.36208e-06 2.6918e+25 -0.264922 0.790933 272.062 
-1.31404e-05 -8.36208e-06 2.69346e+25 -0.741084 1.44352 271.869 
-1.12291e-05 -8.36208e-06 2.69271e+25 -1.44215 1.91928 271.945 
-9.31775e-06 -8.36208e-06 2.69327e+25 -2.02533 2.01166 271.892 
-7.40642e-06 -8.36208e-06 2.69049e+25 -2.88947 1.93041 272.113 
-5.49508e-06 -8.36208e-06 2.69342e+25 -3.5973 1.44239 271.873 
-3.58375e-06 -8.36208e-06 2.69289e+25 -4.36619 1.11007 272.071 
-1.67242e-06 -8.36208e-06 2.69124e+25 -4.84089 0.529983 272.127 
-1.69631e-05 -7.88425e-06 2.68525e+25 -0.0109709 0.140017 272.84 
-1.50517e-05 -7.88425e-06 2.69078e+25 -0.1929 0.934849 272.06 
-1.31404e-05 -7.88425e-06 2.69298e+25 -0.851929 1.61583 271.908 
-1.12291e-05 -7.88425e-06 2.69259e+25 -1.50267 2.04427 271.938 
-9.31775e-06 -7.88425e-06 2.69264e+25 -2.19004 2.23495 271.967 
-7.40642e-06 -7.88425e-06 2.69209e+25 -3.03698 2.1224 272.017 
-5.49508e-06 -7.88425e-06 2.69188e+25 -3.77424 1.63023 271.968 
-3.58375e-06 -7.88425e-06 2.69187e+25 -4.46229 1.34282 272.03 
-1.67242e-06 -7.88425e-06 2.6921e+25 -4.96016 0.667802 272.102 
-1.69631e-05 -7.40642e-06 2.68632e+25 0.00610557 0.13364 272.774 
-1.50517e-05 -7.40642e-06 2.69333e+25 -0.261264 1.10472 271.894 
-1.31404e-05 -7.40642e-06 2.69328e+25 -0.929917 1.70705 271.878 
-1.12291e-05 -7.40642e-06 2.69194e+25 -1.54387 2.16489 272.026 
-9.31775e-06 -7.40642e-06 2.69416e+25 -2.2793 2.48291 271.835 
-7.40642e-06 -7.40642e-06 2.69283e+25 -3.20283 2.30362 272 
-5.49508e-06 -7.40642e-06 2.69245e+25 -3.82505 1.77586 271.956 
-3.58375e-06 -7.40642e-06 2.6921e+25 -4.53073 1.56466 272.018 
-1.67242e-06 -7.40642e-06 2.69081e+25 -5.15489 0.767801 272.11 
-1.69631e-05 -6.92858e-06 2.68551e+25 0.0197604 0.124763 272.779 
-1.50517e-05 -6.92858e-06 2.69279e+25 -0.232958 1.33005 271.918 
-1.31404e-05 -6.92858e-06 2.69372e+25 -0.888674 1.86047 271.841 
-1.12291e-05 -6.92858e-06 2.69214e+25 -1.49573 2.31238 272.005 
-9.31775e-06 -6.92858e-06 2.69407e+25 -2.40701 2.63656 271.834 
-7.40642e-06 -6.92858e-06 2.69168e+25 -3.32137 2.5431 272.102 
-5.49508e-06 -6.92858e-06 2.69299e+25 -3.93293 1.89377 271.974 
-3.58375e-06 -6.92858e-06 2.69263e+25 -4.66251 1.71414 271.94 
-1.67242e-06 -6.92858e-06 2.69118e+25 -5.23449 0.912989 272.051 
-1.69631e-05 -6.45075e-06 2.68564e+25 -0.0296134 0.177497 272.739 
-1.50517e-05 -6.45075e-06 2.69357e+25 -0.269998 1.45474 271.87 
-1.31404e-05 -6.45075e-06 2.69507e+25 -0.942489 2.03108 271.73 
-1.12291e-05 -6.45075e-06 2.6907e+25 -1.59482 2.47978 271.953 
-9.31775e-06 -6.45075e-06 2.69271e+25 -2.57069 2.87096 271.883 
-7.40642e-06 -6.45075e-06 2.69201e+25 -3.25597 2.73911 271.979 
-5.49508e-06 -6.45075e-06 2.6925e+25 -4.0834 2.0318 271.976 
-3.58375e-06 -6.45075e-06 2.69248e+25 -4.89649 1.87519 271.941 
-1.67242e-06 -6.45075e-06 2.69007e+25 -5.47175 1.06526 272.128 
-1.69631e-05 -5.97292e-06 2.68666e+25 -0.0131207 0.238491 272.724 
-1.50517e-05 -5.97292e-06 2.69291e+25 -0.344677 1.57007 271.931 
-1.31404e-05 -5.97292e-06 2.69365e+25 -0.941701 2.19729 271.854 
-1.12291e-05 -5.97292e-06 2.6922e+25 -1.76338 2.75371 271.945 
-9.31775e-06 -5.97292e-06 2.69329e+25 -2.63458 3.15247 271.868 
-7.40642e-06 -5.97292e-06 2.69287e+25 -3.42247 2.96332 271.874 
-5.49508e-06 -5.97292e-06 2.6911e+25 -4.34368 2.24693 272.001 
-3.58375e-06 -5.97292e-06 2.6932e+25 -4.96976 1.99372 271.951 
-1.67242e-06 -5.97292e-06 2.6922e+25 -5.68474 1.18806 272.013 
-1.69631e-05 -5.49508e-06 2.68538e+25 0.0525423 0.208493 272.768 
-1.50517e-05 -5.49508e-06 2.69165e+25 -0.378322 1.6988 272.087 
-1.31404e-05 -5.49508e-06 2.6909e+25 -0.981658 2.35085 272.056 
-1.12291e-05 -5.49508e-06 2.69141e+25 -2.03086 3.02876 271.99 
-9.31775e-06 -5.49508e-06 2.69344e+25 -2.72306 3.36356 271.797 
-7.40642e-06 -5.49508e-06 2.69321e+25 -3.54365 3.16664 271.826 
-5.49508e-06 -5.49508e-06 2.6924e+25 -4.48374 2.46168 271.996 
-3.58375e-06 -5.49508e-06 2.69241e+25 -5.16805 2.1144 271.988 
-1.67242e-06 -5.49508e-06 2.69126e+25 -5.76705 1.32898 272.062 
-1.69631e-05 -5.01725e-06 2.68595e+25 -0.00488831 0.179721 272.802 
-1.50517e-05 -5.01725e-06 2.69188e+25 -0.44368 1.78822 272.066 
-1.31404e-05 -5.01725e-06 2.69182e+25 -1.10409 2.61478 272.001 
-1.12291e-05 -5.01725e-06 2.6928e+25 -1.99651 3.26262 271.915 
-9.31775e-06 -5.01725e-06 2.69443e+25 -2.74706 3.5267 271.758 
-7.40642e-06 -5.01725e-06 2.69214e+25 -3.64222 3.32811 271.942 
-5.49508e-06 -5.01725e-06 2.69015e+25 -4.65187 2.66387 272.099 
-3.58375e-06 -5.01725e-06 2.6913e+25 -5.41417 2.24749 271.972 
-1.67242e-06 -5.01725e-06 2.69094e+25 -5.89055 1.53948 272.01 
-1.69631e-05 -4.53942e-06 2.68464e+25 -0.0109512 0.197027 272.813 
-1.50517e-05 -4.53942e-06 2.69179e+25 -0.449176 1.79935 272.097 
-1.31404e-05 -4.53942e-06 2.69169e+25 -1.01364 2.81795 272.009 
-1.12291e-05 -4.53942e-06 2.69249e+25 -2.01632 3.54177 271.969 
-9.31775e-06 -4.53942e-06 2.69363e+25 -2.83052 3.65031 271.8 
-7.40642e-06 -4.53942e-06 2.69195e+25 -3.80982 3.58764 272.016 
-5.49508e-06 -4.53942e-06 2.69098e+25 -4.72229 2.91641 272.025 
-3.58375e-06 -4.53942e-06 2.69163e+25 -5.49485 2.39671 272.005 
-1.67242e-06 -4.53942e-06 2.68931e+25 -5.99348 1.69612 272.109 
-1.69631e-05 -4.06158e-06 2.68508e+25 0.00151724 0.218667 272.782 
-1.50517e-05 -4.06158e-06 2.69225e+25 -0.413319 1.95826 272.076 
-1.31404e-05 -4.06158e-06 2.69168e+25 -1.03163 3.00017 272.056 
-1.12291e-05 -4.06158e-06 2.69254e+25 -1.93174 3.83076 271.922 
-9.31775e-06 -4.06158e-06 2.69409e+25 -2.83984 3.86989 271.755 
-7.40642e-06 -4.06158e-06 2.69058e+25 -3.79296 3.78528 272.066 
-5.49508e-06 -4.06158e-06 2.68996e+25 -4.70449 3.25619 272.187 
-3.58375e-06 -4.06158e-06 2.69197e+25 -5.51325 2.57659 271.988 
-1.67242e-06 -4.06158e-06 2.69015e+25 -6.1133 1.8192 271.99 
-1.69631e-05 -3.58375e-06 2.68598e+25 -0.0271904 0.247629 272.737 
-1.50517e-05 -3.58375e-06 2.69123e+25 -0.403076 2.16452 272.076 
-1.31404e-05 -3.58375e-06 2.69149e+25 -0.849435 3.1669 272.009 
-1.12291e-05 -3.58375e-06 2.69297e+25 -1.7984 4.11604 271.9 
-9.31775e-06 -3.58375e-06 2.69355e+25 -2.91062 4.16976 271.785 
-7.40642e-06 -3.58375e-06 2.69109e+25 -3.86708 3.91229 272.047 
-5.49508e-06 -3.58375e-06 2.68999e+25 -4.80158 3.5428 272.184 
-3.58375e-06 -3.58375e-06 2.69161e+25 -5.70803 2.7712 271.945 
-1.67242e-06 -3.58375e-06 2.69074e+25 -6.32333 1.93593 272.09 
-1.69631e-05 -3.10592e-06 2.68364e+25 -0.0179345 0.341182 272.881 
-1.50517e-05 -3.10592e-06 2.69188e+25 -0.416414 2.30291 272.071 
-1.31404e-05 -3.10592e-06 2.69023e+25 -0.944169 3.31008 272.165 
-1.12291e-05 -3.10592e-06 2.69131e+25 -1.84683 4.30049 272.009 
-9.31775e-06 -3.10592e-06 2.69343e+25 -2.84065 4.43283 271.802 
-7.40642e-06 -3.10592e-06 2.6917e+25 -3.84786 4.20643 272.047 
-5.49508e-06 -3.10592e-06 2.68992e+25 -4.86638 3.73743 272.156 
-3.58375e-06 -3.10592e-06 2.69068e+25 -5.7877 3.00155 271.991 
-1.67242e-06 -3.10592e-06 2.68928e+25 -6.43834 1.97582 272.13 
-1.69631e-05 -2.62808e-06 2.68413e+25 0.00728472 0.391503 272.828 
-1.50517e-05 -2.62808e-06 2.69094e+25 -0.365463 2.43628 272.121 
-1.31404e-05 -2.62808e-06 2.69032e+25 -1.07452 3.56178 272.153 
-1.12291e-05 -2.62808e-06 2.6927e+25 -1.78075 4.43202 271.889 
-9.31775e-06 -2.62808e-06 2.69156e+25 -2.78257 4.79439 271.921 
-7.40642e-06 -2.62808e-06 2.69159e+25 -3.91492 4.46691 272.01 
-5.49508e-06 -2.62808e-06 2.68989e+25 -4.92736 4.05706 272.142 
-3.58375e-06 -2.62808e-06 2.69109e+25 -5.8308 3.17697 272.01 
-1.67242e-06 -2.62808e-06 2.68999e+25 -6.45096 2.07658 272.058 
-1.69631e-05 -2.15025e-06 2.6847e+25 0.0185999 0.389754 272.815 
-1.50517e-05 -2.15025e-06 2.69029e+25 -0.291396 2.51172 272.15 
-1.31404e-05 -2.15025e-06 2.69118e+25 -1.01956 3.77667 272.019 
-1.12291e-05 -2.15025e-06 2.69238e+25 -1.93965 4.52715 271.899 
-9.31775e-06 -2.15025e-06 2.6922e+25 -2.75826 5.06834 271.901 
-7.40642e-06 -2.15025e-06 2.69193e+25 -3.89835 4.71541 271.987 
-5.49508e-06 -2.15025e-06 2.69047e+25 -4.87814 4.2875 272 
-3.58375e-06 -2.15025e-06 2.68979e+25 -5.85471 3.37241 272.078 
-1.67242e-06 -2.15025e-06 2.69102e+25 -6.4934 2.20989 271.968 
-1.69631e-05 -1.67242e-06 2.68512e+25 -0.0217786 0.388851 272.823 
-1.50517e-05 -1.67242e-06 2.68973e+25 -0.142135 2.59024 272.253 
-1.31404e-05 -1.67242e-06 2.69292e+25 -1.03943 4.03676 271.951 
-1.12291e-05 -1.67242e-06 2.69259e+25 -1.99278 4.77407 271.841 
-9.31775e-06 -1.67242e-06 2.69212e+25 -2.7819 5.20772 271.92 
-7.40642e-06 -1.67242e-06 2.69108e+25 -3.86727 4.91493 271.94 
-5.49508e-06 -1.67242e-06 2.69205e+25 -4.79151 4.46082 271.982 
-3.58375e-06 -1.67242e-06 2.68832e+25 -5.74835 3.61743 272.218 
-1.67242e-06 -1.67242e-06 2.69032e+25 -6.6001 2.43987 272.065 
-1.69631e-05 -1.19458e-06 2.68419e+25 0.0390308 0.349792 272.852 
-1.50517e-05 -1.19458e-06 2.68918e+25 -0.114482 2.71994 272.228 
-1.31404e-05 -1.19458e-06 2.69222e+25 -1.02723 4.21762 272.009 
-1.12291e-05 -1.19458e-06 2.69221e+25 -1.87244 5.06763 271.872 
-9.31775e-06 -1.19458e-06 2.69235e+25 -2.78471 5.37823 271.899 
-7.40642e-06 -1.19458e-06 2.69173e+25 -3.62805 5.2443 271.897 
-5.49508e-06 -1.19458e-06 2.69122e+25 -4.80677 4.60834 271.971 
-3.58375e-06 -1.19458e-06 2.68907e+25 -5.89325 3.90131 272.117 
-1.67242e-06 -1.19458e-06 2.69005e+25 -6.71613 2.66783 272.002 
-1.69631e-05 -7.1675e-07 2.68473e+25 -0.0251843 0.361399 272.781 
-1.50517e-05 -7.1675e-07 2.69045e+25 -0.101039 2.89318 272.161 
-1.31404e-05 -7.1675e-07 2.69318e+25 -1.00036 4.40998 271.889 
-1.12291e-05 -7.1675e-07 2.68987e+25 -1.81583 5.35722 272.059 
-9.31775e-06 -7.1675e-07 2.69236e+25 -2.7774 5.63966 271.887 
-7.40642e-06 -7.1675e-07 2.6907e+25 -3.64092 5.54616 271.959 
-5.49508e-06 -7.1675e-07 2.69001e+25 -4.81051 4.91305 272.049 
-3.58375e-06 -7.1675e-07 2.68989e+25 -5.85459 4.16083 272.028 
-1.67242e-06 -7.1675e-07 2.68949e+25 -6.83958 2.89966 272.051 
-1.69631e-05 -2.38917e-07 2.68247e+25 0.0052889 0.389391 272.753 
-1.50517e-05 -2.38917e-07 2.6894e+25 -0.214662 3.05816 272.009 
-1.31404e-05 -2.38917e-07 2.69045e+25 -0.871756 4.67457 271.909 
-1.12291e-05 -2.38917e-07 2.68683e+25 -1.80819 5.54119 272.167 
-9.31775e-06 -2.38917e-07 2.68949e+25 -2.82185 5.86097 271.936 
-7.40642e-06 -2.38917e-07 2.68977e+25 -3.71454 5.80383 271.982 
-5.49508e-06 -2.38917e-07 2.69003e+25 -4.82061 5.27559 272.026 
-3.58375e-06 -2.38917e-07 2.68837e+25 -5.73866 4.37908 272.022 
-1.67242e-06 -2.38917e-07 2.68684e+25 -6.73811 3.16572 272.097 
-1.64852e-05 -1.69631e-05 2.68437e+25 0.0640292 0.0283216 272.905 
-1.45739e-05 -1.69631e-05 2.68509e+25 -0.024318 -0.0266159 272.751 
-1.26626e-05 -1.69631e-05 2.68518e+25 -0.00722106 -0.000119079 272.781 
-1.07512e-05 -1.69631e-05 2.6855e+25 -0.0997071 0.0325812 272.806 
-8.83992e-06 -1.69631e-05 2.68339e+25 -0.107585 0.00406925 272.977 
-6.92858e-06 -1.69631e-05 2.68533e+25 -0.0484832 0.014485 272.753 
-5.01725e-06 -1.69631e-05 2.68432e+25 -0.192219 -0.00821112 272.784 
-3.10592e-06 -1.69631e-05 2.68505e+25 -0.223577 0.0157195 272.802 
-1.19458e-06 -1.69631e-05 2.68437e+25 -0.166107 0.00753872 272.874 
-1.64852e-05 -1.64852e-05 2.68781e+25 0.0399863 0.00890162 272.559 
-1.45739e-05 -1.64852e-05 2.6872e+25 -0.0733846 -0.0690428 272.541 
-1.26626e-05 -1.64852e-05 2.68742e+25 -0.0111553 -0.00636027 272.498 
-1.07512e-05 -1.64852e-05 2.68784e+25 -0.0826253 0.0652582 272.527 
-8.83992e-06 -1.64852e-05 2.68722e+25 -0.220926 -0.0144249 272.559 
-6.92858e-06 -1.64852e-05 2.6878e+25 -0.182806 0.0770172 272.384 
-5.01725e-06 -1.64852e-05 2.688e+25 -0.428314 0.0056887 272.482 
-3.10592e-06 -1.64852e-05 2.68674e+25 -0.452102 0.07396 272.596 
-1.19458e-06 -1.64852e-05 2.68589e+25 -0.436246 -0.00286084 272.638 
-1.64852e-05 -1.60074e-05 2.68963e+25 -0.0088285 -0.105696 272.327 
-1.45739e-05 -1.60074e-05 2.68916e+25 -0.0490223 0.00998322 272.377 
-1.26626e-05 -1.60074e-05 2.68926e+25 -0.0452502 0.0365961 272.337 
-1.07512e-05 -1.60074e-05 2.68817e+25 -0.00555151 0.174836 272.434 
-8.83992e-06 -1.60074e-05 2.68884e+25 -0.329477 -0.0798575 272.384 
-6.92858e-06 -1.60074e-05 2.69046e+25 -0.42982 0.113415 272.155 
-5.01725e-06 -1.60074e-05 2.69059e+25 -0.710651 0.0701308 272.19 
-3.10592e-06 -1.60074e-05 2.68881e+25 -0.726513 0.138001 272.329 
-1.19458e-06 -1.60074e-05 2.68758e+25 -0.761774 -0.000810342 272.521 
-1.64852e-05 -1.55296e-05 2.68802e+25 -0.00994616 -0.171779 272.484 
-1.45739e-05 -1.55296e-05 2.69017e+25 -0.0852615 0.0741984 272.23 
-1.26626e-05 -1.55296e-05 2.6896e+25 -0.0593565 -0.00714517 272.264 
-1.07512e-05 -1.55296e-05 2.68906e+25 -0.136735 0.200901 272.318 
-8.83992e-06 -1.55296e-05 2.68917e+25 -0.395803 -0.121158 272.272 
-6.92858e-06 -1.55296e-05 2.6921e+25 -0.653258 0.144123 271.958 
-5.01725e-06 -1.55296e-05 2.69014e+25 -0.993265 0.135679 272.134 
-3.10592e-06 -1.55296e-05 2.69081e+25 -0.983331 0.0889874 272.074 
-1.19458e-06 -1.55296e-05 2.68899e+25 -1.09986 0.0291251 272.476 
-1.64852e-05 -1.50517e-05 2.68754e+25 -0.0132651 -0.164412 272.524 
-1.45739e-05 -1.50517e-05 2.69168e+25 0.11493 0.0768825 271.989 
-1.26626e-05 -1.50517e-05 2.69022e+25 -0.101924 0.0600009 272.228 
-1.07512e-05 -1.50517e-05 2.69006e+25 -0.298571 0.20959 272.169 
-8.83992e-06 -1.50517e-05 2.69066e+25 -0.508287 -0.0134257 272.134 
-6.92858e-06 -1.50517e-05 2.69194e+25 -0.852714 0.215025 272.063 
-5.01725e-06 -1.50517e-05 2.69087e+25 -1.17098 0.172765 272.133 
-3.10592e-06 -1.50517e-05 2.69184e+25 -1.23444 0.0795902 272.082 
-1.19458e-06 -1.50517e-05 2.69079e+25 -1.44615 0.0363018 272.217 
-1.64852e-05 -1.45739e-05 2.68778e+25 -0.0140356 -0.0885258 272.495 
-1.45739e-05 -1.45739e-05 2.6914e+25 0.0649766 0.0778786 272.032 
-1.26626e-05 -1.45739e-05 2.6914e+25 -0.16723 0.0820795 272.096 
-1.07512e-05 -1.45739e-05 2.69084e+25 -0.404839 0.202153 272.141 
-8.83992e-06 -1.45739e-05 2.69025e+25 -0.758688 0.24521 272.149 
-6.92858e-06 -1.45739e-05 2.69088e+25 -1.10394 0.271309 272.087 
-5.01725e-06 -1.45739e-05 2.69153e+25 -1.46288 0.199629 272.023 
-3.10592e-06 -1.45739e-05 2.69141e+25 -1.48366 0.115558 272.061 
-1.19458e-06 -1.45739e-05 2.69193e+25 -1.6992 0.0383239 272.139 
-1.64852e-05 -1.40961e-05 2.68828e+25 0.0290076 -0.0614664 272.533 
-1.45739e-05 -1.40961e-05 2.69303e+25 -0.0831144 0.15005 271.988 
-1.26626e-05 -1.40961e-05 2.69124e+25 -0.340836 0.0745278 272.074 
-1.07512e-05 -1.40961e-05 2.69108e+25 -0.559193 0.245617 272.145 
-8.83992e-06 -1.40961e-05 2.6914e+25 -0.762859 0.398907 272.079 
-6.92858e-06 -1.40961e-05 2.69077e+25 -1.25111 0.320757 272.092 
-5.01725e-06 -1.40961e-05 2.6942e+25 -1.61605 0.232738 271.869 
-3.10592e-06 -1.40961e-05 2.69131e+25 -1.7911 0.124162 272.105 
-1.19458e-06 -1.40961e-05 2.69317e+25 -1.80919 0.0786227 272.028 
-1.64852e-05 -1.36182e-05 2.68744e+25 -0.0256372 0.000174837 272.598 
-1.45739e-05 -1.36182e-05 2.69197e+25 -0.281473 0.159059 272.071 
-1.26626e-05 -1.36182e-05 2.69151e+25 -0.500438 0.142424 272.078 
-1.07512e-05 -1.36182e-05 2.69144e+25 -0.671482 0.38923 272.114 
-8.83992e-06 -1.36182e-05 2.69345e+25 -1.02013 0.511967 271.904 
-6.92858e-06 -1.36182e-05 2.69149e+25 -1.54443 0.439164 272.008 
-5.01725e-06 -1.36182e-05 2.69334e+25 -1.69227 0.344194 271.828 
-3.10592e-06 -1.36182e-05 2.69112e+25 -1.95846 0.0357194 272.058 
-1.19458e-06 -1.36182e-05 2.69124e+25 -1.94701 0.11936 272.116 
-1.64852e-05 -1.31404e-05 2.68715e+25 -0.00574508 0.0122582 272.512 
-1.45739e-05 -1.31404e-05 2.69237e+25 -0.318465 0.193383 272.033 
-1.26626e-05 -1.31404e-05 2.69162e+25 -0.433136 0.258177 272.001 
-1.07512e-05 -1.31404e-05 2.69137e+25 -0.766214 0.475088 272.081 
-8.83992e-06 -1.31404e-05 2.69231e+25 -1.26149 0.575648 271.908 
-6.92858e-06 -1.31404e-05 2.69442e+25 -1.68881 0.504857 271.803 
-5.01725e-06 -1.31404e-05 2.69473e+25 -1.77021 0.497941 271.736 
-3.10592e-06 -1.31404e-05 2.69159e+25 -2.18653 0.0580207 271.975 
-1.19458e-06 -1.31404e-05 2.69127e+25 -2.278 0.135774 272.11 
-1.64852e-05 -1.26626e-05 2.68951e+25 -0.00554555 0.0344871 272.428 
-1.45739e-05 -1.26626e-05 2.69164e+25 -0.205286 0.225904 272.059 
-1.26626e-05 -1.26626e-05 2.69248e+25 -0.417014 0.309419 272.018 
-1.07512e-05 -1.26626e-05 2.69222e+25 -0.925408 0.585952 272.062 
-8.83992e-06 -1.26626e-05 2.69383e+25 -1.34026 0.633691 271.862 
-6.92858e-06 -1.26626e-05 2.69335e+25 -1.89352 0.588321 271.931 
-5.01725e-06 -1.26626e-05 2.69343e+25 -1.92906 0.493881 271.908 
-3.10592e-06 -1.26626e-05 2.69262e+25 -2.31325 0.0895571 271.913 
-1.19458e-06 -1.26626e-05 2.69149e+25 -2.41541 0.0705987 272.105 
-1.64852e-05 -1.21847e-05 2.68738e+25 0.0139403 -0.00324313 272.52 
-1.45739e-05 -1.21847e-05 2.69323e+25 -0.201295 0.355809 271.965 
-1.26626e-05 -1.21847e-05 2.69086e+25 -0.441147 0.382072 272.072 
-1.07512e-05 -1.21847e-05 2.691e+25 -1.02438 0.754667 272.125 
-8.83992e-06 -1.21847e-05 2.69124e+25 -1.65348 0.726336 272 
-6.92858e-06 -1.21847e-05 2.69159e+25 -1.98649 0.710527 271.956 
-5.01725e-06 -1.21847e-05 2.69227e+25 -2.14345 0.529746 272.007 
-3.10592e-06 -1.21847e-05 2.69234e+25 -2.41397 0.184154 271.953 
-1.19458e-06 -1.21847e-05 2.69114e+25 -2.57036 0.0336442 272.089 
-1.64852e-05 -1.17069e-05 2.68639e+25 -0.043282 0.0770241 272.58 
-1.45739e-05 -1.17069e-05 2.69264e+25 -0.291678 0.398556 271.958 
-1.26626e-05 -1.17069e-05 2.69161e+25 -0.580887 0.482827 272.063 
-1.07512e-05 -1.17069e-05 2.69041e+25 -1.12353 0.942807 272.191 
-8.83992e-06 -1.17069e-05 2.69311e+25 -1.73459 0.820553 271.992 
-6.92858e-06 -1.17069e-05 2.69294e+25 -2.08846 0.701418 271.986 
-5.01725e-06 -1.17069e-05 2.69283e+25 -2.34577 0.630266 271.94 
-3.10592e-06 -1.17069e-05 2.69287e+25 -2.64642 0.266566 271.926 
-1.19458e-06 -1.17069e-05 2.69155e+25 -2.80729 0.0903335 272.055 
-1.64852e-05 -1.12291e-05 2.68809e+25 -0.0103883 0.0781336 272.535 
-1.45739e-05 -1.12291e-05 2.69181e+25 -0.282707 0.491561 272.044 
-1.26626e-05 -1.12291e-05 2.69238e+25 -0.625912 0.514593 272.001 
-1.07512e-05 -1.12291e-05 2.69224e+25 -1.06308 1.06866 272.033 
-8.83992e-06 -1.12291e-05 2.69181e+25 -1.79012 0.977823 272.024 
-6.92858e-06 -1.12291e-05 2.69223e+25 -2.138 0.677525 272.061 
-5.01725e-06 -1.12291e-05 2.69295e+25 -2.62162 0.707965 271.902 
-3.10592e-06 -1.12291e-05 2.69162e+25 -2.89096 0.330556 272.091 
-1.19458e-06 -1.12291e-05 2.69218e+25 -3.12695 0.169758 272.01 
-1.64852e-05 -1.07512e-05 2.68686e+25 0.0498039 0.113474 272.511 
-1.45739e-05 -1.07512e-05 2.69213e+25 -0.236258 0.575256 272.044 
-1.26626e-05 -1.07512e-05 2.69201e+25 -0.695019 0.596639 272.014 
-1.07512e-05 -1.07512e-05 2.69314e+25 -1.26343 1.14443 271.931 
-8.83992e-06 -1.07512e-05 2.69246e+25 -1.88169 1.20149 271.982 
-6.92858e-06 -1.07512e-05 2.69281e+25 -2.43841 0.760127 271.87 
-5.01725e-06 -1.07512e-05 2.69434e+25 -2.73144 0.796972 271.799 
-3.10592e-06 -1.07512e-05 2.69225e+25 -3.14088 0.397954 272.072 
-1.19458e-06 -1.07512e-05 2.69141e+25 -3.51051 0.250924 272.003 
-1.64852e-05 -1.02734e-05 2.68817e+25 -0.123189 0.107996 272.476 
-1.45739e-05 -1.02734e-05 2.69183e+25 -0.180828 0.701191 272.059 
-1.26626e-05 -1.02734e-05 2.69199e+25 -0.781282 0.8263 271.976 
-1.07512e-05 -1.02734e-05 2.69221e+25 -1.33573 1.29376 271.962 
-8.83992e-06 -1.02734e-05 2.69323e+25 -2.0277 1.45052 271.958 
-6.92858e-06 -1.02734e-05 2.69247e+25 -2.59262 0.863353 271.936 
-5.01725e-06 -1.02734e-05 2.6939e+25 -2.91641 0.907047 271.847 
-3.10592e-06 -1.02734e-05 2.69196e+25 -3.46187 0.568794 271.984 
-1.19458e-06 -1.02734e-05 2.69278e+25 -3.78766 0.260241 271.995 
-1.64852e-05 -9.79558e-06 2.68772e+25 -0.10832 0.14335 272.487 
-1.45739e-05 -9.79558e-06 2.69192e+25 -0.0828298 0.793809 272.038 
-1.26626e-05 -9.79558e-06 2.69347e+25 -0.799278 1.02095 271.867 
-1.07512e-05 -9.79558e-06 2.69137e+25 -1.41009 1.50627 271.984 
-8.83992e-06 -9.79558e-06 2.69332e+25 -2.0815 1.58454 271.963 
-6.92858e-06 -9.79558e-06 2.69082e+25 -2.69332 1.04366 272.055 
-5.01725e-06 -9.79558e-06 2.69455e+25 -3.24791 0.984058 271.771 
-3.10592e-06 -9.79558e-06 2.69178e+25 -3.62996 0.743183 272.035 
-1.19458e-06 -9.79558e-06 2.69345e+25 -3.96615 0.297334 271.956 
-1.64852e-05 -9.31775e-06 2.68675e+25 -0.0525006 0.220825 272.553 
-1.45739e-05 -9.31775e-06 2.69261e+25 -0.124447 0.81745 272.032 
-1.26626e-05 -9.31775e-06 2.69306e+25 -0.790635 1.21142 271.912 
-1.07512e-05 -9.31775e-06 2.69346e+25 -1.48444 1.67524 271.841 
-8.83992e-06 -9.31775e-06 2.69052e+25 -2.07699 1.72597 272.046 
-6.92858e-06 -9.31775e-06 2.69104e+25 -2.74806 1.3261 272.115 
-5.01725e-06 -9.31775e-06 2.69405e+25 -3.58011 1.01438 271.809 
-3.10592e-06 -9.31775e-06 2.69193e+25 -3.92675 0.874306 272.052 
-1.19458e-06 -9.31775e-06 2.69183e+25 -4.1199 0.307689 271.999 
-1.64852e-05 -8.83992e-06 2.68633e+25 -0.0120009 0.248383 272.613 
-1.45739e-05 -8.83992e-06 2.6921e+25 -0.238771 0.905873 272.04 
-1.26626e-05 -8.83992e-06 2.69363e+25 -0.725141 1.38403 271.822 
-1.07512e-05 -8.83992e-06 2.6932e+25 -1.58292 1.83695 271.863 
-8.83992e-06 -8.83992e-06 2.69254e+25 -2.11648 1.84928 271.994 
-6.92858e-06 -8.83992e-06 2.69082e+25 -3.04586 1.54375 272.109 
-5.01725e-06 -8.83992e-06 2.69464e+25 -3.72127 1.09795 271.756 
-3.10592e-06 -8.83992e-06 2.6911e+25 -4.18906 0.926704 272.049 
-1.19458e-06 -8.83992e-06 2.69138e+25 -4.51488 0.301471 272.092 
-1.64852e-05 -8.36208e-06 2.68735e+25 -0.0786882 0.336032 272.578 
-1.45739e-05 -8.36208e-06 2.69196e+25 -0.371379 0.995884 272.066 
-1.26626e-05 -8.36208e-06 2.69308e+25 -0.877725 1.50338 271.891 
-1.07512e-05 -8.36208e-06 2.69293e+25 -1.5849 2.00349 271.88 
-8.83992e-06 -8.36208e-06 2.69279e+25 -2.2435 1.99072 271.957 
-6.92858e-06 -8.36208e-06 2.69086e+25 -3.08646 1.75711 272.117 
-5.01725e-06 -8.36208e-06 2.69288e+25 -3.86465 1.3125 271.935 
-3.10592e-06 -8.36208e-06 2.69147e+25 -4.5362 1.02856 272.078 
-1.19458e-06 -8.36208e-06 2.69145e+25 -4.91079 0.273652 272.127 
-1.64852e-05 -7.88425e-06 2.68864e+25 -0.0200796 0.418362 272.512 
-1.45739e-05 -7.88425e-06 2.6927e+25 -0.384608 1.11241 271.963 
-1.26626e-05 -7.88425e-06 2.69238e+25 -1.00004 1.63098 271.862 
-1.07512e-05 -7.88425e-06 2.69261e+25 -1.60166 2.15572 271.951 
-8.83992e-06 -7.88425e-06 2.69195e+25 -2.44231 2.19106 272.028 
-6.92858e-06 -7.88425e-06 2.69109e+25 -3.19545 1.9295 272.09 
-5.01725e-06 -7.88425e-06 2.69189e+25 -3.89501 1.49856 272.031 
-3.10592e-06 -7.88425e-06 2.69135e+25 -4.6454 1.16382 272.076 
-1.19458e-06 -7.88425e-06 2.69103e+25 -5.09137 0.339035 272.109 
-1.64852e-05 -7.40642e-06 2.6879e+25 0.0436159 0.392151 272.454 
-1.45739e-05 -7.40642e-06 2.69211e+25 -0.488439 1.32061 272.027 
-1.26626e-05 -7.40642e-06 2.69473e+25 -1.08323 1.86455 271.802 
-1.07512e-05 -7.40642e-06 2.69201e+25 -1.68469 2.34761 271.985 
-8.83992e-06 -7.40642e-06 2.6933e+25 -2.48844 2.43645 271.963 
-6.92858e-06 -7.40642e-06 2.69013e+25 -3.41247 2.11642 272.138 
-5.01725e-06 -7.40642e-06 2.69295e+25 -4.01311 1.67372 271.982 
-3.10592e-06 -7.40642e-06 2.69171e+25 -4.73236 1.29346 272.026 
-1.19458e-06 -7.40642e-06 2.69149e+25 -5.24639 0.462445 272.063 
-1.64852e-05 -6.92858e-06 2.68954e+25 -0.0278964 0.408854 272.378 
-1.45739e-05 -6.92858e-06 2.69373e+25 -0.432801 1.58429 271.859 
-1.26626e-05 -6.92858e-06 2.6933e+25 -1.07486 1.99988 271.82 
-1.07512e-05 -6.92858e-06 2.69072e+25 -1.71672 2.51629 272.095 
-8.83992e-06 -6.92858e-06 2.69242e+25 -2.59306 2.63497 271.864 
-6.92858e-06 -6.92858e-06 2.69154e+25 -3.54304 2.30706 272.065 
-5.01725e-06 -6.92858e-06 2.69142e+25 -4.08334 1.87673 272.041 
-3.10592e-06 -6.92858e-06 2.69313e+25 -4.85887 1.48001 271.895 
-1.19458e-06 -6.92858e-06 2.69179e+25 -5.35669 0.579397 272.02 
-1.64852e-05 -6.45075e-06 2.69003e+25 -0.0629949 0.353092 272.374 
-1.45739e-05 -6.45075e-06 2.69305e+25 -0.345049 1.72652 271.847 
-1.26626e-05 -6.45075e-06 2.6961e+25 -1.07607 2.1525 271.73 
-1.07512e-05 -6.45075e-06 2.6915e+25 -1.80083 2.78072 272.041 
-8.83992e-06 -6.45075e-06 2.69406e+25 -2.81672 2.86207 271.848 
-6.92858e-06 -6.45075e-06 2.69244e+25 -3.51299 2.53324 271.956 
-5.01725e-06 -6.45075e-06 2.69251e+25 -4.22936 2.02861 271.976 
-3.10592e-06 -6.45075e-06 2.69278e+25 -4.98547 1.64696 271.95 
-1.19458e-06 -6.45075e-06 2.69168e+25 -5.59507 0.679512 272.005 
-1.64852e-05 -5.97292e-06 2.68877e+25 -0.0806305 0.398835 272.455 
-1.45739e-05 -5.97292e-06 2.69278e+25 -0.46486 1.80032 271.871 
-1.26626e-05 -5.97292e-06 2.69432e+25 -1.10912 2.36368 271.788 
-1.07512e-05 -5.97292e-06 2.69274e+25 -2.07047 3.02003 271.954 
-8.83992e-06 -5.97292e-06 2.69472e+25 -2.88044 3.11653 271.762 
-6.92858e-06 -5.97292e-06 2.69339e+25 -3.67906 2.80552 271.798 
-5.01725e-06 -5.97292e-06 2.69205e+25 -4.52511 2.19507 271.967 
-3.10592e-06 -5.97292e-06 2.69069e+25 -5.08963 1.77944 272.105 
-1.19458e-06 -5.97292e-06 2.69267e+25 -5.78552 0.751177 271.987 
-1.64852e-05 -5.49508e-06 2.68818e+25 0.0107568 0.526942 272.516 
-1.45739e-05 -5.49508e-06 2.69216e+25 -0.456863 1.94691 271.977 
-1.26626e-05 -5.49508e-06 2.69413e+25 -1.24294 2.59 271.854 
-1.07512e-05 -5.49508e-06 2.69421e+25 -2.1841 3.21845 271.793 
-8.83992e-06 -5.49508e-06 2.69362e+25 -2.92731 3.31663 271.785 
-6.92858e-06 -5.49508e-06 2.69217e+25 -3.72101 3.03332 271.816 
-5.01725e-06 -5.49508e-06 2.69434e+25 -4.68504 2.34623 271.794 
-3.10592e-06 -5.49508e-06 2.69157e+25 -5.3295 1.93993 272.021 
-1.19458e-06 -5.49508e-06 2.69079e+25 -5.97488 0.931228 272.078 
-1.64852e-05 -5.01725e-06 2.68817e+25 -0.0371421 0.628796 272.364 
-1.45739e-05 -5.01725e-06 2.69067e+25 -0.504577 1.96774 272.052 
-1.26626e-05 -5.01725e-06 2.69288e+25 -1.30306 2.80011 271.939 
-1.07512e-05 -5.01725e-06 2.69435e+25 -2.28811 3.38011 271.804 
-8.83992e-06 -5.01725e-06 2.69382e+25 -2.9165 3.55066 271.719 
-6.92858e-06 -5.01725e-06 2.69191e+25 -3.88575 3.30821 271.931 
-5.01725e-06 -5.01725e-06 2.69269e+25 -4.90321 2.60824 271.905 
-3.10592e-06 -5.01725e-06 2.69157e+25 -5.5534 2.08413 272.016 
-1.19458e-06 -5.01725e-06 2.69115e+25 -6.11907 1.12091 272.057 
-1.64852e-05 -4.53942e-06 2.68811e+25 -0.0300732 0.660468 272.381 
-1.45739e-05 -4.53942e-06 2.69157e+25 -0.498595 2.053 272.064 
-1.26626e-05 -4.53942e-06 2.69127e+25 -1.17841 2.96103 271.99 
-1.07512e-05 -4.53942e-06 2.6941e+25 -2.25586 3.64036 271.847 
-8.83992e-06 -4.53942e-06 2.69328e+25 -2.9623 3.72957 271.791 
-6.92858e-06 -4.53942e-06 2.69006e+25 -4.01099 3.50722 272.055 
-5.01725e-06 -4.53942e-06 2.69102e+25 -4.92567 2.82712 272.096 
-3.10592e-06 -4.53942e-06 2.69127e+25 -5.6286 2.20205 272.053 
-1.19458e-06 -4.53942e-06 2.69033e+25 -6.11927 1.34141 272.085 
-1.64852e-05 -4.06158e-06 2.68799e+25 -0.00807854 0.693653 272.377 
-1.45739e-05 -4.06158e-06 2.69241e+25 -0.603004 2.18372 272.026 
-1.26626e-05 -4.06158e-06 2.69285e+25 -1.23402 3.1793 271.949 
-1.07512e-05 -4.06158e-06 2.69278e+25 -2.1701 3.83361 271.807 
-8.83992e-06 -4.06158e-06 2.6933e+25 -3.21124 3.98095 271.865 
-6.92858e-06 -4.06158e-06 2.68866e+25 -3.94102 3.62971 272.228 
-5.01725e-06 -4.06158e-06 2.68896e+25 -4.99481 2.98731 272.165 
-3.10592e-06 -4.06158e-06 2.69181e+25 -5.71165 2.35981 271.929 
-1.19458e-06 -4.06158e-06 2.6908e+25 -6.20357 1.46413 272.104 
-1.64852e-05 -3.58375e-06 2.68838e+25 -0.136159 0.744149 272.476 
-1.45739e-05 -3.58375e-06 2.69076e+25 -0.57008 2.32615 272.108 
-1.26626e-05 -3.58375e-06 2.69135e+25 -1.06549 3.43582 271.98 
-1.07512e-05 -3.58375e-06 2.69243e+25 -2.02925 4.04235 271.914 
-8.83992e-06 -3.58375e-06 2.69195e+25 -3.15395 4.35619 271.907 
-6.92858e-06 -3.58375e-06 2.68886e+25 -4.00534 3.8154 272.191 
-5.01725e-06 -3.58375e-06 2.6884e+25 -5.03887 3.24445 272.252 
-3.10592e-06 -3.58375e-06 2.69236e+25 -5.90759 2.55824 271.855 
-1.19458e-06 -3.58375e-06 2.69102e+25 -6.41729 1.49958 272.13 
-1.64852e-05 -3.10592e-06 2.68714e+25 -0.170376 0.896589 272.534 
-1.45739e-05 -3.10592e-06 2.69009e+25 -0.574197 2.51971 272.162 
-1.26626e-05 -3.10592e-06 2.69281e+25 -1.1541 3.67767 271.998 
-1.07512e-05 -3.10592e-06 2.69274e+25 -1.99568 4.25969 271.879 
-8.83992e-06 -3.10592e-06 2.69349e+25 -3.12602 4.60843 271.855 
-6.92858e-06 -3.10592e-06 2.69015e+25 -4.18438 4.03348 272.063 
-5.01725e-06 -3.10592e-06 2.68941e+25 -5.18076 3.54161 272.204 
-3.10592e-06 -3.10592e-06 2.69123e+25 -5.94927 2.73548 272.004 
-1.19458e-06 -3.10592e-06 2.68874e+25 -6.51578 1.61135 272.158 
-1.64852e-05 -2.62808e-06 2.68756e+25 -0.0303173 1.01929 272.467 
-1.45739e-05 -2.62808e-06 2.69226e+25 -0.470319 2.6463 272.073 
-1.26626e-05 -2.62808e-06 2.69095e+25 -1.29875 3.84429 272.052 
-1.07512e-05 -2.62808e-06 2.69192e+25 -2.01784 4.49217 271.915 
-8.83992e-06 -2.62808e-06 2.69275e+25 -3.01059 4.76568 271.866 
-6.92858e-06 -2.62808e-06 2.69032e+25 -4.16157 4.34678 272.093 
-5.01725e-06 -2.62808e-06 2.69055e+25 -5.2122 3.79439 272.082 
-3.10592e-06 -2.62808e-06 2.69085e+25 -6.01415 2.92092 272.05 
-1.19458e-06 -2.62808e-06 2.6909e+25 -6.58618 1.75568 272.058 
-1.64852e-05 -2.15025e-06 2.68759e+25 0.00633306 1.06678 272.518 
-1.45739e-05 -2.15025e-06 2.69128e+25 -0.45281 2.81599 272.141 
-1.26626e-05 -2.15025e-06 2.69157e+25 -1.26108 4.08775 272.018 
-1.07512e-05 -2.15025e-06 2.69141e+25 -2.0986 4.77592 271.967 
-8.83992e-06 -2.15025e-06 2.69277e+25 -3.02543 5.01712 271.846 
-6.92858e-06 -2.15025e-06 2.69174e+25 -4.12852 4.63214 272.037 
-5.01725e-06 -2.15025e-06 2.69118e+25 -5.08574 4.09346 272.083 
-3.10592e-06 -2.15025e-06 2.68949e+25 -6.02194 3.08159 272.138 
-1.19458e-06 -2.15025e-06 2.68982e+25 -6.69398 1.97013 272.088 
-1.64852e-05 -1.67242e-06 2.68695e+25 0.00963204 1.0539 272.537 
-1.45739e-05 -1.67242e-06 2.68924e+25 -0.318648 3.08854 272.193 
-1.26626e-05 -1.67242e-06 2.69191e+25 -1.27815 4.31772 271.944 
-1.07512e-05 -1.67242e-06 2.69152e+25 -2.27839 4.96906 271.968 
-8.83992e-06 -1.67242e-06 2.69251e+25 -2.99003 5.3258 271.862 
-6.92858e-06 -1.67242e-06 2.69058e+25 -4.15786 4.86742 271.983 
-5.01725e-06 -1.67242e-06 2.69076e+25 -5.01428 4.36128 272.012 
-3.10592e-06 -1.67242e-06 2.68946e+25 -6.00854 3.25734 272.155 
-1.19458e-06 -1.67242e-06 2.69046e+25 -6.84122 2.20359 272.069 
-1.64852e-05 -1.19458e-06 2.68633e+25 0.0546136 1.01884 272.628 
-1.45739e-05 -1.19458e-06 2.68855e+25 -0.295845 3.28239 272.262 
-1.26626e-05 -1.19458e-06 2.69223e+25 -1.19189 4.53258 271.935 
-1.07512e-05 -1.19458e-06 2.6926e+25 -2.12142 5.20563 271.917 
-8.83992e-06 -1.19458e-06 2.6936e+25 -2.97872 5.55379 271.804 
-6.92858e-06 -1.19458e-06 2.69282e+25 -3.93884 5.17276 271.85 
-5.01725e-06 -1.19458e-06 2.69138e+25 -4.9853 4.56679 271.953 
-3.10592e-06 -1.19458e-06 2.69074e+25 -6.08037 3.46718 272.044 
-1.19458e-06 -1.19458e-06 2.68969e+25 -6.91438 2.38307 272.087 
-1.64852e-05 -7.1675e-07 2.68664e+25 0.0138447 0.977462 272.534 
-1.45739e-05 -7.1675e-07 2.69014e+25 -0.277927 3.48821 272.155 
-1.26626e-05 -7.1675e-07 2.69302e+25 -1.2314 4.71774 271.898 
-1.07512e-05 -7.1675e-07 2.69095e+25 -2.03769 5.37512 271.998 
-8.83992e-06 -7.1675e-07 2.6922e+25 -3.01825 5.75466 271.871 
-6.92858e-06 -7.1675e-07 2.69104e+25 -3.94382 5.5067 271.905 
-5.01725e-06 -7.1675e-07 2.68931e+25 -5.08337 4.72401 272.072 
-3.10592e-06 -7.1675e-07 2.69132e+25 -6.14087 3.64121 271.982 
-1.19458e-06 -7.1675e-07 2.68946e+25 -7.02849 2.53847 272.072 
-1.64852e-05 -2.38917e-07 2.68545e+25 -0.0755344 0.989356 272.466 
-1.45739e-05 -2.38917e-07 2.68926e+25 -0.28881 3.59257 272.009 
-1.26626e-05 -2.38917e-07 2.68958e+25 -1.12365 4.97683 271.948 
-1.07512e-05 -2.38917e-07 2.68837e+25 -2.02512 5.62946 272.015 
-8.83992e-06 -2.38917e-07 2.68932e+25 -2.99316 5.99374 271.954 
-6.92858e-06 -2.38917e-07 2.68826e+25 -3.89757 5.75858 271.937 
-5.01725e-06 -2.38917e-07 2.68852e+25 -5.10679 4.98786 272.058 
-3.10592e-06 -2.38917e-07 2.68982e+25 -6.01953 3.95843 271.961 
-1.19458e-06 -2.38917e-07 2.68693e+25 -6.97817 2.76218 272.129 
-1.60074e-05 -1.69631e-05 2.6842e+25 0.0296806 0.040689 272.866 
-1.40961e-05 -1.69631e-05 2.68487e+25 0.0394165 -0.0294902 272.757 
-1.21847e-05 -1.69631e-05 2.68449e+25 -0.000251158 -0.0215323 272.823 
-1.02734e-05 -1.69631e-05 2.68432e+25 -0.0883391 -0.0375458 272.801 
-8.36208e-06 -1.69631e-05 2.6846e+25 -0.11257 0.0196523 272.902 
-6.45075e-06 -1.69631e-05 2.68528e+25 -0.110503 0.0299559 272.733 
-4.53942e-06 -1.69631e-05 2.6855e+25 -0.158412 -0.0246749 272.755 
-2.62808e-06 -1.69631e-05 2.68481e+25 -0.232518 -0.00421864 272.821 
-7.1675e-07 -1.69631e-05 2.68518e+25 -0.174035 -0.00891608 272.846 
-1.60074e-05 -1.64852e-05 2.68832e+25 0.0992244 0.0382746 272.434 
-1.40961e-05 -1.64852e-05 2.68713e+25 -0.0710954 -0.0496591 272.527 
-1.21847e-05 -1.64852e-05 2.68724e+25 -0.0442151 0.00955944 272.502 
-1.02734e-05 -1.64852e-05 2.68596e+25 -0.187562 0.0145686 272.653 
-8.36208e-06 -1.64852e-05 2.68778e+25 -0.171302 -0.0188643 272.499 
-6.45075e-06 -1.64852e-05 2.68842e+25 -0.238739 0.117637 272.435 
-4.53942e-06 -1.64852e-05 2.68816e+25 -0.45032 -0.036974 272.431 
-2.62808e-06 -1.64852e-05 2.68656e+25 -0.517735 0.0150614 272.57 
-7.1675e-07 -1.64852e-05 2.68724e+25 -0.414437 -0.0574739 272.516 
-1.60074e-05 -1.60074e-05 2.69097e+25 0.121378 0.00802768 272.256 
-1.40961e-05 -1.60074e-05 2.68826e+25 -0.121922 -0.0457317 272.353 
-1.21847e-05 -1.60074e-05 2.689e+25 -0.0215613 -0.00373936 272.293 
-1.02734e-05 -1.60074e-05 2.68685e+25 -0.158876 0.19464 272.528 
-8.36208e-06 -1.60074e-05 2.68863e+25 -0.293108 -0.0656393 272.346 
-6.45075e-06 -1.60074e-05 2.68978e+25 -0.456691 0.152633 272.229 
-4.53942e-06 -1.60074e-05 2.69058e+25 -0.739302 -0.107132 272.22 
-2.62808e-06 -1.60074e-05 2.68935e+25 -0.788614 0.0292319 272.317 
-7.1675e-07 -1.60074e-05 2.68838e+25 -0.789349 -0.05438 272.455 
-1.60074e-05 -1.55296e-05 2.68934e+25 0.0104144 -0.0563886 272.277 
-1.40961e-05 -1.55296e-05 2.69091e+25 -0.0987063 -0.0247205 272.151 
-1.21847e-05 -1.55296e-05 2.68946e+25 -0.103166 0.00892194 272.243 
-1.02734e-05 -1.55296e-05 2.68776e+25 -0.164209 0.319483 272.43 
-8.36208e-06 -1.55296e-05 2.68981e+25 -0.424429 -0.0592161 272.24 
-6.45075e-06 -1.55296e-05 2.69116e+25 -0.692887 0.221602 272.071 
-4.53942e-06 -1.55296e-05 2.69108e+25 -1.06694 -0.0690955 272.125 
-2.62808e-06 -1.55296e-05 2.69001e+25 -0.937546 0.066673 272.172 
-7.1675e-07 -1.55296e-05 2.68874e+25 -1.12385 0.0080008 272.369 
-1.60074e-05 -1.50517e-05 2.68884e+25 -0.0539225 -0.0611326 272.379 
-1.40961e-05 -1.50517e-05 2.69188e+25 0.0932132 0.0265939 272.129 
-1.21847e-05 -1.50517e-05 2.69022e+25 -0.135494 0.0563875 272.185 
-1.02734e-05 -1.50517e-05 2.68918e+25 -0.237866 0.340189 272.325 
-8.36208e-06 -1.50517e-05 2.69077e+25 -0.698394 0.0451149 272.18 
-6.45075e-06 -1.50517e-05 2.69135e+25 -0.976943 0.307735 272.121 
-4.53942e-06 -1.50517e-05 2.69257e+25 -1.22197 0.0139504 272.067 
-2.62808e-06 -1.50517e-05 2.69185e+25 -1.24493 0.048146 272.082 
-7.1675e-07 -1.50517e-05 2.69065e+25 -1.45503 0.071712 272.208 
-1.60074e-05 -1.45739e-05 2.69011e+25 -0.0244463 -0.120871 272.306 
-1.40961e-05 -1.45739e-05 2.69153e+25 0.0107751 0.0906296 272.097 
-1.21847e-05 -1.45739e-05 2.69051e+25 -0.198568 0.0872454 272.186 
-1.02734e-05 -1.45739e-05 2.69082e+25 -0.411679 0.293185 272.13 
-8.36208e-06 -1.45739e-05 2.68947e+25 -0.895337 0.160821 272.244 
-6.45075e-06 -1.45739e-05 2.69148e+25 -1.17209 0.430356 271.998 
-4.53942e-06 -1.45739e-05 2.69181e+25 -1.46686 0.035828 272.095 
-2.62808e-06 -1.45739e-05 2.69228e+25 -1.55336 0.113956 271.997 
-7.1675e-07 -1.45739e-05 2.68941e+25 -1.66387 0.0514673 272.198 
-1.60074e-05 -1.40961e-05 2.68894e+25 -0.0443015 -0.0727594 272.374 
-1.40961e-05 -1.40961e-05 2.69281e+25 -0.138879 0.10655 272.072 
-1.21847e-05 -1.40961e-05 2.69192e+25 -0.34445 0.151418 272.103 
-1.02734e-05 -1.40961e-05 2.69111e+25 -0.610643 0.31771 272.085 
-8.36208e-06 -1.40961e-05 2.69045e+25 -0.925241 0.280646 272.14 
-6.45075e-06 -1.40961e-05 2.69364e+25 -1.3393 0.535278 271.923 
-4.53942e-06 -1.40961e-05 2.69335e+25 -1.66635 0.103198 271.941 
-2.62808e-06 -1.40961e-05 2.69172e+25 -1.73221 0.158752 272.035 
-7.1675e-07 -1.40961e-05 2.69136e+25 -1.85414 0.057029 272.07 
-1.60074e-05 -1.36182e-05 2.68792e+25 -0.0487549 -0.0132899 272.425 
-1.40961e-05 -1.36182e-05 2.69198e+25 -0.309704 0.181944 272.003 
-1.21847e-05 -1.36182e-05 2.6916e+25 -0.597216 0.199411 272.061 
-1.02734e-05 -1.36182e-05 2.69146e+25 -0.852089 0.384584 272.057 
-8.36208e-06 -1.36182e-05 2.69207e+25 -1.16177 0.455007 271.999 
-6.45075e-06 -1.36182e-05 2.69306e+25 -1.62395 0.583671 271.902 
-4.53942e-06 -1.36182e-05 2.69339e+25 -1.87009 0.209754 271.954 
-2.62808e-06 -1.36182e-05 2.69196e+25 -1.92733 0.134306 272.039 
-7.1675e-07 -1.36182e-05 2.68999e+25 -2.00158 0.0858288 272.099 
-1.60074e-05 -1.31404e-05 2.68834e+25 -0.0817304 0.0623965 272.374 
-1.40961e-05 -1.31404e-05 2.69222e+25 -0.323517 0.19592 272.02 
-1.21847e-05 -1.31404e-05 2.69258e+25 -0.490523 0.233587 271.984 
-1.02734e-05 -1.31404e-05 2.69222e+25 -0.876338 0.563347 272.053 
-8.36208e-06 -1.31404e-05 2.69323e+25 -1.33779 0.636379 271.883 
-6.45075e-06 -1.31404e-05 2.69252e+25 -1.72788 0.636086 271.869 
-4.53942e-06 -1.31404e-05 2.69547e+25 -1.85189 0.351855 271.723 
-2.62808e-06 -1.31404e-05 2.69386e+25 -2.16599 0.0758107 271.983 
-7.1675e-07 -1.31404e-05 2.69091e+25 -2.20412 0.0783773 272.102 
-1.60074e-05 -1.26626e-05 2.68996e+25 -0.0612319 0.169412 272.296 
-1.40961e-05 -1.26626e-05 2.69207e+25 -0.255133 0.220275 272.071 
-1.21847e-05 -1.26626e-05 2.69385e+25 -0.51697 0.282118 271.866 
-1.02734e-05 -1.26626e-05 2.69094e+25 -1.08003 0.699151 272.098 
-8.36208e-06 -1.26626e-05 2.69409e+25 -1.47747 0.743439 271.861 
-6.45075e-06 -1.26626e-05 2.69252e+25 -1.99733 0.680214 271.966 
-4.53942e-06 -1.26626e-05 2.6928e+25 -1.97825 0.44668 271.833 
-2.62808e-06 -1.26626e-05 2.69306e+25 -2.40541 0.112811 271.974 
-7.1675e-07 -1.26626e-05 2.69224e+25 -2.30703 -0.0100978 272.015 
-1.60074e-05 -1.21847e-05 2.68845e+25 -0.0311408 0.27599 272.388 
-1.40961e-05 -1.21847e-05 2.69291e+25 -0.297831 0.272288 272.06 
-1.21847e-05 -1.21847e-05 2.69226e+25 -0.530519 0.438555 271.948 
-1.02734e-05 -1.21847e-05 2.69096e+25 -1.17571 0.881751 272.09 
-8.36208e-06 -1.21847e-05 2.69194e+25 -1.72214 0.897548 271.921 
-6.45075e-06 -1.21847e-05 2.69302e+25 -2.03267 0.692289 271.898 
-4.53942e-06 -1.21847e-05 2.69249e+25 -2.21551 0.479994 271.905 
-2.62808e-06 -1.21847e-05 2.69188e+25 -2.4701 0.156138 272.059 
-7.1675e-07 -1.21847e-05 2.69215e+25 -2.62716 -0.0466347 271.961 
-1.60074e-05 -1.17069e-05 2.6891e+25 -0.0278334 0.244934 272.276 
-1.40961e-05 -1.17069e-05 2.69295e+25 -0.337216 0.326166 271.913 
-1.21847e-05 -1.17069e-05 2.69116e+25 -0.717388 0.554048 272.078 
-1.02734e-05 -1.17069e-05 2.69181e+25 -1.2974 0.99746 272.097 
-8.36208e-06 -1.17069e-05 2.69223e+25 -1.84816 0.96521 271.958 
-6.45075e-06 -1.17069e-05 2.69291e+25 -2.0797 0.757478 271.986 
-4.53942e-06 -1.17069e-05 2.6931e+25 -2.40232 0.534975 271.953 
-2.62808e-06 -1.17069e-05 2.69279e+25 -2.73291 0.232476 271.994 
-7.1675e-07 -1.17069e-05 2.69292e+25 -2.90711 0.0366698 271.963 
-1.60074e-05 -1.12291e-05 2.69007e+25 -0.0586689 0.291439 272.26 
-1.40961e-05 -1.12291e-05 2.6923e+25 -0.379522 0.438351 271.983 
-1.21847e-05 -1.12291e-05 2.68997e+25 -0.686576 0.698496 272.222 
-1.02734e-05 -1.12291e-05 2.69223e+25 -1.16156 1.16265 272.055 
-8.36208e-06 -1.12291e-05 2.69198e+25 -1.96405 1.07958 271.99 
-6.45075e-06 -1.12291e-05 2.69234e+25 -2.21441 0.832444 272.012 
-4.53942e-06 -1.12291e-05 2.69326e+25 -2.6881 0.629311 271.852 
-2.62808e-06 -1.12291e-05 2.69264e+25 -3.00591 0.336881 272.064 
-7.1675e-07 -1.12291e-05 2.69312e+25 -3.2139 0.138 271.967 
-1.60074e-05 -1.07512e-05 2.68928e+25 -0.0227378 0.348299 272.349 
-1.40961e-05 -1.07512e-05 2.69235e+25 -0.378783 0.538053 272.068 
-1.21847e-05 -1.07512e-05 2.69113e+25 -0.828097 0.845379 272.11 
-1.02734e-05 -1.07512e-05 2.69262e+25 -1.30515 1.2522 271.995 
-8.36208e-06 -1.07512e-05 2.69095e+25 -2.0941 1.24685 272.083 
-6.45075e-06 -1.07512e-05 2.69318e+25 -2.44144 0.834716 271.991 
-4.53942e-06 -1.07512e-05 2.69289e+25 -2.81718 0.69512 271.86 
-2.62808e-06 -1.07512e-05 2.69154e+25 -3.2481 0.431624 272.101 
-7.1675e-07 -1.07512e-05 2.69184e+25 -3.52238 0.144492 271.901 
-1.60074e-05 -1.02734e-05 2.68952e+25 -0.124378 0.4307 272.272 
-1.40961e-05 -1.02734e-05 2.69219e+25 -0.300584 0.661059 272.078 
-1.21847e-05 -1.02734e-05 2.69172e+25 -0.96564 0.929589 272.033 
-1.02734e-05 -1.02734e-05 2.69211e+25 -1.53945 1.29889 271.994 
-8.36208e-06 -1.02734e-05 2.69217e+25 -2.25035 1.45125 271.952 
-6.45075e-06 -1.02734e-05 2.69258e+25 -2.7215 0.855273 271.953 
-4.53942e-06 -1.02734e-05 2.69422e+25 -2.99465 0.79247 271.805 
-2.62808e-06 -1.02734e-05 2.69113e+25 -3.64163 0.567798 272.124 
-7.1675e-07 -1.02734e-05 2.69267e+25 -3.80566 0.168985 271.953 
-1.60074e-05 -9.79558e-06 2.68922e+25 -0.165958 0.407086 272.277 
-1.40961e-05 -9.79558e-06 2.69098e+25 -0.194808 0.768601 272.081 
-1.21847e-05 -9.79558e-06 2.69231e+25 -1.01626 1.09249 271.908 
-1.02734e-05 -9.79558e-06 2.69259e+25 -1.60891 1.49518 272.001 
-8.36208e-06 -9.79558e-06 2.69182e+25 -2.18064 1.63227 271.966 
-6.45075e-06 -9.79558e-06 2.69159e+25 -2.94268 1.03169 272.058 
-4.53942e-06 -9.79558e-06 2.69373e+25 -3.34282 0.84841 271.779 
-2.62808e-06 -9.79558e-06 2.69044e+25 -3.76386 0.694615 272.15 
-7.1675e-07 -9.79558e-06 2.69165e+25 -3.95101 0.132997 271.979 
-1.60074e-05 -9.31775e-06 2.68939e+25 -0.0645843 0.428657 272.326 
-1.40961e-05 -9.31775e-06 2.69208e+25 -0.235552 0.941292 271.946 
-1.21847e-05 -9.31775e-06 2.69409e+25 -0.923594 1.27428 271.802 
-1.02734e-05 -9.31775e-06 2.69243e+25 -1.74839 1.73633 271.968 
-8.36208e-06 -9.31775e-06 2.693e+25 -2.18874 1.72971 272.019 
-6.45075e-06 -9.31775e-06 2.69222e+25 -2.97331 1.23812 272.015 
-4.53942e-06 -9.31775e-06 2.69325e+25 -3.64948 0.958694 271.822 
-2.62808e-06 -9.31775e-06 2.69101e+25 -3.99921 0.797289 272.12 
-7.1675e-07 -9.31775e-06 2.69287e+25 -4.10728 0.109807 271.994 
-1.60074e-05 -8.83992e-06 2.68846e+25 -0.0729077 0.431049 272.411 
-1.40961e-05 -8.83992e-06 2.69169e+25 -0.32313 1.06401 271.936 
-1.21847e-05 -8.83992e-06 2.69389e+25 -0.885902 1.41686 271.838 
-1.02734e-05 -8.83992e-06 2.69281e+25 -1.74971 1.97527 271.979 
-8.36208e-06 -8.83992e-06 2.6924e+25 -2.25355 1.83317 272.082 
-6.45075e-06 -8.83992e-06 2.6915e+25 -3.23994 1.46595 272.015 
-4.53942e-06 -8.83992e-06 2.6936e+25 -3.86615 1.09084 271.902 
-2.62808e-06 -8.83992e-06 2.69147e+25 -4.31073 0.907444 272.136 
-7.1675e-07 -8.83992e-06 2.69232e+25 -4.51356 0.0933562 272.063 
-1.60074e-05 -8.36208e-06 2.68887e+25 -0.135455 0.468788 272.426 
-1.40961e-05 -8.36208e-06 2.69201e+25 -0.48362 1.14677 272.046 
-1.21847e-05 -8.36208e-06 2.69346e+25 -1.00654 1.63757 271.904 
-1.02734e-05 -8.36208e-06 2.69373e+25 -1.69108 2.0675 271.837 
-8.36208e-06 -8.36208e-06 2.69202e+25 -2.40027 1.99142 272.005 
-6.45075e-06 -8.36208e-06 2.69204e+25 -3.3307 1.68928 272.046 
-4.53942e-06 -8.36208e-06 2.69134e+25 -4.00366 1.2134 272.035 
-2.62808e-06 -8.36208e-06 2.6909e+25 -4.5916 0.976949 272.102 
-7.1675e-07 -8.36208e-06 2.69182e+25 -4.91838 0.091336 272.045 
-1.60074e-05 -7.88425e-06 2.68861e+25 -0.046065 0.454985 272.306 
-1.40961e-05 -7.88425e-06 2.69247e+25 -0.50972 1.30507 271.953 
-1.21847e-05 -7.88425e-06 2.69304e+25 -1.17214 1.80116 271.844 
-1.02734e-05 -7.88425e-06 2.69318e+25 -1.80815 2.22674 271.931 
-8.36208e-06 -7.88425e-06 2.69283e+25 -2.63179 2.18212 271.945 
-6.45075e-06 -7.88425e-06 2.6926e+25 -3.36561 1.9156 271.959 
-4.53942e-06 -7.88425e-06 2.69206e+25 -4.09729 1.3898 272.032 
-2.62808e-06 -7.88425e-06 2.69191e+25 -4.78358 1.05818 272.07 
-7.1675e-07 -7.88425e-06 2.6913e+25 -5.17058 0.154564 272.077 
-1.60074e-05 -7.40642e-06 2.68893e+25 0.00419236 0.534455 272.247 
-1.40961e-05 -7.40642e-06 2.69226e+25 -0.74945 1.49274 272.008 
-1.21847e-05 -7.40642e-06 2.6939e+25 -1.27877 1.91639 271.844 
-1.02734e-05 -7.40642e-06 2.69157e+25 -1.87517 2.38395 271.959 
-8.36208e-06 -7.40642e-06 2.69342e+25 -2.7148 2.35937 271.896 
-6.45075e-06 -7.40642e-06 2.69236e+25 -3.54018 2.06219 271.995 
-4.53942e-06 -7.40642e-06 2.69114e+25 -4.16962 1.57529 272.067 
-2.62808e-06 -7.40642e-06 2.69186e+25 -4.85862 1.19524 272.142 
-7.1675e-07 -7.40642e-06 2.6915e+25 -5.40715 0.264927 272.044 
-1.60074e-05 -6.92858e-06 2.69118e+25 -0.0154053 0.56658 272.18 
-1.40961e-05 -6.92858e-06 2.69408e+25 -0.578414 1.6284 271.84 
-1.21847e-05 -6.92858e-06 2.69289e+25 -1.22943 2.13504 271.817 
-1.02734e-05 -6.92858e-06 2.69085e+25 -1.95436 2.65845 272.093 
-8.36208e-06 -6.92858e-06 2.69315e+25 -2.79999 2.62748 271.879 
-6.45075e-06 -6.92858e-06 2.69152e+25 -3.7264 2.15573 272.023 
-4.53942e-06 -6.92858e-06 2.69167e+25 -4.30739 1.74963 271.974 
-2.62808e-06 -6.92858e-06 2.69136e+25 -5.00138 1.30808 272.014 
-7.1675e-07 -6.92858e-06 2.69028e+25 -5.44729 0.345515 272.128 
-1.60074e-05 -6.45075e-06 2.69157e+25 -0.0559795 0.624635 272.137 
-1.40961e-05 -6.45075e-06 2.69266e+25 -0.470178 1.7996 271.853 
-1.21847e-05 -6.45075e-06 2.69358e+25 -1.2828 2.33002 271.886 
-1.02734e-05 -6.45075e-06 2.69173e+25 -2.06829 2.84988 272.009 
-8.36208e-06 -6.45075e-06 2.69369e+25 -3.03037 2.81324 271.814 
-6.45075e-06 -6.45075e-06 2.69287e+25 -3.75511 2.33971 271.94 
-4.53942e-06 -6.45075e-06 2.69131e+25 -4.43062 2.00955 272.011 
-2.62808e-06 -6.45075e-06 2.69074e+25 -5.19052 1.44314 272.084 
-7.1675e-07 -6.45075e-06 2.69095e+25 -5.64713 0.429609 272.068 
-1.60074e-05 -5.97292e-06 2.69061e+25 -0.16338 0.649206 272.157 
-1.40961e-05 -5.97292e-06 2.6935e+25 -0.641448 1.99114 271.847 
-1.21847e-05 -5.97292e-06 2.69202e+25 -1.32677 2.49837 271.897 
-1.02734e-05 -5.97292e-06 2.6933e+25 -2.26625 3.07417 271.862 
-8.36208e-06 -5.97292e-06 2.69278e+25 -3.08699 2.92035 271.829 
-6.45075e-06 -5.97292e-06 2.69287e+25 -3.9007 2.56728 271.884 
-4.53942e-06 -5.97292e-06 2.69247e+25 -4.68126 2.1903 271.934 
-2.62808e-06 -5.97292e-06 2.68994e+25 -5.29298 1.66435 272.109 
-7.1675e-07 -5.97292e-06 2.69143e+25 -5.89004 0.512996 272.046 
-1.60074e-05 -5.49508e-06 2.69031e+25 -0.173945 0.764548 272.258 
-1.40961e-05 -5.49508e-06 2.69232e+25 -0.607833 2.16807 272.019 
-1.21847e-05 -5.49508e-06 2.69269e+25 -1.46317 2.72495 271.977 
-1.02734e-05 -5.49508e-06 2.69402e+25 -2.3198 3.24084 271.781 
-8.36208e-06 -5.49508e-06 2.69431e+25 -3.15715 3.13004 271.767 
-6.45075e-06 -5.49508e-06 2.69215e+25 -4.00018 2.81058 271.913 
-4.53942e-06 -5.49508e-06 2.69315e+25 -4.82595 2.3427 271.833 
-2.62808e-06 -5.49508e-06 2.68955e+25 -5.47036 1.87646 272.111 
-7.1675e-07 -5.49508e-06 2.69135e+25 -6.09884 0.586393 272.089 
-1.60074e-05 -5.01725e-06 2.69114e+25 -0.115494 0.924369 272.14 
-1.40961e-05 -5.01725e-06 2.69125e+25 -0.551273 2.33363 272.096 
-1.21847e-05 -5.01725e-06 2.69152e+25 -1.47991 2.93198 272.008 
-1.02734e-05 -5.01725e-06 2.69422e+25 -2.50666 3.42969 271.705 
-8.36208e-06 -5.01725e-06 2.69357e+25 -3.2097 3.41836 271.765 
-6.45075e-06 -5.01725e-06 2.69114e+25 -4.12604 3.06061 271.985 
-4.53942e-06 -5.01725e-06 2.69273e+25 -5.11707 2.49047 271.921 
-2.62808e-06 -5.01725e-06 2.69071e+25 -5.65184 1.94398 272.037 
-7.1675e-07 -5.01725e-06 2.69246e+25 -6.30792 0.728316 272.016 
-1.60074e-05 -4.53942e-06 2.69152e+25 -0.110849 1.07371 272.081 
-1.40961e-05 -4.53942e-06 2.69138e+25 -0.613609 2.46556 272.066 
-1.21847e-05 -4.53942e-06 2.69191e+25 -1.43665 3.23969 271.987 
-1.02734e-05 -4.53942e-06 2.69388e+25 -2.48972 3.65516 271.752 
-8.36208e-06 -4.53942e-06 2.69248e+25 -3.20189 3.74482 271.915 
-6.45075e-06 -4.53942e-06 2.69157e+25 -4.17159 3.30301 272.072 
-4.53942e-06 -4.53942e-06 2.69255e+25 -5.16668 2.73818 271.882 
-2.62808e-06 -4.53942e-06 2.69061e+25 -5.73418 2.03307 272.063 
-7.1675e-07 -4.53942e-06 2.69056e+25 -6.33425 0.91884 272.066 
-1.60074e-05 -4.06158e-06 2.68949e+25 -0.130994 1.23127 272.217 
-1.40961e-05 -4.06158e-06 2.69134e+25 -0.73389 2.58332 272.111 
-1.21847e-05 -4.06158e-06 2.69161e+25 -1.44978 3.46858 271.977 
-1.02734e-05 -4.06158e-06 2.69387e+25 -2.37628 3.88247 271.798 
-8.36208e-06 -4.06158e-06 2.69373e+25 -3.4842 3.99779 271.8 
-6.45075e-06 -4.06158e-06 2.68895e+25 -4.13538 3.51617 272.202 
-4.53942e-06 -4.06158e-06 2.69038e+25 -5.17245 2.99597 272.067 
-2.62808e-06 -4.06158e-06 2.69229e+25 -5.87641 2.11827 271.95 
-7.1675e-07 -4.06158e-06 2.69061e+25 -6.2667 1.07256 272.105 
-1.60074e-05 -3.58375e-06 2.68915e+25 -0.22318 1.36341 272.257 
-1.40961e-05 -3.58375e-06 2.68985e+25 -0.680826 2.673 272.139 
-1.21847e-05 -3.58375e-06 2.69216e+25 -1.27849 3.67281 271.911 
-1.02734e-05 -3.58375e-06 2.69317e+25 -2.24225 4.09637 271.883 
-8.36208e-06 -3.58375e-06 2.69375e+25 -3.44319 4.20747 271.781 
-6.45075e-06 -3.58375e-06 2.6895e+25 -4.24962 3.79457 272.133 
-4.53942e-06 -3.58375e-06 2.6903e+25 -5.27546 3.1704 272.162 
-2.62808e-06 -3.58375e-06 2.69171e+25 -6.08346 2.27636 271.982 
-7.1675e-07 -3.58375e-06 2.69011e+25 -6.4809 1.16832 272.203 
-1.60074e-05 -3.10592e-06 2.68907e+25 -0.266713 1.39782 272.24 
-1.40961e-05 -3.10592e-06 2.69083e+25 -0.756488 2.79301 272.069 
-1.21847e-05 -3.10592e-06 2.69226e+25 -1.37487 3.91308 271.969 
-1.02734e-05 -3.10592e-06 2.69161e+25 -2.21925 4.34163 271.918 
-8.36208e-06 -3.10592e-06 2.69389e+25 -3.33608 4.43819 271.8 
-6.45075e-06 -3.10592e-06 2.6899e+25 -4.45186 4.05637 272.163 
-4.53942e-06 -3.10592e-06 2.68998e+25 -5.44084 3.34405 272.174 
-2.62808e-06 -3.10592e-06 2.69154e+25 -6.1462 2.46353 271.973 
-7.1675e-07 -3.10592e-06 2.68883e+25 -6.61302 1.248 272.201 
-1.60074e-05 -2.62808e-06 2.68931e+25 -0.144924 1.44921 272.284 
-1.40961e-05 -2.62808e-06 2.69028e+25 -0.649308 2.99086 272.056 
-1.21847e-05 -2.62808e-06 2.69127e+25 -1.48873 4.15869 272.069 
-1.02734e-05 -2.62808e-06 2.69207e+25 -2.24712 4.54179 271.994 
-8.36208e-06 -2.62808e-06 2.69221e+25 -3.19907 4.68036 271.829 
-6.45075e-06 -2.62808e-06 2.69011e+25 -4.42938 4.25766 272.1 
-4.53942e-06 -2.62808e-06 2.69041e+25 -5.43518 3.59055 272.171 
-2.62808e-06 -2.62808e-06 2.69133e+25 -6.2336 2.65491 272.002 
-7.1675e-07 -2.62808e-06 2.68958e+25 -6.82749 1.41068 272.212 
-1.60074e-05 -2.15025e-06 2.68722e+25 -0.0947544 1.61267 272.462 
-1.40961e-05 -2.15025e-06 2.68869e+25 -0.668311 3.17101 272.199 
-1.21847e-05 -2.15025e-06 2.69169e+25 -1.52166 4.34673 271.967 
-1.02734e-05 -2.15025e-06 2.6923e+25 -2.3571 4.73752 271.983 
-8.36208e-06 -2.15025e-06 2.69343e+25 -3.32574 4.9333 271.771 
-6.45075e-06 -2.15025e-06 2.69068e+25 -4.38888 4.50539 272.094 
-4.53942e-06 -2.15025e-06 2.69029e+25 -5.40094 3.79572 272.156 
-2.62808e-06 -2.15025e-06 2.69045e+25 -6.16802 2.84564 272.02 
-7.1675e-07 -2.15025e-06 2.68965e+25 -6.91592 1.63468 272.099 
-1.60074e-05 -1.67242e-06 2.6869e+25 0.0373885 1.69721 272.388 
-1.40961e-05 -1.67242e-06 2.69061e+25 -0.537749 3.32634 272.151 
-1.21847e-05 -1.67242e-06 2.69159e+25 -1.48498 4.59574 271.939 
-1.02734e-05 -1.67242e-06 2.69148e+25 -2.46991 5.00117 271.948 
-8.36208e-06 -1.67242e-06 2.69282e+25 -3.29788 5.2736 271.872 
-6.45075e-06 -1.67242e-06 2.69005e+25 -4.38626 4.77572 272.051 
-4.53942e-06 -1.67242e-06 2.68985e+25 -5.19713 4.02099 272.155 
-2.62808e-06 -1.67242e-06 2.69029e+25 -6.21406 2.99286 272.084 
-7.1675e-07 -1.67242e-06 2.69068e+25 -7.01901 1.83492 271.982 
-1.60074e-05 -1.19458e-06 2.68721e+25 0.133443 1.6672 272.416 
-1.40961e-05 -1.19458e-06 2.68915e+25 -0.554231 3.60279 272.221 
-1.21847e-05 -1.19458e-06 2.69167e+25 -1.41314 4.82026 271.927 
-1.02734e-05 -1.19458e-06 2.69288e+25 -2.35337 5.22137 271.786 
-8.36208e-06 -1.19458e-06 2.69316e+25 -3.18441 5.53694 271.82 
-6.45075e-06 -1.19458e-06 2.69084e+25 -4.3226 5.07034 272.034 
-4.53942e-06 -1.19458e-06 2.6897e+25 -5.25265 4.30626 272.092 
-2.62808e-06 -1.19458e-06 2.69107e+25 -6.2203 3.1568 271.89 
-7.1675e-07 -1.19458e-06 2.68987e+25 -7.12235 2.06384 272.08 
-1.60074e-05 -7.1675e-07 2.68822e+25 0.0104228 1.65358 272.297 
-1.40961e-05 -7.1675e-07 2.69013e+25 -0.461287 3.85715 272.103 
-1.21847e-05 -7.1675e-07 2.69207e+25 -1.41023 5.02117 271.992 
-1.02734e-05 -7.1675e-07 2.69234e+25 -2.22046 5.50195 271.896 
-8.36208e-06 -7.1675e-07 2.6916e+25 -3.20207 5.71419 271.779 
-6.45075e-06 -7.1675e-07 2.69136e+25 -4.15828 5.31136 271.964 
-4.53942e-06 -7.1675e-07 2.6892e+25 -5.31438 4.61512 272.148 
-2.62808e-06 -7.1675e-07 2.69295e+25 -6.3432 3.3453 271.829 
-7.1675e-07 -7.1675e-07 2.69036e+25 -7.17231 2.29601 271.974 
-1.60074e-05 -2.38917e-07 2.68556e+25 -0.0988134 1.6683 272.292 
-1.40961e-05 -2.38917e-07 2.68794e+25 -0.425487 4.06217 272.016 
-1.21847e-05 -2.38917e-07 2.68957e+25 -1.36629 5.22046 271.99 
-1.02734e-05 -2.38917e-07 2.68944e+25 -2.32288 5.73193 271.937 
-8.36208e-06 -2.38917e-07 2.69017e+25 -3.26103 5.93215 271.866 
-6.45075e-06 -2.38917e-07 2.6874e+25 -4.17687 5.58625 272.033 
-4.53942e-06 -2.38917e-07 2.68923e+25 -5.32891 4.82476 271.937 
-2.62808e-06 -2.38917e-07 2.68913e+25 -6.33725 3.62194 271.911 
-7.1675e-07 -2.38917e-07 2.68711e+25 -7.16282 2.4257 272.117 
-1.55296e-05 -1.69631e-05 2.68487e+25 -0.0351446 0.0108707 272.767 
-1.36182e-05 -1.69631e-05 2.68368e+25 0.0330233 0.0335692 272.834 
-1.17069e-05 -1.69631e-05 2.68517e+25 0.0305847 0.0155655 272.828 
-9.79558e-06 -1.69631e-05 2.68482e+25 -0.103825 0.0196723 272.776 
-7.88425e-06 -1.69631e-05 2.68588e+25 -0.081811 -0.0332139 272.798 
-5.97292e-06 -1.69631e-05 2.6863e+25 -0.186235 0.0218359 272.692 
-4.06158e-06 -1.69631e-05 2.68569e+25 -0.143209 9.65528e-05 272.762 
-2.15025e-06 -1.69631e-05 2.68397e+25 -0.231223 -0.00435638 272.869 
-2.38917e-07 -1.69631e-05 2.6829e+25 -0.118214 -0.0461231 272.814 
-1.55296e-05 -1.64852e-05 2.68764e+25 0.0763652 0.0995819 272.503 
-1.36182e-05 -1.64852e-05 2.6873e+25 -0.0226813 0.0110285 272.548 
-1.17069e-05 -1.64852e-05 2.68753e+25 -0.078812 0.0309025 272.477 
-9.79558e-06 -1.64852e-05 2.68654e+25 -0.287852 0.0775388 272.576 
-7.88425e-06 -1.64852e-05 2.68703e+25 -0.162907 -0.0586851 272.538 
-5.97292e-06 -1.64852e-05 2.68774e+25 -0.291864 0.0353261 272.468 
-4.06158e-06 -1.64852e-05 2.68793e+25 -0.413753 -0.0413144 272.471 
-2.15025e-06 -1.64852e-05 2.68669e+25 -0.486735 -0.0340925 272.676 
-2.38917e-07 -1.64852e-05 2.68449e+25 -0.426079 0.00944167 272.481 
-1.55296e-05 -1.60074e-05 2.68862e+25 0.10036 0.139447 272.378 
-1.36182e-05 -1.60074e-05 2.68849e+25 -0.162172 -0.0223455 272.392 
-1.17069e-05 -1.60074e-05 2.68921e+25 0.018261 -0.0143177 272.339 
-9.79558e-06 -1.60074e-05 2.68898e+25 -0.338791 0.172424 272.377 
-7.88425e-06 -1.60074e-05 2.6882e+25 -0.349906 0.0408258 272.375 
-5.97292e-06 -1.60074e-05 2.69001e+25 -0.544173 0.185233 272.172 
-4.06158e-06 -1.60074e-05 2.69028e+25 -0.688626 0.000796274 272.294 
-2.15025e-06 -1.60074e-05 2.68887e+25 -0.783255 -0.075178 272.389 
-2.38917e-07 -1.60074e-05 2.68609e+25 -0.827787 0.0716868 272.397 
-1.55296e-05 -1.55296e-05 2.68833e+25 0.0285149 0.174177 272.319 
-1.36182e-05 -1.55296e-05 2.68933e+25 -0.072661 -0.0196725 272.259 
-1.17069e-05 -1.55296e-05 2.68867e+25 -0.147374 -0.0582228 272.332 
-9.79558e-06 -1.55296e-05 2.68956e+25 -0.261511 0.282884 272.247 
-7.88425e-06 -1.55296e-05 2.68935e+25 -0.453882 0.139764 272.258 
-5.97292e-06 -1.55296e-05 2.69184e+25 -0.805053 0.304098 272.051 
-4.06158e-06 -1.55296e-05 2.69102e+25 -1.06751 -0.0667492 272.115 
-2.15025e-06 -1.55296e-05 2.68936e+25 -0.955674 -0.0961528 272.24 
-2.38917e-07 -1.55296e-05 2.68817e+25 -1.17092 0.0618344 272.184 
-1.55296e-05 -1.50517e-05 2.69049e+25 0.00958458 0.131147 272.192 
-1.36182e-05 -1.50517e-05 2.69114e+25 0.0145484 0.0112734 272.152 
-1.17069e-05 -1.50517e-05 2.69011e+25 -0.240078 0.0362348 272.225 
-9.79558e-06 -1.50517e-05 2.69053e+25 -0.248633 0.358022 272.144 
-7.88425e-06 -1.50517e-05 2.69089e+25 -0.765087 0.136483 272.171 
-5.97292e-06 -1.50517e-05 2.69159e+25 -1.06305 0.429281 272.103 
-4.06158e-06 -1.50517e-05 2.6928e+25 -1.28444 -0.109943 271.98 
-2.15025e-06 -1.50517e-05 2.69166e+25 -1.32753 0.000637081 272.169 
-2.38917e-07 -1.50517e-05 2.68954e+25 -1.4294 0.0366511 272.091 
-1.55296e-05 -1.45739e-05 2.69014e+25 0.0348282 0.104993 272.235 
-1.36182e-05 -1.45739e-05 2.69132e+25 -0.00336201 0.0477886 272.032 
-1.17069e-05 -1.45739e-05 2.68929e+25 -0.245265 0.161336 272.252 
-9.79558e-06 -1.45739e-05 2.69265e+25 -0.394784 0.377876 272.048 
-7.88425e-06 -1.45739e-05 2.69022e+25 -0.999668 0.160004 272.172 
-5.97292e-06 -1.45739e-05 2.69171e+25 -1.27049 0.470833 271.994 
-4.06158e-06 -1.45739e-05 2.69216e+25 -1.46298 -0.0969141 272.063 
-2.15025e-06 -1.45739e-05 2.69126e+25 -1.64752 0.112734 272.146 
-2.38917e-07 -1.45739e-05 2.68872e+25 -1.69415 0.0262037 272.156 
-1.55296e-05 -1.40961e-05 2.68947e+25 -0.105021 0.0338794 272.277 
-1.36182e-05 -1.40961e-05 2.69216e+25 -0.242647 0.137595 271.96 
-1.17069e-05 -1.40961e-05 2.69126e+25 -0.380787 0.169166 272.152 
-9.79558e-06 -1.40961e-05 2.69219e+25 -0.669634 0.409644 272.01 
-7.88425e-06 -1.40961e-05 2.68978e+25 -1.07284 0.286851 272.134 
-5.97292e-06 -1.40961e-05 2.6934e+25 -1.46386 0.612919 271.914 
-4.06158e-06 -1.40961e-05 2.6933e+25 -1.78933 -0.0251393 271.969 
-2.15025e-06 -1.40961e-05 2.69169e+25 -1.76542 0.181067 272.041 
-2.38917e-07 -1.40961e-05 2.68898e+25 -1.88136 0.104923 272.068 
-1.55296e-05 -1.36182e-05 2.69045e+25 -0.130904 0.0968178 272.221 
-1.36182e-05 -1.36182e-05 2.69222e+25 -0.355394 0.223896 271.955 
-1.17069e-05 -1.36182e-05 2.69122e+25 -0.617934 0.176889 272.098 
-9.79558e-06 -1.36182e-05 2.69257e+25 -0.927502 0.439285 271.975 
-7.88425e-06 -1.36182e-05 2.69241e+25 -1.28899 0.419813 272.088 
-5.97292e-06 -1.36182e-05 2.69203e+25 -1.56377 0.608221 272.015 
-4.06158e-06 -1.36182e-05 2.69284e+25 -1.9977 0.0807628 271.941 
-2.15025e-06 -1.36182e-05 2.69103e+25 -1.87798 0.233522 272.118 
-2.38917e-07 -1.36182e-05 2.69048e+25 -1.96821 0.105407 272.047 
-1.55296e-05 -1.31404e-05 2.68962e+25 -0.164021 0.185085 272.294 
-1.36182e-05 -1.31404e-05 2.69191e+25 -0.334422 0.274626 272.064 
-1.17069e-05 -1.31404e-05 2.69306e+25 -0.547991 0.255269 271.962 
-9.79558e-06 -1.31404e-05 2.69219e+25 -1.05792 0.555684 271.969 
-7.88425e-06 -1.31404e-05 2.69297e+25 -1.50839 0.543713 271.976 
-5.97292e-06 -1.31404e-05 2.69348e+25 -1.77418 0.571317 271.907 
-4.06158e-06 -1.31404e-05 2.69393e+25 -1.99085 0.178409 271.917 
-2.15025e-06 -1.31404e-05 2.69181e+25 -2.16244 0.198949 272.046 
-2.38917e-07 -1.31404e-05 2.69e+25 -2.12932 -0.00197693 272.117 
-1.55296e-05 -1.26626e-05 2.6887e+25 -0.187937 0.271159 272.354 
-1.36182e-05 -1.26626e-05 2.69192e+25 -0.285201 0.282551 271.998 
-1.17069e-05 -1.26626e-05 2.69272e+25 -0.633807 0.40786 271.88 
-9.79558e-06 -1.26626e-05 2.69142e+25 -1.16481 0.672674 271.993 
-7.88425e-06 -1.26626e-05 2.69411e+25 -1.62957 0.697725 271.829 
-5.97292e-06 -1.26626e-05 2.69304e+25 -1.93751 0.499337 271.974 
-4.06158e-06 -1.26626e-05 2.69235e+25 -2.03185 0.318594 271.952 
-2.15025e-06 -1.26626e-05 2.69249e+25 -2.45542 0.225712 271.982 
-2.38917e-07 -1.26626e-05 2.69029e+25 -2.24707 -0.0511535 272.042 
-1.55296e-05 -1.21847e-05 2.68991e+25 -0.0505184 0.287788 272.228 
-1.36182e-05 -1.21847e-05 2.69229e+25 -0.363635 0.324898 271.986 
-1.17069e-05 -1.21847e-05 2.69262e+25 -0.687082 0.50564 271.989 
-9.79558e-06 -1.21847e-05 2.69196e+25 -1.35588 0.771023 272.02 
-7.88425e-06 -1.21847e-05 2.69328e+25 -1.8048 0.827498 271.919 
-5.97292e-06 -1.21847e-05 2.69212e+25 -2.11921 0.512556 271.933 
-4.06158e-06 -1.21847e-05 2.69342e+25 -2.24579 0.395109 271.876 
-2.15025e-06 -1.21847e-05 2.69275e+25 -2.512 0.281718 272.002 
-2.38917e-07 -1.21847e-05 2.69051e+25 -2.6132 -0.0748888 271.961 
-1.55296e-05 -1.17069e-05 2.69044e+25 -0.0336474 0.34275 272.193 
-1.36182e-05 -1.17069e-05 2.69185e+25 -0.409336 0.393299 272.004 
-1.17069e-05 -1.17069e-05 2.69059e+25 -0.804315 0.63868 272.087 
-9.79558e-06 -1.17069e-05 2.69266e+25 -1.4652 0.967213 271.973 
-7.88425e-06 -1.17069e-05 2.69144e+25 -1.94304 0.945427 271.982 
-5.97292e-06 -1.17069e-05 2.69199e+25 -2.21206 0.625322 272.013 
-4.06158e-06 -1.17069e-05 2.69366e+25 -2.52414 0.474271 271.922 
-2.15025e-06 -1.17069e-05 2.69183e+25 -2.79687 0.315654 272.014 
-2.38917e-07 -1.17069e-05 2.69058e+25 -2.98264 -0.0593609 271.988 
-1.55296e-05 -1.12291e-05 2.69047e+25 -0.166084 0.425193 272.128 
-1.36182e-05 -1.12291e-05 2.69274e+25 -0.513653 0.490477 272.03 
-1.17069e-05 -1.12291e-05 2.6908e+25 -0.903086 0.778138 272.177 
-9.79558e-06 -1.12291e-05 2.69333e+25 -1.33657 1.15284 271.932 
-7.88425e-06 -1.12291e-05 2.69187e+25 -2.07903 1.04118 272.04 
-5.97292e-06 -1.12291e-05 2.6935e+25 -2.29336 0.755241 271.953 
-4.06158e-06 -1.12291e-05 2.69251e+25 -2.78705 0.576729 271.956 
-2.15025e-06 -1.12291e-05 2.69165e+25 -3.07247 0.304202 272.065 
-2.38917e-07 -1.12291e-05 2.69096e+25 -3.26032 -0.0413939 271.953 
-1.55296e-05 -1.07512e-05 2.69051e+25 -0.132415 0.597187 272.202 
-1.36182e-05 -1.07512e-05 2.69186e+25 -0.477424 0.589905 272.043 
-1.17069e-05 -1.07512e-05 2.69111e+25 -0.942614 0.951105 272.127 
-9.79558e-06 -1.07512e-05 2.69303e+25 -1.39996 1.34757 271.945 
-7.88425e-06 -1.07512e-05 2.69196e+25 -2.26784 1.13556 272.056 
-5.97292e-06 -1.07512e-05 2.69381e+25 -2.45865 0.892217 271.943 
-4.06158e-06 -1.07512e-05 2.69299e+25 -2.90259 0.651228 271.902 
-2.15025e-06 -1.07512e-05 2.69036e+25 -3.31074 0.365039 272.201 
-2.38917e-07 -1.07512e-05 2.69151e+25 -3.48486 -0.00470846 271.927 
-1.55296e-05 -1.02734e-05 2.69073e+25 -0.0624455 0.602012 272.137 
-1.36182e-05 -1.02734e-05 2.69142e+25 -0.432032 0.692066 272.07 
-1.17069e-05 -1.02734e-05 2.69176e+25 -1.08028 1.10255 272.096 
-9.79558e-06 -1.02734e-05 2.69265e+25 -1.6566 1.50318 271.981 
-7.88425e-06 -1.02734e-05 2.69217e+25 -2.39011 1.24578 272.022 
-5.97292e-06 -1.02734e-05 2.69274e+25 -2.78231 0.937729 271.929 
-4.06158e-06 -1.02734e-05 2.69324e+25 -3.09216 0.789467 271.855 
-2.15025e-06 -1.02734e-05 2.69019e+25 -3.76104 0.422493 272.165 
-2.38917e-07 -1.02734e-05 2.69008e+25 -3.79458 -0.0748852 272 
-1.55296e-05 -9.79558e-06 2.69113e+25 -0.101372 0.528906 272.103 
-1.36182e-05 -9.79558e-06 2.69147e+25 -0.335442 0.882835 272.068 
-1.17069e-05 -9.79558e-06 2.69326e+25 -1.13919 1.21227 271.921 
-9.79558e-06 -9.79558e-06 2.69223e+25 -1.80715 1.62945 272.025 
-7.88425e-06 -9.79558e-06 2.69204e+25 -2.30704 1.33238 272.061 
-5.97292e-06 -9.79558e-06 2.69247e+25 -3.12398 1.03701 271.969 
-4.06158e-06 -9.79558e-06 2.69369e+25 -3.34991 0.880627 271.859 
-2.15025e-06 -9.79558e-06 2.68933e+25 -3.83649 0.470932 272.201 
-2.38917e-07 -9.79558e-06 2.68965e+25 -3.8839 -0.121589 272.006 
-1.55296e-05 -9.31775e-06 2.68961e+25 -0.100753 0.472074 272.196 
-1.36182e-05 -9.31775e-06 2.69278e+25 -0.404698 1.04653 271.95 
-1.17069e-05 -9.31775e-06 2.69463e+25 -1.09778 1.35853 271.748 
-9.79558e-06 -9.31775e-06 2.69113e+25 -1.90593 1.76699 272.041 
-7.88425e-06 -9.31775e-06 2.69094e+25 -2.32037 1.48271 272.116 
-5.97292e-06 -9.31775e-06 2.69356e+25 -3.24078 1.23406 271.829 
-4.06158e-06 -9.31775e-06 2.69116e+25 -3.75844 0.90809 272.029 
-2.15025e-06 -9.31775e-06 2.69042e+25 -4.13016 0.577897 272.207 
-2.38917e-07 -9.31775e-06 2.68954e+25 -4.15062 -0.105642 272.026 
-1.55296e-05 -8.83992e-06 2.68877e+25 -0.102575 0.501051 272.205 
-1.36182e-05 -8.83992e-06 2.69262e+25 -0.419049 1.17287 271.893 
-1.17069e-05 -8.83992e-06 2.69365e+25 -1.1161 1.60969 271.833 
-9.79558e-06 -8.83992e-06 2.69188e+25 -1.8944 1.88305 271.975 
-7.88425e-06 -8.83992e-06 2.69075e+25 -2.43366 1.71972 272.19 
-5.97292e-06 -8.83992e-06 2.6936e+25 -3.42309 1.47961 271.895 
-4.06158e-06 -8.83992e-06 2.69185e+25 -4.03756 1.0499 272.018 
-2.15025e-06 -8.83992e-06 2.69217e+25 -4.41654 0.688935 272.034 
-2.38917e-07 -8.83992e-06 2.69006e+25 -4.52212 -0.0117705 272.009 
-1.55296e-05 -8.36208e-06 2.69002e+25 -0.162432 0.560075 272.211 
-1.36182e-05 -8.36208e-06 2.69327e+25 -0.605034 1.3115 271.993 
-1.17069e-05 -8.36208e-06 2.69383e+25 -1.2108 1.82347 271.869 
-9.79558e-06 -8.36208e-06 2.69234e+25 -1.8254 2.05084 271.956 
-7.88425e-06 -8.36208e-06 2.69064e+25 -2.62979 1.93845 272.043 
-5.97292e-06 -8.36208e-06 2.69287e+25 -3.4754 1.58724 271.996 
-4.06158e-06 -8.36208e-06 2.69201e+25 -4.16751 1.22964 272.039 
-2.15025e-06 -8.36208e-06 2.6911e+25 -4.68048 0.826916 272.112 
-2.38917e-07 -8.36208e-06 2.68978e+25 -4.92159 -0.00753534 271.99 
-1.55296e-05 -7.88425e-06 2.68989e+25 -0.105621 0.647804 272.239 
-1.36182e-05 -7.88425e-06 2.69222e+25 -0.67854 1.45374 272.006 
-1.17069e-05 -7.88425e-06 2.69417e+25 -1.36302 2.01896 271.878 
-9.79558e-06 -7.88425e-06 2.69289e+25 -1.97859 2.21753 271.928 
-7.88425e-06 -7.88425e-06 2.69294e+25 -2.84112 2.18433 271.943 
-5.97292e-06 -7.88425e-06 2.69235e+25 -3.57321 1.73914 271.983 
-4.06158e-06 -7.88425e-06 2.69017e+25 -4.27033 1.38089 272.111 
-2.15025e-06 -7.88425e-06 2.69161e+25 -4.87542 0.937636 272.09 
-2.38917e-07 -7.88425e-06 2.69002e+25 -5.22308 -0.040095 271.943 
-1.55296e-05 -7.40642e-06 2.69087e+25 -0.0778042 0.75236 272.125 
-1.36182e-05 -7.40642e-06 2.69367e+25 -0.867127 1.55896 271.963 
-1.17069e-05 -7.40642e-06 2.69116e+25 -1.397 2.18795 272.016 
-9.79558e-06 -7.40642e-06 2.6933e+25 -2.07214 2.40167 271.918 
-7.88425e-06 -7.40642e-06 2.69265e+25 -2.9807 2.43792 271.912 
-5.97292e-06 -7.40642e-06 2.69269e+25 -3.67761 1.92478 271.989 
-4.06158e-06 -7.40642e-06 2.69071e+25 -4.39974 1.53783 272.111 
-2.15025e-06 -7.40642e-06 2.68965e+25 -4.99283 1.05587 272.197 
-2.38917e-07 -7.40642e-06 2.68857e+25 -5.47565 0.0185446 272.151 
-1.55296e-05 -6.92858e-06 2.69244e+25 -0.0933965 0.848435 271.997 
-1.36182e-05 -6.92858e-06 2.69395e+25 -0.749926 1.65986 271.875 
-1.17069e-05 -6.92858e-06 2.69173e+25 -1.41419 2.30274 271.952 
-9.79558e-06 -6.92858e-06 2.69118e+25 -2.2017 2.62199 271.99 
-7.88425e-06 -6.92858e-06 2.69313e+25 -3.04624 2.68842 271.916 
-5.97292e-06 -6.92858e-06 2.69046e+25 -3.83072 2.05245 272.11 
-4.06158e-06 -6.92858e-06 2.69037e+25 -4.47385 1.75904 272.04 
-2.15025e-06 -6.92858e-06 2.6896e+25 -5.12076 1.19754 272.14 
-2.38917e-07 -6.92858e-06 2.68733e+25 -5.55836 0.09906 272.14 
-1.55296e-05 -6.45075e-06 2.6931e+25 -0.135883 0.969966 271.935 
-1.36182e-05 -6.45075e-06 2.69397e+25 -0.715125 1.87668 271.814 
-1.17069e-05 -6.45075e-06 2.69408e+25 -1.41491 2.40055 271.888 
-9.79558e-06 -6.45075e-06 2.69249e+25 -2.29852 2.90383 271.93 
-7.88425e-06 -6.45075e-06 2.69386e+25 -3.15257 2.87601 271.9 
-5.97292e-06 -6.45075e-06 2.692e+25 -3.92178 2.19079 271.98 
-4.06158e-06 -6.45075e-06 2.69085e+25 -4.7117 1.97168 272.013 
-2.15025e-06 -6.45075e-06 2.68967e+25 -5.30242 1.29016 272.214 
-2.38917e-07 -6.45075e-06 2.68966e+25 -5.73123 0.222867 272.04 
-1.55296e-05 -5.97292e-06 2.69195e+25 -0.225394 1.10365 272.066 
-1.36182e-05 -5.97292e-06 2.69329e+25 -0.808656 2.06149 271.886 
-1.17069e-05 -5.97292e-06 2.69313e+25 -1.51956 2.58647 271.921 
-9.79558e-06 -5.97292e-06 2.69292e+25 -2.46225 3.09364 271.953 
-7.88425e-06 -5.97292e-06 2.69341e+25 -3.22777 2.98701 271.911 
-5.97292e-06 -5.97292e-06 2.69216e+25 -4.11842 2.35031 271.942 
-4.06158e-06 -5.97292e-06 2.69281e+25 -4.84847 2.17764 271.918 
-2.15025e-06 -5.97292e-06 2.69097e+25 -5.53753 1.45426 272.058 
-2.38917e-07 -5.97292e-06 2.68958e+25 -5.96997 0.313453 272.071 
-1.55296e-05 -5.49508e-06 2.69122e+25 -0.289789 1.14826 272.185 
-1.36182e-05 -5.49508e-06 2.69191e+25 -0.788359 2.25868 272.063 
-1.17069e-05 -5.49508e-06 2.69243e+25 -1.73858 2.81413 271.928 
-9.79558e-06 -5.49508e-06 2.69414e+25 -2.52968 3.27836 271.723 
-7.88425e-06 -5.49508e-06 2.6943e+25 -3.33996 3.17577 271.812 
-5.97292e-06 -5.49508e-06 2.69203e+25 -4.24474 2.59186 272.032 
-4.06158e-06 -5.49508e-06 2.69214e+25 -4.99562 2.35491 271.856 
-2.15025e-06 -5.49508e-06 2.69073e+25 -5.57468 1.65058 272.092 
-2.38917e-07 -5.49508e-06 2.68866e+25 -6.15173 0.378774 272.078 
-1.55296e-05 -5.01725e-06 2.69108e+25 -0.324386 1.30127 272.114 
-1.36182e-05 -5.01725e-06 2.69168e+25 -0.797897 2.50849 272.048 
-1.17069e-05 -5.01725e-06 2.69304e+25 -1.74441 3.1348 271.948 
-9.79558e-06 -5.01725e-06 2.69512e+25 -2.61462 3.43004 271.674 
-7.88425e-06 -5.01725e-06 2.69333e+25 -3.47417 3.34705 271.801 
-5.97292e-06 -5.01725e-06 2.69178e+25 -4.38291 2.846 271.965 
-4.06158e-06 -5.01725e-06 2.69174e+25 -5.28278 2.53014 271.94 
-2.15025e-06 -5.01725e-06 2.69132e+25 -5.74706 1.78808 272.033 
-2.38917e-07 -5.01725e-06 2.68815e+25 -6.46839 0.446427 272.117 
-1.55296e-05 -4.53942e-06 2.69001e+25 -0.309353 1.54068 272.104 
-1.36182e-05 -4.53942e-06 2.6906e+25 -0.815688 2.79239 272.203 
-1.17069e-05 -4.53942e-06 2.69234e+25 -1.75117 3.37302 271.926 
-9.79558e-06 -4.53942e-06 2.69372e+25 -2.68104 3.5262 271.802 
-7.88425e-06 -4.53942e-06 2.69142e+25 -3.51439 3.59027 271.956 
-5.97292e-06 -4.53942e-06 2.69145e+25 -4.44574 3.12076 272.014 
-4.06158e-06 -4.53942e-06 2.69287e+25 -5.36276 2.62167 271.934 
-2.15025e-06 -4.53942e-06 2.68976e+25 -5.85935 1.89257 272.073 
-2.38917e-07 -4.53942e-06 2.6873e+25 -6.42465 0.481969 272.165 
-1.55296e-05 -4.06158e-06 2.69164e+25 -0.229359 1.68255 272.026 
-1.36182e-05 -4.06158e-06 2.69117e+25 -0.844669 2.98208 272.139 
-1.17069e-05 -4.06158e-06 2.69236e+25 -1.66466 3.65057 271.939 
-9.79558e-06 -4.06158e-06 2.69388e+25 -2.60295 3.7159 271.791 
-7.88425e-06 -4.06158e-06 2.69213e+25 -3.66751 3.81907 271.911 
-5.97292e-06 -4.06158e-06 2.69095e+25 -4.36244 3.40531 272.064 
-4.06158e-06 -4.06158e-06 2.69131e+25 -5.3478 2.75119 271.971 
-2.15025e-06 -4.06158e-06 2.69303e+25 -5.96942 2.04744 271.919 
-2.38917e-07 -4.06158e-06 2.68834e+25 -6.43551 0.610487 272.135 
-1.55296e-05 -3.58375e-06 2.69101e+25 -0.295102 1.76394 272.1 
-1.36182e-05 -3.58375e-06 2.69018e+25 -0.741496 3.10351 272.111 
-1.17069e-05 -3.58375e-06 2.69169e+25 -1.52742 3.8984 271.954 
-9.79558e-06 -3.58375e-06 2.69308e+25 -2.59311 4.00969 271.866 
-7.88425e-06 -3.58375e-06 2.69272e+25 -3.65795 3.98332 271.934 
-5.97292e-06 -3.58375e-06 2.68993e+25 -4.59053 3.67384 272.138 
-4.06158e-06 -3.58375e-06 2.69074e+25 -5.45098 2.9423 272.052 
-2.15025e-06 -3.58375e-06 2.69168e+25 -6.24103 2.12422 271.996 
-2.38917e-07 -3.58375e-06 2.68724e+25 -6.56834 0.7599 272.148 
-1.55296e-05 -3.10592e-06 2.68968e+25 -0.295485 1.8039 272.199 
-1.36182e-05 -3.10592e-06 2.69136e+25 -0.833732 3.12659 272.093 
-1.17069e-05 -3.10592e-06 2.69148e+25 -1.65438 4.16932 271.986 
-9.79558e-06 -3.10592e-06 2.69098e+25 -2.48783 4.41869 271.988 
-7.88425e-06 -3.10592e-06 2.69341e+25 -3.56292 4.1783 271.867 
-5.97292e-06 -3.10592e-06 2.68876e+25 -4.62967 3.94041 272.157 
-4.06158e-06 -3.10592e-06 2.6897e+25 -5.61854 3.161 272.17 
-2.15025e-06 -3.10592e-06 2.69128e+25 -6.3299 2.30186 271.996 
-2.38917e-07 -3.10592e-06 2.68798e+25 -6.76686 0.894294 272.157 
-1.55296e-05 -2.62808e-06 2.68952e+25 -0.264591 1.94307 272.195 
-1.36182e-05 -2.62808e-06 2.6904e+25 -0.884104 3.24618 272.157 
-1.17069e-05 -2.62808e-06 2.6922e+25 -1.66242 4.35897 271.932 
-9.79558e-06 -2.62808e-06 2.69197e+25 -2.43974 4.72323 271.992 
-7.88425e-06 -2.62808e-06 2.69237e+25 -3.56624 4.54572 271.917 
-5.97292e-06 -2.62808e-06 2.68981e+25 -4.65363 4.15479 272.152 
-4.06158e-06 -2.62808e-06 2.68998e+25 -5.66086 3.32112 272.112 
-2.15025e-06 -2.62808e-06 2.68959e+25 -6.35909 2.40298 272.06 
-2.38917e-07 -2.62808e-06 2.68695e+25 -6.98817 1.05476 272.166 
-1.55296e-05 -2.15025e-06 2.68975e+25 -0.235462 2.03146 272.249 
-1.36182e-05 -2.15025e-06 2.68995e+25 -0.810258 3.44844 272.159 
-1.17069e-05 -2.15025e-06 2.69161e+25 -1.76731 4.57203 271.93 
-9.79558e-06 -2.15025e-06 2.69124e+25 -2.57405 4.95335 272.015 
-7.88425e-06 -2.15025e-06 2.69315e+25 -3.63852 4.91879 271.909 
-5.97292e-06 -2.15025e-06 2.6891e+25 -4.62907 4.39129 272.046 
-4.06158e-06 -2.15025e-06 2.69033e+25 -5.61727 3.53012 272.053 
-2.15025e-06 -2.15025e-06 2.68975e+25 -6.31759 2.51156 272.081 
-2.38917e-07 -2.15025e-06 2.68776e+25 -7.10893 1.25553 272.044 
-1.55296e-05 -1.67242e-06 2.68809e+25 -0.0242458 2.14101 272.389 
-1.36182e-05 -1.67242e-06 2.69108e+25 -0.762667 3.66927 272.08 
-1.17069e-05 -1.67242e-06 2.69282e+25 -1.72129 4.7837 271.857 
-9.79558e-06 -1.67242e-06 2.69224e+25 -2.67024 5.11507 271.938 
-7.88425e-06 -1.67242e-06 2.69298e+25 -3.59682 5.21571 271.874 
-5.97292e-06 -1.67242e-06 2.69036e+25 -4.66474 4.62386 272.066 
-4.06158e-06 -1.67242e-06 2.68932e+25 -5.47128 3.81625 272.178 
-2.15025e-06 -1.67242e-06 2.6894e+25 -6.39389 2.69068 272.103 
-2.38917e-07 -1.67242e-06 2.68892e+25 -7.25994 1.47407 272.039 
-1.55296e-05 -1.19458e-06 2.6889e+25 0.0412427 2.31225 272.272 
-1.36182e-05 -1.19458e-06 2.69033e+25 -0.830507 3.92776 272.119 
-1.17069e-05 -1.19458e-06 2.69224e+25 -1.62045 5.014 271.888 
-9.79558e-06 -1.19458e-06 2.69287e+25 -2.54762 5.24936 271.879 
-7.88425e-06 -1.19458e-06 2.69365e+25 -3.36417 5.44528 271.788 
-5.97292e-06 -1.19458e-06 2.69035e+25 -4.57509 4.84493 272.079 
-4.06158e-06 -1.19458e-06 2.68967e+25 -5.57702 4.08775 272.159 
-2.15025e-06 -1.19458e-06 2.69082e+25 -6.43451 2.93235 271.945 
-2.38917e-07 -1.19458e-06 2.68751e+25 -7.33379 1.66115 272.023 
-1.55296e-05 -7.1675e-07 2.69015e+25 -0.0120188 2.40563 272.158 
-1.36182e-05 -7.1675e-07 2.69071e+25 -0.724263 4.20572 272.009 
-1.17069e-05 -7.1675e-07 2.69094e+25 -1.59367 5.23227 272.037 
-9.79558e-06 -7.1675e-07 2.69331e+25 -2.52546 5.49927 271.816 
-7.88425e-06 -7.1675e-07 2.69252e+25 -3.36394 5.63412 271.915 
-5.97292e-06 -7.1675e-07 2.69123e+25 -4.43594 5.16973 271.97 
-4.06158e-06 -7.1675e-07 2.68984e+25 -5.60074 4.42631 272.1 
-2.15025e-06 -7.1675e-07 2.691e+25 -6.58807 3.212 271.916 
-2.38917e-07 -7.1675e-07 2.68669e+25 -7.35852 1.82091 272 
-1.55296e-05 -2.38917e-07 2.68884e+25 -0.0903638 2.44789 272.175 
-1.36182e-05 -2.38917e-07 2.68974e+25 -0.6158 4.50107 271.922 
-1.17069e-05 -2.38917e-07 2.68735e+25 -1.63386 5.48005 272.162 
-9.79558e-06 -2.38917e-07 2.68959e+25 -2.57987 5.81054 271.954 
-7.88425e-06 -2.38917e-07 2.6899e+25 -3.52849 5.88287 271.911 
-5.97292e-06 -2.38917e-07 2.68934e+25 -4.48444 5.50703 271.917 
-4.06158e-06 -2.38917e-07 2.68811e+25 -5.53766 4.70367 272.076 
-2.15025e-06 -2.38917e-07 2.68849e+25 -6.52741 3.38084 271.953 
-2.38917e-07 -2.38917e-07 2.68525e+25 -7.30444 1.98861 272.115 
-1.64852e-05 2.38917e-07 2.68514e+25 -0.117396 1.0958 272.423 
-1.45739e-05 2.38917e-07 2.68811e+25 -0.407343 3.71095 272.015 
-1.26626e-05 2.38917e-07 2.68996e+25 -1.12252 5.21576 271.909 
-1.07512e-05 2.38917e-07 2.69016e+25 -2.18737 5.9303 271.962 
-8.83992e-06 2.38917e-07 2.68808e+25 -3.12444 6.19069 272.02 
-6.92858e-06 2.38917e-07 2.69036e+25 -3.89147 5.93282 271.903 
-5.01725e-06 2.38917e-07 2.68876e+25 -4.99461 5.27123 271.955 
-3.10592e-06 2.38917e-07 2.68799e+25 -5.90668 4.26876 271.991 
-1.19458e-06 2.38917e-07 2.68583e+25 -6.95501 2.99069 272.196 
-1.64852e-05 7.1675e-07 2.68669e+25 0.00748276 1.15563 272.402 
-1.45739e-05 7.1675e-07 2.69211e+25 -0.467976 3.7971 271.915 
-1.26626e-05 7.1675e-07 2.69032e+25 -1.21161 5.52629 271.938 
-1.07512e-05 7.1675e-07 2.69258e+25 -2.38245 6.21544 271.859 
-8.83992e-06 7.1675e-07 2.69084e+25 -3.069 6.37547 272.001 
-6.92858e-06 7.1675e-07 2.69119e+25 -3.91169 6.14668 271.924 
-5.01725e-06 7.1675e-07 2.69346e+25 -4.8126 5.57296 271.807 
-3.10592e-06 7.1675e-07 2.69062e+25 -5.77585 4.53736 271.969 
-1.19458e-06 7.1675e-07 2.6877e+25 -6.7738 3.21638 272.212 
-1.64852e-05 1.19458e-06 2.68798e+25 -0.0820478 1.21942 272.33 
-1.45739e-05 1.19458e-06 2.69235e+25 -0.491001 3.92057 271.935 
-1.26626e-05 1.19458e-06 2.69181e+25 -1.31341 5.86907 271.925 
-1.07512e-05 1.19458e-06 2.69174e+25 -2.28886 6.44925 271.907 
-8.83992e-06 1.19458e-06 2.69069e+25 -2.94863 6.54391 272.007 
-6.92858e-06 1.19458e-06 2.69197e+25 -3.80999 6.34863 271.874 
-5.01725e-06 1.19458e-06 2.69214e+25 -4.77104 5.85517 271.788 
-3.10592e-06 1.19458e-06 2.69001e+25 -5.78829 4.73324 271.99 
-1.19458e-06 1.19458e-06 2.68833e+25 -6.6015 3.37835 272.209 
-1.64852e-05 1.67242e-06 2.68684e+25 -0.000387958 1.27016 272.447 
-1.45739e-05 1.67242e-06 2.69182e+25 -0.463858 4.12286 272.014 
-1.26626e-05 1.67242e-06 2.6915e+25 -1.28508 6.14014 271.926 
-1.07512e-05 1.67242e-06 2.69138e+25 -2.11589 6.65811 272.01 
-8.83992e-06 1.67242e-06 2.69056e+25 -2.94971 6.68261 271.915 
-6.92858e-06 1.67242e-06 2.69239e+25 -3.80358 6.56329 271.824 
-5.01725e-06 1.67242e-06 2.69174e+25 -4.53406 6.11263 271.785 
-3.10592e-06 1.67242e-06 2.68934e+25 -5.57406 4.90252 272.052 
-1.19458e-06 1.67242e-06 2.68766e+25 -6.31584 3.49758 272.151 
-1.64852e-05 2.15025e-06 2.68601e+25 -0.00719739 1.23551 272.427 
-1.45739e-05 2.15025e-06 2.69027e+25 -0.322627 4.21891 272.093 
-1.26626e-05 2.15025e-06 2.69187e+25 -1.23248 6.37011 271.854 
-1.07512e-05 2.15025e-06 2.69067e+25 -2.05805 6.82103 271.985 
-8.83992e-06 2.15025e-06 2.69253e+25 -2.85575 6.81007 271.742 
-6.92858e-06 2.15025e-06 2.69301e+25 -3.85442 6.84029 271.739 
-5.01725e-06 2.15025e-06 2.69153e+25 -4.45316 6.26847 271.821 
-3.10592e-06 2.15025e-06 2.68892e+25 -5.46033 5.11075 272.078 
-1.19458e-06 2.15025e-06 2.689e+25 -6.03481 3.66016 272.138 
-1.64852e-05 2.62808e-06 2.6854e+25 -0.0202759 1.25743 272.505 
-1.45739e-05 2.62808e-06 2.69122e+25 -0.350741 4.38267 271.937 
-1.26626e-05 2.62808e-06 2.693e+25 -1.05154 6.49431 271.743 
-1.07512e-05 2.62808e-06 2.69077e+25 -1.90897 7.01674 272.051 
-8.83992e-06 2.62808e-06 2.69142e+25 -2.79381 6.95433 271.803 
-6.92858e-06 2.62808e-06 2.69247e+25 -3.76331 7.16074 271.791 
-5.01725e-06 2.62808e-06 2.69112e+25 -4.5178 6.38603 271.871 
-3.10592e-06 2.62808e-06 2.68838e+25 -5.16926 5.4437 272.077 
-1.19458e-06 2.62808e-06 2.68712e+25 -5.64907 3.80233 272.28 
-1.64852e-05 3.10592e-06 2.68539e+25 -0.0498528 1.32373 272.565 
-1.45739e-05 3.10592e-06 2.69114e+25 -0.383288 4.58342 271.974 
-1.26626e-05 3.10592e-06 2.69203e+25 -1.0531 6.6463 271.835 
-1.07512e-05 3.10592e-06 2.6921e+25 -1.78232 7.19266 271.866 
-8.83992e-06 3.10592e-06 2.69204e+25 -2.6516 7.20403 271.809 
-6.92858e-06 3.10592e-06 2.6913e+25 -3.57072 7.46746 271.927 
-5.01725e-06 3.10592e-06 2.69072e+25 -4.46569 6.49704 271.865 
-3.10592e-06 3.10592e-06 2.689e+25 -4.79166 5.58133 272.094 
-1.19458e-06 3.10592e-06 2.68587e+25 -5.34954 3.88916 272.237 
-1.64852e-05 3.58375e-06 2.68501e+25 0.0124301 1.34063 272.551 
-1.45739e-05 3.58375e-06 2.69123e+25 -0.326618 4.81977 271.946 
-1.26626e-05 3.58375e-06 2.69187e+25 -0.981224 6.82464 271.828 
-1.07512e-05 3.58375e-06 2.69271e+25 -1.60523 7.41644 271.828 
-8.83992e-06 3.58375e-06 2.69164e+25 -2.60455 7.5029 271.81 
-6.92858e-06 3.58375e-06 2.68945e+25 -3.47957 7.60115 271.978 
-5.01725e-06 3.58375e-06 2.69069e+25 -4.20277 6.55382 271.851 
-3.10592e-06 3.58375e-06 2.68665e+25 -4.529 5.67325 272.246 
-1.19458e-06 3.58375e-06 2.68532e+25 -5.12859 4.00945 272.284 
-1.64852e-05 4.06158e-06 2.68604e+25 -0.0243074 1.37168 272.443 
-1.45739e-05 4.06158e-06 2.69097e+25 -0.340109 4.95352 271.975 
-1.26626e-05 4.06158e-06 2.69153e+25 -0.981152 6.97576 271.867 
-1.07512e-05 4.06158e-06 2.69277e+25 -1.46717 7.63735 271.807 
-8.83992e-06 4.06158e-06 2.69145e+25 -2.59777 7.74941 271.832 
-6.92858e-06 4.06158e-06 2.69048e+25 -3.29955 7.69521 272.003 
-5.01725e-06 4.06158e-06 2.68958e+25 -3.83286 6.65208 271.954 
-3.10592e-06 4.06158e-06 2.68706e+25 -4.2049 5.84468 272.197 
-1.19458e-06 4.06158e-06 2.68699e+25 -4.78192 4.13871 272.257 
-1.64852e-05 4.53942e-06 2.68427e+25 0.0453271 1.38321 272.549 
-1.45739e-05 4.53942e-06 2.68912e+25 -0.456299 5.06678 272.125 
-1.26626e-05 4.53942e-06 2.68988e+25 -0.986478 7.11408 271.922 
-1.07512e-05 4.53942e-06 2.69194e+25 -1.51209 7.78243 271.867 
-8.83992e-06 4.53942e-06 2.6919e+25 -2.43572 8.05562 271.754 
-6.92858e-06 4.53942e-06 2.68823e+25 -3.11506 7.86715 272.055 
-5.01725e-06 4.53942e-06 2.6883e+25 -3.47781 6.7871 272.108 
-3.10592e-06 4.53942e-06 2.68748e+25 -3.90101 6.03802 272.135 
-1.19458e-06 4.53942e-06 2.68732e+25 -4.39279 4.2462 272.244 
-1.64852e-05 5.01725e-06 2.68513e+25 -0.0723141 1.44317 272.513 
-1.45739e-05 5.01725e-06 2.68896e+25 -0.586872 5.18313 272.092 
-1.26626e-05 5.01725e-06 2.69013e+25 -0.867073 7.18534 271.97 
-1.07512e-05 5.01725e-06 2.68975e+25 -1.60846 7.94069 271.935 
-8.83992e-06 5.01725e-06 2.69205e+25 -2.26265 8.27783 271.712 
-6.92858e-06 5.01725e-06 2.68832e+25 -2.89496 8.0471 272.118 
-5.01725e-06 5.01725e-06 2.68898e+25 -3.18411 6.91015 272.041 
-3.10592e-06 5.01725e-06 2.68963e+25 -3.55031 6.13159 272.071 
-1.19458e-06 5.01725e-06 2.68782e+25 -4.13886 4.44171 272.035 
-1.64852e-05 5.49508e-06 2.68548e+25 -0.164329 1.56768 272.517 
-1.45739e-05 5.49508e-06 2.68742e+25 -0.657929 5.2799 272.143 
-1.26626e-05 5.49508e-06 2.69123e+25 -0.859598 7.29431 271.818 
-1.07512e-05 5.49508e-06 2.69078e+25 -1.67401 8.13341 271.861 
-8.83992e-06 5.49508e-06 2.69088e+25 -2.12884 8.38876 271.836 
-6.92858e-06 5.49508e-06 2.68996e+25 -2.67611 8.13987 272.048 
-5.01725e-06 5.49508e-06 2.68937e+25 -2.92428 7.04433 271.982 
-3.10592e-06 5.49508e-06 2.68812e+25 -3.12608 6.2195 272.03 
-1.19458e-06 5.49508e-06 2.6893e+25 -3.73535 4.60456 271.833 
-1.64852e-05 5.97292e-06 2.68605e+25 -0.158971 1.67981 272.386 
-1.45739e-05 5.97292e-06 2.68818e+25 -0.62334 5.30452 272.122 
-1.26626e-05 5.97292e-06 2.69062e+25 -0.976206 7.43106 271.857 
-1.07512e-05 5.97292e-06 2.69142e+25 -1.6554 8.29755 271.841 
-8.83992e-06 5.97292e-06 2.69003e+25 -2.12747 8.48853 271.848 
-6.92858e-06 5.97292e-06 2.68912e+25 -2.4853 8.12111 271.921 
-5.01725e-06 5.97292e-06 2.68817e+25 -2.65182 7.14452 272.039 
-3.10592e-06 5.97292e-06 2.68721e+25 -2.8319 6.23579 272.041 
-1.19458e-06 5.97292e-06 2.68904e+25 -3.27001 4.67634 271.916 
-1.64852e-05 6.45075e-06 2.68532e+25 -0.0179845 1.74951 272.396 
-1.45739e-05 6.45075e-06 2.68782e+25 -0.670916 5.41764 272.116 
-1.26626e-05 6.45075e-06 2.69129e+25 -1.12906 7.5005 271.867 
-1.07512e-05 6.45075e-06 2.69063e+25 -1.55022 8.50747 271.852 
-8.83992e-06 6.45075e-06 2.6899e+25 -2.08776 8.59988 271.947 
-6.92858e-06 6.45075e-06 2.68888e+25 -2.17337 8.0757 271.966 
-5.01725e-06 6.45075e-06 2.68921e+25 -2.44605 7.225 272.01 
-3.10592e-06 6.45075e-06 2.68869e+25 -2.58844 6.28562 272.065 
-1.19458e-06 6.45075e-06 2.69037e+25 -2.72578 4.73722 271.768 
-1.64852e-05 6.92858e-06 2.68439e+25 0.014245 1.80095 272.561 
-1.45739e-05 6.92858e-06 2.68814e+25 -0.622285 5.66197 272.072 
-1.26626e-05 6.92858e-06 2.68974e+25 -1.25689 7.57403 271.891 
-1.07512e-05 6.92858e-06 2.68973e+25 -1.50564 8.60152 271.947 
-8.83992e-06 6.92858e-06 2.68873e+25 -1.8785 8.67882 271.968 
-6.92858e-06 6.92858e-06 2.69045e+25 -1.96182 8.05784 271.768 
-5.01725e-06 6.92858e-06 2.68897e+25 -2.00391 7.28786 271.884 
-3.10592e-06 6.92858e-06 2.6886e+25 -2.12154 6.28707 272.037 
-1.19458e-06 6.92858e-06 2.68941e+25 -2.18339 4.79183 271.876 
-1.64852e-05 7.40642e-06 2.6848e+25 -0.0680021 1.88805 272.544 
-1.45739e-05 7.40642e-06 2.68988e+25 -0.552457 5.81995 272.068 
-1.26626e-05 7.40642e-06 2.69028e+25 -1.35509 7.68318 271.974 
-1.07512e-05 7.40642e-06 2.68996e+25 -1.42282 8.60696 271.926 
-8.83992e-06 7.40642e-06 2.68892e+25 -1.73055 8.72656 271.898 
-6.92858e-06 7.40642e-06 2.69147e+25 -1.69123 8.06826 271.76 
-5.01725e-06 7.40642e-06 2.68772e+25 -1.62249 7.2817 272.022 
-3.10592e-06 7.40642e-06 2.6896e+25 -1.69238 6.23971 271.866 
-1.19458e-06 7.40642e-06 2.69008e+25 -1.5419 4.78532 271.845 
-1.64852e-05 7.88425e-06 2.68426e+25 -0.0937143 1.94773 272.56 
-1.45739e-05 7.88425e-06 2.68998e+25 -0.58625 5.94599 271.922 
-1.26626e-05 7.88425e-06 2.68886e+25 -1.43027 7.80927 272.068 
-1.07512e-05 7.88425e-06 2.68944e+25 -1.53957 8.6211 271.931 
-8.83992e-06 7.88425e-06 2.68827e+25 -1.67414 8.7275 272.107 
-6.92858e-06 7.88425e-06 2.69087e+25 -1.46987 8.07816 271.836 
-5.01725e-06 7.88425e-06 2.68819e+25 -1.29206 7.24275 271.959 
-3.10592e-06 7.88425e-06 2.68894e+25 -1.21192 6.17642 271.937 
-1.19458e-06 7.88425e-06 2.6894e+25 -0.753811 4.76764 271.857 
-1.64852e-05 8.36208e-06 2.68549e+25 -0.050191 2.08198 272.411 
-1.45739e-05 8.36208e-06 2.68943e+25 -0.586333 6.12798 271.982 
-1.26626e-05 8.36208e-06 2.68886e+25 -1.52572 8.06026 272.023 
-1.07512e-05 8.36208e-06 2.68929e+25 -1.70638 8.67821 271.924 
-8.83992e-06 8.36208e-06 2.68876e+25 -1.58926 8.72761 272.064 
-6.92858e-06 8.36208e-06 2.68976e+25 -1.21168 8.03277 271.862 
-5.01725e-06 8.36208e-06 2.68775e+25 -0.992723 7.18694 271.997 
-3.10592e-06 8.36208e-06 2.68755e+25 -0.601201 6.06379 272.018 
-1.19458e-06 8.36208e-06 2.6889e+25 -0.022253 4.6444 271.87 
-1.64852e-05 8.83992e-06 2.68422e+25 -0.138787 2.20968 272.511 
-1.45739e-05 8.83992e-06 2.68846e+25 -0.76933 6.35382 272.063 
-1.26626e-05 8.83992e-06 2.68842e+25 -1.54192 8.29918 271.914 
-1.07512e-05 8.83992e-06 2.69027e+25 -2.03146 8.67035 271.963 
-8.83992e-06 8.83992e-06 2.68899e+25 -1.73981 8.64304 272.004 
-6.92858e-06 8.83992e-06 2.68716e+25 -1.02586 7.92455 272.106 
-5.01725e-06 8.83992e-06 2.688e+25 -0.600052 7.01944 272.053 
-3.10592e-06 8.83992e-06 2.68629e+25 0.100692 5.99091 272.148 
-1.19458e-06 8.83992e-06 2.68839e+25 0.582801 4.51143 271.873 
-1.64852e-05 9.31775e-06 2.68213e+25 -0.101995 2.32325 272.604 
-1.45739e-05 9.31775e-06 2.68561e+25 -0.891703 6.65247 272.122 
-1.26626e-05 9.31775e-06 2.68744e+25 -1.72616 8.53336 271.979 
-1.07512e-05 9.31775e-06 2.69037e+25 -2.13935 8.73507 271.879 
-8.83992e-06 9.31775e-06 2.69028e+25 -1.69645 8.47149 271.918 
-6.92858e-06 9.31775e-06 2.68721e+25 -0.919169 7.70018 272.124 
-5.01725e-06 9.31775e-06 2.68972e+25 -0.198154 6.83293 271.881 
-3.10592e-06 9.31775e-06 2.68675e+25 0.656656 5.86056 272.079 
-1.19458e-06 9.31775e-06 2.68779e+25 1.42363 4.40959 271.986 
-1.64852e-05 9.79558e-06 2.68305e+25 -0.114618 2.38496 272.552 
-1.45739e-05 9.79558e-06 2.6873e+25 -0.976174 6.90601 272.11 
-1.26626e-05 9.79558e-06 2.68963e+25 -1.81878 8.66261 271.892 
-1.07512e-05 9.79558e-06 2.69112e+25 -2.39265 8.66178 271.774 
-8.83992e-06 9.79558e-06 2.6899e+25 -1.56127 8.28737 271.907 
-6.92858e-06 9.79558e-06 2.6896e+25 -0.777214 7.57663 271.996 
-5.01725e-06 9.79558e-06 2.68959e+25 0.32929 6.61814 271.883 
-3.10592e-06 9.79558e-06 2.6888e+25 1.38845 5.62498 271.981 
-1.19458e-06 9.79558e-06 2.68713e+25 2.25488 4.27791 271.99 
-1.64852e-05 1.02734e-05 2.68201e+25 -0.262923 2.50491 272.638 
-1.45739e-05 1.02734e-05 2.68749e+25 -1.24262 7.13358 272.033 
-1.26626e-05 1.02734e-05 2.68875e+25 -1.98965 8.69583 271.924 
-1.07512e-05 1.02734e-05 2.68976e+25 -2.20751 8.55363 271.861 
-8.83992e-06 1.02734e-05 2.68998e+25 -1.50736 8.07302 271.985 
-6.92858e-06 1.02734e-05 2.68852e+25 -0.481043 7.35901 271.954 
-5.01725e-06 1.02734e-05 2.69102e+25 0.879024 6.31694 271.81 
-3.10592e-06 1.02734e-05 2.68813e+25 2.23154 5.3074 271.973 
-1.19458e-06 1.02734e-05 2.6871e+25 3.28541 4.10075 272.077 
-1.64852e-05 1.07512e-05 2.68079e+25 -0.179297 2.72621 272.662 
-1.45739e-05 1.07512e-05 2.68727e+25 -1.52298 7.35752 272.022 
-1.26626e-05 1.07512e-05 2.68893e+25 -2.19446 8.6932 271.883 
-1.07512e-05 1.07512e-05 2.6899e+25 -2.07464 8.41606 271.854 
-8.83992e-06 1.07512e-05 2.68922e+25 -1.30346 7.75737 271.981 
-6.92858e-06 1.07512e-05 2.68845e+25 -0.0268507 6.98303 272.007 
-5.01725e-06 1.07512e-05 2.6911e+25 1.49917 5.91305 271.795 
-3.10592e-06 1.07512e-05 2.68678e+25 3.1451 4.92674 272.126 
-1.19458e-06 1.07512e-05 2.68676e+25 4.28192 3.84594 272.051 
-1.64852e-05 1.12291e-05 2.68113e+25 -0.182904 2.94791 272.619 
-1.45739e-05 1.12291e-05 2.68662e+25 -1.74232 7.7498 272.083 
-1.26626e-05 1.12291e-05 2.68824e+25 -2.26696 8.72029 271.909 
-1.07512e-05 1.12291e-05 2.6898e+25 -2.02833 8.20848 271.887 
-8.83992e-06 1.12291e-05 2.68916e+25 -0.9062 7.45105 272.044 
-6.92858e-06 1.12291e-05 2.68933e+25 0.706898 6.56523 272.054 
-5.01725e-06 1.12291e-05 2.68974e+25 2.25623 5.49636 271.859 
-3.10592e-06 1.12291e-05 2.68823e+25 3.81481 4.57349 272.121 
-1.19458e-06 1.12291e-05 2.68771e+25 5.20439 3.61682 272.047 
-1.64852e-05 1.17069e-05 2.68172e+25 -0.173213 3.21974 272.518 
-1.45739e-05 1.17069e-05 2.68551e+25 -1.87914 8.08298 272.105 
-1.26626e-05 1.17069e-05 2.6885e+25 -2.42904 8.80863 271.967 
-1.07512e-05 1.17069e-05 2.6898e+25 -1.94442 8.02592 271.917 
-8.83992e-06 1.17069e-05 2.68803e+25 -0.393609 7.10649 272.049 
-6.92858e-06 1.17069e-05 2.68917e+25 1.5475 6.16441 272.077 
-5.01725e-06 1.17069e-05 2.68873e+25 3.13447 5.13208 271.937 
-3.10592e-06 1.17069e-05 2.68769e+25 4.90597 4.15479 272.086 
-1.19458e-06 1.17069e-05 2.68766e+25 6.5327 3.35699 271.952 
-1.64852e-05 1.21847e-05 2.68132e+25 -0.30961 3.55023 272.497 
-1.45739e-05 1.21847e-05 2.68593e+25 -2.08854 8.42472 272.064 
-1.26626e-05 1.21847e-05 2.68761e+25 -2.67464 8.90282 272.009 
-1.07512e-05 1.21847e-05 2.68886e+25 -1.69617 7.77693 271.92 
-8.83992e-06 1.21847e-05 2.68914e+25 0.179346 6.63176 272.083 
-6.92858e-06 1.21847e-05 2.68751e+25 2.18924 5.63465 272.102 
-5.01725e-06 1.21847e-05 2.68868e+25 4.22395 4.72469 271.952 
-3.10592e-06 1.21847e-05 2.68689e+25 6.07592 3.73534 272.13 
-1.19458e-06 1.21847e-05 2.68692e+25 7.8432 3.04681 272.082 
-1.64852e-05 1.26626e-05 2.68216e+25 -0.429867 4.01631 272.419 
-1.45739e-05 1.26626e-05 2.6847e+25 -2.39914 8.78678 272.037 
-1.26626e-05 1.26626e-05 2.68743e+25 -2.79382 8.74424 271.96 
-1.07512e-05 1.26626e-05 2.6887e+25 -1.25516 7.44141 272.044 
-8.83992e-06 1.26626e-05 2.68829e+25 0.959916 6.03671 272.106 
-6.92858e-06 1.26626e-05 2.68818e+25 3.23616 5.1027 272.057 
-5.01725e-06 1.26626e-05 2.68638e+25 5.61298 4.30263 272.197 
-3.10592e-06 1.26626e-05 2.68758e+25 7.55154 3.22661 272.118 
-1.19458e-06 1.26626e-05 2.68684e+25 9.28394 2.69627 272.075 
-1.64852e-05 1.31404e-05 2.68159e+25 -0.597996 4.49948 272.433 
-1.45739e-05 1.31404e-05 2.6859e+25 -2.96908 9.09759 271.967 
-1.26626e-05 1.31404e-05 2.68762e+25 -2.75315 8.39326 271.941 
-1.07512e-05 1.31404e-05 2.68902e+25 -0.446823 6.86404 272.03 
-8.83992e-06 1.31404e-05 2.68827e+25 2.17563 5.35329 272.083 
-6.92858e-06 1.31404e-05 2.68707e+25 4.7226 4.52103 272.234 
-5.01725e-06 1.31404e-05 2.68673e+25 7.17102 3.70468 272.245 
-3.10592e-06 1.31404e-05 2.6872e+25 9.29896 2.73698 272.198 
-1.19458e-06 1.31404e-05 2.68591e+25 11.0964 2.26597 272.178 
-1.64852e-05 1.36182e-05 2.67966e+25 -0.760557 5.22099 272.431 
-1.45739e-05 1.36182e-05 2.68516e+25 -3.26562 9.3115 271.999 
-1.26626e-05 1.36182e-05 2.68735e+25 -2.17856 7.90021 271.955 
-1.07512e-05 1.36182e-05 2.68665e+25 0.734608 6.11569 272.132 
-8.83992e-06 1.36182e-05 2.68837e+25 3.83166 4.6084 272.133 
-6.92858e-06 1.36182e-05 2.68668e+25 6.58318 3.93555 272.275 
-5.01725e-06 1.36182e-05 2.68684e+25 9.04997 3.03525 272.257 
-3.10592e-06 1.36182e-05 2.68601e+25 11.2225 2.19585 272.209 
-1.19458e-06 1.36182e-05 2.68585e+25 12.9768 1.84285 272.216 
-1.64852e-05 1.40961e-05 2.67806e+25 -0.918961 6.07069 272.407 
-1.45739e-05 1.40961e-05 2.68394e+25 -3.32132 9.28408 272.002 
-1.26626e-05 1.40961e-05 2.6876e+25 -1.16515 7.23749 271.982 
-1.07512e-05 1.40961e-05 2.68652e+25 2.40044 5.2211 272.212 
-8.83992e-06 1.40961e-05 2.68846e+25 5.7402 3.84714 272.173 
-6.92858e-06 1.40961e-05 2.68647e+25 8.78756 3.25288 272.302 
-5.01725e-06 1.40961e-05 2.68729e+25 11.4339 2.45153 272.268 
-3.10592e-06 1.40961e-05 2.68673e+25 13.4505 1.78153 272.157 
-1.19458e-06 1.40961e-05 2.68575e+25 15.0427 1.44803 272.2 
-1.64852e-05 1.45739e-05 2.67536e+25 -1.34627 7.12613 272.448 
-1.45739e-05 1.45739e-05 2.68245e+25 -2.97189 9.02495 272.08 
-1.26626e-05 1.45739e-05 2.68739e+25 0.575744 6.28417 272.01 
-1.07512e-05 1.45739e-05 2.68601e+25 4.8484 4.28256 272.348 
-8.83992e-06 1.45739e-05 2.68744e+25 8.34206 3.00901 272.258 
-6.92858e-06 1.45739e-05 2.68534e+25 11.4994 2.53493 272.442 
-5.01725e-06 1.45739e-05 2.68764e+25 14.1204 1.8972 272.213 
-3.10592e-06 1.45739e-05 2.68756e+25 15.961 1.33983 272.127 
-1.19458e-06 1.45739e-05 2.68507e+25 17.5085 1.09932 272.339 
-1.64852e-05 1.50518e-05 2.67167e+25 -1.77151 8.36539 272.523 
-1.45739e-05 1.50518e-05 2.68037e+25 -1.87039 8.37363 272.168 
-1.26626e-05 1.50518e-05 2.68511e+25 3.34803 5.03807 272.241 
-1.07512e-05 1.50518e-05 2.6852e+25 8.02468 3.33222 272.358 
-8.83992e-06 1.50518e-05 2.68651e+25 11.6888 2.16612 272.408 
-6.92858e-06 1.50518e-05 2.68468e+25 14.5862 1.79583 272.46 
-5.01725e-06 1.50518e-05 2.68674e+25 16.9978 1.36344 272.223 
-3.10592e-06 1.50518e-05 2.68767e+25 18.9264 1.00162 272.161 
-1.19458e-06 1.50518e-05 2.68445e+25 20.1763 0.754404 272.417 
-1.64852e-05 1.55296e-05 2.66739e+25 -2.08404 9.66674 272.452 
-1.45739e-05 1.55296e-05 2.67695e+25 0.861449 7.00597 272.419 
-1.26626e-05 1.55296e-05 2.68229e+25 7.49942 3.62121 272.502 
-1.07512e-05 1.55296e-05 2.68294e+25 12.2971 2.32498 272.619 
-8.83992e-06 1.55296e-05 2.68471e+25 15.8201 1.36618 272.444 
-6.92858e-06 1.55296e-05 2.68588e+25 18.4824 1.15926 272.519 
-5.01725e-06 1.55296e-05 2.68613e+25 20.486 0.841435 272.389 
-3.10592e-06 1.55296e-05 2.68519e+25 22.0417 0.686283 272.371 
-1.19458e-06 1.55296e-05 2.68438e+25 23.1997 0.469907 272.428 
-1.64852e-05 1.60074e-05 2.6591e+25 -1.86386 10.4883 272.577 
-1.45739e-05 1.60074e-05 2.67602e+25 6.03867 5.02025 272.63 
-1.26626e-05 1.60074e-05 2.68208e+25 13.3153 2.19772 272.649 
-1.07512e-05 1.60074e-05 2.68248e+25 17.704 1.36681 272.744 
-8.83992e-06 1.60074e-05 2.68654e+25 20.538 0.707575 272.435 
-6.92858e-06 1.60074e-05 2.68335e+25 22.7586 0.643072 272.729 
-5.01725e-06 1.60074e-05 2.68372e+25 24.5277 0.410714 272.587 
-3.10592e-06 1.60074e-05 2.6846e+25 25.5759 0.41197 272.47 
-1.19458e-06 1.60074e-05 2.68453e+25 26.4038 0.194719 272.421 
-1.64852e-05 1.64852e-05 2.64628e+25 0.795667 9.25921 272.825 
-1.45739e-05 1.64852e-05 2.67415e+25 14.5471 2.50303 272.982 
-1.26626e-05 1.64852e-05 2.6811e+25 20.8037 0.877056 272.795 
-1.07512e-05 1.64852e-05 2.68344e+25 24.0995 0.58613 272.728 
-8.83992e-06 1.64852e-05 2.68509e+25 26.114 0.245131 272.676 
-6.92858e-06 1.64852e-05 2.68428e+25 27.4874 0.274415 272.832 
-5.01725e-06 1.64852e-05 2.68149e+25 28.55 0.129859 272.849 
-3.10592e-06 1.64852e-05 2.68322e+25 29.2152 0.233382 272.618 
-1.19458e-06 1.64852e-05 2.68354e+25 29.7947 0.0585868 272.603 
-1.64852e-05 1.69631e-05 2.62371e+25 12.4439 3.52003 273.459 
-1.45739e-05 1.69631e-05 2.67455e+25 25.9797 0.55681 273.115 
-1.26626e-05 1.69631e-05 2.68107e+25 29.1659 0.150508 272.962 
-1.07512e-05 1.69631e-05 2.68352e+25 30.5703 0.105852 272.888 
-8.83992e-06 1.69631e-05 2.68341e+25 31.3971 0.0407357 272.871 
-6.92858e-06 1.69631e-05 2.6823e+25 31.9072 0.0392007 273.005 
-5.01725e-06 1.69631e-05 2.68214e+25 32.2027 0.00260002 272.945 
-3.10592e-06 1.69631e-05 2.68243e+25 32.5455 0.0560869 272.819 
-1.19458e-06 1.69631e-05 2.68202e+25 32.7888 0.00322021 272.784 
-1.69631e-05 2.38917e-07 2.68258e+25 -0.0537143 0.396749 272.733 
-1.50517e-05 2.38917e-07 2.68883e+25 -0.299267 3.11091 272.034 
-1.31404e-05 2.38917e-07 2.68953e+25 -0.826928 4.91947 271.89 
-1.12291e-05 2.38917e-07 2.68891e+25 -1.91459 5.718 272.005 
-9.31775e-06 2.38917e-07 2.68997e+25 -2.92728 6.02822 271.88 
-7.40642e-06 2.38917e-07 2.69043e+25 -3.71394 5.93962 271.876 
-5.49508e-06 2.38917e-07 2.68835e+25 -4.68621 5.54522 271.899 
-3.58375e-06 2.38917e-07 2.68819e+25 -5.65365 4.60636 272.009 
-1.67242e-06 2.38917e-07 2.68664e+25 -6.7127 3.35724 272.102 
-1.69631e-05 7.1675e-07 2.68488e+25 0.0168038 0.437165 272.728 
-1.50517e-05 7.1675e-07 2.69044e+25 -0.414369 3.1958 272.046 
-1.31404e-05 7.1675e-07 2.69036e+25 -0.909418 5.20762 271.938 
-1.12291e-05 7.1675e-07 2.6921e+25 -2.09994 6.00633 271.894 
-9.31775e-06 7.1675e-07 2.69104e+25 -2.86335 6.2071 271.952 
-7.40642e-06 7.1675e-07 2.69221e+25 -3.63943 6.15621 271.845 
-5.49508e-06 7.1675e-07 2.69194e+25 -4.53624 5.81653 271.88 
-3.58375e-06 7.1675e-07 2.68938e+25 -5.5934 4.77979 272.045 
-1.67242e-06 7.1675e-07 2.6875e+25 -6.60219 3.5637 272.193 
-1.69631e-05 1.19458e-06 2.68481e+25 -0.00504415 0.455446 272.708 
-1.50517e-05 1.19458e-06 2.69063e+25 -0.3479 3.31229 272.102 
-1.31404e-05 1.19458e-06 2.69159e+25 -1.00929 5.45154 271.935 
-1.12291e-05 1.19458e-06 2.69192e+25 -2.0387 6.32615 271.887 
-9.31775e-06 1.19458e-06 2.69054e+25 -2.81825 6.37137 272.015 
-7.40642e-06 1.19458e-06 2.69068e+25 -3.56721 6.45251 271.93 
-5.49508e-06 1.19458e-06 2.69151e+25 -4.48309 6.10405 271.834 
-3.58375e-06 1.19458e-06 2.69052e+25 -5.55784 5.00294 271.978 
-1.67242e-06 1.19458e-06 2.68803e+25 -6.43976 3.74233 272.142 
-1.69631e-05 1.67242e-06 2.68363e+25 0.00741658 0.468792 272.783 
-1.50517e-05 1.67242e-06 2.68996e+25 -0.305089 3.42507 271.983 
-1.31404e-05 1.67242e-06 2.69075e+25 -1.07768 5.69016 271.998 
-1.12291e-05 1.67242e-06 2.69099e+25 -1.93274 6.54628 271.975 
-9.31775e-06 1.67242e-06 2.69168e+25 -2.75562 6.55673 271.957 
-7.40642e-06 1.67242e-06 2.69289e+25 -3.52338 6.73376 271.742 
-5.49508e-06 1.67242e-06 2.69248e+25 -4.34174 6.35432 271.775 
-3.58375e-06 1.67242e-06 2.6904e+25 -5.37051 5.27737 271.937 
-1.67242e-06 1.67242e-06 2.68811e+25 -6.19294 3.9293 272.082 
-1.69631e-05 2.15025e-06 2.6843e+25 -0.000671077 0.482747 272.749 
-1.50517e-05 2.15025e-06 2.69129e+25 -0.209666 3.61174 272.007 
-1.31404e-05 2.15025e-06 2.69194e+25 -1.03881 5.9539 271.92 
-1.12291e-05 2.15025e-06 2.69118e+25 -1.88746 6.73476 271.953 
-9.31775e-06 2.15025e-06 2.69244e+25 -2.71572 6.75087 271.809 
-7.40642e-06 2.15025e-06 2.69382e+25 -3.56928 7.01612 271.681 
-5.49508e-06 2.15025e-06 2.69176e+25 -4.37768 6.45438 271.801 
-3.58375e-06 2.15025e-06 2.69014e+25 -5.16511 5.53565 271.966 
-1.67242e-06 2.15025e-06 2.68811e+25 -5.84039 4.04913 272.116 
-1.69631e-05 2.62808e-06 2.68289e+25 -0.000567595 0.497204 272.839 
-1.50517e-05 2.62808e-06 2.69186e+25 -0.241056 3.65399 271.904 
-1.31404e-05 2.62808e-06 2.6931e+25 -0.934253 6.13998 271.814 
-1.12291e-05 2.62808e-06 2.69197e+25 -1.67927 6.91017 271.924 
-9.31775e-06 2.62808e-06 2.69166e+25 -2.58251 6.94633 271.864 
-7.40642e-06 2.62808e-06 2.69361e+25 -3.4197 7.32299 271.674 
-5.49508e-06 2.62808e-06 2.69181e+25 -4.36544 6.57112 271.892 
-3.58375e-06 2.62808e-06 2.69002e+25 -4.92032 5.75016 272.023 
-1.67242e-06 2.62808e-06 2.68778e+25 -5.56981 4.1948 272.127 
-1.69631e-05 3.10592e-06 2.68205e+25 -0.00942815 0.508528 272.935 
-1.50517e-05 3.10592e-06 2.69011e+25 -0.162341 3.84733 272.023 
-1.31404e-05 3.10592e-06 2.69218e+25 -0.874252 6.28076 271.863 
-1.12291e-05 3.10592e-06 2.69199e+25 -1.60748 7.13035 271.913 
-9.31775e-06 3.10592e-06 2.69255e+25 -2.36183 7.21009 271.761 
-7.40642e-06 3.10592e-06 2.69384e+25 -3.38413 7.56715 271.723 
-5.49508e-06 3.10592e-06 2.69128e+25 -4.35782 6.68919 271.873 
-3.58375e-06 3.10592e-06 2.68939e+25 -4.7034 5.92242 272.043 
-1.67242e-06 3.10592e-06 2.6878e+25 -5.25898 4.33487 272.143 
-1.69631e-05 3.58375e-06 2.68224e+25 0.0103224 0.508891 272.873 
-1.50517e-05 3.58375e-06 2.69118e+25 -0.127779 4.01493 272.015 
-1.31404e-05 3.58375e-06 2.69139e+25 -0.835741 6.40406 271.857 
-1.12291e-05 3.58375e-06 2.69028e+25 -1.34114 7.32701 271.886 
-9.31775e-06 3.58375e-06 2.69323e+25 -2.31993 7.47329 271.766 
-7.40642e-06 3.58375e-06 2.69153e+25 -3.35205 7.73792 271.854 
-5.49508e-06 3.58375e-06 2.69229e+25 -4.07384 6.88229 271.838 
-3.58375e-06 3.58375e-06 2.68891e+25 -4.41338 5.99389 272.067 
-1.67242e-06 3.58375e-06 2.686e+25 -4.98052 4.44419 272.251 
-1.69631e-05 4.06158e-06 2.68367e+25 0.00415946 0.510261 272.761 
-1.50517e-05 4.06158e-06 2.69007e+25 -0.232814 4.16001 272.02 
-1.31404e-05 4.06158e-06 2.69134e+25 -0.888856 6.53117 271.885 
-1.12291e-05 4.06158e-06 2.69112e+25 -1.35935 7.47398 271.881 
-9.31775e-06 4.06158e-06 2.69235e+25 -2.33308 7.79258 271.79 
-7.40642e-06 4.06158e-06 2.69073e+25 -3.17562 7.89477 271.932 
-5.49508e-06 4.06158e-06 2.69114e+25 -3.6917 7.04114 271.961 
-3.58375e-06 4.06158e-06 2.68824e+25 -4.07733 6.06343 272.13 
-1.67242e-06 4.06158e-06 2.6863e+25 -4.64977 4.60454 272.182 
-1.69631e-05 4.53942e-06 2.68207e+25 0.00933845 0.504708 272.885 
-1.50517e-05 4.53942e-06 2.68732e+25 -0.381068 4.25141 272.214 
-1.31404e-05 4.53942e-06 2.68981e+25 -0.861178 6.6416 271.926 
-1.12291e-05 4.53942e-06 2.69084e+25 -1.33288 7.62313 271.889 
-9.31775e-06 4.53942e-06 2.6928e+25 -2.13536 8.07032 271.781 
-7.40642e-06 4.53942e-06 2.68969e+25 -2.98473 7.99919 271.974 
-5.49508e-06 4.53942e-06 2.68965e+25 -3.40728 7.10698 272.033 
-3.58375e-06 4.53942e-06 2.68877e+25 -3.75317 6.15495 272.044 
-1.67242e-06 4.53942e-06 2.6872e+25 -4.25875 4.74876 272.146 
-1.69631e-05 5.01725e-06 2.68277e+25 0.0285574 0.485951 272.862 
-1.50517e-05 5.01725e-06 2.68742e+25 -0.477109 4.31262 272.164 
-1.31404e-05 5.01725e-06 2.69062e+25 -0.800769 6.74255 271.977 
-1.12291e-05 5.01725e-06 2.69166e+25 -1.48231 7.78103 271.884 
-9.31775e-06 5.01725e-06 2.69116e+25 -2.15937 8.26633 271.874 
-7.40642e-06 5.01725e-06 2.68928e+25 -2.74019 8.11523 272.019 
-5.49508e-06 5.01725e-06 2.68785e+25 -3.02994 7.19105 272.034 
-3.58375e-06 5.01725e-06 2.68873e+25 -3.42991 6.30101 271.968 
-1.67242e-06 5.01725e-06 2.68692e+25 -3.94068 4.86392 272.099 
-1.69631e-05 5.49508e-06 2.68369e+25 -0.0594336 0.534536 272.796 
-1.50517e-05 5.49508e-06 2.68757e+25 -0.525684 4.43692 272.185 
-1.31404e-05 5.49508e-06 2.68988e+25 -0.776347 6.79273 271.958 
-1.12291e-05 5.49508e-06 2.69041e+25 -1.46158 7.95167 271.951 
-9.31775e-06 5.49508e-06 2.68933e+25 -2.04382 8.36815 271.951 
-7.40642e-06 5.49508e-06 2.69092e+25 -2.62008 8.18786 271.893 
-5.49508e-06 5.49508e-06 2.68824e+25 -2.83577 7.33548 272.054 
-3.58375e-06 5.49508e-06 2.68918e+25 -3.08108 6.39001 271.955 
-1.67242e-06 5.49508e-06 2.68821e+25 -3.56249 5.06176 272.012 
-1.69631e-05 5.97292e-06 2.68413e+25 -0.0481092 0.665299 272.697 
-1.50517e-05 5.97292e-06 2.68649e+25 -0.535439 4.62901 272.29 
-1.31404e-05 5.97292e-06 2.69018e+25 -0.815254 6.87258 271.942 
-1.12291e-05 5.97292e-06 2.69055e+25 -1.45069 8.2307 271.971 
-9.31775e-06 5.97292e-06 2.69076e+25 -2.01212 8.48793 271.918 
-7.40642e-06 5.97292e-06 2.68945e+25 -2.48422 8.26033 271.91 
-5.49508e-06 5.97292e-06 2.68722e+25 -2.54741 7.39633 272.056 
-3.58375e-06 5.97292e-06 2.68823e+25 -2.82533 6.42241 272.069 
-1.67242e-06 5.97292e-06 2.68936e+25 -3.25541 5.20036 271.886 
-1.69631e-05 6.45075e-06 2.68145e+25 0.00993602 0.718737 272.787 
-1.50517e-05 6.45075e-06 2.68767e+25 -0.468455 4.79864 272.221 
-1.31404e-05 6.45075e-06 2.69134e+25 -1.1007 6.9919 271.902 
-1.12291e-05 6.45075e-06 2.69079e+25 -1.4147 8.39424 271.88 
-9.31775e-06 6.45075e-06 2.69179e+25 -1.99595 8.55537 271.867 
-7.40642e-06 6.45075e-06 2.69005e+25 -2.20778 8.29052 271.894 
-5.49508e-06 6.45075e-06 2.68929e+25 -2.41214 7.44681 271.996 
-3.58375e-06 6.45075e-06 2.68798e+25 -2.56311 6.39605 272.06 
-1.67242e-06 6.45075e-06 2.69031e+25 -2.63267 5.24274 271.807 
-1.69631e-05 6.92858e-06 2.68238e+25 0.00710586 0.677878 272.757 
-1.50517e-05 6.92858e-06 2.68697e+25 -0.429706 4.97135 272.26 
-1.31404e-05 6.92858e-06 2.68887e+25 -1.13677 7.1371 272.016 
-1.12291e-05 6.92858e-06 2.69085e+25 -1.44326 8.43202 271.877 
-9.31775e-06 6.92858e-06 2.69009e+25 -1.80824 8.66986 271.834 
-7.40642e-06 6.92858e-06 2.69101e+25 -1.9633 8.30473 271.781 
-5.49508e-06 6.92858e-06 2.68839e+25 -1.98298 7.50418 271.959 
-3.58375e-06 6.92858e-06 2.68695e+25 -2.09732 6.41395 272.073 
-1.67242e-06 6.92858e-06 2.68871e+25 -2.16491 5.32581 271.789 
-1.69631e-05 7.40642e-06 2.6818e+25 0.00308833 0.680551 272.792 
-1.50517e-05 7.40642e-06 2.68766e+25 -0.453824 5.10786 272.238 
-1.31404e-05 7.40642e-06 2.68972e+25 -1.20888 7.2669 272.037 
-1.12291e-05 7.40642e-06 2.69037e+25 -1.4428 8.45731 271.896 
-9.31775e-06 7.40642e-06 2.6913e+25 -1.70538 8.70501 271.824 
-7.40642e-06 7.40642e-06 2.69178e+25 -1.65633 8.30121 271.753 
-5.49508e-06 7.40642e-06 2.68949e+25 -1.63314 7.50202 271.951 
-3.58375e-06 7.40642e-06 2.68771e+25 -1.75732 6.45273 272.003 
-1.67242e-06 7.40642e-06 2.69115e+25 -1.49082 5.37032 271.826 
-1.69631e-05 7.88425e-06 2.68109e+25 -0.0279411 0.721014 272.863 
-1.50517e-05 7.88425e-06 2.68884e+25 -0.410898 5.24748 272.052 
-1.31404e-05 7.88425e-06 2.68874e+25 -1.19487 7.50324 272.035 
-1.12291e-05 7.88425e-06 2.68993e+25 -1.49108 8.47308 271.931 
-9.31775e-06 7.88425e-06 2.6897e+25 -1.5783 8.81575 271.947 
-7.40642e-06 7.88425e-06 2.69096e+25 -1.49524 8.35556 271.835 
-5.49508e-06 7.88425e-06 2.68839e+25 -1.34569 7.48276 271.908 
-3.58375e-06 7.88425e-06 2.68855e+25 -1.24806 6.46353 272.003 
-1.67242e-06 7.88425e-06 2.69014e+25 -0.858336 5.3327 271.831 
-1.69631e-05 8.36208e-06 2.68158e+25 0.0330528 0.735835 272.773 
-1.50517e-05 8.36208e-06 2.68856e+25 -0.442921 5.41132 272.007 
-1.31404e-05 8.36208e-06 2.68889e+25 -1.27385 7.78565 272.054 
-1.12291e-05 8.36208e-06 2.68894e+25 -1.73 8.49194 271.988 
-9.31775e-06 8.36208e-06 2.68875e+25 -1.66471 8.82404 271.971 
-7.40642e-06 8.36208e-06 2.68938e+25 -1.31078 8.23701 271.93 
-5.49508e-06 8.36208e-06 2.68869e+25 -1.09583 7.36992 271.962 
-3.58375e-06 8.36208e-06 2.68827e+25 -0.66802 6.48076 271.998 
-1.67242e-06 8.36208e-06 2.68937e+25 -0.220648 5.18045 271.841 
-1.69631e-05 8.83992e-06 2.68255e+25 -0.0447794 0.77548 272.729 
-1.50517e-05 8.83992e-06 2.68687e+25 -0.522323 5.54054 272.152 
-1.31404e-05 8.83992e-06 2.68877e+25 -1.33436 7.9915 272.009 
-1.12291e-05 8.83992e-06 2.68876e+25 -1.95746 8.50515 272.004 
-9.31775e-06 8.83992e-06 2.68934e+25 -1.8292 8.7194 271.983 
-7.40642e-06 8.83992e-06 2.68842e+25 -1.18763 8.07427 271.98 
-5.49508e-06 8.83992e-06 2.68853e+25 -0.690328 7.305 271.994 
-3.58375e-06 8.83992e-06 2.6878e+25 -0.0218677 6.3425 272.052 
-1.67242e-06 8.83992e-06 2.68936e+25 0.47516 4.99635 271.899 
-1.69631e-05 9.31775e-06 2.68116e+25 -0.0319971 0.849593 272.699 
-1.50517e-05 9.31775e-06 2.68487e+25 -0.62883 5.7491 272.243 
-1.31404e-05 9.31775e-06 2.68905e+25 -1.57207 8.10859 271.953 
-1.12291e-05 9.31775e-06 2.69001e+25 -2.16943 8.47498 271.86 
-9.31775e-06 9.31775e-06 2.68871e+25 -1.86026 8.64688 271.934 
-7.40642e-06 9.31775e-06 2.68886e+25 -1.14678 7.90204 272.048 
-5.49508e-06 9.31775e-06 2.68877e+25 -0.361505 7.24202 271.923 
-3.58375e-06 9.31775e-06 2.6877e+25 0.432432 6.10669 272.031 
-1.67242e-06 9.31775e-06 2.68941e+25 1.24376 4.79952 271.927 
-1.69631e-05 9.79558e-06 2.68088e+25 -0.0256282 0.921928 272.744 
-1.50517e-05 9.79558e-06 2.68651e+25 -0.764676 5.97539 272.176 
-1.31404e-05 9.79558e-06 2.68873e+25 -1.69231 8.25058 271.982 
-1.12291e-05 9.79558e-06 2.69052e+25 -2.36743 8.52466 271.828 
-9.31775e-06 9.79558e-06 2.68952e+25 -1.7346 8.47405 271.922 
-7.40642e-06 9.79558e-06 2.68952e+25 -0.896038 7.69229 271.989 
-5.49508e-06 9.79558e-06 2.69067e+25 0.0297106 6.99677 271.918 
-3.58375e-06 9.79558e-06 2.68886e+25 1.11577 5.84471 271.938 
-1.67242e-06 9.79558e-06 2.69008e+25 2.09192 4.58689 271.849 
-1.69631e-05 1.02734e-05 2.68e+25 -0.0893672 1.05288 272.803 
-1.50517e-05 1.02734e-05 2.68533e+25 -1.01592 6.19599 272.175 
-1.31404e-05 1.02734e-05 2.68894e+25 -1.91978 8.42481 272.043 
-1.12291e-05 1.02734e-05 2.68857e+25 -2.26992 8.61746 271.921 
-9.31775e-06 1.02734e-05 2.69004e+25 -1.75384 8.28187 271.923 
-7.40642e-06 1.02734e-05 2.68813e+25 -0.821355 7.49645 272.073 
-5.49508e-06 1.02734e-05 2.68991e+25 0.516749 6.5926 271.86 
-3.58375e-06 1.02734e-05 2.68954e+25 1.86013 5.52264 271.893 
-1.67242e-06 1.02734e-05 2.68846e+25 3.03946 4.37557 271.973 
-1.69631e-05 1.07512e-05 2.68084e+25 -0.0287102 1.18807 272.801 
-1.50517e-05 1.07512e-05 2.68557e+25 -1.15786 6.55118 272.07 
-1.31404e-05 1.07512e-05 2.6895e+25 -2.12165 8.59204 271.927 
-1.12291e-05 1.07512e-05 2.68836e+25 -2.18811 8.59986 271.94 
-9.31775e-06 1.07512e-05 2.69021e+25 -1.5927 8.07146 271.812 
-7.40642e-06 1.07512e-05 2.68727e+25 -0.383042 7.21766 272.174 
-5.49508e-06 1.07512e-05 2.69066e+25 1.0919 6.25413 271.825 
-3.58375e-06 1.07512e-05 2.68849e+25 2.74744 5.21023 272.015 
-1.67242e-06 1.07512e-05 2.68881e+25 4.01076 4.15177 271.906 
-1.69631e-05 1.12291e-05 2.6803e+25 -0.0316471 1.25975 272.785 
-1.50517e-05 1.12291e-05 2.68656e+25 -1.319 6.97761 272.078 
-1.31404e-05 1.12291e-05 2.68789e+25 -2.18473 8.71834 272.005 
-1.12291e-05 1.12291e-05 2.69007e+25 -2.14792 8.55747 271.894 
-9.31775e-06 1.12291e-05 2.68955e+25 -1.21156 7.77362 271.925 
-7.40642e-06 1.12291e-05 2.68826e+25 0.300604 6.81102 272.129 
-5.49508e-06 1.12291e-05 2.68965e+25 1.89796 5.92014 271.805 
-3.58375e-06 1.12291e-05 2.6885e+25 3.44068 4.76402 272.025 
-1.67242e-06 1.12291e-05 2.68799e+25 4.95124 3.86417 271.932 
-1.69631e-05 1.17069e-05 2.6796e+25 -0.0153455 1.31375 272.829 
-1.50517e-05 1.17069e-05 2.68547e+25 -1.49976 7.42463 272.202 
-1.31404e-05 1.17069e-05 2.68643e+25 -2.33861 8.7931 272.116 
-1.12291e-05 1.17069e-05 2.68985e+25 -2.14613 8.41 271.806 
-9.31775e-06 1.17069e-05 2.68884e+25 -0.867451 7.36773 272.027 
-7.40642e-06 1.17069e-05 2.68812e+25 0.992723 6.32394 272.165 
-5.49508e-06 1.17069e-05 2.69037e+25 2.75737 5.56589 271.887 
-3.58375e-06 1.17069e-05 2.68859e+25 4.44559 4.32254 272.028 
-1.67242e-06 1.17069e-05 2.68643e+25 6.14472 3.51968 272.063 
-1.69631e-05 1.21847e-05 2.67918e+25 -0.0339127 1.41182 272.8 
-1.50517e-05 1.21847e-05 2.68542e+25 -1.69839 7.85809 272.064 
-1.31404e-05 1.21847e-05 2.68595e+25 -2.67708 8.84684 272.214 
-1.12291e-05 1.21847e-05 2.68849e+25 -1.9938 8.1476 271.901 
-9.31775e-06 1.21847e-05 2.68912e+25 -0.394931 6.79471 271.937 
-7.40642e-06 1.21847e-05 2.68723e+25 1.64484 5.76631 272.192 
-5.49508e-06 1.21847e-05 2.68918e+25 3.7242 5.09788 272.019 
-3.58375e-06 1.21847e-05 2.68672e+25 5.61508 3.84487 272.165 
-1.67242e-06 1.21847e-05 2.6872e+25 7.53781 3.14773 272.13 
-1.69631e-05 1.26626e-05 2.67983e+25 -0.0984502 1.55355 272.75 
-1.50517e-05 1.26626e-05 2.68448e+25 -2.01608 8.26344 272.086 
-1.31404e-05 1.26626e-05 2.68703e+25 -2.92532 8.83576 272.014 
-1.12291e-05 1.26626e-05 2.68822e+25 -1.66461 7.77164 271.926 
-9.31775e-06 1.26626e-05 2.68867e+25 0.348079 6.23449 272.068 
-7.40642e-06 1.26626e-05 2.68787e+25 2.71566 5.24837 272.181 
-5.49508e-06 1.26626e-05 2.68763e+25 5.05229 4.50655 272.157 
-3.58375e-06 1.26626e-05 2.68797e+25 7.11618 3.42119 272.151 
-1.67242e-06 1.26626e-05 2.68697e+25 8.83811 2.73572 272.134 
-1.69631e-05 1.31404e-05 2.67825e+25 -0.1141 1.85751 272.738 
-1.50517e-05 1.31404e-05 2.68443e+25 -2.50468 8.77914 272.014 
-1.31404e-05 1.31404e-05 2.68605e+25 -3.08078 8.74496 271.974 
-1.12291e-05 1.31404e-05 2.68793e+25 -1.09589 7.2555 272.037 
-9.31775e-06 1.31404e-05 2.68922e+25 1.4968 5.62624 272.053 
-7.40642e-06 1.31404e-05 2.68638e+25 4.1847 4.78165 272.167 
-5.49508e-06 1.31404e-05 2.68743e+25 6.50478 3.85365 272.208 
-3.58375e-06 1.31404e-05 2.6866e+25 8.77085 2.9269 272.172 
-1.67242e-06 1.31404e-05 2.68714e+25 10.7213 2.34623 272.092 
-1.69631e-05 1.36182e-05 2.67799e+25 -0.188389 2.19776 272.714 
-1.50517e-05 1.36182e-05 2.68454e+25 -3.02021 9.28543 271.996 
-1.31404e-05 1.36182e-05 2.68756e+25 -2.67994 8.39628 271.936 
-1.12291e-05 1.36182e-05 2.68726e+25 -0.0987483 6.53194 272.19 
-9.31775e-06 1.36182e-05 2.68865e+25 3.10788 4.94065 272.053 
-7.40642e-06 1.36182e-05 2.6878e+25 5.95368 4.17916 272.126 
-5.49508e-06 1.36182e-05 2.68737e+25 8.3854 3.17347 272.219 
-3.58375e-06 1.36182e-05 2.68664e+25 10.7275 2.40502 272.224 
-1.67242e-06 1.36182e-05 2.68711e+25 12.5568 1.93673 272.187 
-1.69631e-05 1.40961e-05 2.67575e+25 -0.187711 2.62547 272.755 
-1.50517e-05 1.40961e-05 2.68352e+25 -3.29489 9.60133 272.027 
-1.31404e-05 1.40961e-05 2.68812e+25 -1.93677 7.81138 271.865 
-1.12291e-05 1.40961e-05 2.68547e+25 1.43462 5.62723 272.296 
-9.31775e-06 1.40961e-05 2.68866e+25 4.95617 4.15989 272.185 
-7.40642e-06 1.40961e-05 2.68833e+25 8.03796 3.4725 272.167 
-5.49508e-06 1.40961e-05 2.68776e+25 10.858 2.54209 272.265 
-3.58375e-06 1.40961e-05 2.68617e+25 13.0345 1.94047 272.261 
-1.67242e-06 1.40961e-05 2.68537e+25 14.6709 1.57457 272.336 
-1.69631e-05 1.45739e-05 2.67282e+25 -0.339112 3.24992 272.801 
-1.50517e-05 1.45739e-05 2.6822e+25 -3.22683 9.6953 272.057 
-1.31404e-05 1.45739e-05 2.68682e+25 -0.512232 6.92945 271.92 
-1.12291e-05 1.45739e-05 2.68549e+25 3.86402 4.61869 272.338 
-9.31775e-06 1.45739e-05 2.68784e+25 7.48275 3.3309 272.166 
-7.40642e-06 1.45739e-05 2.68676e+25 10.7615 2.69585 272.306 
-5.49508e-06 1.45739e-05 2.68757e+25 13.5591 1.93501 272.293 
-3.58375e-06 1.45739e-05 2.68525e+25 15.5842 1.56177 272.297 
-1.67242e-06 1.45739e-05 2.68653e+25 17.0986 1.15743 272.288 
-1.69631e-05 1.50518e-05 2.67008e+25 -0.473391 4.18285 272.812 
-1.50517e-05 1.50518e-05 2.67801e+25 -2.69413 9.3897 272.232 
-1.31404e-05 1.50518e-05 2.68514e+25 1.96358 5.70804 272.129 
-1.12291e-05 1.50518e-05 2.68545e+25 7.01348 3.57255 272.32 
-9.31775e-06 1.50518e-05 2.68709e+25 10.8474 2.5091 272.276 
-7.40642e-06 1.50518e-05 2.68504e+25 13.892 2.00751 272.546 
-5.49508e-06 1.50518e-05 2.68553e+25 16.4406 1.37982 272.362 
-3.58375e-06 1.50518e-05 2.68606e+25 18.5228 1.13608 272.28 
-1.67242e-06 1.50518e-05 2.68566e+25 19.893 0.801993 272.375 
-1.69631e-05 1.55296e-05 2.66256e+25 -0.678882 5.47191 272.785 
-1.50517e-05 1.55296e-05 2.67491e+25 -0.766568 8.3319 272.506 
-1.31404e-05 1.55296e-05 2.68184e+25 5.98234 4.20212 272.513 
-1.12291e-05 1.55296e-05 2.68248e+25 11.3146 2.55979 272.701 
-9.31775e-06 1.55296e-05 2.6876e+25 15.0075 1.6433 272.387 
-7.40642e-06 1.55296e-05 2.68447e+25 17.9017 1.35516 272.643 
-5.49508e-06 1.55296e-05 2.68628e+25 20.0717 0.902492 272.434 
-3.58375e-06 1.55296e-05 2.68536e+25 21.6879 0.715139 272.421 
-1.67242e-06 1.55296e-05 2.6852e+25 22.8792 0.524466 272.408 
-1.69631e-05 1.60074e-05 2.65062e+25 -0.812132 7.07598 272.831 
-1.50517e-05 1.60074e-05 2.67393e+25 3.5642 6.22785 272.69 
-1.31404e-05 1.60074e-05 2.67941e+25 11.8006 2.53935 272.732 
-1.12291e-05 1.60074e-05 2.68156e+25 16.7738 1.56389 272.874 
-9.31775e-06 1.60074e-05 2.68527e+25 19.9489 0.890057 272.551 
-7.40642e-06 1.60074e-05 2.68345e+25 22.2204 0.746083 272.697 
-5.49508e-06 1.60074e-05 2.68341e+25 24.0988 0.484252 272.647 
-3.58375e-06 1.60074e-05 2.68584e+25 25.3518 0.369577 272.48 
-1.67242e-06 1.60074e-05 2.6847e+25 26.1798 0.264138 272.518 
-1.69631e-05 1.64852e-05 2.62839e+25 -0.373432 8.51644 272.782 
-1.50517e-05 1.64852e-05 2.67073e+25 11.8721 3.4348 272.958 
-1.31404e-05 1.64852e-05 2.67885e+25 19.6727 1.09058 272.879 
-1.12291e-05 1.64852e-05 2.68212e+25 23.3839 0.686773 272.833 
-9.31775e-06 1.64852e-05 2.68458e+25 25.7395 0.358279 272.615 
-7.40642e-06 1.64852e-05 2.68335e+25 27.1773 0.291438 272.801 
-5.49508e-06 1.64852e-05 2.68195e+25 28.3104 0.170001 272.844 
-3.58375e-06 1.64852e-05 2.68409e+25 29.0346 0.187527 272.635 
-1.67242e-06 1.64852e-05 2.68403e+25 29.7032 0.0762259 272.563 
-1.69631e-05 1.69631e-05 2.55287e+25 4.04044 6.22097 273.069 
-1.50517e-05 1.69631e-05 2.67174e+25 24.4012 0.850439 273.188 
-1.31404e-05 1.69631e-05 2.67871e+25 28.7369 0.229016 273.153 
-1.12291e-05 1.69631e-05 2.68131e+25 30.2925 0.14878 273 
-9.31775e-06 1.69631e-05 2.68356e+25 31.2841 0.0478986 272.868 
-7.40642e-06 1.69631e-05 2.6823e+25 31.7976 0.0472734 272.982 
-5.49508e-06 1.69631e-05 2.68058e+25 32.203 0.0310024 273.033 
-3.58375e-06 1.69631e-05 2.68186e+25 32.4248 0.0409352 272.919 
-1.67242e-06 1.69631e-05 2.68161e+25 32.752 0.000722307 272.846 
-1.60074e-05 2.38917e-07 2.68665e+25 -0.21148 1.68859 272.23 
-1.40961e-05 2.38917e-07 2.68932e+25 -0.566521 4.20941 271.95 
-1.21847e-05 2.38917e-07 2.689e+25 -1.41631 5.47036 272.043 
-1.02734e-05 2.38917e-07 2.6886e+25 -2.50653 6.04024 271.941 
-8.36208e-06 2.38917e-07 2.68958e+25 -3.34378 6.17979 271.966 
-6.45075e-06 2.38917e-07 2.68923e+25 -4.1799 5.88512 271.989 
-4.53942e-06 2.38917e-07 2.68865e+25 -5.31449 5.05936 271.974 
-2.62808e-06 2.38917e-07 2.68779e+25 -6.21387 3.85328 272.011 
-7.1675e-07 2.38917e-07 2.68712e+25 -7.1797 2.5858 272.134 
-1.60074e-05 7.1675e-07 2.68966e+25 -0.113215 1.84175 272.251 
-1.40961e-05 7.1675e-07 2.69183e+25 -0.559968 4.36872 271.863 
-1.21847e-05 7.1675e-07 2.69102e+25 -1.50523 5.77119 272.005 
-1.02734e-05 7.1675e-07 2.69177e+25 -2.61397 6.25221 271.854 
-8.36208e-06 7.1675e-07 2.69077e+25 -3.26778 6.41458 271.978 
-6.45075e-06 7.1675e-07 2.69128e+25 -4.08006 6.12436 271.872 
-4.53942e-06 7.1675e-07 2.69153e+25 -5.08089 5.33016 271.87 
-2.62808e-06 7.1675e-07 2.69033e+25 -6.08341 4.18028 271.94 
-7.1675e-07 7.1675e-07 2.68921e+25 -6.98439 2.7968 272.147 
-1.60074e-05 1.19458e-06 2.69008e+25 -0.148684 1.99828 272.141 
-1.40961e-05 1.19458e-06 2.69117e+25 -0.656687 4.49761 271.939 
-1.21847e-05 1.19458e-06 2.69162e+25 -1.59801 6.0144 271.899 
-1.02734e-05 1.19458e-06 2.69286e+25 -2.48145 6.44885 271.838 
-8.36208e-06 1.19458e-06 2.69057e+25 -3.06105 6.55849 271.993 
-6.45075e-06 1.19458e-06 2.69247e+25 -3.93114 6.26724 271.82 
-4.53942e-06 1.19458e-06 2.69217e+25 -5.0168 5.60276 271.832 
-2.62808e-06 1.19458e-06 2.69143e+25 -5.95767 4.47568 271.971 
-7.1675e-07 1.19458e-06 2.68992e+25 -6.70859 2.94829 272.15 
-1.60074e-05 1.67242e-06 2.68976e+25 -0.0130491 2.03132 272.16 
-1.40961e-05 1.67242e-06 2.69107e+25 -0.643432 4.61826 271.956 
-1.21847e-05 1.67242e-06 2.69261e+25 -1.56693 6.29573 271.925 
-1.02734e-05 1.67242e-06 2.69055e+25 -2.28107 6.637 271.954 
-8.36208e-06 1.67242e-06 2.69216e+25 -3.06973 6.68004 271.811 
-6.45075e-06 1.67242e-06 2.69191e+25 -4.04441 6.43851 271.789 
-4.53942e-06 1.67242e-06 2.69189e+25 -4.77622 5.83812 271.814 
-2.62808e-06 1.67242e-06 2.69039e+25 -5.73602 4.64155 272.011 
-7.1675e-07 1.67242e-06 2.68769e+25 -6.44694 3.09101 272.148 
-1.60074e-05 2.15025e-06 2.6886e+25 0.0146751 2.06391 272.258 
-1.40961e-05 2.15025e-06 2.69045e+25 -0.437743 4.81797 271.964 
-1.21847e-05 2.15025e-06 2.69263e+25 -1.39167 6.48394 271.822 
-1.02734e-05 2.15025e-06 2.69069e+25 -2.22431 6.80755 271.908 
-8.36208e-06 2.15025e-06 2.69335e+25 -3.01795 6.85451 271.697 
-6.45075e-06 2.15025e-06 2.69351e+25 -4.18877 6.68832 271.747 
-4.53942e-06 2.15025e-06 2.69195e+25 -4.64343 6.11687 271.84 
-2.62808e-06 2.15025e-06 2.6896e+25 -5.69632 4.84628 271.978 
-7.1675e-07 2.15025e-06 2.68777e+25 -6.19321 3.25349 272.159 
-1.60074e-05 2.62808e-06 2.68845e+25 -0.0925032 2.14104 272.284 
-1.40961e-05 2.62808e-06 2.69165e+25 -0.566803 5.01505 271.951 
-1.21847e-05 2.62808e-06 2.69359e+25 -1.22675 6.6764 271.723 
-1.02734e-05 2.62808e-06 2.69094e+25 -2.11239 7.04443 271.886 
-8.36208e-06 2.62808e-06 2.69214e+25 -2.9449 7.05725 271.773 
-6.45075e-06 2.62808e-06 2.69245e+25 -4.00571 6.92001 271.768 
-4.53942e-06 2.62808e-06 2.69013e+25 -4.61415 6.27563 271.92 
-2.62808e-06 2.62808e-06 2.68876e+25 -5.32615 4.97977 272.119 
-7.1675e-07 2.62808e-06 2.68707e+25 -5.821 3.43941 272.227 
-1.60074e-05 3.10592e-06 2.68813e+25 -0.0662608 2.12552 272.259 
-1.40961e-05 3.10592e-06 2.69239e+25 -0.605881 5.20707 271.87 
-1.21847e-05 3.10592e-06 2.69238e+25 -1.19568 6.85166 271.799 
-1.02734e-05 3.10592e-06 2.69136e+25 -1.94745 7.20569 271.851 
-8.36208e-06 3.10592e-06 2.69097e+25 -2.97891 7.30399 271.84 
-6.45075e-06 3.10592e-06 2.69151e+25 -3.83027 7.1306 271.895 
-4.53942e-06 3.10592e-06 2.68923e+25 -4.55243 6.36496 272.002 
-2.62808e-06 3.10592e-06 2.68804e+25 -4.92081 5.10825 272.136 
-7.1675e-07 3.10592e-06 2.68596e+25 -5.52218 3.69818 272.254 
-1.60074e-05 3.58375e-06 2.68824e+25 -0.0349015 2.16581 272.233 
-1.40961e-05 3.58375e-06 2.69111e+25 -0.53438 5.37249 271.926 
-1.21847e-05 3.58375e-06 2.69032e+25 -1.132 7.01427 271.91 
-1.02734e-05 3.58375e-06 2.69203e+25 -1.86518 7.44537 271.811 
-8.36208e-06 3.58375e-06 2.69158e+25 -2.88307 7.60987 271.848 
-6.45075e-06 3.58375e-06 2.68993e+25 -3.65509 7.42717 271.873 
-4.53942e-06 3.58375e-06 2.68993e+25 -4.2539 6.48238 271.978 
-2.62808e-06 3.58375e-06 2.68685e+25 -4.69664 5.31814 272.24 
-7.1675e-07 3.58375e-06 2.68551e+25 -5.18524 3.81156 272.332 
-1.60074e-05 4.06158e-06 2.68782e+25 -0.0743244 2.2478 272.247 
-1.40961e-05 4.06158e-06 2.691e+25 -0.533846 5.63075 271.946 
-1.21847e-05 4.06158e-06 2.69222e+25 -1.17447 7.14197 271.8 
-1.02734e-05 4.06158e-06 2.69132e+25 -1.71113 7.70151 271.877 
-8.36208e-06 4.06158e-06 2.69173e+25 -2.83348 7.83062 271.839 
-6.45075e-06 4.06158e-06 2.68992e+25 -3.42598 7.60941 271.971 
-4.53942e-06 4.06158e-06 2.68906e+25 -3.92787 6.55196 272.043 
-2.62808e-06 4.06158e-06 2.68816e+25 -4.32804 5.45243 272.181 
-7.1675e-07 4.06158e-06 2.68599e+25 -4.89694 3.85882 272.345 
-1.60074e-05 4.53942e-06 2.68776e+25 -0.044924 2.34765 272.318 
-1.40961e-05 4.53942e-06 2.68897e+25 -0.61595 5.86833 272.051 
-1.21847e-05 4.53942e-06 2.69254e+25 -1.1034 7.28371 271.791 
-1.02734e-05 4.53942e-06 2.69026e+25 -1.67619 7.96545 271.915 
-8.36208e-06 4.53942e-06 2.69302e+25 -2.71437 8.01167 271.745 
-6.45075e-06 4.53942e-06 2.68909e+25 -3.29326 7.78133 272.027 
-4.53942e-06 4.53942e-06 2.68767e+25 -3.55341 6.58945 272.121 
-2.62808e-06 4.53942e-06 2.68787e+25 -4.0272 5.52769 272.083 
-7.1675e-07 4.53942e-06 2.68578e+25 -4.56049 3.98841 272.3 
-1.60074e-05 5.01725e-06 2.68828e+25 -0.199969 2.50743 272.242 
-1.40961e-05 5.01725e-06 2.68946e+25 -0.642546 5.94493 272.039 
-1.21847e-05 5.01725e-06 2.6904e+25 -1.0053 7.46053 271.973 
-1.02734e-05 5.01725e-06 2.69015e+25 -1.80255 8.14078 271.891 
-8.36208e-06 5.01725e-06 2.68979e+25 -2.4314 8.23834 271.894 
-6.45075e-06 5.01725e-06 2.68819e+25 -2.97351 7.83492 272.11 
-4.53942e-06 5.01725e-06 2.68966e+25 -3.31239 6.66725 271.996 
-2.62808e-06 5.01725e-06 2.68939e+25 -3.68919 5.70819 271.957 
-7.1675e-07 5.01725e-06 2.6874e+25 -4.26044 4.10952 272.07 
-1.60074e-05 5.49508e-06 2.68762e+25 -0.276522 2.63686 272.239 
-1.40961e-05 5.49508e-06 2.68785e+25 -0.667029 5.96036 272.117 
-1.21847e-05 5.49508e-06 2.69116e+25 -1.03846 7.65347 271.87 
-1.02734e-05 5.49508e-06 2.68987e+25 -1.84572 8.30346 271.953 
-8.36208e-06 5.49508e-06 2.69051e+25 -2.29224 8.43197 271.851 
-6.45075e-06 5.49508e-06 2.68857e+25 -2.71122 7.86741 272.119 
-4.53942e-06 5.49508e-06 2.68932e+25 -3.08112 6.77573 271.973 
-2.62808e-06 5.49508e-06 2.68802e+25 -3.22787 5.83379 272.038 
-7.1675e-07 5.49508e-06 2.68785e+25 -3.83885 4.19348 271.99 
-1.60074e-05 5.97292e-06 2.68747e+25 -0.296392 2.75212 272.287 
-1.40961e-05 5.97292e-06 2.68737e+25 -0.71166 6.04125 272.109 
-1.21847e-05 5.97292e-06 2.68946e+25 -1.07137 7.81974 271.962 
-1.02734e-05 5.97292e-06 2.6909e+25 -1.78833 8.42162 271.884 
-8.36208e-06 5.97292e-06 2.69111e+25 -2.22834 8.62815 271.828 
-6.45075e-06 5.97292e-06 2.68802e+25 -2.45046 7.88898 272.022 
-4.53942e-06 5.97292e-06 2.68884e+25 -2.72638 6.88848 272.036 
-2.62808e-06 5.97292e-06 2.68956e+25 -2.92046 6.00925 271.904 
-7.1675e-07 5.97292e-06 2.68728e+25 -3.28522 4.21742 272.018 
-1.60074e-05 6.45075e-06 2.68715e+25 -0.0981833 2.86261 272.258 
-1.40961e-05 6.45075e-06 2.68769e+25 -0.845105 6.10342 272.105 
-1.21847e-05 6.45075e-06 2.68957e+25 -1.23853 7.95923 272.001 
-1.02734e-05 6.45075e-06 2.6912e+25 -1.73644 8.54917 271.796 
-8.36208e-06 6.45075e-06 2.69136e+25 -2.12938 8.65516 271.85 
-6.45075e-06 6.45075e-06 2.68999e+25 -2.17018 7.89862 271.924 
-4.53942e-06 6.45075e-06 2.68923e+25 -2.47918 6.95461 272.004 
-2.62808e-06 6.45075e-06 2.6896e+25 -2.59566 6.07397 271.94 
-7.1675e-07 6.45075e-06 2.68892e+25 -2.75193 4.16029 271.85 
-1.60074e-05 6.92858e-06 2.68571e+25 -0.127555 3.03935 272.318 
-1.40961e-05 6.92858e-06 2.68952e+25 -0.762191 6.21582 271.965 
-1.21847e-05 6.92858e-06 2.68978e+25 -1.29829 8.02686 271.977 
-1.02734e-05 6.92858e-06 2.68968e+25 -1.558 8.70876 271.847 
-8.36208e-06 6.92858e-06 2.68964e+25 -1.91785 8.67437 271.934 
-6.45075e-06 6.92858e-06 2.68988e+25 -1.95986 7.90122 271.857 
-4.53942e-06 6.92858e-06 2.68963e+25 -2.05584 6.9727 271.95 
-2.62808e-06 6.92858e-06 2.6892e+25 -2.11013 6.08015 271.869 
-7.1675e-07 6.92858e-06 2.68882e+25 -2.25059 4.21415 271.88 
-1.60074e-05 7.40642e-06 2.68801e+25 -0.125159 3.15871 272.246 
-1.40961e-05 7.40642e-06 2.68941e+25 -0.766774 6.41405 272.053 
-1.21847e-05 7.40642e-06 2.68944e+25 -1.43813 8.05968 272.019 
-1.02734e-05 7.40642e-06 2.69062e+25 -1.48429 8.83496 271.951 
-8.36208e-06 7.40642e-06 2.6898e+25 -1.75338 8.66042 271.902 
-6.45075e-06 7.40642e-06 2.69035e+25 -1.69632 7.92267 271.771 
-4.53942e-06 7.40642e-06 2.68773e+25 -1.62527 7.04187 272.088 
-2.62808e-06 7.40642e-06 2.68988e+25 -1.60783 6.05687 271.867 
-7.1675e-07 7.40642e-06 2.68847e+25 -1.51052 4.25998 271.85 
-1.60074e-05 7.88425e-06 2.6859e+25 -0.167722 3.21896 272.323 
-1.40961e-05 7.88425e-06 2.68823e+25 -0.73586 6.67234 272.017 
-1.21847e-05 7.88425e-06 2.68918e+25 -1.49793 8.10343 271.976 
-1.02734e-05 7.88425e-06 2.69047e+25 -1.52221 8.86586 271.859 
-8.36208e-06 7.88425e-06 2.68816e+25 -1.61913 8.6355 272.002 
-6.45075e-06 7.88425e-06 2.69132e+25 -1.44443 7.86482 271.751 
-4.53942e-06 7.88425e-06 2.68736e+25 -1.23003 7.01419 272.109 
-2.62808e-06 7.88425e-06 2.68921e+25 -1.09737 5.90907 271.856 
-7.1675e-07 7.88425e-06 2.68832e+25 -0.726578 4.24542 271.875 
-1.60074e-05 8.36208e-06 2.68587e+25 -0.228062 3.32857 272.314 
-1.40961e-05 8.36208e-06 2.68892e+25 -0.824217 6.90337 272.008 
-1.21847e-05 8.36208e-06 2.68945e+25 -1.7081 8.07971 271.946 
-1.02734e-05 8.36208e-06 2.68966e+25 -1.73424 8.8577 271.878 
-8.36208e-06 8.36208e-06 2.6892e+25 -1.57153 8.57901 272.034 
-6.45075e-06 8.36208e-06 2.6896e+25 -1.12537 7.83502 271.904 
-4.53942e-06 8.36208e-06 2.68881e+25 -0.848344 6.87129 271.967 
-2.62808e-06 8.36208e-06 2.68741e+25 -0.483155 5.75494 271.95 
-7.1675e-07 8.36208e-06 2.68843e+25 0.0471601 4.26233 271.948 
-1.60074e-05 8.83992e-06 2.68534e+25 -0.264163 3.4898 272.34 
-1.40961e-05 8.83992e-06 2.68764e+25 -0.95302 7.04432 272.068 
-1.21847e-05 8.83992e-06 2.68879e+25 -1.79822 8.2506 271.98 
-1.02734e-05 8.83992e-06 2.6895e+25 -1.99718 8.83463 271.954 
-8.36208e-06 8.83992e-06 2.68816e+25 -1.57207 8.48742 272.056 
-6.45075e-06 8.83992e-06 2.68807e+25 -0.920653 7.79034 272.009 
-4.53942e-06 8.83992e-06 2.68784e+25 -0.405023 6.72866 272.032 
-2.62808e-06 8.83992e-06 2.68715e+25 0.175098 5.66282 272.081 
-7.1675e-07 8.83992e-06 2.68838e+25 0.706276 4.16731 271.989 
-1.60074e-05 9.31775e-06 2.68592e+25 -0.249427 3.63358 272.292 
-1.40961e-05 9.31775e-06 2.68716e+25 -1.18192 7.29627 272.034 
-1.21847e-05 9.31775e-06 2.68916e+25 -1.96843 8.52714 271.873 
-1.02734e-05 9.31775e-06 2.69097e+25 -2.1013 8.74924 271.921 
-8.36208e-06 9.31775e-06 2.6899e+25 -1.53845 8.2721 271.951 
-6.45075e-06 9.31775e-06 2.68875e+25 -0.712654 7.65426 271.988 
-4.53942e-06 9.31775e-06 2.6896e+25 -0.00382848 6.5249 271.911 
-2.62808e-06 9.31775e-06 2.68648e+25 0.820523 5.54894 272.101 
-7.1675e-07 9.31775e-06 2.68903e+25 1.56078 4.0397 271.938 
-1.60074e-05 9.79558e-06 2.68538e+25 -0.250952 3.83756 272.322 
-1.40961e-05 9.79558e-06 2.68671e+25 -1.25503 7.61274 272.128 
-1.21847e-05 9.79558e-06 2.68956e+25 -1.90649 8.73684 271.898 
-1.02734e-05 9.79558e-06 2.69091e+25 -2.20898 8.61283 271.768 
-8.36208e-06 9.79558e-06 2.68981e+25 -1.3455 8.1249 271.852 
-6.45075e-06 9.79558e-06 2.68954e+25 -0.582045 7.38686 271.921 
-4.53942e-06 9.79558e-06 2.69008e+25 0.59705 6.27976 271.89 
-2.62808e-06 9.79558e-06 2.6869e+25 1.66056 5.33901 272.1 
-7.1675e-07 9.79558e-06 2.68712e+25 2.38605 3.90226 272.001 
-1.60074e-05 1.02734e-05 2.68514e+25 -0.383597 3.99533 272.334 
-1.40961e-05 1.02734e-05 2.68655e+25 -1.50661 7.90894 272.135 
-1.21847e-05 1.02734e-05 2.69012e+25 -2.04137 8.86633 271.878 
-1.02734e-05 1.02734e-05 2.68906e+25 -2.0703 8.37274 271.916 
-8.36208e-06 1.02734e-05 2.68892e+25 -1.21154 7.83863 272.028 
-6.45075e-06 1.02734e-05 2.68979e+25 -0.180074 7.12335 271.906 
-4.53942e-06 1.02734e-05 2.69056e+25 1.21567 5.98159 271.87 
-2.62808e-06 1.02734e-05 2.68698e+25 2.58413 5.03716 272.05 
-7.1675e-07 1.02734e-05 2.68759e+25 3.49562 3.73662 272.009 
-1.60074e-05 1.07512e-05 2.68346e+25 -0.505778 4.19742 272.412 
-1.40961e-05 1.07512e-05 2.68715e+25 -1.73646 8.13603 272.05 
-1.21847e-05 1.07512e-05 2.69039e+25 -2.16495 8.91058 271.842 
-1.02734e-05 1.07512e-05 2.69015e+25 -1.90766 8.22668 271.789 
-8.36208e-06 1.07512e-05 2.68852e+25 -1.00499 7.5799 272.062 
-6.45075e-06 1.07512e-05 2.68969e+25 0.363128 6.77086 271.935 
-4.53942e-06 1.07512e-05 2.69027e+25 1.90864 5.61557 271.831 
-2.62808e-06 1.07512e-05 2.68737e+25 3.46111 4.74791 272.013 
-7.1675e-07 1.07512e-05 2.68678e+25 4.50009 3.54205 272.074 
-1.60074e-05 1.12291e-05 2.68408e+25 -0.492019 4.6176 272.307 
-1.40961e-05 1.12291e-05 2.68589e+25 -1.96833 8.20541 272.082 
-1.21847e-05 1.12291e-05 2.68831e+25 -2.28004 8.88558 271.974 
-1.02734e-05 1.12291e-05 2.69071e+25 -1.82068 8.06692 271.769 
-8.36208e-06 1.12291e-05 2.68867e+25 -0.574808 7.22515 272.077 
-6.45075e-06 1.12291e-05 2.68971e+25 1.11294 6.40205 271.974 
-4.53942e-06 1.12291e-05 2.68993e+25 2.63683 5.22903 271.881 
-2.62808e-06 1.12291e-05 2.68656e+25 4.19572 4.39905 272.119 
-7.1675e-07 1.12291e-05 2.68678e+25 5.43874 3.33726 272.079 
-1.60074e-05 1.17069e-05 2.6832e+25 -0.534563 5.00914 272.342 
-1.40961e-05 1.17069e-05 2.6859e+25 -2.14493 8.36303 272.052 
-1.21847e-05 1.17069e-05 2.68861e+25 -2.47529 8.87393 271.972 
-1.02734e-05 1.17069e-05 2.68943e+25 -1.64833 7.78238 271.892 
-8.36208e-06 1.17069e-05 2.68766e+25 0.0249019 6.80987 272.07 
-6.45075e-06 1.17069e-05 2.68846e+25 1.98078 5.9447 272.044 
-4.53942e-06 1.17069e-05 2.68844e+25 3.53247 4.86219 271.959 
-2.62808e-06 1.17069e-05 2.68851e+25 5.3519 3.98015 272.076 
-7.1675e-07 1.17069e-05 2.68784e+25 6.75379 3.1062 272.031 
-1.60074e-05 1.21847e-05 2.68388e+25 -0.761364 5.46427 272.328 
-1.40961e-05 1.21847e-05 2.6867e+25 -2.42729 8.6081 271.976 
-1.21847e-05 1.21847e-05 2.68826e+25 -2.58496 8.71627 271.933 
-1.02734e-05 1.21847e-05 2.68903e+25 -1.33144 7.41167 271.972 
-8.36208e-06 1.21847e-05 2.68866e+25 0.652667 6.39859 272.142 
-6.45075e-06 1.21847e-05 2.6886e+25 2.72832 5.47761 272.033 
-4.53942e-06 1.21847e-05 2.68972e+25 4.62424 4.41715 271.934 
-2.62808e-06 1.21847e-05 2.6877e+25 6.56829 3.48613 272.13 
-7.1675e-07 1.21847e-05 2.6875e+25 8.11985 2.9179 272.024 
-1.60074e-05 1.26626e-05 2.68247e+25 -0.990328 5.96778 272.302 
-1.40961e-05 1.26626e-05 2.68546e+25 -2.68515 8.9004 272.056 
-1.21847e-05 1.26626e-05 2.6884e+25 -2.47322 8.47956 271.923 
-1.02734e-05 1.26626e-05 2.68779e+25 -0.738979 6.92375 272.053 
-8.36208e-06 1.26626e-05 2.68664e+25 1.58771 5.84928 272.188 
-6.45075e-06 1.26626e-05 2.68836e+25 3.79007 4.92844 272.049 
-4.53942e-06 1.26626e-05 2.68768e+25 6.12187 3.94187 272.098 
-2.62808e-06 1.26626e-05 2.68692e+25 8.0675 3.00476 272.135 
-7.1675e-07 1.26626e-05 2.68571e+25 9.75118 2.53693 272.189 
-1.60074e-05 1.31404e-05 2.68388e+25 -1.26101 6.66231 272.17 
-1.40961e-05 1.31404e-05 2.68658e+25 -3.18537 9.11159 271.923 
-1.21847e-05 1.31404e-05 2.68802e+25 -2.2771 8.04822 271.942 
-1.02734e-05 1.31404e-05 2.68735e+25 0.188263 6.35268 272.101 
-8.36208e-06 1.31404e-05 2.68744e+25 2.9357 5.15125 272.19 
-6.45075e-06 1.31404e-05 2.68769e+25 5.27969 4.36589 272.156 
-4.53942e-06 1.31404e-05 2.68506e+25 7.77585 3.41136 272.315 
-2.62808e-06 1.31404e-05 2.68733e+25 9.75595 2.57001 272.106 
-7.1675e-07 1.31404e-05 2.68624e+25 11.5132 2.10548 272.228 
-1.60074e-05 1.36182e-05 2.68165e+25 -1.62187 7.41112 272.252 
-1.40961e-05 1.36182e-05 2.68597e+25 -3.19415 9.09959 271.884 
-1.21847e-05 1.36182e-05 2.68614e+25 -1.57221 7.48778 272.075 
-1.02734e-05 1.36182e-05 2.6868e+25 1.5386 5.67091 272.12 
-8.36208e-06 1.36182e-05 2.68842e+25 4.56845 4.43118 272.219 
-6.45075e-06 1.36182e-05 2.68552e+25 7.18699 3.81462 272.31 
-4.53942e-06 1.36182e-05 2.6858e+25 9.6969 2.8366 272.279 
-2.62808e-06 1.36182e-05 2.68699e+25 11.7166 2.09583 272.094 
-7.1675e-07 1.36182e-05 2.68577e+25 13.3528 1.75342 272.231 
-1.60074e-05 1.40961e-05 2.68025e+25 -1.96795 8.3694 272.217 
-1.40961e-05 1.40961e-05 2.68503e+25 -3.10758 8.90764 271.907 
-1.21847e-05 1.40961e-05 2.68667e+25 -0.336709 6.75011 272.172 
-1.02734e-05 1.40961e-05 2.68585e+25 3.26121 4.86622 272.252 
-8.36208e-06 1.40961e-05 2.6887e+25 6.50197 3.71178 272.25 
-6.45075e-06 1.40961e-05 2.68557e+25 9.48591 3.19548 272.369 
-4.53942e-06 1.40961e-05 2.68668e+25 12.0131 2.2218 272.289 
-2.62808e-06 1.40961e-05 2.68722e+25 13.8641 1.58513 272.193 
-7.1675e-07 1.40961e-05 2.68502e+25 15.4263 1.38003 272.267 
-1.60074e-05 1.45739e-05 2.67922e+25 -2.34453 9.35254 272.095 
-1.40961e-05 1.45739e-05 2.68418e+25 -2.39304 8.40955 272.05 
-1.21847e-05 1.45739e-05 2.68598e+25 1.68922 5.75861 272.203 
-1.02734e-05 1.45739e-05 2.68622e+25 5.74411 4.02093 272.315 
-8.36208e-06 1.45739e-05 2.68728e+25 9.16369 2.93061 272.303 
-6.45075e-06 1.45739e-05 2.68624e+25 12.2225 2.47663 272.369 
-4.53942e-06 1.45739e-05 2.68689e+25 14.6403 1.67407 272.212 
-2.62808e-06 1.45739e-05 2.68631e+25 16.33 1.23865 272.205 
-7.1675e-07 1.45739e-05 2.68506e+25 17.8465 1.0073 272.323 
-1.60074e-05 1.50518e-05 2.67417e+25 -2.83663 10.2003 272.261 
-1.40961e-05 1.50518e-05 2.68152e+25 -0.700094 7.3892 272.254 
-1.21847e-05 1.50518e-05 2.68363e+25 4.66747 4.53442 272.443 
-1.02734e-05 1.50518e-05 2.68657e+25 9.01168 3.10183 272.318 
-8.36208e-06 1.50518e-05 2.68525e+25 12.5165 2.12055 272.367 
-6.45075e-06 1.50518e-05 2.68643e+25 15.305 1.79523 272.375 
-4.53942e-06 1.50518e-05 2.68669e+25 17.5258 1.16236 272.236 
-2.62808e-06 1.50518e-05 2.68749e+25 19.213 0.899853 272.261 
-7.1675e-07 1.50518e-05 2.6847e+25 20.4978 0.710793 272.407 
-1.60074e-05 1.55296e-05 2.67141e+25 -2.7013 10.618 272.352 
-1.40961e-05 1.55296e-05 2.67946e+25 2.59539 5.86443 272.474 
-1.21847e-05 1.55296e-05 2.68302e+25 8.92257 3.21218 272.612 
-1.02734e-05 1.55296e-05 2.68529e+25 13.2802 2.12396 272.487 
-8.36208e-06 1.55296e-05 2.68582e+25 16.5274 1.38081 272.489 
-6.45075e-06 1.55296e-05 2.68415e+25 19.0373 1.15248 272.5 
-4.53942e-06 1.55296e-05 2.68628e+25 20.9112 0.732407 272.335 
-2.62808e-06 1.55296e-05 2.68426e+25 22.3761 0.562685 272.419 
-7.1675e-07 1.55296e-05 2.68393e+25 23.5068 0.379595 272.46 
-1.60074e-05 1.60074e-05 2.66432e+25 -1.04204 9.88895 272.71 
-1.40961e-05 1.60074e-05 2.67791e+25 8.21234 3.93577 272.654 
-1.21847e-05 1.60074e-05 2.6825e+25 14.6221 1.88813 272.721 
-1.02734e-05 1.60074e-05 2.68421e+25 18.5477 1.21578 272.688 
-8.36208e-06 1.60074e-05 2.68518e+25 21.1495 0.759319 272.557 
-6.45075e-06 1.60074e-05 2.68286e+25 23.2345 0.656016 272.725 
-4.53942e-06 1.60074e-05 2.68442e+25 24.8021 0.394982 272.635 
-2.62808e-06 1.60074e-05 2.68415e+25 25.7541 0.346456 272.466 
-7.1675e-07 1.60074e-05 2.68483e+25 26.5447 0.193408 272.468 
-1.60074e-05 1.64852e-05 2.65722e+25 4.6854 7.01152 273.039 
-1.40961e-05 1.64852e-05 2.67762e+25 16.6802 1.97085 272.843 
-1.21847e-05 1.64852e-05 2.68217e+25 21.7705 0.819032 272.82 
-1.02734e-05 1.64852e-05 2.68274e+25 24.7385 0.509799 272.829 
-8.36208e-06 1.64852e-05 2.68453e+25 26.4743 0.244534 272.645 
-6.45075e-06 1.64852e-05 2.68222e+25 27.8342 0.239302 272.866 
-4.53942e-06 1.64852e-05 2.68311e+25 28.7255 0.187119 272.719 
-2.62808e-06 1.64852e-05 2.68331e+25 29.3658 0.183501 272.606 
-7.1675e-07 1.64852e-05 2.68245e+25 29.908 0.10994 272.608 
-1.60074e-05 1.69631e-05 2.65136e+25 18.2753 2.15891 273.393 
-1.40961e-05 1.69631e-05 2.67876e+25 27.1235 0.45015 272.951 
-1.21847e-05 1.69631e-05 2.68162e+25 29.5706 0.148002 272.924 
-1.02734e-05 1.69631e-05 2.68188e+25 30.837 0.0852002 272.986 
-8.36208e-06 1.69631e-05 2.68307e+25 31.4886 0.0234193 272.888 
-6.45075e-06 1.69631e-05 2.68314e+25 31.9983 0.0587735 272.977 
-4.53942e-06 1.69631e-05 2.68127e+25 32.312 0.0543312 272.937 
-2.62808e-06 1.69631e-05 2.68069e+25 32.716 0.044757 272.813 
-7.1675e-07 1.69631e-05 2.68217e+25 32.824 0.0318661 272.758 
-1.55296e-05 2.38917e-07 2.68732e+25 -0.292173 2.45367 272.101 
-1.36182e-05 2.38917e-07 2.68925e+25 -0.679248 4.61462 271.909 
-1.17069e-05 2.38917e-07 2.68744e+25 -1.65982 5.68797 272.079 
-9.79558e-06 2.38917e-07 2.6891e+25 -2.77379 5.98396 271.953 
-7.88425e-06 2.38917e-07 2.69003e+25 -3.57147 6.07751 271.954 
-5.97292e-06 2.38917e-07 2.68976e+25 -4.40226 5.76734 271.874 
-4.06158e-06 2.38917e-07 2.68896e+25 -5.50029 4.82101 271.977 
-2.15025e-06 2.38917e-07 2.68826e+25 -6.48458 3.58741 271.976 
-2.38917e-07 2.38917e-07 2.68493e+25 -7.35055 2.13203 272.175 
-1.55296e-05 7.1675e-07 2.69025e+25 -0.277417 2.5311 272.17 
-1.36182e-05 7.1675e-07 2.69192e+25 -0.694306 4.70146 271.937 
-1.17069e-05 7.1675e-07 2.69118e+25 -1.78941 5.96478 271.979 
-9.79558e-06 7.1675e-07 2.68946e+25 -2.76122 6.17996 272.032 
-7.88425e-06 7.1675e-07 2.69157e+25 -3.42758 6.2226 271.972 
-5.97292e-06 7.1675e-07 2.69132e+25 -4.28179 5.99031 271.862 
-4.06158e-06 7.1675e-07 2.69118e+25 -5.35847 5.02666 271.927 
-2.15025e-06 7.1675e-07 2.69054e+25 -6.38355 3.88953 271.999 
-2.38917e-07 7.1675e-07 2.68472e+25 -7.21793 2.34739 272.204 
-1.55296e-05 1.19458e-06 2.69045e+25 -0.269944 2.62787 272.005 
-1.36182e-05 1.19458e-06 2.69178e+25 -0.824273 4.86136 271.954 
-1.17069e-05 1.19458e-06 2.69183e+25 -1.82141 6.19656 271.887 
-9.79558e-06 1.19458e-06 2.69064e+25 -2.64105 6.2667 271.918 
-7.88425e-06 1.19458e-06 2.69138e+25 -3.26608 6.46389 271.894 
-5.97292e-06 1.19458e-06 2.6923e+25 -4.16789 6.28216 271.808 
-4.06158e-06 1.19458e-06 2.69006e+25 -5.2812 5.3013 272.013 
-2.15025e-06 1.19458e-06 2.68966e+25 -6.22221 4.10863 272.03 
-2.38917e-07 1.19458e-06 2.68552e+25 -6.83723 2.59933 272.204 
-1.55296e-05 1.67242e-06 2.69081e+25 -0.0839187 2.79804 271.962 
-1.36182e-05 1.67242e-06 2.69136e+25 -0.811364 5.10006 271.952 
-1.17069e-05 1.67242e-06 2.68948e+25 -1.73629 6.35869 272.041 
-9.79558e-06 1.67242e-06 2.69058e+25 -2.52004 6.50097 271.926 
-7.88425e-06 1.67242e-06 2.69262e+25 -3.26546 6.71266 271.824 
-5.97292e-06 1.67242e-06 2.69261e+25 -4.21006 6.5013 271.768 
-4.06158e-06 1.67242e-06 2.69054e+25 -5.09473 5.59861 271.9 
-2.15025e-06 1.67242e-06 2.68997e+25 -5.9646 4.39844 271.991 
-2.38917e-07 1.67242e-06 2.68526e+25 -6.59431 2.71396 272.163 
-1.55296e-05 2.15025e-06 2.69017e+25 -0.123069 2.95984 272.042 
-1.36182e-05 2.15025e-06 2.69043e+25 -0.724898 5.3726 272.002 
-1.17069e-05 2.15025e-06 2.69124e+25 -1.65599 6.56513 271.9 
-9.79558e-06 2.15025e-06 2.69157e+25 -2.46458 6.7744 271.878 
-7.88425e-06 2.15025e-06 2.69289e+25 -3.28712 6.99535 271.686 
-5.97292e-06 2.15025e-06 2.69241e+25 -4.31819 6.55183 271.732 
-4.06158e-06 2.15025e-06 2.69171e+25 -4.90554 5.88619 271.846 
-2.15025e-06 2.15025e-06 2.68801e+25 -5.79305 4.5519 272.112 
-2.38917e-07 2.15025e-06 2.68588e+25 -6.39753 2.87922 272.156 
-1.55296e-05 2.62808e-06 2.69005e+25 -0.144547 3.06264 272.02 
-1.36182e-05 2.62808e-06 2.6916e+25 -0.761496 5.64401 271.929 
-1.17069e-05 2.62808e-06 2.69352e+25 -1.47008 6.86238 271.736 
-9.79558e-06 2.62808e-06 2.69117e+25 -2.35606 7.04638 271.904 
-7.88425e-06 2.62808e-06 2.69422e+25 -3.16386 7.24416 271.666 
-5.97292e-06 2.62808e-06 2.69145e+25 -4.2088 6.67041 271.815 
-4.06158e-06 2.62808e-06 2.69058e+25 -4.72608 6.12439 271.944 
-2.15025e-06 2.62808e-06 2.68752e+25 -5.44924 4.58282 272.199 
-2.38917e-07 2.62808e-06 2.68473e+25 -6.02702 3.11972 272.22 
-1.55296e-05 3.10592e-06 2.68965e+25 -0.0649742 3.07655 272.082 
-1.36182e-05 3.10592e-06 2.69266e+25 -0.716945 5.77503 271.91 
-1.17069e-05 3.10592e-06 2.69266e+25 -1.36781 7.12105 271.822 
-9.79558e-06 3.10592e-06 2.69126e+25 -2.119 7.26314 271.832 
-7.88425e-06 3.10592e-06 2.69313e+25 -3.19592 7.42718 271.763 
-5.97292e-06 3.10592e-06 2.69085e+25 -4.13447 6.97563 271.844 
-4.06158e-06 3.10592e-06 2.69073e+25 -4.65492 6.21787 271.948 
-2.15025e-06 3.10592e-06 2.68856e+25 -5.08455 4.71371 272.111 
-2.38917e-07 3.10592e-06 2.68315e+25 -5.72141 3.29161 272.344 
-1.55296e-05 3.58375e-06 2.68964e+25 -0.0589927 3.08298 272.188 
-1.36182e-05 3.58375e-06 2.69135e+25 -0.718303 5.94951 271.868 
-1.17069e-05 3.58375e-06 2.69151e+25 -1.23979 7.25295 271.852 
-9.79558e-06 3.58375e-06 2.69188e+25 -2.07609 7.42738 271.825 
-7.88425e-06 3.58375e-06 2.69157e+25 -3.14431 7.65701 271.851 
-5.97292e-06 3.58375e-06 2.69072e+25 -3.85004 7.20295 271.806 
-4.06158e-06 3.58375e-06 2.68889e+25 -4.35448 6.26942 272.059 
-2.15025e-06 3.58375e-06 2.68663e+25 -4.86222 4.89437 272.189 
-2.38917e-07 3.58375e-06 2.68207e+25 -5.29715 3.46286 272.431 
-1.55296e-05 4.06158e-06 2.68907e+25 -0.149257 3.1136 272.07 
-1.36182e-05 4.06158e-06 2.69119e+25 -0.756115 6.09181 271.896 
-1.17069e-05 4.06158e-06 2.69242e+25 -1.25552 7.30482 271.817 
-9.79558e-06 4.06158e-06 2.69134e+25 -2.00858 7.70049 271.86 
-7.88425e-06 4.06158e-06 2.69045e+25 -3.01303 7.88998 271.875 
-5.97292e-06 4.06158e-06 2.69081e+25 -3.60566 7.38483 271.931 
-4.06158e-06 4.06158e-06 2.68849e+25 -3.98787 6.34693 271.994 
-2.15025e-06 4.06158e-06 2.68736e+25 -4.48486 5.03423 272.176 
-2.38917e-07 4.06158e-06 2.68302e+25 -4.97155 3.61881 272.311 
-1.55296e-05 4.53942e-06 2.68734e+25 -0.251106 3.24878 272.209 
-1.36182e-05 4.53942e-06 2.6902e+25 -0.768373 6.25107 271.946 
-1.17069e-05 4.53942e-06 2.69142e+25 -1.217 7.37345 271.798 
-9.79558e-06 4.53942e-06 2.69071e+25 -1.89942 7.98418 271.906 
-7.88425e-06 4.53942e-06 2.68953e+25 -2.88068 8.05115 271.988 
-5.97292e-06 4.53942e-06 2.6891e+25 -3.3645 7.4451 272.026 
-4.06158e-06 4.53942e-06 2.68792e+25 -3.62753 6.44459 272.042 
-2.15025e-06 4.53942e-06 2.68574e+25 -4.12815 5.19238 272.154 
-2.38917e-07 4.53942e-06 2.68374e+25 -4.69119 3.70669 272.258 
-1.55296e-05 5.01725e-06 2.68784e+25 -0.358085 3.47384 272.203 
-1.36182e-05 5.01725e-06 2.68853e+25 -0.709567 6.35196 272.072 
-1.17069e-05 5.01725e-06 2.69087e+25 -1.24151 7.56615 271.908 
-9.79558e-06 5.01725e-06 2.6902e+25 -1.98186 8.19574 271.938 
-7.88425e-06 5.01725e-06 2.68923e+25 -2.61876 8.19427 272.02 
-5.97292e-06 5.01725e-06 2.68774e+25 -2.99852 7.48058 272.064 
-4.06158e-06 5.01725e-06 2.68863e+25 -3.35212 6.53 271.971 
-2.15025e-06 5.01725e-06 2.68811e+25 -3.82382 5.27996 272.072 
-2.38917e-07 5.01725e-06 2.68577e+25 -4.29915 3.7855 272.043 
-1.55296e-05 5.49508e-06 2.68813e+25 -0.387761 3.58551 272.189 
-1.36182e-05 5.49508e-06 2.68928e+25 -0.71332 6.44619 272.021 
-1.17069e-05 5.49508e-06 2.68952e+25 -1.24064 7.81944 271.93 
-9.79558e-06 5.49508e-06 2.68939e+25 -1.94019 8.35826 271.926 
-7.88425e-06 5.49508e-06 2.68966e+25 -2.50173 8.38287 271.903 
-5.97292e-06 5.49508e-06 2.68976e+25 -2.74472 7.47421 272.069 
-4.06158e-06 5.49508e-06 2.68826e+25 -3.07386 6.4926 271.959 
-2.15025e-06 5.49508e-06 2.68812e+25 -3.38265 5.41343 272.024 
-2.38917e-07 5.49508e-06 2.68622e+25 -3.88745 3.80346 272.034 
-1.55296e-05 5.97292e-06 2.68635e+25 -0.400582 3.68738 272.289 
-1.36182e-05 5.97292e-06 2.68996e+25 -0.733256 6.47407 271.989 
-1.17069e-05 5.97292e-06 2.68976e+25 -1.21914 8.0416 271.993 
-9.79558e-06 5.97292e-06 2.69032e+25 -1.94354 8.41561 271.88 
-7.88425e-06 5.97292e-06 2.69053e+25 -2.38013 8.53936 271.838 
-5.97292e-06 5.97292e-06 2.68808e+25 -2.48297 7.54596 271.986 
-4.06158e-06 5.97292e-06 2.68975e+25 -2.81968 6.48348 271.957 
-2.15025e-06 5.97292e-06 2.68904e+25 -3.10792 5.5989 271.935 
-2.38917e-07 5.97292e-06 2.68517e+25 -3.23889 3.80687 271.987 
-1.55296e-05 6.45075e-06 2.68658e+25 -0.252405 3.85283 272.239 
-1.36182e-05 6.45075e-06 2.6905e+25 -0.949218 6.5841 271.917 
-1.17069e-05 6.45075e-06 2.68973e+25 -1.34881 8.15193 271.964 
-9.79558e-06 6.45075e-06 2.69038e+25 -1.85336 8.56737 271.856 
-7.88425e-06 6.45075e-06 2.69086e+25 -2.15693 8.64827 271.871 
-5.97292e-06 6.45075e-06 2.68866e+25 -2.29463 7.68249 272.032 
-4.06158e-06 6.45075e-06 2.68779e+25 -2.53736 6.55384 272.078 
-2.15025e-06 6.45075e-06 2.69036e+25 -2.58756 5.70316 271.818 
-2.38917e-07 6.45075e-06 2.68725e+25 -2.76714 3.84289 271.875 
-1.55296e-05 6.92858e-06 2.68541e+25 -0.277917 4.0402 272.322 
-1.36182e-05 6.92858e-06 2.6892e+25 -0.965759 6.73859 271.998 
-1.17069e-05 6.92858e-06 2.68981e+25 -1.37863 8.25227 271.954 
-9.79558e-06 6.92858e-06 2.6916e+25 -1.72058 8.70442 271.744 
-7.88425e-06 6.92858e-06 2.69114e+25 -1.92549 8.67409 271.778 
-5.97292e-06 6.92858e-06 2.68927e+25 -1.9182 7.77778 271.967 
-4.06158e-06 6.92858e-06 2.68845e+25 -2.06978 6.58874 272.012 
-2.15025e-06 6.92858e-06 2.68977e+25 -2.10745 5.7084 271.863 
-2.38917e-07 6.92858e-06 2.68651e+25 -2.22502 3.78736 271.805 
-1.55296e-05 7.40642e-06 2.68612e+25 -0.281108 4.20489 272.319 
-1.36182e-05 7.40642e-06 2.68818e+25 -0.996283 6.97399 272.07 
-1.17069e-05 7.40642e-06 2.69013e+25 -1.45241 8.3187 271.994 
-9.79558e-06 7.40642e-06 2.69099e+25 -1.59813 8.83681 271.844 
-7.88425e-06 7.40642e-06 2.69078e+25 -1.67875 8.6882 271.836 
-5.97292e-06 7.40642e-06 2.68988e+25 -1.69022 7.72698 271.903 
-4.06158e-06 7.40642e-06 2.68771e+25 -1.69987 6.6055 272.13 
-2.15025e-06 7.40642e-06 2.68894e+25 -1.51357 5.66025 271.886 
-2.38917e-07 7.40642e-06 2.68708e+25 -1.50817 3.75266 271.832 
-1.55296e-05 7.88425e-06 2.68757e+25 -0.256475 4.39823 272.176 
-1.36182e-05 7.88425e-06 2.68815e+25 -0.971965 7.17126 272.056 
-1.17069e-05 7.88425e-06 2.69022e+25 -1.48823 8.26915 271.926 
-9.79558e-06 7.88425e-06 2.69002e+25 -1.5525 8.91643 271.901 
-7.88425e-06 7.88425e-06 2.69036e+25 -1.54704 8.55779 271.837 
-5.97292e-06 7.88425e-06 2.68993e+25 -1.39598 7.67475 271.911 
-4.06158e-06 7.88425e-06 2.68651e+25 -1.18647 6.7016 272.098 
-2.15025e-06 7.88425e-06 2.68896e+25 -0.951143 5.59085 271.869 
-2.38917e-07 7.88425e-06 2.6865e+25 -0.736855 3.7931 271.835 
-1.55296e-05 8.36208e-06 2.68708e+25 -0.340105 4.48201 272.161 
-1.36182e-05 8.36208e-06 2.68826e+25 -1.03134 7.36484 272.13 
-1.17069e-05 8.36208e-06 2.68984e+25 -1.68345 8.25926 271.905 
-9.79558e-06 8.36208e-06 2.68998e+25 -1.70929 8.90463 271.955 
-7.88425e-06 8.36208e-06 2.68948e+25 -1.49746 8.47363 271.893 
-5.97292e-06 8.36208e-06 2.68884e+25 -1.12892 7.69853 272.032 
-4.06158e-06 8.36208e-06 2.68807e+25 -0.721341 6.66862 272.081 
-2.15025e-06 8.36208e-06 2.68778e+25 -0.379034 5.47449 271.935 
-2.38917e-07 8.36208e-06 2.68638e+25 0.0823597 3.81449 271.938 
-1.55296e-05 8.83992e-06 2.6864e+25 -0.377437 4.58409 272.208 
-1.36182e-05 8.83992e-06 2.68807e+25 -1.14588 7.62911 272.051 
-1.17069e-05 8.83992e-06 2.68922e+25 -1.97891 8.29507 271.974 
-9.79558e-06 8.83992e-06 2.68875e+25 -1.91183 8.86278 272.01 
-7.88425e-06 8.83992e-06 2.68809e+25 -1.38357 8.31456 271.971 
-5.97292e-06 8.83992e-06 2.68779e+25 -0.838143 7.61348 272.067 
-4.06158e-06 8.83992e-06 2.68952e+25 -0.246247 6.5325 271.958 
-2.15025e-06 8.83992e-06 2.68867e+25 0.306349 5.35774 271.899 
-2.38917e-07 8.83992e-06 2.6856e+25 0.879798 3.71709 271.913 
-1.55296e-05 9.31775e-06 2.68534e+25 -0.440157 4.73144 272.218 
-1.36182e-05 9.31775e-06 2.68965e+25 -1.45077 7.80893 271.992 
-1.17069e-05 9.31775e-06 2.68914e+25 -2.12102 8.33614 271.89 
-9.79558e-06 9.31775e-06 2.69025e+25 -1.98632 8.74264 271.864 
-7.88425e-06 9.31775e-06 2.68951e+25 -1.31395 8.09994 271.906 
-5.97292e-06 9.31775e-06 2.68939e+25 -0.49941 7.45643 272.048 
-4.06158e-06 9.31775e-06 2.68965e+25 0.20363 6.33532 271.889 
-2.15025e-06 9.31775e-06 2.68692e+25 1.0019 5.16327 271.988 
-2.38917e-07 9.31775e-06 2.68574e+25 1.71266 3.55036 271.901 
-1.55296e-05 9.79558e-06 2.68552e+25 -0.491146 4.96649 272.174 
-1.36182e-05 9.79558e-06 2.68643e+25 -1.52182 8.0074 272.092 
-1.17069e-05 9.79558e-06 2.68974e+25 -2.17924 8.54605 271.859 
-9.79558e-06 9.79558e-06 2.68995e+25 -1.97526 8.52409 271.805 
-7.88425e-06 9.79558e-06 2.69105e+25 -1.15124 7.84704 271.898 
-5.97292e-06 9.79558e-06 2.69018e+25 -0.326384 7.19585 271.923 
-4.06158e-06 9.79558e-06 2.68994e+25 0.843651 6.11599 271.825 
-2.15025e-06 9.79558e-06 2.68726e+25 1.8903 4.94643 272.061 
-2.38917e-07 9.79558e-06 2.68403e+25 2.52506 3.38213 272.005 
-1.55296e-05 1.02734e-05 2.68584e+25 -0.668647 5.33016 272.27 
-1.36182e-05 1.02734e-05 2.68644e+25 -1.71953 8.19244 272.17 
-1.17069e-05 1.02734e-05 2.68885e+25 -2.14773 8.77651 271.887 
-9.79558e-06 1.02734e-05 2.69069e+25 -1.89052 8.3492 271.869 
-7.88425e-06 1.02734e-05 2.68734e+25 -0.961684 7.66148 272.024 
-5.97292e-06 1.02734e-05 2.68906e+25 0.178421 6.87472 271.916 
-4.06158e-06 1.02734e-05 2.6905e+25 1.55305 5.8555 271.777 
-2.15025e-06 1.02734e-05 2.68757e+25 2.83516 4.7506 271.998 
-2.38917e-07 1.02734e-05 2.68442e+25 3.6105 3.31877 271.978 
-1.55296e-05 1.07512e-05 2.68592e+25 -0.829237 5.685 272.184 
-1.36182e-05 1.07512e-05 2.68799e+25 -1.90257 8.40378 272.052 
-1.17069e-05 1.07512e-05 2.68957e+25 -2.20603 8.87321 271.873 
-9.79558e-06 1.07512e-05 2.69157e+25 -1.7791 8.19944 271.753 
-7.88425e-06 1.07512e-05 2.68627e+25 -0.720032 7.44238 272.199 
-5.97292e-06 1.07512e-05 2.6906e+25 0.752967 6.51771 271.87 
-4.06158e-06 1.07512e-05 2.68919e+25 2.30841 5.4327 271.899 
-2.15025e-06 1.07512e-05 2.68746e+25 3.77098 4.50414 272.044 
-2.38917e-07 1.07512e-05 2.6848e+25 4.65543 3.23471 271.967 
-1.55296e-05 1.12291e-05 2.68611e+25 -0.87618 5.99102 272.155 
-1.36182e-05 1.12291e-05 2.68698e+25 -2.08091 8.59722 272.093 
-1.17069e-05 1.12291e-05 2.68938e+25 -2.24707 8.8269 271.923 
-9.79558e-06 1.12291e-05 2.69062e+25 -1.56504 7.99766 271.822 
-7.88425e-06 1.12291e-05 2.68716e+25 -0.11945 7.07046 272.168 
-5.97292e-06 1.12291e-05 2.6908e+25 1.5166 6.09792 271.873 
-4.06158e-06 1.12291e-05 2.68782e+25 3.03112 5.02945 271.972 
-2.15025e-06 1.12291e-05 2.6873e+25 4.58579 4.13895 272.063 
-2.38917e-07 1.12291e-05 2.68536e+25 5.69512 3.10796 271.975 
-1.55296e-05 1.17069e-05 2.68587e+25 -1.00381 6.46048 272.119 
-1.36182e-05 1.17069e-05 2.68608e+25 -2.28378 8.70925 272.115 
-1.17069e-05 1.17069e-05 2.69015e+25 -2.33295 8.68686 271.83 
-9.79558e-06 1.17069e-05 2.69053e+25 -1.30989 7.65874 271.832 
-7.88425e-06 1.17069e-05 2.68657e+25 0.46632 6.58944 272.204 
-5.97292e-06 1.17069e-05 2.68798e+25 2.39466 5.7146 272.015 
-4.06158e-06 1.17069e-05 2.68876e+25 3.96433 4.60144 272.061 
-2.15025e-06 1.17069e-05 2.68697e+25 5.79284 3.77608 272.097 
-2.38917e-07 1.17069e-05 2.68382e+25 6.96735 2.92506 272.07 
-1.55296e-05 1.21847e-05 2.68465e+25 -1.25157 6.96625 272.126 
-1.36182e-05 1.21847e-05 2.68609e+25 -2.60357 8.76127 272.118 
-1.17069e-05 1.21847e-05 2.68847e+25 -2.29889 8.46933 271.954 
-9.79558e-06 1.21847e-05 2.68893e+25 -0.908101 7.23591 271.96 
-7.88425e-06 1.21847e-05 2.68755e+25 1.1184 6.10245 272.188 
-5.97292e-06 1.21847e-05 2.68833e+25 3.21133 5.33464 272.069 
-4.06158e-06 1.21847e-05 2.68849e+25 5.13676 4.09322 271.998 
-2.15025e-06 1.21847e-05 2.6868e+25 7.07414 3.29563 272.153 
-2.38917e-07 1.21847e-05 2.68349e+25 8.43343 2.66314 272.172 
-1.55296e-05 1.26626e-05 2.68315e+25 -1.57541 7.46019 272.227 
-1.36182e-05 1.26626e-05 2.68713e+25 -2.8895 8.90053 272.025 
-1.17069e-05 1.26626e-05 2.68844e+25 -2.11838 8.10923 271.983 
-9.79558e-06 1.26626e-05 2.6889e+25 -0.191498 6.75146 272.027 
-7.88425e-06 1.26626e-05 2.68752e+25 2.21453 5.55906 272.226 
-5.97292e-06 1.26626e-05 2.68774e+25 4.4029 4.75814 272.13 
-4.06158e-06 1.26626e-05 2.68821e+25 6.60776 3.60505 272.087 
-2.15025e-06 1.26626e-05 2.68735e+25 8.45071 2.8798 272.114 
-2.38917e-07 1.26626e-05 2.6825e+25 10.1653 2.31555 272.266 
-1.55296e-05 1.31404e-05 2.68378e+25 -1.88916 8.00147 272.128 
-1.36182e-05 1.31404e-05 2.68706e+25 -3.1918 8.90875 271.884 
-1.17069e-05 1.31404e-05 2.68736e+25 -1.70274 7.59277 272.045 
-9.79558e-06 1.31404e-05 2.68843e+25 0.814846 6.14867 272.008 
-7.88425e-06 1.31404e-05 2.6871e+25 3.6132 4.9752 272.198 
-5.97292e-06 1.31404e-05 2.68832e+25 5.86579 4.12563 272.133 
-4.06158e-06 1.31404e-05 2.68648e+25 8.309 3.09022 272.242 
-2.15025e-06 1.31404e-05 2.68738e+25 10.2469 2.40614 272.058 
-2.38917e-07 1.31404e-05 2.68131e+25 11.9248 1.94657 272.355 
-1.55296e-05 1.36182e-05 2.68276e+25 -2.44246 8.69021 272.08 
-1.36182e-05 1.36182e-05 2.68679e+25 -3.06386 8.81705 271.901 
-1.17069e-05 1.36182e-05 2.6859e+25 -0.894711 6.90497 272.169 
-9.79558e-06 1.36182e-05 2.688e+25 2.32913 5.40564 272.041 
-7.88425e-06 1.36182e-05 2.68674e+25 5.27092 4.31041 272.263 
-5.97292e-06 1.36182e-05 2.68806e+25 7.76403 3.54387 272.242 
-4.06158e-06 1.36182e-05 2.68652e+25 10.2006 2.6425 272.253 
-2.15025e-06 1.36182e-05 2.68561e+25 12.2061 1.96832 272.222 
-2.38917e-07 1.36182e-05 2.68297e+25 13.7176 1.59084 272.285 
-1.55296e-05 1.40961e-05 2.68088e+25 -2.83598 9.44995 272.183 
-1.36182e-05 1.40961e-05 2.68739e+25 -2.58696 8.3672 271.871 
-1.17069e-05 1.40961e-05 2.68482e+25 0.512862 6.13514 272.318 
-9.79558e-06 1.40961e-05 2.68738e+25 4.1014 4.55434 272.203 
-7.88425e-06 1.40961e-05 2.68689e+25 7.30928 3.56289 272.247 
-5.97292e-06 1.40961e-05 2.68744e+25 10.1902 2.88494 272.288 
-4.06158e-06 1.40961e-05 2.68627e+25 12.6035 2.10221 272.315 
-2.15025e-06 1.40961e-05 2.68658e+25 14.273 1.58318 272.296 
-2.38917e-07 1.40961e-05 2.68235e+25 15.813 1.27994 272.297 
-1.55296e-05 1.45739e-05 2.68098e+25 -3.05059 10.0293 272.034 
-1.36182e-05 1.45739e-05 2.68488e+25 -1.54098 7.57651 272.091 
-1.17069e-05 1.45739e-05 2.68502e+25 2.80315 5.14882 272.332 
-9.79558e-06 1.45739e-05 2.68731e+25 6.64053 3.68306 272.255 
-7.88425e-06 1.45739e-05 2.68741e+25 9.9425 2.77648 272.323 
-5.97292e-06 1.45739e-05 2.68705e+25 12.9082 2.17828 272.289 
-4.06158e-06 1.45739e-05 2.68664e+25 15.1339 1.61563 272.307 
-2.15025e-06 1.45739e-05 2.68597e+25 16.7175 1.21299 272.28 
-2.38917e-07 1.45739e-05 2.68256e+25 18.196 0.903964 272.374 
-1.55296e-05 1.50518e-05 2.67694e+25 -3.08765 10.2048 272.251 
-1.36182e-05 1.50518e-05 2.68315e+25 0.603221 6.43127 272.227 
-1.17069e-05 1.50518e-05 2.68389e+25 5.9315 4.03207 272.392 
-9.79558e-06 1.50518e-05 2.68558e+25 9.95507 2.75998 272.362 
-7.88425e-06 1.50518e-05 2.6852e+25 13.2435 2.0288 272.529 
-5.97292e-06 1.50518e-05 2.68685e+25 15.9169 1.52533 272.292 
-4.06158e-06 1.50518e-05 2.68724e+25 18.0108 1.11802 272.259 
-2.15025e-06 1.50518e-05 2.68614e+25 19.5579 0.821187 272.34 
-2.38917e-07 1.50518e-05 2.68315e+25 20.8708 0.544619 272.364 
-1.55296e-05 1.55296e-05 2.67292e+25 -2.11953 9.64161 272.516 
-1.36182e-05 1.55296e-05 2.68163e+25 4.32151 4.9525 272.425 
-1.17069e-05 1.55296e-05 2.68181e+25 10.1613 2.79093 272.682 
-9.79558e-06 1.55296e-05 2.68648e+25 14.1757 1.85732 272.407 
-7.88425e-06 1.55296e-05 2.68443e+25 17.2441 1.35219 272.56 
-5.97292e-06 1.55296e-05 2.68523e+25 19.582 1.01253 272.488 
-4.06158e-06 1.55296e-05 2.68683e+25 21.3035 0.639171 272.327 
-2.15025e-06 1.55296e-05 2.68534e+25 22.628 0.521781 272.407 
-2.38917e-07 1.55296e-05 2.68238e+25 23.762 0.270572 272.386 
-1.55296e-05 1.60074e-05 2.66921e+25 1.0505 7.9875 272.721 
-1.36182e-05 1.60074e-05 2.67898e+25 10.0851 3.19296 272.682 
-1.17069e-05 1.60074e-05 2.68157e+25 15.8116 1.6735 272.879 
-9.79558e-06 1.60074e-05 2.68431e+25 19.2917 1.10469 272.602 
-7.88425e-06 1.60074e-05 2.68455e+25 21.6867 0.721916 272.633 
-5.97292e-06 1.60074e-05 2.68454e+25 23.6724 0.489965 272.562 
-4.06158e-06 1.60074e-05 2.68578e+25 25.0681 0.34093 272.457 
-2.15025e-06 1.60074e-05 2.68525e+25 25.9471 0.286821 272.47 
-2.38917e-07 1.60074e-05 2.68262e+25 26.6987 0.0986433 272.463 
-1.55296e-05 1.64852e-05 2.66457e+25 8.63011 4.88139 273.073 
-1.36182e-05 1.64852e-05 2.67779e+25 18.3313 1.5214 272.982 
-1.17069e-05 1.64852e-05 2.68271e+25 22.6234 0.723859 272.849 
-9.79558e-06 1.64852e-05 2.68263e+25 25.2788 0.501739 272.774 
-7.88425e-06 1.64852e-05 2.68411e+25 26.8491 0.328082 272.661 
-5.97292e-06 1.64852e-05 2.68382e+25 28.0818 0.167937 272.759 
-4.06158e-06 1.64852e-05 2.68394e+25 28.8674 0.0916781 272.725 
-2.15025e-06 1.64852e-05 2.68384e+25 29.5515 0.096064 272.583 
-2.38917e-07 1.64852e-05 2.68105e+25 29.979 0.0369982 272.542 
-1.55296e-05 1.69631e-05 2.66513e+25 21.9773 1.37829 273.276 
-1.36182e-05 1.69631e-05 2.67952e+25 28.0695 0.319342 273.065 
-1.17069e-05 1.69631e-05 2.6829e+25 29.903 0.149525 272.957 
-9.79558e-06 1.69631e-05 2.68264e+25 31.085 0.100189 272.936 
-7.88425e-06 1.69631e-05 2.6822e+25 31.6095 0.0601032 272.899 
-5.97292e-06 1.69631e-05 2.68136e+25 32.1158 -0.0179043 273.046 
-4.06158e-06 1.69631e-05 2.68131e+25 32.3746 -0.000803156 272.929 
-2.15025e-06 1.69631e-05 2.68078e+25 32.7506 0.013516 272.868 
-2.38917e-07 1.69631e-05 2.6809e+25 32.8973 -0.0232235 272.655 
1.19458e-06 -1.69631e-05 2.68375e+25 -0.117932 -0.0104444 272.881 
3.10592e-06 -1.69631e-05 2.68568e+25 -0.185979 0.0162235 272.786 
5.01725e-06 -1.69631e-05 2.68602e+25 -0.120057 -0.0158429 272.827 
6.92858e-06 -1.69631e-05 2.68484e+25 -0.112014 0.0281221 272.819 
8.83992e-06 -1.69631e-05 2.68633e+25 -0.141036 -0.046453 272.789 
1.07512e-05 -1.69631e-05 2.68466e+25 -0.0114279 -0.0710658 272.832 
1.26626e-05 -1.69631e-05 2.68545e+25 0.0194684 -0.0246645 272.851 
1.45739e-05 -1.69631e-05 2.68413e+25 -0.0090523 0.0166764 272.874 
1.64852e-05 -1.69631e-05 2.6832e+25 -0.0834394 -0.0100916 272.898 
1.19458e-06 -1.64852e-05 2.6872e+25 -0.408893 -0.000524709 272.607 
3.10592e-06 -1.64852e-05 2.68695e+25 -0.522914 -0.018815 272.63 
5.01725e-06 -1.64852e-05 2.68651e+25 -0.311011 -0.0209747 272.62 
6.92858e-06 -1.64852e-05 2.68638e+25 -0.303267 0.0592402 272.651 
8.83992e-06 -1.64852e-05 2.68737e+25 -0.163984 -0.0878601 272.593 
1.07512e-05 -1.64852e-05 2.68848e+25 -0.0589646 -0.158591 272.462 
1.26626e-05 -1.64852e-05 2.6865e+25 0.027496 0.014178 272.604 
1.45739e-05 -1.64852e-05 2.68725e+25 -0.0604854 0.083458 272.638 
1.64852e-05 -1.64852e-05 2.68512e+25 -0.000318474 -0.0574202 272.69 
1.19458e-06 -1.60074e-05 2.69026e+25 -0.843247 -0.0452932 272.167 
3.10592e-06 -1.60074e-05 2.68937e+25 -0.787006 -0.00823831 272.323 
5.01725e-06 -1.60074e-05 2.6888e+25 -0.56129 -0.0279871 272.373 
6.92858e-06 -1.60074e-05 2.68877e+25 -0.511106 0.0177679 272.59 
8.83992e-06 -1.60074e-05 2.687e+25 -0.34757 -0.131788 272.557 
1.07512e-05 -1.60074e-05 2.69155e+25 -0.234636 -0.186331 272.158 
1.26626e-05 -1.60074e-05 2.68818e+25 -0.171112 0.0240331 272.425 
1.45739e-05 -1.60074e-05 2.68826e+25 0.00728336 0.0440718 272.407 
1.64852e-05 -1.60074e-05 2.68716e+25 0.0507882 -0.0327381 272.588 
1.19458e-06 -1.55296e-05 2.69187e+25 -1.15478 -0.107062 272.12 
3.10592e-06 -1.55296e-05 2.69054e+25 -0.85655 -0.0125963 272.247 
5.01725e-06 -1.55296e-05 2.68938e+25 -0.781798 -0.0824335 272.32 
6.92858e-06 -1.55296e-05 2.68873e+25 -0.728346 0.0343959 272.45 
8.83992e-06 -1.55296e-05 2.68772e+25 -0.50723 -0.203292 272.433 
1.07512e-05 -1.55296e-05 2.69047e+25 -0.197188 -0.166235 272.301 
1.26626e-05 -1.55296e-05 2.68935e+25 -0.241083 -0.0548186 272.303 
1.45739e-05 -1.55296e-05 2.68998e+25 -0.176539 -0.0193164 272.32 
1.64852e-05 -1.55296e-05 2.68767e+25 0.0995311 0.0289394 272.528 
1.19458e-06 -1.50517e-05 2.69224e+25 -1.4385 -0.0978447 271.984 
3.10592e-06 -1.50517e-05 2.69143e+25 -0.972015 -0.111343 272.124 
5.01725e-06 -1.50517e-05 2.68981e+25 -0.952663 -0.114396 272.259 
6.92858e-06 -1.50517e-05 2.69107e+25 -0.822036 0.011456 272.234 
8.83992e-06 -1.50517e-05 2.6892e+25 -0.608615 -0.358849 272.32 
1.07512e-05 -1.50517e-05 2.68834e+25 -0.314219 -0.0917064 272.388 
1.26626e-05 -1.50517e-05 2.69107e+25 -0.285 -0.141172 272.18 
1.45739e-05 -1.50517e-05 2.68902e+25 -0.191279 0.0117078 272.309 
1.64852e-05 -1.50517e-05 2.68679e+25 0.0171271 -0.0205412 272.535 
1.19458e-06 -1.45739e-05 2.69423e+25 -1.6177 -0.116087 271.88 
3.10592e-06 -1.45739e-05 2.69124e+25 -1.30771 -0.249864 272.092 
5.01725e-06 -1.45739e-05 2.69053e+25 -1.12065 -0.16312 272.193 
6.92858e-06 -1.45739e-05 2.69101e+25 -1.04057 -0.0841668 272.26 
8.83992e-06 -1.45739e-05 2.68962e+25 -0.740896 -0.364455 272.298 
1.07512e-05 -1.45739e-05 2.68961e+25 -0.450528 -0.0916724 272.349 
1.26626e-05 -1.45739e-05 2.69084e+25 -0.170257 -0.216871 272.156 
1.45739e-05 -1.45739e-05 2.69024e+25 -0.0911812 -0.0432298 272.288 
1.64852e-05 -1.45739e-05 2.68739e+25 -0.0599145 -0.0717908 272.458 
1.19458e-06 -1.40961e-05 2.69567e+25 -1.72826 -0.234291 271.785 
3.10592e-06 -1.40961e-05 2.69293e+25 -1.54335 -0.291805 271.923 
5.01725e-06 -1.40961e-05 2.69249e+25 -1.39995 -0.142219 272.065 
6.92858e-06 -1.40961e-05 2.69055e+25 -1.36282 -0.170827 272.272 
8.83992e-06 -1.40961e-05 2.68942e+25 -0.951123 -0.39156 272.275 
1.07512e-05 -1.40961e-05 2.69038e+25 -0.515479 -0.192169 272.241 
1.26626e-05 -1.40961e-05 2.69072e+25 -0.179706 -0.210151 272.145 
1.45739e-05 -1.40961e-05 2.69024e+25 -0.036599 -0.0314565 272.221 
1.64852e-05 -1.40961e-05 2.68841e+25 -0.0754656 -0.0923448 272.511 
1.19458e-06 -1.36182e-05 2.69518e+25 -1.95261 -0.301195 271.724 
3.10592e-06 -1.36182e-05 2.69352e+25 -1.75194 -0.300516 271.9 
5.01725e-06 -1.36182e-05 2.69056e+25 -1.59048 -0.0776792 272.21 
6.92858e-06 -1.36182e-05 2.69145e+25 -1.55855 -0.253875 272.151 
8.83992e-06 -1.36182e-05 2.68973e+25 -1.02022 -0.449785 272.262 
1.07512e-05 -1.36182e-05 2.68997e+25 -0.649309 -0.349846 272.269 
1.26626e-05 -1.36182e-05 2.6918e+25 -0.356615 -0.212106 272.083 
1.45739e-05 -1.36182e-05 2.69103e+25 0.0395305 -0.0364558 272.226 
1.64852e-05 -1.36182e-05 2.68749e+25 -0.0687931 -0.0405204 272.464 
1.19458e-06 -1.31404e-05 2.69281e+25 -2.13479 -0.283909 271.923 
3.10592e-06 -1.31404e-05 2.69337e+25 -1.92846 -0.403254 271.872 
5.01725e-06 -1.31404e-05 2.69197e+25 -1.78737 -0.0658632 272.146 
6.92858e-06 -1.31404e-05 2.691e+25 -1.63131 -0.266274 272.131 
8.83992e-06 -1.31404e-05 2.69084e+25 -1.04227 -0.518017 272.178 
1.07512e-05 -1.31404e-05 2.69056e+25 -0.843006 -0.437009 272.22 
1.26626e-05 -1.31404e-05 2.69154e+25 -0.518764 -0.344204 272.105 
1.45739e-05 -1.31404e-05 2.6898e+25 -0.0853489 -0.0518984 272.268 
1.64852e-05 -1.31404e-05 2.68729e+25 -0.0535857 -0.0253157 272.513 
1.19458e-06 -1.26626e-05 2.69386e+25 -2.37859 -0.252657 271.912 
3.10592e-06 -1.26626e-05 2.69245e+25 -2.13861 -0.443266 271.909 
5.01725e-06 -1.26626e-05 2.69204e+25 -1.90393 -0.158451 272.111 
6.92858e-06 -1.26626e-05 2.69089e+25 -1.59319 -0.38592 272.165 
8.83992e-06 -1.26626e-05 2.69143e+25 -1.14774 -0.662184 272.164 
1.07512e-05 -1.26626e-05 2.69215e+25 -0.901404 -0.472299 272.111 
1.26626e-05 -1.26626e-05 2.69076e+25 -0.527634 -0.451267 272.192 
1.45739e-05 -1.26626e-05 2.68923e+25 -0.184956 -0.183084 272.303 
1.64852e-05 -1.26626e-05 2.68629e+25 -0.0165929 -0.07741 272.563 
1.19458e-06 -1.21847e-05 2.6924e+25 -2.54754 -0.238642 271.951 
3.10592e-06 -1.21847e-05 2.6932e+25 -2.35677 -0.507194 271.877 
5.01725e-06 -1.21847e-05 2.69168e+25 -2.08584 -0.256225 272.029 
6.92858e-06 -1.21847e-05 2.69223e+25 -1.59183 -0.57762 272.029 
8.83992e-06 -1.21847e-05 2.69161e+25 -1.20043 -0.798413 272.058 
1.07512e-05 -1.21847e-05 2.69112e+25 -0.846005 -0.534366 272.166 
1.26626e-05 -1.21847e-05 2.69122e+25 -0.554238 -0.559345 272.138 
1.45739e-05 -1.21847e-05 2.6896e+25 -0.252036 -0.212646 272.277 
1.64852e-05 -1.21847e-05 2.68747e+25 0.0785719 -0.130269 272.442 
1.19458e-06 -1.17069e-05 2.69321e+25 -2.84703 -0.353353 271.937 
3.10592e-06 -1.17069e-05 2.69292e+25 -2.74867 -0.550509 271.953 
5.01725e-06 -1.17069e-05 2.69265e+25 -2.09696 -0.409222 272.066 
6.92858e-06 -1.17069e-05 2.6926e+25 -1.68591 -0.692269 272.005 
8.83992e-06 -1.17069e-05 2.69251e+25 -1.35607 -0.890874 272.036 
1.07512e-05 -1.17069e-05 2.69192e+25 -1.04425 -0.671033 272.094 
1.26626e-05 -1.17069e-05 2.69161e+25 -0.537204 -0.692136 272.139 
1.45739e-05 -1.17069e-05 2.69157e+25 -0.211075 -0.214214 272.147 
1.64852e-05 -1.17069e-05 2.68901e+25 0.0421367 -0.164631 272.392 
1.19458e-06 -1.12291e-05 2.69233e+25 -3.23214 -0.327039 272.005 
3.10592e-06 -1.12291e-05 2.69142e+25 -3.00154 -0.686085 272.038 
5.01725e-06 -1.12291e-05 2.69221e+25 -2.55821 -0.577202 271.997 
6.92858e-06 -1.12291e-05 2.69325e+25 -1.82686 -0.710601 271.959 
8.83992e-06 -1.12291e-05 2.69401e+25 -1.53568 -0.954 271.946 
1.07512e-05 -1.12291e-05 2.69283e+25 -1.10865 -0.821384 271.949 
1.26626e-05 -1.12291e-05 2.69315e+25 -0.589056 -0.83691 271.93 
1.45739e-05 -1.12291e-05 2.692e+25 -0.207563 -0.293418 272.038 
1.64852e-05 -1.12291e-05 2.68923e+25 -0.0546695 -0.172774 272.332 
1.19458e-06 -1.07512e-05 2.69306e+25 -3.48383 -0.303763 271.938 
3.10592e-06 -1.07512e-05 2.69158e+25 -3.12142 -0.796464 272.066 
5.01725e-06 -1.07512e-05 2.69255e+25 -2.82442 -0.758786 272.072 
6.92858e-06 -1.07512e-05 2.69208e+25 -2.06186 -0.810503 271.988 
8.83992e-06 -1.07512e-05 2.693e+25 -1.84085 -1.04898 271.999 
1.07512e-05 -1.07512e-05 2.69245e+25 -1.28981 -0.947161 271.865 
1.26626e-05 -1.07512e-05 2.69266e+25 -0.630381 -0.930104 271.975 
1.45739e-05 -1.07512e-05 2.69169e+25 -0.137085 -0.377589 272.077 
1.64852e-05 -1.07512e-05 2.68832e+25 -0.0162846 -0.189738 272.462 
1.19458e-06 -1.02734e-05 2.69186e+25 -3.66741 -0.311128 271.926 
3.10592e-06 -1.02734e-05 2.69226e+25 -3.42877 -0.880724 272.053 
5.01725e-06 -1.02734e-05 2.69155e+25 -3.11677 -0.889034 272.07 
6.92858e-06 -1.02734e-05 2.69231e+25 -2.23919 -0.96784 272.07 
8.83992e-06 -1.02734e-05 2.69139e+25 -1.88845 -1.11806 272.031 
1.07512e-05 -1.02734e-05 2.69408e+25 -1.39184 -1.04924 271.881 
1.26626e-05 -1.02734e-05 2.69256e+25 -0.494076 -1.04869 271.946 
1.45739e-05 -1.02734e-05 2.69097e+25 -0.267444 -0.560667 272.13 
1.64852e-05 -1.02734e-05 2.68767e+25 0.0291061 -0.249923 272.549 
1.19458e-06 -9.79558e-06 2.69306e+25 -3.93094 -0.319756 271.946 
3.10592e-06 -9.79558e-06 2.69251e+25 -3.91384 -0.962715 272.012 
5.01725e-06 -9.79558e-06 2.69263e+25 -3.31636 -1.05386 272.067 
6.92858e-06 -9.79558e-06 2.69187e+25 -2.54623 -1.19939 272.093 
8.83992e-06 -9.79558e-06 2.69182e+25 -1.86916 -1.22059 271.998 
1.07512e-05 -9.79558e-06 2.69411e+25 -1.33238 -1.24396 271.913 
1.26626e-05 -9.79558e-06 2.69406e+25 -0.48173 -1.15975 271.856 
1.45739e-05 -9.79558e-06 2.69244e+25 -0.258712 -0.666947 271.968 
1.64852e-05 -9.79558e-06 2.68688e+25 -0.0320398 -0.2674 272.525 
1.19458e-06 -9.31775e-06 2.69158e+25 -4.18379 -0.297688 272.044 
3.10592e-06 -9.31775e-06 2.69244e+25 -4.37401 -1.01776 271.949 
5.01725e-06 -9.31775e-06 2.69171e+25 -3.5545 -1.29241 272 
6.92858e-06 -9.31775e-06 2.6923e+25 -2.8081 -1.40572 272.082 
8.83992e-06 -9.31775e-06 2.69255e+25 -2.12388 -1.44674 271.975 
1.07512e-05 -9.31775e-06 2.69343e+25 -1.35086 -1.45457 271.931 
1.26626e-05 -9.31775e-06 2.69236e+25 -0.624491 -1.35796 272.028 
1.45739e-05 -9.31775e-06 2.69276e+25 -0.120758 -0.682441 271.959 
1.64852e-05 -9.31775e-06 2.6872e+25 -0.0294146 -0.262444 272.523 
1.19458e-06 -8.83992e-06 2.69041e+25 -4.48525 -0.27221 272.145 
3.10592e-06 -8.83992e-06 2.69192e+25 -4.47301 -1.09969 271.949 
5.01725e-06 -8.83992e-06 2.69208e+25 -3.84899 -1.40655 272.05 
6.92858e-06 -8.83992e-06 2.6922e+25 -3.10976 -1.59024 272.091 
8.83992e-06 -8.83992e-06 2.69449e+25 -2.28104 -1.67049 271.857 
1.07512e-05 -8.83992e-06 2.69241e+25 -1.43728 -1.65269 272.014 
1.26626e-05 -8.83992e-06 2.69174e+25 -0.684795 -1.49743 272.003 
1.45739e-05 -8.83992e-06 2.69214e+25 0.00995332 -0.78459 272.053 
1.64852e-05 -8.83992e-06 2.687e+25 0.115905 -0.270265 272.535 
1.19458e-06 -8.36208e-06 2.69072e+25 -4.90301 -0.243121 272.113 
3.10592e-06 -8.36208e-06 2.69163e+25 -4.67254 -1.27753 272.018 
5.01725e-06 -8.36208e-06 2.69064e+25 -4.24419 -1.50428 272.186 
6.92858e-06 -8.36208e-06 2.6913e+25 -3.38665 -1.85046 272.116 
8.83992e-06 -8.36208e-06 2.69308e+25 -2.555 -1.86088 271.884 
1.07512e-05 -8.36208e-06 2.69167e+25 -1.54913 -1.89191 272.039 
1.26626e-05 -8.36208e-06 2.69349e+25 -0.780303 -1.6722 271.917 
1.45739e-05 -8.36208e-06 2.69202e+25 -0.0538426 -0.900954 272.138 
1.64852e-05 -8.36208e-06 2.68741e+25 0.00824345 -0.259138 272.515 
1.19458e-06 -7.88425e-06 2.69192e+25 -5.2081 -0.270244 272.052 
3.10592e-06 -7.88425e-06 2.69225e+25 -4.81794 -1.37438 271.943 
5.01725e-06 -7.88425e-06 2.69224e+25 -4.50648 -1.71014 272.042 
6.92858e-06 -7.88425e-06 2.69177e+25 -3.83009 -2.08451 272.173 
8.83992e-06 -7.88425e-06 2.69293e+25 -2.77567 -2.08572 271.883 
1.07512e-05 -7.88425e-06 2.69221e+25 -1.66101 -2.12716 272.075 
1.26626e-05 -7.88425e-06 2.6911e+25 -0.944772 -1.84882 272.069 
1.45739e-05 -7.88425e-06 2.69043e+25 -0.168222 -1.02673 272.205 
1.64852e-05 -7.88425e-06 2.68653e+25 -0.0348253 -0.160486 272.568 
1.19458e-06 -7.40642e-06 2.69232e+25 -5.40117 -0.270963 271.994 
3.10592e-06 -7.40642e-06 2.69187e+25 -5.04901 -1.50488 272.034 
5.01725e-06 -7.40642e-06 2.69099e+25 -4.68026 -1.85913 272.188 
6.92858e-06 -7.40642e-06 2.69101e+25 -4.04299 -2.28708 272.259 
8.83992e-06 -7.40642e-06 2.69332e+25 -3.0351 -2.23203 271.918 
1.07512e-05 -7.40642e-06 2.69249e+25 -1.94695 -2.40782 271.961 
1.26626e-05 -7.40642e-06 2.69292e+25 -0.960717 -1.98255 272.066 
1.45739e-05 -7.40642e-06 2.69027e+25 -0.313524 -1.15421 272.166 
1.64852e-05 -7.40642e-06 2.68549e+25 0.00669031 -0.153558 272.654 
1.19458e-06 -6.92858e-06 2.69275e+25 -5.70734 -0.399007 271.982 
3.10592e-06 -6.92858e-06 2.69048e+25 -5.51814 -1.52161 272.126 
5.01725e-06 -6.92858e-06 2.69169e+25 -4.96869 -2.04564 272.138 
6.92858e-06 -6.92858e-06 2.691e+25 -4.19844 -2.44364 272.139 
8.83992e-06 -6.92858e-06 2.69224e+25 -3.35127 -2.47028 272.004 
1.07512e-05 -6.92858e-06 2.69183e+25 -2.16015 -2.71571 272.051 
1.26626e-05 -6.92858e-06 2.69285e+25 -0.982149 -2.14984 271.951 
1.45739e-05 -6.92858e-06 2.69113e+25 -0.362715 -1.32155 272.152 
1.64852e-05 -6.92858e-06 2.68681e+25 0.0123418 -0.220086 272.544 
1.19458e-06 -6.45075e-06 2.69046e+25 -5.96434 -0.390028 272.079 
3.10592e-06 -6.45075e-06 2.691e+25 -5.74042 -1.51825 272.086 
5.01725e-06 -6.45075e-06 2.69116e+25 -5.29923 -2.21016 272.078 
6.92858e-06 -6.45075e-06 2.69086e+25 -4.4951 -2.61796 272.132 
8.83992e-06 -6.45075e-06 2.69133e+25 -3.50603 -2.84502 272.098 
1.07512e-05 -6.45075e-06 2.69338e+25 -2.31195 -3.00252 271.946 
1.26626e-05 -6.45075e-06 2.69136e+25 -1.26882 -2.34218 272.001 
1.45739e-05 -6.45075e-06 2.69085e+25 -0.543383 -1.51963 272.15 
1.64852e-05 -6.45075e-06 2.6854e+25 -0.0437722 -0.263619 272.639 
1.19458e-06 -5.97292e-06 2.69094e+25 -6.08897 -0.398518 272.148 
3.10592e-06 -5.97292e-06 2.69255e+25 -5.99367 -1.57667 271.949 
5.01725e-06 -5.97292e-06 2.69017e+25 -5.62083 -2.37641 272.186 
6.92858e-06 -5.97292e-06 2.69069e+25 -4.89719 -2.8605 272.179 
8.83992e-06 -5.97292e-06 2.69081e+25 -3.75787 -3.21732 272.164 
1.07512e-05 -5.97292e-06 2.69118e+25 -2.54164 -3.28934 272.131 
1.26626e-05 -5.97292e-06 2.69132e+25 -1.51026 -2.55793 272.139 
1.45739e-05 -5.97292e-06 2.69129e+25 -0.776777 -1.58888 272.145 
1.64852e-05 -5.97292e-06 2.68596e+25 -0.104828 -0.314094 272.644 
1.19458e-06 -5.49508e-06 2.68956e+25 -6.20856 -0.471721 272.175 
3.10592e-06 -5.49508e-06 2.69215e+25 -6.21208 -1.57759 272.038 
5.01725e-06 -5.49508e-06 2.69087e+25 -5.97035 -2.55164 272.193 
6.92858e-06 -5.49508e-06 2.69048e+25 -5.11691 -3.10766 272.172 
8.83992e-06 -5.49508e-06 2.68981e+25 -3.95946 -3.54902 272.178 
1.07512e-05 -5.49508e-06 2.69096e+25 -2.67164 -3.55466 272.193 
1.26626e-05 -5.49508e-06 2.69027e+25 -1.57021 -2.87171 272.238 
1.45739e-05 -5.49508e-06 2.69155e+25 -0.757203 -1.67435 272.111 
1.64852e-05 -5.49508e-06 2.68685e+25 -0.135161 -0.430437 272.563 
1.19458e-06 -5.01725e-06 2.68896e+25 -6.47152 -0.461523 272.164 
3.10592e-06 -5.01725e-06 2.69076e+25 -6.4641 -1.60839 272.051 
5.01725e-06 -5.01725e-06 2.69083e+25 -6.15165 -2.67911 272.184 
6.92858e-06 -5.01725e-06 2.68976e+25 -5.35683 -3.38515 272.281 
8.83992e-06 -5.01725e-06 2.69034e+25 -4.1861 -3.82192 272.242 
1.07512e-05 -5.01725e-06 2.69055e+25 -2.87588 -3.87953 272.182 
1.26626e-05 -5.01725e-06 2.69198e+25 -1.59589 -3.17869 272.076 
1.45739e-05 -5.01725e-06 2.69076e+25 -0.55985 -1.82665 272.155 
1.64852e-05 -5.01725e-06 2.68871e+25 -0.1141 -0.553288 272.427 
1.19458e-06 -4.53942e-06 2.6904e+25 -6.59661 -0.430967 272.103 
3.10592e-06 -4.53942e-06 2.69067e+25 -6.74319 -1.66799 272.124 
5.01725e-06 -4.53942e-06 2.69226e+25 -6.46101 -2.80129 272.075 
6.92858e-06 -4.53942e-06 2.68909e+25 -5.67806 -3.59475 272.331 
8.83992e-06 -4.53942e-06 2.69122e+25 -4.57911 -4.15662 272.17 
1.07512e-05 -4.53942e-06 2.69032e+25 -3.03228 -4.2577 272.238 
1.26626e-05 -4.53942e-06 2.69188e+25 -1.63231 -3.51085 272.084 
1.45739e-05 -4.53942e-06 2.69069e+25 -0.533766 -2.01435 272.099 
1.64852e-05 -4.53942e-06 2.68769e+25 -0.0509207 -0.627212 272.39 
1.19458e-06 -4.06158e-06 2.68884e+25 -6.81471 -0.386401 272.274 
3.10592e-06 -4.06158e-06 2.69054e+25 -7.21992 -1.64187 272.15 
5.01725e-06 -4.06158e-06 2.69142e+25 -6.79623 -2.88852 272.123 
6.92858e-06 -4.06158e-06 2.69041e+25 -6.0692 -3.80748 272.214 
8.83992e-06 -4.06158e-06 2.69083e+25 -4.76039 -4.46434 272.13 
1.07512e-05 -4.06158e-06 2.68961e+25 -3.19861 -4.62597 272.196 
1.26626e-05 -4.06158e-06 2.68977e+25 -1.74582 -3.86224 272.186 
1.45739e-05 -4.06158e-06 2.69092e+25 -0.575087 -2.29085 272.074 
1.64852e-05 -4.06158e-06 2.68949e+25 -0.0298064 -0.648532 272.356 
1.19458e-06 -3.58375e-06 2.68896e+25 -7.07479 -0.242532 272.321 
3.10592e-06 -3.58375e-06 2.68908e+25 -7.59889 -1.64006 272.13 
5.01725e-06 -3.58375e-06 2.69098e+25 -7.16251 -3.03971 272.122 
6.92858e-06 -3.58375e-06 2.68948e+25 -6.36069 -4.02223 272.227 
8.83992e-06 -3.58375e-06 2.69221e+25 -5.01607 -4.8628 272.034 
1.07512e-05 -3.58375e-06 2.68972e+25 -3.23355 -4.9778 272.202 
1.26626e-05 -3.58375e-06 2.69012e+25 -1.77488 -4.13053 272.227 
1.45739e-05 -3.58375e-06 2.68986e+25 -0.663039 -2.63396 272.184 
1.64852e-05 -3.58375e-06 2.68938e+25 -0.0567239 -0.710376 272.355 
1.19458e-06 -3.10592e-06 2.68844e+25 -7.35558 -0.0571229 272.316 
3.10592e-06 -3.10592e-06 2.69116e+25 -7.77874 -1.59218 272.072 
5.01725e-06 -3.10592e-06 2.69035e+25 -7.50398 -3.17166 272.109 
6.92858e-06 -3.10592e-06 2.68823e+25 -6.73959 -4.32162 272.322 
8.83992e-06 -3.10592e-06 2.69153e+25 -5.14549 -5.29047 271.991 
1.07512e-05 -3.10592e-06 2.69046e+25 -3.46401 -5.41998 272.217 
1.26626e-05 -3.10592e-06 2.68985e+25 -1.92014 -4.46847 272.204 
1.45739e-05 -3.10592e-06 2.691e+25 -0.649461 -2.88104 272.103 
1.64852e-05 -3.10592e-06 2.68862e+25 -0.0714167 -0.770108 272.25 
1.19458e-06 -2.62808e-06 2.68947e+25 -7.5182 0.0202956 272.207 
3.10592e-06 -2.62808e-06 2.69002e+25 -7.78741 -1.60938 272.148 
5.01725e-06 -2.62808e-06 2.68982e+25 -7.57685 -3.27197 272.166 
6.92858e-06 -2.62808e-06 2.68842e+25 -6.99397 -4.63044 272.324 
8.83992e-06 -2.62808e-06 2.69171e+25 -5.46201 -5.75698 272.062 
1.07512e-05 -2.62808e-06 2.69026e+25 -3.84196 -5.85642 272.119 
1.26626e-05 -2.62808e-06 2.69065e+25 -2.11844 -4.81221 272.148 
1.45739e-05 -2.62808e-06 2.69027e+25 -0.741877 -3.16981 272.124 
1.64852e-05 -2.62808e-06 2.68676e+25 -0.0371457 -0.774987 272.456 
1.19458e-06 -2.15025e-06 2.69167e+25 -7.66153 0.143134 271.933 
3.10592e-06 -2.15025e-06 2.68858e+25 -7.79266 -1.59052 272.25 
5.01725e-06 -2.15025e-06 2.68961e+25 -7.7218 -3.43685 272.202 
6.92858e-06 -2.15025e-06 2.68889e+25 -7.06384 -4.8555 272.265 
8.83992e-06 -2.15025e-06 2.68994e+25 -5.68586 -6.17192 272.14 
1.07512e-05 -2.15025e-06 2.68959e+25 -4.00376 -6.23387 272.225 
1.26626e-05 -2.15025e-06 2.69077e+25 -2.20017 -5.19714 272.156 
1.45739e-05 -2.15025e-06 2.69222e+25 -0.733644 -3.44547 272.106 
1.64852e-05 -2.15025e-06 2.68668e+25 -0.108938 -0.890179 272.496 
1.19458e-06 -1.67242e-06 2.69137e+25 -7.73863 0.293697 271.945 
3.10592e-06 -1.67242e-06 2.68906e+25 -7.87069 -1.58878 272.26 
5.01725e-06 -1.67242e-06 2.68967e+25 -7.7896 -3.55421 272.145 
6.92858e-06 -1.67242e-06 2.68798e+25 -7.1146 -5.0744 272.355 
8.83992e-06 -1.67242e-06 2.69019e+25 -5.90501 -6.59293 272.241 
1.07512e-05 -1.67242e-06 2.68977e+25 -4.2313 -6.63734 272.299 
1.26626e-05 -1.67242e-06 2.69174e+25 -2.47605 -5.7112 272.095 
1.45739e-05 -1.67242e-06 2.68977e+25 -0.824562 -3.71762 272.127 
1.64852e-05 -1.67242e-06 2.68728e+25 -0.0636671 -0.920852 272.544 
1.19458e-06 -1.19458e-06 2.68997e+25 -7.66408 0.43059 272.074 
3.10592e-06 -1.19458e-06 2.68806e+25 -7.75769 -1.57028 272.257 
5.01725e-06 -1.19458e-06 2.689e+25 -7.75344 -3.62269 272.199 
6.92858e-06 -1.19458e-06 2.68758e+25 -7.25207 -5.37518 272.374 
8.83992e-06 -1.19458e-06 2.69138e+25 -6.01015 -6.94468 272.094 
1.07512e-05 -1.19458e-06 2.69012e+25 -4.40563 -7.13541 272.236 
1.26626e-05 -1.19458e-06 2.69122e+25 -2.72982 -6.23479 272.169 
1.45739e-05 -1.19458e-06 2.6911e+25 -0.941789 -3.99392 272.096 
1.64852e-05 -1.19458e-06 2.68634e+25 -0.0816612 -1.02084 272.514 
1.19458e-06 -7.1675e-07 2.68934e+25 -7.75259 0.457062 272.088 
3.10592e-06 -7.1675e-07 2.68748e+25 -7.90975 -1.58762 272.347 
5.01725e-06 -7.1675e-07 2.68865e+25 -7.72937 -3.67953 272.275 
6.92858e-06 -7.1675e-07 2.68954e+25 -7.41929 -5.62307 272.21 
8.83992e-06 -7.1675e-07 2.69118e+25 -6.36041 -7.21923 272.07 
1.07512e-05 -7.1675e-07 2.689e+25 -4.67357 -7.50848 272.268 
1.26626e-05 -7.1675e-07 2.69039e+25 -2.82451 -6.75541 272.129 
1.45739e-05 -7.1675e-07 2.69044e+25 -1.14049 -4.29691 272.165 
1.64852e-05 -7.1675e-07 2.68818e+25 -0.0544073 -1.18012 272.396 
1.19458e-06 -2.38917e-07 2.68787e+25 -7.76787 0.496536 272.014 
3.10592e-06 -2.38917e-07 2.68692e+25 -7.96399 -1.58827 272.17 
5.01725e-06 -2.38917e-07 2.68538e+25 -7.80647 -3.61315 272.329 
6.92858e-06 -2.38917e-07 2.68844e+25 -7.55865 -5.75777 272.071 
8.83992e-06 -2.38917e-07 2.68914e+25 -6.54439 -7.55814 272.072 
1.07512e-05 -2.38917e-07 2.68792e+25 -4.92586 -7.99642 272.231 
1.26626e-05 -2.38917e-07 2.68796e+25 -2.95423 -7.28431 272.107 
1.45739e-05 -2.38917e-07 2.68828e+25 -1.28151 -4.63475 272.207 
1.64852e-05 -2.38917e-07 2.68509e+25 -0.101717 -1.32708 272.453 
2.38917e-07 -1.69631e-05 2.6834e+25 -0.108175 0.0298332 272.799 
2.15025e-06 -1.69631e-05 2.68524e+25 -0.171503 -0.0118749 272.835 
4.06158e-06 -1.69631e-05 2.68436e+25 -0.163939 0.0245039 272.812 
5.97292e-06 -1.69631e-05 2.68431e+25 -0.14116 -0.0378188 272.917 
7.88425e-06 -1.69631e-05 2.68461e+25 -0.147422 -0.0476944 272.844 
9.79558e-06 -1.69631e-05 2.68545e+25 -0.0691675 -0.0166017 272.782 
1.17069e-05 -1.69631e-05 2.68586e+25 0.0826411 -0.00743262 272.773 
1.36182e-05 -1.69631e-05 2.68469e+25 0.0296283 -0.00250653 272.832 
1.55296e-05 -1.69631e-05 2.68587e+25 -0.0554095 0.0229921 272.783 
2.38917e-07 -1.64852e-05 2.68469e+25 -0.546258 0.0472696 272.484 
2.15025e-06 -1.64852e-05 2.68722e+25 -0.414117 -0.0055692 272.625 
4.06158e-06 -1.64852e-05 2.68719e+25 -0.419867 -0.00532183 272.609 
5.97292e-06 -1.64852e-05 2.68669e+25 -0.342655 -0.0358312 272.627 
7.88425e-06 -1.64852e-05 2.68721e+25 -0.177178 -0.0816553 272.658 
9.79558e-06 -1.64852e-05 2.68813e+25 -0.176126 0.011425 272.502 
1.17069e-05 -1.64852e-05 2.68841e+25 -0.0101381 0.00260351 272.416 
1.36182e-05 -1.64852e-05 2.68673e+25 -0.0536156 0.0221349 272.573 
1.55296e-05 -1.64852e-05 2.68775e+25 -0.0265121 0.00984264 272.47 
2.38917e-07 -1.60074e-05 2.6875e+25 -0.865528 0.068679 272.313 
2.15025e-06 -1.60074e-05 2.69056e+25 -0.779603 0.0536883 272.199 
4.06158e-06 -1.60074e-05 2.68831e+25 -0.70021 -0.117402 272.444 
5.97292e-06 -1.60074e-05 2.6866e+25 -0.520934 -0.0389649 272.587 
7.88425e-06 -1.60074e-05 2.6873e+25 -0.530427 -0.0999301 272.562 
9.79558e-06 -1.60074e-05 2.6892e+25 -0.221916 0.0555542 272.358 
1.17069e-05 -1.60074e-05 2.68987e+25 -0.242626 -0.00468195 272.277 
1.36182e-05 -1.60074e-05 2.68819e+25 -0.0844809 -0.00747886 272.502 
1.55296e-05 -1.60074e-05 2.68896e+25 0.027242 -0.0485682 272.33 
2.38917e-07 -1.55296e-05 2.68863e+25 -1.13938 0.0566094 272.151 
2.15025e-06 -1.55296e-05 2.69183e+25 -1.05152 0.0291013 272.033 
4.06158e-06 -1.55296e-05 2.69014e+25 -0.775099 -0.204817 272.212 
5.97292e-06 -1.55296e-05 2.68969e+25 -0.652199 -0.0047751 272.388 
7.88425e-06 -1.55296e-05 2.68657e+25 -0.683976 -0.116322 272.595 
9.79558e-06 -1.55296e-05 2.68878e+25 -0.264847 -0.0102133 272.424 
1.17069e-05 -1.55296e-05 2.6917e+25 -0.308298 0.0134596 272.156 
1.36182e-05 -1.55296e-05 2.68991e+25 -0.158282 -0.00452 272.274 
1.55296e-05 -1.55296e-05 2.68942e+25 -0.0641381 -0.0883964 272.283 
2.38917e-07 -1.50517e-05 2.68918e+25 -1.40734 0.0247742 272.061 
2.15025e-06 -1.50517e-05 2.69256e+25 -1.30306 -0.0599987 271.954 
4.06158e-06 -1.50517e-05 2.69229e+25 -0.944881 -0.216734 272.105 
5.97292e-06 -1.50517e-05 2.69061e+25 -0.867978 0.0124984 272.195 
7.88425e-06 -1.50517e-05 2.68882e+25 -0.653232 -0.158334 272.438 
9.79558e-06 -1.50517e-05 2.68795e+25 -0.338351 -0.143917 272.362 
1.17069e-05 -1.50517e-05 2.69025e+25 -0.315275 0.00339071 272.238 
1.36182e-05 -1.50517e-05 2.69284e+25 -0.215683 0.0369707 272.071 
1.55296e-05 -1.50517e-05 2.68956e+25 -0.132147 -0.1829 272.215 
2.38917e-07 -1.45739e-05 2.6912e+25 -1.73175 0.0180444 272.007 
2.15025e-06 -1.45739e-05 2.69449e+25 -1.51247 -0.218678 271.855 
4.06158e-06 -1.45739e-05 2.69174e+25 -1.20463 -0.130495 272.049 
5.97292e-06 -1.45739e-05 2.69162e+25 -1.08773 -0.0270628 272.121 
7.88425e-06 -1.45739e-05 2.68859e+25 -0.889538 -0.238404 272.394 
9.79558e-06 -1.45739e-05 2.68926e+25 -0.571133 -0.257179 272.342 
1.17069e-05 -1.45739e-05 2.6899e+25 -0.268178 -0.0290451 272.287 
1.36182e-05 -1.45739e-05 2.69238e+25 -0.110418 0.0443282 272.097 
1.55296e-05 -1.45739e-05 2.68995e+25 -0.0831882 -0.202337 272.3 
2.38917e-07 -1.40961e-05 2.69144e+25 -1.93689 -0.0175269 271.861 
2.15025e-06 -1.40961e-05 2.69464e+25 -1.48464 -0.257517 271.815 
4.06158e-06 -1.40961e-05 2.69138e+25 -1.37212 -0.191628 272.119 
5.97292e-06 -1.40961e-05 2.69097e+25 -1.4927 -0.0161047 272.143 
7.88425e-06 -1.40961e-05 2.6895e+25 -1.15804 -0.336039 272.338 
9.79558e-06 -1.40961e-05 2.69053e+25 -0.894251 -0.415987 272.294 
1.17069e-05 -1.40961e-05 2.69128e+25 -0.307375 -0.127913 272.136 
1.36182e-05 -1.40961e-05 2.69016e+25 -0.118886 -0.0923407 272.31 
1.55296e-05 -1.40961e-05 2.68997e+25 -0.0199766 -0.168248 272.273 
2.38917e-07 -1.36182e-05 2.69096e+25 -1.93157 -0.0450885 271.929 
2.15025e-06 -1.36182e-05 2.69453e+25 -1.84077 -0.230115 271.761 
4.06158e-06 -1.36182e-05 2.69266e+25 -1.68183 -0.28109 272.046 
5.97292e-06 -1.36182e-05 2.69037e+25 -1.61038 -0.0880538 272.163 
7.88425e-06 -1.36182e-05 2.69107e+25 -1.27209 -0.489087 272.209 
9.79558e-06 -1.36182e-05 2.68976e+25 -0.95853 -0.504784 272.278 
1.17069e-05 -1.36182e-05 2.69157e+25 -0.507745 -0.219018 272.125 
1.36182e-05 -1.36182e-05 2.68958e+25 -0.168249 -0.232304 272.322 
1.55296e-05 -1.36182e-05 2.68977e+25 0.00462309 -0.185427 272.211 
2.38917e-07 -1.31404e-05 2.6902e+25 -2.09522 -0.031964 271.919 
2.15025e-06 -1.31404e-05 2.69416e+25 -2.10202 -0.316512 271.802 
4.06158e-06 -1.31404e-05 2.69251e+25 -1.81697 -0.347768 271.993 
5.97292e-06 -1.31404e-05 2.69037e+25 -1.6738 -0.0816003 272.199 
7.88425e-06 -1.31404e-05 2.69125e+25 -1.41149 -0.677742 272.133 
9.79558e-06 -1.31404e-05 2.68961e+25 -0.895471 -0.526281 272.246 
1.17069e-05 -1.31404e-05 2.69177e+25 -0.661528 -0.26936 272.095 
1.36182e-05 -1.31404e-05 2.68997e+25 -0.273261 -0.36015 272.192 
1.55296e-05 -1.31404e-05 2.68971e+25 -0.0205265 -0.162948 272.192 
2.38917e-07 -1.26626e-05 2.68987e+25 -2.31457 -0.0231813 271.986 
2.15025e-06 -1.26626e-05 2.69348e+25 -2.30619 -0.439889 271.889 
4.06158e-06 -1.26626e-05 2.69268e+25 -2.03038 -0.376642 271.901 
5.97292e-06 -1.26626e-05 2.69081e+25 -1.83454 -0.160797 272.164 
7.88425e-06 -1.26626e-05 2.6921e+25 -1.3768 -0.801836 272.145 
9.79558e-06 -1.26626e-05 2.68857e+25 -0.921578 -0.588571 272.275 
1.17069e-05 -1.26626e-05 2.69162e+25 -0.710207 -0.340843 272.059 
1.36182e-05 -1.26626e-05 2.69085e+25 -0.268305 -0.383432 272.165 
1.55296e-05 -1.26626e-05 2.69005e+25 -0.100704 -0.140968 272.211 
2.38917e-07 -1.21847e-05 2.68978e+25 -2.61814 0.0394185 272.043 
2.15025e-06 -1.21847e-05 2.69248e+25 -2.55077 -0.533263 271.961 
4.06158e-06 -1.21847e-05 2.69169e+25 -2.2608 -0.460941 271.983 
5.97292e-06 -1.21847e-05 2.69192e+25 -1.76574 -0.26159 271.991 
7.88425e-06 -1.21847e-05 2.69105e+25 -1.43289 -0.835143 272.02 
9.79558e-06 -1.21847e-05 2.69099e+25 -0.984 -0.609553 272.092 
1.17069e-05 -1.21847e-05 2.69166e+25 -0.752338 -0.416558 272.062 
1.36182e-05 -1.21847e-05 2.68986e+25 -0.285784 -0.511449 272.24 
1.55296e-05 -1.21847e-05 2.69141e+25 -0.136624 -0.210154 272.147 
2.38917e-07 -1.17069e-05 2.69022e+25 -2.94826 -0.0252327 272.061 
2.15025e-06 -1.17069e-05 2.69316e+25 -2.8577 -0.550636 271.933 
4.06158e-06 -1.17069e-05 2.69191e+25 -2.47174 -0.548786 272.061 
5.97292e-06 -1.17069e-05 2.69399e+25 -1.78606 -0.366285 271.873 
7.88425e-06 -1.17069e-05 2.69219e+25 -1.44607 -0.923458 272.023 
9.79558e-06 -1.17069e-05 2.69159e+25 -1.24201 -0.710523 272.119 
1.17069e-05 -1.17069e-05 2.69034e+25 -0.840146 -0.503791 272.166 
1.36182e-05 -1.17069e-05 2.69269e+25 -0.367572 -0.613899 272.083 
1.55296e-05 -1.17069e-05 2.69073e+25 -0.0956071 -0.287297 272.176 
2.38917e-07 -1.12291e-05 2.69004e+25 -3.26431 -0.0761606 272.024 
2.15025e-06 -1.12291e-05 2.69186e+25 -3.16753 -0.606668 271.984 
4.06158e-06 -1.12291e-05 2.69331e+25 -2.77451 -0.634837 271.964 
5.97292e-06 -1.12291e-05 2.69342e+25 -2.13085 -0.54064 271.984 
7.88425e-06 -1.12291e-05 2.69303e+25 -1.7381 -1.02216 271.929 
9.79558e-06 -1.12291e-05 2.69196e+25 -1.4313 -0.849486 272.049 
1.17069e-05 -1.12291e-05 2.69175e+25 -0.843241 -0.575795 272.05 
1.36182e-05 -1.12291e-05 2.69242e+25 -0.413994 -0.693796 272.038 
1.55296e-05 -1.12291e-05 2.69038e+25 -0.0585128 -0.383229 272.167 
2.38917e-07 -1.07512e-05 2.69064e+25 -3.50369 -0.132684 272.017 
2.15025e-06 -1.07512e-05 2.69261e+25 -3.35089 -0.676369 271.989 
4.06158e-06 -1.07512e-05 2.69216e+25 -2.98907 -0.749762 272.071 
5.97292e-06 -1.07512e-05 2.69282e+25 -2.46766 -0.741688 271.979 
7.88425e-06 -1.07512e-05 2.69184e+25 -1.86605 -1.04811 272.071 
9.79558e-06 -1.07512e-05 2.69286e+25 -1.57982 -0.954096 271.97 
1.17069e-05 -1.07512e-05 2.69378e+25 -0.901973 -0.728964 271.939 
1.36182e-05 -1.07512e-05 2.69238e+25 -0.427138 -0.778694 272.052 
1.55296e-05 -1.07512e-05 2.69097e+25 -0.0192573 -0.39296 272.175 
2.38917e-07 -1.02734e-05 2.68982e+25 -3.75854 -0.152621 272.032 
2.15025e-06 -1.02734e-05 2.69303e+25 -3.55328 -0.712426 271.987 
4.06158e-06 -1.02734e-05 2.69235e+25 -3.34269 -0.825706 271.971 
5.97292e-06 -1.02734e-05 2.69168e+25 -2.70375 -0.95436 272.052 
7.88425e-06 -1.02734e-05 2.69262e+25 -2.00541 -1.09656 272.043 
9.79558e-06 -1.02734e-05 2.69352e+25 -1.66055 -1.09212 271.951 
1.17069e-05 -1.02734e-05 2.69239e+25 -0.969689 -1.00986 271.935 
1.36182e-05 -1.02734e-05 2.69244e+25 -0.431503 -0.866525 272.023 
1.55296e-05 -1.02734e-05 2.69141e+25 -0.0471176 -0.470481 272.109 
2.38917e-07 -9.79558e-06 2.68988e+25 -3.8899 -0.173326 272.04 
2.15025e-06 -9.79558e-06 2.69297e+25 -3.93227 -0.787876 272.033 
4.06158e-06 -9.79558e-06 2.69291e+25 -3.75245 -0.893399 272.052 
5.97292e-06 -9.79558e-06 2.69133e+25 -2.99702 -1.16123 272.109 
7.88425e-06 -9.79558e-06 2.69308e+25 -2.20394 -1.16354 271.988 
9.79558e-06 -9.79558e-06 2.69255e+25 -1.60001 -1.23575 271.951 
1.17069e-05 -9.79558e-06 2.69139e+25 -0.892807 -1.27675 272.033 
1.36182e-05 -9.79558e-06 2.69283e+25 -0.315057 -0.828224 271.937 
1.55296e-05 -9.79558e-06 2.69162e+25 -0.0276578 -0.503231 272.051 
2.38917e-07 -9.31775e-06 2.69019e+25 -4.20312 -0.170093 272.014 
2.15025e-06 -9.31775e-06 2.69186e+25 -4.33216 -0.720625 272.002 
4.06158e-06 -9.31775e-06 2.69208e+25 -3.9672 -1.05927 272.051 
5.97292e-06 -9.31775e-06 2.69338e+25 -3.19641 -1.36797 272.011 
7.88425e-06 -9.31775e-06 2.69326e+25 -2.46724 -1.32596 271.97 
9.79558e-06 -9.31775e-06 2.69201e+25 -1.65826 -1.36115 271.989 
1.17069e-05 -9.31775e-06 2.6921e+25 -0.973746 -1.49081 271.972 
1.36182e-05 -9.31775e-06 2.69267e+25 -0.252062 -0.961613 272.011 
1.55296e-05 -9.31775e-06 2.69271e+25 -0.0954828 -0.552481 272.038 
2.38917e-07 -8.83992e-06 2.6891e+25 -4.60488 -0.142972 272.001 
2.15025e-06 -8.83992e-06 2.69151e+25 -4.62818 -0.679237 272.041 
4.06158e-06 -8.83992e-06 2.69227e+25 -4.12989 -1.27013 271.993 
5.97292e-06 -8.83992e-06 2.69129e+25 -3.55743 -1.56135 272.06 
7.88425e-06 -8.83992e-06 2.69342e+25 -2.60722 -1.5713 271.885 
9.79558e-06 -8.83992e-06 2.69303e+25 -1.85075 -1.55044 271.98 
1.17069e-05 -8.83992e-06 2.69366e+25 -1.0897 -1.65504 271.899 
1.36182e-05 -8.83992e-06 2.69158e+25 -0.295836 -1.13462 272.028 
1.55296e-05 -8.83992e-06 2.69063e+25 0.0641731 -0.556663 272.126 
2.38917e-07 -8.36208e-06 2.68965e+25 -4.90676 -0.128479 272.061 
2.15025e-06 -8.36208e-06 2.69189e+25 -4.84999 -0.713808 272.026 
4.06158e-06 -8.36208e-06 2.69173e+25 -4.45879 -1.45903 272.025 
5.97292e-06 -8.36208e-06 2.69047e+25 -3.8631 -1.76608 272.164 
7.88425e-06 -8.36208e-06 2.69266e+25 -2.93498 -1.76983 271.929 
9.79558e-06 -8.36208e-06 2.691e+25 -2.07234 -1.75518 272.061 
1.17069e-05 -8.36208e-06 2.69218e+25 -1.04186 -1.84872 271.953 
1.36182e-05 -8.36208e-06 2.69304e+25 -0.460221 -1.29767 271.987 
1.55296e-05 -8.36208e-06 2.69087e+25 0.110627 -0.54008 272.21 
2.38917e-07 -7.88425e-06 2.69e+25 -5.23554 -0.158076 271.993 
2.15025e-06 -7.88425e-06 2.69178e+25 -5.05767 -0.821955 272.053 
4.06158e-06 -7.88425e-06 2.69097e+25 -4.67769 -1.49434 272.059 
5.97292e-06 -7.88425e-06 2.68959e+25 -4.14482 -1.9289 272.248 
7.88425e-06 -7.88425e-06 2.69183e+25 -3.30203 -2.01045 271.997 
9.79558e-06 -7.88425e-06 2.69192e+25 -2.26706 -2.06363 271.996 
1.17069e-05 -7.88425e-06 2.69279e+25 -1.22729 -1.97068 272.012 
1.36182e-05 -7.88425e-06 2.69153e+25 -0.55271 -1.49104 272.099 
1.55296e-05 -7.88425e-06 2.69032e+25 -0.0564604 -0.597643 272.268 
2.38917e-07 -7.40642e-06 2.68892e+25 -5.51135 -0.197124 272.07 
2.15025e-06 -7.40642e-06 2.69194e+25 -5.26386 -0.983657 272.042 
4.06158e-06 -7.40642e-06 2.69185e+25 -4.93767 -1.50788 272.037 
5.97292e-06 -7.40642e-06 2.69084e+25 -4.29946 -2.078 272.169 
7.88425e-06 -7.40642e-06 2.6925e+25 -3.55028 -2.33626 272.063 
9.79558e-06 -7.40642e-06 2.69126e+25 -2.62159 -2.34396 272.094 
1.17069e-05 -7.40642e-06 2.69149e+25 -1.41659 -2.19185 271.992 
1.36182e-05 -7.40642e-06 2.69114e+25 -0.62951 -1.73833 272.135 
1.55296e-05 -7.40642e-06 2.6889e+25 -0.06611 -0.646171 272.311 
2.38917e-07 -6.92858e-06 2.68758e+25 -5.69513 -0.154464 272.166 
2.15025e-06 -6.92858e-06 2.69037e+25 -5.5598 -1.01042 272.065 
4.06158e-06 -6.92858e-06 2.69112e+25 -5.36515 -1.6447 272.119 
5.97292e-06 -6.92858e-06 2.69092e+25 -4.58029 -2.27059 272.148 
7.88425e-06 -6.92858e-06 2.69134e+25 -3.88411 -2.56467 272.129 
9.79558e-06 -6.92858e-06 2.69072e+25 -2.71218 -2.68831 272.145 
1.17069e-05 -6.92858e-06 2.69356e+25 -1.57643 -2.44768 271.941 
1.36182e-05 -6.92858e-06 2.69188e+25 -0.756451 -1.87474 272.031 
1.55296e-05 -6.92858e-06 2.68882e+25 -0.173049 -0.691789 272.369 
2.38917e-07 -6.45075e-06 2.68828e+25 -5.83973 -0.0447889 272.115 
2.15025e-06 -6.45075e-06 2.69032e+25 -5.82698 -1.03252 272.159 
4.06158e-06 -6.45075e-06 2.69161e+25 -5.64713 -1.80256 272.025 
5.97292e-06 -6.45075e-06 2.69107e+25 -4.97992 -2.46834 272.102 
7.88425e-06 -6.45075e-06 2.69096e+25 -4.08284 -2.78166 272.182 
9.79558e-06 -6.45075e-06 2.69134e+25 -2.80196 -2.98251 272.151 
1.17069e-05 -6.45075e-06 2.69301e+25 -1.72509 -2.79081 271.858 
1.36182e-05 -6.45075e-06 2.69177e+25 -0.831097 -2.0534 272.116 
1.55296e-05 -6.45075e-06 2.6883e+25 -0.241276 -0.798708 272.404 
2.38917e-07 -5.97292e-06 2.68829e+25 -6.05456 -0.036583 272.105 
2.15025e-06 -5.97292e-06 2.69041e+25 -6.06036 -1.09182 272.133 
4.06158e-06 -5.97292e-06 2.68887e+25 -5.86892 -1.95543 272.267 
5.97292e-06 -5.97292e-06 2.69127e+25 -5.24674 -2.68209 272.078 
7.88425e-06 -5.97292e-06 2.69028e+25 -4.28814 -3.03286 272.171 
9.79558e-06 -5.97292e-06 2.69261e+25 -3.12345 -3.25435 272.033 
1.17069e-05 -5.97292e-06 2.69237e+25 -1.9861 -3.11504 272.002 
1.36182e-05 -5.97292e-06 2.69036e+25 -0.986773 -2.23976 272.223 
1.55296e-05 -5.97292e-06 2.68899e+25 -0.412169 -1.03431 272.308 
2.38917e-07 -5.49508e-06 2.68865e+25 -6.26064 0.0663059 272.055 
2.15025e-06 -5.49508e-06 2.69044e+25 -6.13047 -1.09324 272.111 
4.06158e-06 -5.49508e-06 2.69028e+25 -6.08104 -1.97315 272.191 
5.97292e-06 -5.49508e-06 2.69066e+25 -5.60784 -2.85333 272.095 
7.88425e-06 -5.49508e-06 2.69009e+25 -4.49531 -3.35768 272.281 
9.79558e-06 -5.49508e-06 2.69141e+25 -3.30681 -3.52026 272.094 
1.17069e-05 -5.49508e-06 2.69128e+25 -2.10246 -3.35163 272.103 
1.36182e-05 -5.49508e-06 2.69117e+25 -1.134 -2.39121 272.204 
1.55296e-05 -5.49508e-06 2.69001e+25 -0.514987 -1.23601 272.19 
2.38917e-07 -5.01725e-06 2.68828e+25 -6.44044 0.0594882 272.096 
2.15025e-06 -5.01725e-06 2.68888e+25 -6.50326 -1.06425 272.233 
4.06158e-06 -5.01725e-06 2.69018e+25 -6.38856 -1.9801 272.19 
5.97292e-06 -5.01725e-06 2.69074e+25 -5.81698 -3.04231 272.119 
7.88425e-06 -5.01725e-06 2.6898e+25 -4.87362 -3.67662 272.271 
9.79558e-06 -5.01725e-06 2.69117e+25 -3.52069 -3.82109 272.115 
1.17069e-05 -5.01725e-06 2.69059e+25 -2.19059 -3.64436 272.143 
1.36182e-05 -5.01725e-06 2.69092e+25 -1.03616 -2.61229 272.176 
1.55296e-05 -5.01725e-06 2.69048e+25 -0.405956 -1.31985 272.185 
2.38917e-07 -4.53942e-06 2.68849e+25 -6.5491 0.0546136 272.14 
2.15025e-06 -4.53942e-06 2.6903e+25 -6.65983 -1.01861 272.245 
4.06158e-06 -4.53942e-06 2.69063e+25 -6.6965 -2.09532 272.059 
5.97292e-06 -4.53942e-06 2.69139e+25 -6.12253 -3.33042 272.086 
7.88425e-06 -4.53942e-06 2.68996e+25 -5.18031 -3.92149 272.175 
9.79558e-06 -4.53942e-06 2.69246e+25 -3.8116 -4.2072 272.08 
1.17069e-05 -4.53942e-06 2.69135e+25 -2.3319 -3.95874 272.058 
1.36182e-05 -4.53942e-06 2.69148e+25 -0.996607 -2.88255 272.053 
1.55296e-05 -4.53942e-06 2.69146e+25 -0.179136 -1.45963 272.082 
2.38917e-07 -4.06158e-06 2.68734e+25 -6.62731 0.185789 272.209 
2.15025e-06 -4.06158e-06 2.68908e+25 -7.09594 -0.93122 272.213 
4.06158e-06 -4.06158e-06 2.69084e+25 -7.05666 -2.22324 272.097 
5.97292e-06 -4.06158e-06 2.69191e+25 -6.47908 -3.52376 272.086 
7.88425e-06 -4.06158e-06 2.69136e+25 -5.53372 -4.23127 272.038 
9.79558e-06 -4.06158e-06 2.6917e+25 -3.98828 -4.64396 272.163 
1.17069e-05 -4.06158e-06 2.69085e+25 -2.44802 -4.33321 272.128 
1.36182e-05 -4.06158e-06 2.69092e+25 -1.16943 -3.11263 272.139 
1.55296e-05 -4.06158e-06 2.69244e+25 -0.0951238 -1.54278 271.994 
2.38917e-07 -3.58375e-06 2.68758e+25 -6.71051 0.352649 272.146 
2.15025e-06 -3.58375e-06 2.68878e+25 -7.41586 -0.791942 272.201 
4.06158e-06 -3.58375e-06 2.69017e+25 -7.38999 -2.35949 272.186 
5.97292e-06 -3.58375e-06 2.69124e+25 -6.8929 -3.65462 272.049 
7.88425e-06 -3.58375e-06 2.69044e+25 -5.80586 -4.58323 272.131 
9.79558e-06 -3.58375e-06 2.69265e+25 -4.21881 -5.13389 272.1 
1.17069e-05 -3.58375e-06 2.69045e+25 -2.43827 -4.71675 272.219 
1.36182e-05 -3.58375e-06 2.69022e+25 -1.19695 -3.37205 272.226 
1.55296e-05 -3.58375e-06 2.69315e+25 -0.219421 -1.66761 271.945 
2.38917e-07 -3.10592e-06 2.6881e+25 -6.97205 0.557328 272.203 
2.15025e-06 -3.10592e-06 2.68851e+25 -7.64981 -0.638879 272.222 
4.06158e-06 -3.10592e-06 2.68983e+25 -7.64022 -2.51236 272.165 
5.97292e-06 -3.10592e-06 2.6897e+25 -7.14321 -3.87727 272.215 
7.88425e-06 -3.10592e-06 2.68886e+25 -6.06967 -4.99276 272.247 
9.79558e-06 -3.10592e-06 2.69167e+25 -4.33738 -5.5609 272.055 
1.17069e-05 -3.10592e-06 2.68917e+25 -2.65328 -5.0712 272.211 
1.36182e-05 -3.10592e-06 2.69019e+25 -1.20352 -3.71059 272.119 
1.55296e-05 -3.10592e-06 2.69219e+25 -0.192301 -1.81222 272.039 
2.38917e-07 -2.62808e-06 2.68877e+25 -7.212 0.773175 272.074 
2.15025e-06 -2.62808e-06 2.68976e+25 -7.63521 -0.511848 272.15 
4.06158e-06 -2.62808e-06 2.68755e+25 -7.78097 -2.56674 272.307 
5.97292e-06 -2.62808e-06 2.68814e+25 -7.35631 -4.03377 272.348 
7.88425e-06 -2.62808e-06 2.68997e+25 -6.33037 -5.35176 272.214 
9.79558e-06 -2.62808e-06 2.69117e+25 -4.61598 -5.93137 272.104 
1.17069e-05 -2.62808e-06 2.69109e+25 -2.96369 -5.55102 272.108 
1.36182e-05 -2.62808e-06 2.68905e+25 -1.35171 -4.06001 272.277 
1.55296e-05 -2.62808e-06 2.69053e+25 -0.200958 -1.97579 272.1 
2.38917e-07 -2.15025e-06 2.68877e+25 -7.3602 0.971735 272.034 
2.15025e-06 -2.15025e-06 2.68999e+25 -7.80735 -0.43181 272.025 
4.06158e-06 -2.15025e-06 2.6885e+25 -7.86722 -2.52981 272.291 
5.97292e-06 -2.15025e-06 2.6893e+25 -7.37631 -4.1728 272.302 
7.88425e-06 -2.15025e-06 2.69046e+25 -6.45813 -5.69767 272.198 
9.79558e-06 -2.15025e-06 2.69124e+25 -4.77229 -6.3881 272.134 
1.17069e-05 -2.15025e-06 2.69008e+25 -3.17287 -5.96149 272.182 
1.36182e-05 -2.15025e-06 2.689e+25 -1.42506 -4.46754 272.294 
1.55296e-05 -2.15025e-06 2.69034e+25 -0.275888 -2.14592 272.18 
2.38917e-07 -1.67242e-06 2.68929e+25 -7.45264 1.18068 271.99 
2.15025e-06 -1.67242e-06 2.6907e+25 -7.86465 -0.428631 272.067 
4.06158e-06 -1.67242e-06 2.68839e+25 -7.86198 -2.51582 272.243 
5.97292e-06 -1.67242e-06 2.68897e+25 -7.53004 -4.34927 272.221 
7.88425e-06 -1.67242e-06 2.6893e+25 -6.56986 -6.05379 272.268 
9.79558e-06 -1.67242e-06 2.6914e+25 -4.99874 -6.86119 272.102 
1.17069e-05 -1.67242e-06 2.69112e+25 -3.34884 -6.36235 272.089 
1.36182e-05 -1.67242e-06 2.68936e+25 -1.58553 -4.87511 272.191 
1.55296e-05 -1.67242e-06 2.6886e+25 -0.293709 -2.26942 272.265 
2.38917e-07 -1.19458e-06 2.68953e+25 -7.48641 1.31861 271.933 
2.15025e-06 -1.19458e-06 2.68943e+25 -7.82894 -0.51584 272.146 
4.06158e-06 -1.19458e-06 2.68856e+25 -7.8483 -2.55568 272.209 
5.97292e-06 -1.19458e-06 2.68884e+25 -7.61969 -4.4183 272.125 
7.88425e-06 -1.19458e-06 2.68959e+25 -6.62542 -6.35979 272.242 
9.79558e-06 -1.19458e-06 2.69122e+25 -5.33778 -7.25133 272.064 
1.17069e-05 -1.19458e-06 2.69082e+25 -3.62306 -6.79089 272.144 
1.36182e-05 -1.19458e-06 2.69082e+25 -1.74245 -5.3104 272.145 
1.55296e-05 -1.19458e-06 2.68967e+25 -0.479864 -2.50656 272.204 
2.38917e-07 -7.1675e-07 2.68912e+25 -7.51187 1.38546 271.974 
2.15025e-06 -7.1675e-07 2.68793e+25 -7.77209 -0.541921 272.123 
4.06158e-06 -7.1675e-07 2.68863e+25 -7.77683 -2.59678 272.22 
5.97292e-06 -7.1675e-07 2.68944e+25 -7.74671 -4.51855 272.207 
7.88425e-06 -7.1675e-07 2.6902e+25 -6.89234 -6.59336 272.153 
9.79558e-06 -7.1675e-07 2.69198e+25 -5.64942 -7.66504 272.115 
1.17069e-05 -7.1675e-07 2.69031e+25 -3.75992 -7.19172 272.191 
1.36182e-05 -7.1675e-07 2.69036e+25 -1.81614 -5.69737 272.101 
1.55296e-05 -7.1675e-07 2.68996e+25 -0.557067 -2.74674 272.245 
2.38917e-07 -2.38917e-07 2.68482e+25 -7.53271 1.64051 272.118 
2.15025e-06 -2.38917e-07 2.68804e+25 -7.93534 -0.473757 272.027 
4.06158e-06 -2.38917e-07 2.68666e+25 -7.85268 -2.64933 272.224 
5.97292e-06 -2.38917e-07 2.68669e+25 -7.76285 -4.54888 272.221 
7.88425e-06 -2.38917e-07 2.68835e+25 -7.21002 -6.82904 272.119 
9.79558e-06 -2.38917e-07 2.68997e+25 -5.82715 -8.00918 272.027 
1.17069e-05 -2.38917e-07 2.68689e+25 -3.98501 -7.61573 272.28 
1.36182e-05 -2.38917e-07 2.68865e+25 -2.05515 -6.09533 272.068 
1.55296e-05 -2.38917e-07 2.68761e+25 -0.564231 -3.02457 272.259 
7.1675e-07 -1.69631e-05 2.68576e+25 -0.140006 -0.0026731 272.761 
2.62808e-06 -1.69631e-05 2.68558e+25 -0.141459 -0.0174391 272.785 
4.53942e-06 -1.69631e-05 2.68481e+25 -0.172567 -0.00703733 272.786 
6.45075e-06 -1.69631e-05 2.68568e+25 -0.0966556 0.0228566 272.789 
8.36208e-06 -1.69631e-05 2.6842e+25 -0.12688 0.0365356 272.888 
1.02734e-05 -1.69631e-05 2.68505e+25 -0.0648677 0.031856 272.843 
1.21847e-05 -1.69631e-05 2.6852e+25 0.0597536 0.0531189 272.775 
1.40961e-05 -1.69631e-05 2.68559e+25 0.0145213 0.0204413 272.798 
1.60074e-05 -1.69631e-05 2.68449e+25 -0.0899872 0.00843455 272.859 
7.1675e-07 -1.64852e-05 2.68856e+25 -0.451595 -0.0602527 272.463 
2.62808e-06 -1.64852e-05 2.68731e+25 -0.500325 0.0431755 272.518 
4.53942e-06 -1.64852e-05 2.68762e+25 -0.309749 -0.0619604 272.516 
6.45075e-06 -1.64852e-05 2.68641e+25 -0.324057 -0.0521689 272.711 
8.36208e-06 -1.64852e-05 2.68641e+25 -0.179361 0.0706393 272.623 
1.02734e-05 -1.64852e-05 2.6881e+25 -0.140495 -0.0650174 272.436 
1.21847e-05 -1.64852e-05 2.68732e+25 -0.00142688 0.053625 272.547 
1.40961e-05 -1.64852e-05 2.68601e+25 -0.0436022 -0.000245064 272.666 
1.60074e-05 -1.64852e-05 2.68687e+25 -0.000325589 0.0151637 272.561 
7.1675e-07 -1.60074e-05 2.69223e+25 -0.890036 -0.112982 272.164 
2.62808e-06 -1.60074e-05 2.68893e+25 -0.782207 0.0937414 272.36 
4.53942e-06 -1.60074e-05 2.68863e+25 -0.665173 -0.112381 272.382 
6.45075e-06 -1.60074e-05 2.68673e+25 -0.559795 -0.0430867 272.674 
8.36208e-06 -1.60074e-05 2.68765e+25 -0.453675 0.00287006 272.531 
1.02734e-05 -1.60074e-05 2.68919e+25 -0.246269 -0.113777 272.23 
1.21847e-05 -1.60074e-05 2.68879e+25 -0.174585 0.00597558 272.371 
1.40961e-05 -1.60074e-05 2.68836e+25 -0.0537968 0.00417923 272.39 
1.60074e-05 -1.60074e-05 2.68876e+25 0.0527665 0.0223675 272.401 
7.1675e-07 -1.55296e-05 2.69242e+25 -1.12515 -0.0699783 272.011 
2.62808e-06 -1.55296e-05 2.69064e+25 -0.959507 0.0138642 272.186 
4.53942e-06 -1.55296e-05 2.69089e+25 -0.762981 -0.144689 272.153 
6.45075e-06 -1.55296e-05 2.6892e+25 -0.676793 -0.0292142 272.413 
8.36208e-06 -1.55296e-05 2.68657e+25 -0.592168 -0.153817 272.594 
1.02734e-05 -1.55296e-05 2.68904e+25 -0.170617 -0.114557 272.41 
1.21847e-05 -1.55296e-05 2.69111e+25 -0.320577 -0.0624926 272.202 
1.40961e-05 -1.55296e-05 2.69049e+25 -0.200361 -0.0376229 272.274 
1.60074e-05 -1.55296e-05 2.68808e+25 0.057134 -0.0622473 272.446 
7.1675e-07 -1.50517e-05 2.6919e+25 -1.43873 -0.0283415 272.032 
2.62808e-06 -1.50517e-05 2.69278e+25 -1.14465 -0.157889 271.991 
4.53942e-06 -1.50517e-05 2.69145e+25 -0.955101 -0.109455 272.176 
6.45075e-06 -1.50517e-05 2.69049e+25 -0.841966 -0.0320988 272.282 
8.36208e-06 -1.50517e-05 2.68804e+25 -0.658214 -0.163267 272.432 
1.02734e-05 -1.50517e-05 2.68706e+25 -0.279087 -0.127068 272.491 
1.21847e-05 -1.50517e-05 2.69069e+25 -0.304565 -0.0653951 272.214 
1.40961e-05 -1.50517e-05 2.69012e+25 -0.225107 -0.0358702 272.166 
1.60074e-05 -1.50517e-05 2.68955e+25 -0.085789 -0.17013 272.334 
7.1675e-07 -1.45739e-05 2.69358e+25 -1.66697 -0.054027 271.879 
2.62808e-06 -1.45739e-05 2.69356e+25 -1.41742 -0.27245 271.939 
4.53942e-06 -1.45739e-05 2.69233e+25 -1.18867 -0.158373 272.066 
6.45075e-06 -1.45739e-05 2.69035e+25 -1.09488 -0.0342598 272.276 
8.36208e-06 -1.45739e-05 2.69009e+25 -0.779778 -0.214745 272.346 
1.02734e-05 -1.45739e-05 2.6888e+25 -0.47058 -0.145364 272.368 
1.21847e-05 -1.45739e-05 2.69144e+25 -0.241019 -0.0616972 272.136 
1.40961e-05 -1.45739e-05 2.69023e+25 -0.0599689 -0.0269296 272.225 
1.60074e-05 -1.45739e-05 2.68955e+25 -0.0759043 -0.214681 272.373 
7.1675e-07 -1.40961e-05 2.6936e+25 -1.85047 -0.13223 271.858 
2.62808e-06 -1.40961e-05 2.69366e+25 -1.50568 -0.31059 271.856 
4.53942e-06 -1.40961e-05 2.69193e+25 -1.35884 -0.178193 272.006 
6.45075e-06 -1.40961e-05 2.68942e+25 -1.40859 -0.0895638 272.327 
8.36208e-06 -1.40961e-05 2.68979e+25 -1.03093 -0.322324 272.284 
1.02734e-05 -1.40961e-05 2.68951e+25 -0.705547 -0.238328 272.282 
1.21847e-05 -1.40961e-05 2.69224e+25 -0.213081 -0.147936 272.001 
1.40961e-05 -1.40961e-05 2.68995e+25 -0.0368738 -0.0202662 272.314 
1.60074e-05 -1.40961e-05 2.68989e+25 -0.0326215 -0.20101 272.307 
7.1675e-07 -1.36182e-05 2.69297e+25 -1.94095 -0.167218 271.88 
2.62808e-06 -1.36182e-05 2.69542e+25 -1.80828 -0.329113 271.729 
4.53942e-06 -1.36182e-05 2.69205e+25 -1.56498 -0.181751 272.068 
6.45075e-06 -1.36182e-05 2.69078e+25 -1.58073 -0.101691 272.148 
8.36208e-06 -1.36182e-05 2.69063e+25 -1.10332 -0.447568 272.196 
1.02734e-05 -1.36182e-05 2.68986e+25 -0.844974 -0.474313 272.27 
1.21847e-05 -1.36182e-05 2.69235e+25 -0.415353 -0.223541 272.044 
1.40961e-05 -1.36182e-05 2.68933e+25 -0.0280191 -0.0887787 272.264 
1.60074e-05 -1.36182e-05 2.68928e+25 -0.0214745 -0.15183 272.313 
7.1675e-07 -1.31404e-05 2.69249e+25 -2.11491 -0.123118 271.949 
2.62808e-06 -1.31404e-05 2.69464e+25 -2.01091 -0.378047 271.763 
4.53942e-06 -1.31404e-05 2.69211e+25 -1.8466 -0.215205 272.077 
6.45075e-06 -1.31404e-05 2.69158e+25 -1.69917 -0.172833 272.119 
8.36208e-06 -1.31404e-05 2.69113e+25 -1.21135 -0.620258 272.112 
1.02734e-05 -1.31404e-05 2.68927e+25 -0.870574 -0.578266 272.308 
1.21847e-05 -1.31404e-05 2.69191e+25 -0.631221 -0.302748 272.101 
1.40961e-05 -1.31404e-05 2.69002e+25 -0.193654 -0.232827 272.185 
1.60074e-05 -1.31404e-05 2.68979e+25 -0.03245 -0.112634 272.281 
7.1675e-07 -1.26626e-05 2.69169e+25 -2.32347 -0.0838495 271.997 
2.62808e-06 -1.26626e-05 2.69298e+25 -2.18516 -0.472379 271.898 
4.53942e-06 -1.26626e-05 2.69133e+25 -1.96088 -0.231383 272.103 
6.45075e-06 -1.26626e-05 2.69097e+25 -1.72367 -0.209783 272.055 
8.36208e-06 -1.26626e-05 2.69257e+25 -1.26923 -0.800939 272.048 
1.02734e-05 -1.26626e-05 2.6905e+25 -0.904467 -0.574225 272.21 
1.21847e-05 -1.26626e-05 2.69192e+25 -0.616563 -0.344726 272.035 
1.40961e-05 -1.26626e-05 2.69012e+25 -0.241533 -0.295016 272.201 
1.60074e-05 -1.26626e-05 2.68875e+25 -0.0806129 -0.129622 272.344 
7.1675e-07 -1.21847e-05 2.69141e+25 -2.62367 -0.102542 271.992 
2.62808e-06 -1.21847e-05 2.69197e+25 -2.46592 -0.553656 271.996 
4.53942e-06 -1.21847e-05 2.6914e+25 -2.1635 -0.28834 272.015 
6.45075e-06 -1.21847e-05 2.69195e+25 -1.71438 -0.283968 272.021 
8.36208e-06 -1.21847e-05 2.69221e+25 -1.34439 -0.939156 272.033 
1.02734e-05 -1.21847e-05 2.69104e+25 -0.950449 -0.614099 272.224 
1.21847e-05 -1.21847e-05 2.69251e+25 -0.631947 -0.478704 272.083 
1.40961e-05 -1.21847e-05 2.69053e+25 -0.207569 -0.248615 272.248 
1.60074e-05 -1.21847e-05 2.69028e+25 -0.0288968 -0.229752 272.272 
7.1675e-07 -1.17069e-05 2.69252e+25 -2.89469 -0.0972264 271.928 
2.62808e-06 -1.17069e-05 2.69375e+25 -2.78518 -0.665306 271.946 
4.53942e-06 -1.17069e-05 2.69192e+25 -2.32437 -0.435635 272.065 
6.45075e-06 -1.17069e-05 2.69224e+25 -1.73514 -0.325755 271.897 
8.36208e-06 -1.17069e-05 2.6925e+25 -1.38566 -1.03162 272.017 
1.02734e-05 -1.17069e-05 2.69182e+25 -1.13837 -0.675507 272.042 
1.21847e-05 -1.17069e-05 2.69195e+25 -0.737243 -0.615286 272.11 
1.40961e-05 -1.17069e-05 2.69109e+25 -0.290629 -0.303287 272.153 
1.60074e-05 -1.17069e-05 2.69111e+25 -0.0267961 -0.329241 272.286 
7.1675e-07 -1.12291e-05 2.6921e+25 -3.19801 -0.139211 272.022 
2.62808e-06 -1.12291e-05 2.69103e+25 -3.11691 -0.726079 272.076 
4.53942e-06 -1.12291e-05 2.69167e+25 -2.68312 -0.645585 272.007 
6.45075e-06 -1.12291e-05 2.69206e+25 -1.9031 -0.440602 271.978 
8.36208e-06 -1.12291e-05 2.69267e+25 -1.6301 -1.10669 272.077 
1.02734e-05 -1.12291e-05 2.69336e+25 -1.25324 -0.805172 271.985 
1.21847e-05 -1.12291e-05 2.69016e+25 -0.727116 -0.793719 272.081 
1.40961e-05 -1.12291e-05 2.69042e+25 -0.294759 -0.41271 272.156 
1.60074e-05 -1.12291e-05 2.689e+25 -0.0381981 -0.366432 272.27 
7.1675e-07 -1.07512e-05 2.69207e+25 -3.46942 -0.159097 272.032 
2.62808e-06 -1.07512e-05 2.69139e+25 -3.2742 -0.810645 272.072 
4.53942e-06 -1.07512e-05 2.69202e+25 -2.93028 -0.667587 272.032 
6.45075e-06 -1.07512e-05 2.6929e+25 -2.24647 -0.653313 271.977 
8.36208e-06 -1.07512e-05 2.69138e+25 -1.86456 -1.16688 272.112 
1.02734e-05 -1.07512e-05 2.693e+25 -1.41823 -0.994826 271.927 
1.21847e-05 -1.07512e-05 2.6929e+25 -0.729742 -0.885447 272.009 
1.40961e-05 -1.07512e-05 2.69062e+25 -0.259883 -0.557773 272.155 
1.60074e-05 -1.07512e-05 2.6895e+25 0.005961 -0.334692 272.331 
7.1675e-07 -1.02734e-05 2.69219e+25 -3.71133 -0.179388 271.911 
2.62808e-06 -1.02734e-05 2.69183e+25 -3.46343 -0.919379 272.044 
4.53942e-06 -1.02734e-05 2.69066e+25 -3.22384 -0.773515 272.098 
6.45075e-06 -1.02734e-05 2.69247e+25 -2.46503 -0.884415 272.093 
8.36208e-06 -1.02734e-05 2.69259e+25 -1.9769 -1.19498 272.101 
1.02734e-05 -1.02734e-05 2.69325e+25 -1.55317 -1.15912 271.988 
1.21847e-05 -1.02734e-05 2.69309e+25 -0.661513 -1.05575 272.03 
1.40961e-05 -1.02734e-05 2.69243e+25 -0.423809 -0.681624 271.981 
1.60074e-05 -1.02734e-05 2.68957e+25 0.000525001 -0.303399 272.315 
7.1675e-07 -9.79558e-06 2.69291e+25 -3.87468 -0.180771 272.003 
2.62808e-06 -9.79558e-06 2.69241e+25 -3.94918 -0.912188 271.999 
4.53942e-06 -9.79558e-06 2.69269e+25 -3.53041 -0.971421 272.086 
6.45075e-06 -9.79558e-06 2.69288e+25 -2.78226 -1.13593 272.034 
8.36208e-06 -9.79558e-06 2.6925e+25 -2.07685 -1.3226 271.992 
1.02734e-05 -9.79558e-06 2.69296e+25 -1.50212 -1.2459 271.932 
1.21847e-05 -9.79558e-06 2.6927e+25 -0.694266 -1.32027 271.968 
1.40961e-05 -9.79558e-06 2.69294e+25 -0.281648 -0.728478 271.949 
1.60074e-05 -9.79558e-06 2.6899e+25 -0.0155625 -0.322413 272.291 
7.1675e-07 -9.31775e-06 2.69029e+25 -4.21908 -0.168643 272.082 
2.62808e-06 -9.31775e-06 2.69209e+25 -4.37398 -0.922934 272.026 
4.53942e-06 -9.31775e-06 2.69282e+25 -3.80903 -1.21861 271.984 
6.45075e-06 -9.31775e-06 2.69396e+25 -3.02694 -1.33195 271.945 
8.36208e-06 -9.31775e-06 2.69315e+25 -2.27863 -1.48523 271.97 
1.02734e-05 -9.31775e-06 2.69186e+25 -1.4861 -1.37254 272.055 
1.21847e-05 -9.31775e-06 2.69201e+25 -0.774382 -1.50522 272.035 
1.40961e-05 -9.31775e-06 2.69277e+25 -0.134326 -0.763244 271.809 
1.60074e-05 -9.31775e-06 2.68997e+25 -0.0478845 -0.33084 272.257 
7.1675e-07 -8.83992e-06 2.69175e+25 -4.5279 -0.242611 272.063 
2.62808e-06 -8.83992e-06 2.69142e+25 -4.63456 -0.925969 272.017 
4.53942e-06 -8.83992e-06 2.69291e+25 -3.93152 -1.40054 271.982 
6.45075e-06 -8.83992e-06 2.69048e+25 -3.29082 -1.55555 272.106 
8.36208e-06 -8.83992e-06 2.69448e+25 -2.4272 -1.58502 271.859 
1.02734e-05 -8.83992e-06 2.69214e+25 -1.67877 -1.54613 272.097 
1.21847e-05 -8.83992e-06 2.69144e+25 -0.899004 -1.70334 271.921 
1.40961e-05 -8.83992e-06 2.69187e+25 -0.179547 -0.826603 271.936 
1.60074e-05 -8.83992e-06 2.69006e+25 0.0757626 -0.381297 272.235 
7.1675e-07 -8.36208e-06 2.69098e+25 -4.88851 -0.304742 272.095 
2.62808e-06 -8.36208e-06 2.69156e+25 -4.75268 -0.993467 272.059 
4.53942e-06 -8.36208e-06 2.69115e+25 -4.3779 -1.51737 272.081 
6.45075e-06 -8.36208e-06 2.69075e+25 -3.68465 -1.80566 272.175 
8.36208e-06 -8.36208e-06 2.69289e+25 -2.73905 -1.77483 271.947 
1.02734e-05 -8.36208e-06 2.69208e+25 -1.79872 -1.81941 272.078 
1.21847e-05 -8.36208e-06 2.69133e+25 -0.917664 -1.84779 272.05 
1.40961e-05 -8.36208e-06 2.69223e+25 -0.219808 -1.04525 272.074 
1.60074e-05 -8.36208e-06 2.6895e+25 0.0858434 -0.360394 272.352 
7.1675e-07 -7.88425e-06 2.69179e+25 -5.23451 -0.281362 272.021 
2.62808e-06 -7.88425e-06 2.6919e+25 -4.90644 -1.11206 272.015 
4.53942e-06 -7.88425e-06 2.69264e+25 -4.62079 -1.58126 272.003 
6.45075e-06 -7.88425e-06 2.69063e+25 -3.95997 -1.98938 272.155 
8.36208e-06 -7.88425e-06 2.69343e+25 -3.01115 -1.97611 271.963 
1.02734e-05 -7.88425e-06 2.69124e+25 -1.92801 -2.1056 272.133 
1.21847e-05 -7.88425e-06 2.69187e+25 -1.09939 -1.94645 272.108 
1.40961e-05 -7.88425e-06 2.69107e+25 -0.337074 -1.27204 272.229 
1.60074e-05 -7.88425e-06 2.6877e+25 0.00364137 -0.345305 272.358 
7.1675e-07 -7.40642e-06 2.69138e+25 -5.45153 -0.309534 272.085 
2.62808e-06 -7.40642e-06 2.69179e+25 -5.18363 -1.20283 272.087 
4.53942e-06 -7.40642e-06 2.69131e+25 -4.85648 -1.6991 272.091 
6.45075e-06 -7.40642e-06 2.69203e+25 -4.22799 -2.09915 272.144 
8.36208e-06 -7.40642e-06 2.6922e+25 -3.25562 -2.29804 272.007 
1.02734e-05 -7.40642e-06 2.69206e+25 -2.30277 -2.45357 272.083 
1.21847e-05 -7.40642e-06 2.69199e+25 -1.17277 -2.12985 271.995 
1.40961e-05 -7.40642e-06 2.69118e+25 -0.457987 -1.41472 272.101 
1.60074e-05 -7.40642e-06 2.68813e+25 -0.0416998 -0.37639 272.435 
7.1675e-07 -6.92858e-06 2.68947e+25 -5.77465 -0.32702 272.168 
2.62808e-06 -6.92858e-06 2.69077e+25 -5.5363 -1.29682 272.076 
4.53942e-06 -6.92858e-06 2.69096e+25 -5.15921 -1.87276 272.078 
6.45075e-06 -6.92858e-06 2.69068e+25 -4.33682 -2.23503 272.181 
8.36208e-06 -6.92858e-06 2.69188e+25 -3.64086 -2.55448 272.02 
1.02734e-05 -6.92858e-06 2.69068e+25 -2.41518 -2.76878 272.152 
1.21847e-05 -6.92858e-06 2.69389e+25 -1.2322 -2.4366 271.908 
1.40961e-05 -6.92858e-06 2.6912e+25 -0.58813 -1.6332 272.072 
1.60074e-05 -6.92858e-06 2.68844e+25 -0.0749131 -0.437902 272.417 
7.1675e-07 -6.45075e-06 2.69046e+25 -5.86904 -0.282401 272.117 
2.62808e-06 -6.45075e-06 2.69109e+25 -5.76196 -1.33688 272.052 
4.53942e-06 -6.45075e-06 2.69167e+25 -5.45438 -2.08581 272.08 
6.45075e-06 -6.45075e-06 2.69088e+25 -4.7552 -2.50224 272.141 
8.36208e-06 -6.45075e-06 2.68961e+25 -3.87983 -2.82706 272.175 
1.02734e-05 -6.45075e-06 2.69165e+25 -2.58632 -2.98082 272.063 
1.21847e-05 -6.45075e-06 2.69374e+25 -1.4627 -2.72832 271.87 
1.40961e-05 -6.45075e-06 2.69199e+25 -0.68649 -1.77079 272.11 
1.60074e-05 -6.45075e-06 2.68641e+25 -0.140576 -0.562655 272.639 
7.1675e-07 -5.97292e-06 2.68954e+25 -6.10727 -0.177816 272.166 
2.62808e-06 -5.97292e-06 2.6916e+25 -6.00507 -1.36058 271.998 
4.53942e-06 -5.97292e-06 2.68928e+25 -5.79641 -2.21744 272.228 
6.45075e-06 -5.97292e-06 2.69053e+25 -5.09555 -2.68011 272.097 
8.36208e-06 -5.97292e-06 2.68956e+25 -4.04521 -3.05492 272.216 
1.02734e-05 -5.97292e-06 2.69094e+25 -2.8456 -3.22841 272.133 
1.21847e-05 -5.97292e-06 2.69166e+25 -1.74625 -2.89201 272.112 
1.40961e-05 -5.97292e-06 2.69151e+25 -0.855139 -1.89696 272.134 
1.60074e-05 -5.97292e-06 2.68737e+25 -0.17483 -0.654987 272.458 
7.1675e-07 -5.49508e-06 2.68923e+25 -6.25183 -0.207841 272.213 
2.62808e-06 -5.49508e-06 2.6914e+25 -6.16969 -1.35222 272.114 
4.53942e-06 -5.49508e-06 2.68911e+25 -6.06764 -2.28014 272.265 
6.45075e-06 -5.49508e-06 2.69163e+25 -5.37532 -2.89808 272.073 
8.36208e-06 -5.49508e-06 2.68976e+25 -4.20075 -3.27493 272.256 
1.02734e-05 -5.49508e-06 2.69126e+25 -3.00348 -3.56849 272.138 
1.21847e-05 -5.49508e-06 2.69145e+25 -1.8601 -3.12862 272.161 
1.40961e-05 -5.49508e-06 2.69191e+25 -0.918309 -2.06591 272.099 
1.60074e-05 -5.49508e-06 2.68852e+25 -0.342514 -0.859763 272.399 
7.1675e-07 -5.01725e-06 2.68948e+25 -6.44507 -0.216209 272.212 
2.62808e-06 -5.01725e-06 2.69031e+25 -6.52702 -1.3455 272.129 
4.53942e-06 -5.01725e-06 2.69039e+25 -6.32888 -2.38327 272.243 
6.45075e-06 -5.01725e-06 2.69075e+25 -5.57768 -3.1668 272.135 
8.36208e-06 -5.01725e-06 2.69078e+25 -4.51686 -3.61446 272.161 
1.02734e-05 -5.01725e-06 2.69137e+25 -3.17157 -3.89617 272.068 
1.21847e-05 -5.01725e-06 2.69253e+25 -1.87721 -3.39343 272.083 
1.40961e-05 -5.01725e-06 2.68993e+25 -0.795987 -2.31197 272.193 
1.60074e-05 -5.01725e-06 2.68911e+25 -0.265302 -1.08671 272.272 
7.1675e-07 -4.53942e-06 2.68981e+25 -6.56749 -0.163613 272.227 
2.62808e-06 -4.53942e-06 2.69088e+25 -6.69912 -1.3263 272.111 
4.53942e-06 -4.53942e-06 2.69074e+25 -6.53018 -2.47982 272.121 
6.45075e-06 -4.53942e-06 2.68923e+25 -5.89379 -3.36264 272.248 
8.36208e-06 -4.53942e-06 2.69227e+25 -4.90533 -3.9315 272.117 
1.02734e-05 -4.53942e-06 2.69003e+25 -3.42236 -4.22284 272.191 
1.21847e-05 -4.53942e-06 2.69261e+25 -1.99529 -3.74349 272.013 
1.40961e-05 -4.53942e-06 2.69078e+25 -0.776699 -2.54127 272.111 
1.60074e-05 -4.53942e-06 2.6894e+25 -0.0896724 -1.18197 272.165 
7.1675e-07 -4.06158e-06 2.68802e+25 -6.76994 -0.109837 272.332 
2.62808e-06 -4.06158e-06 2.69081e+25 -7.19963 -1.27644 272.079 
4.53942e-06 -4.06158e-06 2.6906e+25 -6.93646 -2.63445 272.172 
6.45075e-06 -4.06158e-06 2.68983e+25 -6.3127 -3.59465 272.187 
8.36208e-06 -4.06158e-06 2.69116e+25 -5.16202 -4.31794 272.109 
1.02734e-05 -4.06158e-06 2.6895e+25 -3.51929 -4.60099 272.253 
1.21847e-05 -4.06158e-06 2.69013e+25 -2.05215 -4.0838 272.226 
1.40961e-05 -4.06158e-06 2.69051e+25 -0.876872 -2.82231 272.151 
1.60074e-05 -4.06158e-06 2.69106e+25 -0.0666347 -1.22695 272.1 
7.1675e-07 -3.58375e-06 2.68836e+25 -6.88441 0.0269514 272.284 
2.62808e-06 -3.58375e-06 2.69064e+25 -7.54624 -1.19019 272.087 
4.53942e-06 -3.58375e-06 2.68962e+25 -7.26594 -2.73456 272.167 
6.45075e-06 -3.58375e-06 2.6909e+25 -6.63201 -3.88354 272.111 
8.36208e-06 -3.58375e-06 2.69153e+25 -5.39864 -4.71134 272.022 
1.02734e-05 -3.58375e-06 2.69097e+25 -3.72518 -5.08921 272.211 
1.21847e-05 -3.58375e-06 2.68904e+25 -2.09092 -4.43778 272.342 
1.40961e-05 -3.58375e-06 2.68933e+25 -0.951194 -3.07717 272.284 
1.60074e-05 -3.58375e-06 2.6909e+25 -0.115134 -1.26149 272.125 
7.1675e-07 -3.10592e-06 2.68871e+25 -7.17124 0.21675 272.299 
2.62808e-06 -3.10592e-06 2.68868e+25 -7.72956 -1.14009 272.217 
4.53942e-06 -3.10592e-06 2.68902e+25 -7.55411 -2.79965 272.186 
6.45075e-06 -3.10592e-06 2.6889e+25 -6.95543 -4.12201 272.337 
8.36208e-06 -3.10592e-06 2.6916e+25 -5.63365 -5.16081 272.062 
1.02734e-05 -3.10592e-06 2.69121e+25 -3.89807 -5.57621 272.102 
1.21847e-05 -3.10592e-06 2.68866e+25 -2.28158 -4.7805 272.25 
1.40961e-05 -3.10592e-06 2.69009e+25 -0.855616 -3.34643 272.26 
1.60074e-05 -3.10592e-06 2.69036e+25 -0.128748 -1.32164 272.125 
7.1675e-07 -2.62808e-06 2.68897e+25 -7.37971 0.403389 272.181 
2.62808e-06 -2.62808e-06 2.68975e+25 -7.74273 -1.03562 272.211 
4.53942e-06 -2.62808e-06 2.68898e+25 -7.71889 -2.85692 272.252 
6.45075e-06 -2.62808e-06 2.68911e+25 -7.2159 -4.30006 272.32 
8.36208e-06 -2.62808e-06 2.69194e+25 -5.89471 -5.6357 272.119 
1.02734e-05 -2.62808e-06 2.68989e+25 -4.23212 -5.98129 272.178 
1.21847e-05 -2.62808e-06 2.69077e+25 -2.50233 -5.16245 272.141 
1.40961e-05 -2.62808e-06 2.68824e+25 -1.03377 -3.61436 272.238 
1.60074e-05 -2.62808e-06 2.69185e+25 -0.078073 -1.36966 272.13 
7.1675e-07 -2.15025e-06 2.69063e+25 -7.55455 0.572618 272.044 
2.62808e-06 -2.15025e-06 2.69105e+25 -7.82292 -1.03945 272.096 
4.53942e-06 -2.15025e-06 2.68966e+25 -7.85628 -2.99507 272.191 
6.45075e-06 -2.15025e-06 2.69049e+25 -7.20473 -4.42542 272.153 
8.36208e-06 -2.15025e-06 2.69077e+25 -6.11348 -6.07773 272.164 
1.02734e-05 -2.15025e-06 2.68939e+25 -4.33712 -6.34734 272.201 
1.21847e-05 -2.15025e-06 2.69086e+25 -2.69988 -5.67389 272.136 
1.40961e-05 -2.15025e-06 2.68974e+25 -1.03379 -3.91169 272.25 
1.60074e-05 -2.15025e-06 2.68859e+25 -0.220581 -1.39578 272.303 
7.1675e-07 -1.67242e-06 2.69092e+25 -7.5882 0.716973 272.002 
2.62808e-06 -1.67242e-06 2.68871e+25 -7.84946 -1.01724 272.19 
4.53942e-06 -1.67242e-06 2.69018e+25 -7.82413 -3.04407 272.089 
6.45075e-06 -1.67242e-06 2.68874e+25 -7.40035 -4.60816 272.274 
8.36208e-06 -1.67242e-06 2.69029e+25 -6.24301 -6.41533 272.194 
1.02734e-05 -1.67242e-06 2.69266e+25 -4.6482 -6.68499 272.097 
1.21847e-05 -1.67242e-06 2.68983e+25 -2.95623 -6.11942 272.158 
1.40961e-05 -1.67242e-06 2.69079e+25 -1.15154 -4.28735 272.08 
1.60074e-05 -1.67242e-06 2.68981e+25 -0.108866 -1.52269 272.285 
7.1675e-07 -1.19458e-06 2.68949e+25 -7.56077 0.837525 272.052 
2.62808e-06 -1.19458e-06 2.68952e+25 -7.77609 -1.03981 272.19 
4.53942e-06 -1.19458e-06 2.69063e+25 -7.80136 -3.07547 272.028 
6.45075e-06 -1.19458e-06 2.68851e+25 -7.4918 -4.82452 272.315 
8.36208e-06 -1.19458e-06 2.68954e+25 -6.33763 -6.73185 272.218 
1.02734e-05 -1.19458e-06 2.69087e+25 -4.87278 -7.07299 272.079 
1.21847e-05 -1.19458e-06 2.68996e+25 -3.18894 -6.50424 272.22 
1.40961e-05 -1.19458e-06 2.69167e+25 -1.30774 -4.7143 272.058 
1.60074e-05 -1.19458e-06 2.69e+25 -0.265443 -1.65925 272.215 
7.1675e-07 -7.1675e-07 2.69025e+25 -7.67187 1.00357 272.062 
2.62808e-06 -7.1675e-07 2.68843e+25 -7.80401 -0.997777 272.256 
4.53942e-06 -7.1675e-07 2.68779e+25 -7.76126 -3.10314 272.243 
6.45075e-06 -7.1675e-07 2.69045e+25 -7.59833 -4.97896 272.163 
8.36208e-06 -7.1675e-07 2.68975e+25 -6.66951 -7.02751 272.188 
1.02734e-05 -7.1675e-07 2.69173e+25 -5.15614 -7.63407 272.075 
1.21847e-05 -7.1675e-07 2.69048e+25 -3.3612 -6.99995 272.26 
1.40961e-05 -7.1675e-07 2.69129e+25 -1.48367 -5.10716 272.047 
1.60074e-05 -7.1675e-07 2.68854e+25 -0.274441 -1.91612 272.272 
7.1675e-07 -2.38917e-07 2.68817e+25 -7.68644 1.109 271.986 
2.62808e-06 -2.38917e-07 2.68652e+25 -8.00208 -0.917904 272.119 
4.53942e-06 -2.38917e-07 2.6858e+25 -7.77835 -3.13714 272.297 
6.45075e-06 -2.38917e-07 2.68878e+25 -7.68681 -5.14364 272.126 
8.36208e-06 -2.38917e-07 2.68898e+25 -6.86323 -7.30904 272.078 
1.02734e-05 -2.38917e-07 2.68967e+25 -5.40494 -8.17581 272.115 
1.21847e-05 -2.38917e-07 2.68695e+25 -3.47452 -7.49581 272.232 
1.40961e-05 -2.38917e-07 2.68818e+25 -1.64712 -5.45279 272.122 
1.60074e-05 -2.38917e-07 2.68733e+25 -0.298614 -2.16777 272.269 
1.67242e-06 -1.69631e-05 2.68452e+25 -0.140415 0.0418318 272.823 
3.58375e-06 -1.69631e-05 2.68629e+25 -0.139331 -0.0180957 272.715 
5.49508e-06 -1.69631e-05 2.68545e+25 -0.142303 0.0201368 272.9 
7.40642e-06 -1.69631e-05 2.68484e+25 -0.16173 0.0399179 272.8 
9.31775e-06 -1.69631e-05 2.68564e+25 -0.0819107 0.00283599 272.763 
1.12291e-05 -1.69631e-05 2.68544e+25 0.089015 -0.0161834 272.81 
1.31404e-05 -1.69631e-05 2.68456e+25 0.0291566 0.0101144 272.841 
1.50518e-05 -1.69631e-05 2.6847e+25 -0.0228898 0.000542168 272.822 
1.69631e-05 -1.69631e-05 2.68404e+25 -0.0157406 -0.0258032 272.979 
1.67242e-06 -1.64852e-05 2.68652e+25 -0.408857 0.0698587 272.625 
3.58375e-06 -1.64852e-05 2.68703e+25 -0.486548 -0.0575168 272.589 
5.49508e-06 -1.64852e-05 2.68691e+25 -0.347513 0.0470241 272.648 
7.40642e-06 -1.64852e-05 2.68673e+25 -0.274117 -0.0223336 272.643 
9.31775e-06 -1.64852e-05 2.68672e+25 -0.163381 -0.0052947 272.565 
1.12291e-05 -1.64852e-05 2.68728e+25 -0.0157731 -0.0282232 272.474 
1.31404e-05 -1.64852e-05 2.68667e+25 -0.0323383 0.0103696 272.623 
1.50518e-05 -1.64852e-05 2.68609e+25 -0.093524 -0.0169665 272.627 
1.69631e-05 -1.64852e-05 2.68305e+25 -0.0207757 -0.0418423 272.954 
1.67242e-06 -1.60074e-05 2.69109e+25 -0.799887 0.00691892 272.236 
3.58375e-06 -1.60074e-05 2.68876e+25 -0.776151 -0.0818097 272.421 
5.49508e-06 -1.60074e-05 2.68816e+25 -0.527241 0.0401626 272.461 
7.40642e-06 -1.60074e-05 2.68622e+25 -0.505032 -0.0448687 272.624 
9.31775e-06 -1.60074e-05 2.68836e+25 -0.246652 -0.0701216 272.427 
1.12291e-05 -1.60074e-05 2.6903e+25 -0.22004 -0.0612455 272.236 
1.31404e-05 -1.60074e-05 2.68754e+25 -0.114612 0.0147179 272.526 
1.50518e-05 -1.60074e-05 2.68788e+25 0.0403922 0.013878 272.415 
1.69631e-05 -1.60074e-05 2.68471e+25 -0.0133977 -0.0496912 272.859 
1.67242e-06 -1.55296e-05 2.69186e+25 -1.0677 -0.0306485 272.115 
3.58375e-06 -1.55296e-05 2.69055e+25 -0.871693 -0.109109 272.241 
5.49508e-06 -1.55296e-05 2.68828e+25 -0.657767 -0.0426517 272.403 
7.40642e-06 -1.55296e-05 2.68676e+25 -0.697779 -0.0740595 272.52 
9.31775e-06 -1.55296e-05 2.69071e+25 -0.388639 -0.164275 272.356 
1.12291e-05 -1.55296e-05 2.692e+25 -0.278172 -0.00849726 272.165 
1.31404e-05 -1.55296e-05 2.68905e+25 -0.177269 -0.0254842 272.35 
1.50518e-05 -1.55296e-05 2.6892e+25 -0.155482 -0.0108609 272.272 
1.69631e-05 -1.55296e-05 2.68565e+25 0.0644809 -0.00516592 272.861 
1.67242e-06 -1.50517e-05 2.69192e+25 -1.43887 -0.100561 272.019 
3.58375e-06 -1.50517e-05 2.69155e+25 -0.882079 -0.115454 272.135 
5.49508e-06 -1.50517e-05 2.6904e+25 -0.924136 -0.123252 272.284 
7.40642e-06 -1.50517e-05 2.68948e+25 -0.770877 -0.127886 272.329 
9.31775e-06 -1.50517e-05 2.68832e+25 -0.489088 -0.302911 272.373 
1.12291e-05 -1.50517e-05 2.68984e+25 -0.324683 0.0218035 272.264 
1.31404e-05 -1.50517e-05 2.69061e+25 -0.18646 -0.0674749 272.294 
1.50518e-05 -1.50517e-05 2.6888e+25 -0.180052 -0.0836326 272.326 
1.69631e-05 -1.50517e-05 2.68497e+25 0.0159837 0.0844364 272.898 
1.67242e-06 -1.45739e-05 2.69391e+25 -1.56372 -0.136077 271.828 
3.58375e-06 -1.45739e-05 2.69068e+25 -1.22633 -0.168998 272.114 
5.49508e-06 -1.45739e-05 2.69084e+25 -1.11906 -0.132646 272.117 
7.40642e-06 -1.45739e-05 2.69059e+25 -0.967052 -0.204056 272.264 
9.31775e-06 -1.45739e-05 2.68925e+25 -0.683579 -0.440337 272.333 
1.12291e-05 -1.45739e-05 2.68975e+25 -0.384599 -0.0235024 272.345 
1.31404e-05 -1.45739e-05 2.69098e+25 -0.148774 -0.114488 272.191 
1.50518e-05 -1.45739e-05 2.69031e+25 -0.0799487 -0.0855513 272.213 
1.69631e-05 -1.45739e-05 2.68431e+25 -0.00655362 0.089768 272.802 
1.67242e-06 -1.40961e-05 2.69409e+25 -1.58312 -0.201804 271.776 
3.58375e-06 -1.40961e-05 2.69247e+25 -1.48706 -0.274352 272.023 
5.49508e-06 -1.40961e-05 2.69e+25 -1.45322 -0.0992031 272.209 
7.40642e-06 -1.40961e-05 2.69001e+25 -1.21872 -0.265044 272.262 
9.31775e-06 -1.40961e-05 2.69117e+25 -0.955581 -0.486924 272.191 
1.12291e-05 -1.40961e-05 2.69041e+25 -0.409278 -0.147734 272.249 
1.31404e-05 -1.40961e-05 2.6893e+25 -0.223231 -0.117846 272.27 
1.50518e-05 -1.40961e-05 2.69104e+25 0.00237121 -0.0929001 272.104 
1.69631e-05 -1.40961e-05 2.68594e+25 -0.044896 0.0198317 272.719 
1.67242e-06 -1.36182e-05 2.69487e+25 -1.905 -0.37547 271.735 
3.58375e-06 -1.36182e-05 2.69241e+25 -1.72986 -0.319609 271.989 
5.49508e-06 -1.36182e-05 2.69064e+25 -1.65035 -0.0774901 272.223 
7.40642e-06 -1.36182e-05 2.68994e+25 -1.47675 -0.396143 272.161 
9.31775e-06 -1.36182e-05 2.69035e+25 -0.967606 -0.480602 272.249 
1.12291e-05 -1.36182e-05 2.69009e+25 -0.555201 -0.20193 272.228 
1.31404e-05 -1.36182e-05 2.68959e+25 -0.297165 -0.169401 272.31 
1.50518e-05 -1.36182e-05 2.6909e+25 0.00291615 -0.0989261 272.18 
1.69631e-05 -1.36182e-05 2.68539e+25 -0.0545649 -0.0623143 272.76 
1.67242e-06 -1.31404e-05 2.69439e+25 -2.16012 -0.401248 271.8 
3.58375e-06 -1.31404e-05 2.69285e+25 -1.86997 -0.346352 271.914 
5.49508e-06 -1.31404e-05 2.69088e+25 -1.72335 -0.108048 272.17 
7.40642e-06 -1.31404e-05 2.69162e+25 -1.53596 -0.537112 272.13 
9.31775e-06 -1.31404e-05 2.68985e+25 -0.949343 -0.534759 272.186 
1.12291e-05 -1.31404e-05 2.69154e+25 -0.746849 -0.295688 272.115 
1.31404e-05 -1.31404e-05 2.68997e+25 -0.333718 -0.232927 272.247 
1.50518e-05 -1.31404e-05 2.6897e+25 -0.0231942 -0.117947 272.253 
1.69631e-05 -1.31404e-05 2.68443e+25 -0.0179408 -0.138685 272.741 
1.67242e-06 -1.26626e-05 2.69345e+25 -2.40573 -0.398092 271.907 
3.58375e-06 -1.26626e-05 2.69372e+25 -2.07221 -0.410803 271.903 
5.49508e-06 -1.26626e-05 2.69125e+25 -1.87909 -0.113108 272.08 
7.40642e-06 -1.26626e-05 2.69247e+25 -1.45199 -0.651571 271.998 
9.31775e-06 -1.26626e-05 2.69125e+25 -0.981291 -0.603766 272.095 
1.12291e-05 -1.26626e-05 2.69243e+25 -0.814209 -0.431578 272.03 
1.31404e-05 -1.26626e-05 2.68961e+25 -0.418415 -0.443883 272.238 
1.50518e-05 -1.26626e-05 2.68972e+25 -0.126569 -0.140319 272.241 
1.69631e-05 -1.26626e-05 2.68502e+25 0.0158758 -0.144225 272.87 
1.67242e-06 -1.21847e-05 2.6916e+25 -2.50476 -0.416728 272.024 
3.58375e-06 -1.21847e-05 2.69326e+25 -2.33333 -0.43307 271.896 
5.49508e-06 -1.21847e-05 2.69167e+25 -1.91649 -0.202417 271.994 
7.40642e-06 -1.21847e-05 2.69164e+25 -1.45755 -0.721568 272.032 
9.31775e-06 -1.21847e-05 2.69217e+25 -1.07921 -0.744785 272.055 
1.12291e-05 -1.21847e-05 2.69224e+25 -0.80399 -0.494214 272.009 
1.31404e-05 -1.21847e-05 2.68941e+25 -0.380563 -0.562087 272.271 
1.50518e-05 -1.21847e-05 2.69161e+25 -0.210499 -0.176064 272.139 
1.69631e-05 -1.21847e-05 2.68501e+25 0.0300026 -0.0828839 272.78 
1.67242e-06 -1.17069e-05 2.69256e+25 -2.8819 -0.362937 271.999 
3.58375e-06 -1.17069e-05 2.69313e+25 -2.60788 -0.576774 271.892 
5.49508e-06 -1.17069e-05 2.69306e+25 -1.9355 -0.36223 271.941 
7.40642e-06 -1.17069e-05 2.69289e+25 -1.61931 -0.817061 271.968 
9.31775e-06 -1.17069e-05 2.69107e+25 -1.3261 -0.785387 272.111 
1.12291e-05 -1.17069e-05 2.69205e+25 -0.875623 -0.522546 272.04 
1.31404e-05 -1.17069e-05 2.69127e+25 -0.449379 -0.679003 272.171 
1.50518e-05 -1.17069e-05 2.6904e+25 -0.167224 -0.244854 272.161 
1.69631e-05 -1.17069e-05 2.68535e+25 0.0334158 -0.0240189 272.773 
1.67242e-06 -1.12291e-05 2.69176e+25 -3.22314 -0.36416 271.991 
3.58375e-06 -1.12291e-05 2.69361e+25 -2.87636 -0.699535 271.989 
5.49508e-06 -1.12291e-05 2.69276e+25 -2.36865 -0.567772 272.007 
7.40642e-06 -1.12291e-05 2.69237e+25 -1.75471 -0.897148 271.978 
9.31775e-06 -1.12291e-05 2.69228e+25 -1.49503 -0.794685 272.032 
1.12291e-05 -1.12291e-05 2.69174e+25 -0.970447 -0.635687 272.067 
1.31404e-05 -1.12291e-05 2.69313e+25 -0.502081 -0.721692 272.006 
1.50518e-05 -1.12291e-05 2.6908e+25 -0.128178 -0.298257 272.128 
1.69631e-05 -1.12291e-05 2.686e+25 -0.0252349 -0.024297 272.732 
1.67242e-06 -1.07512e-05 2.69339e+25 -3.38542 -0.425791 271.92 
3.58375e-06 -1.07512e-05 2.69293e+25 -3.07698 -0.771838 272.037 
5.49508e-06 -1.07512e-05 2.69156e+25 -2.65923 -0.75364 272.068 
7.40642e-06 -1.07512e-05 2.69217e+25 -1.9481 -0.980471 272.04 
9.31775e-06 -1.07512e-05 2.69227e+25 -1.69238 -0.88477 272.014 
1.12291e-05 -1.07512e-05 2.69125e+25 -1.13884 -0.840497 272.045 
1.31404e-05 -1.07512e-05 2.69203e+25 -0.523963 -0.866462 272.04 
1.50518e-05 -1.07512e-05 2.69169e+25 -0.036901 -0.363677 272.119 
1.69631e-05 -1.07512e-05 2.68554e+25 0.000106023 -0.0563087 272.753 
1.67242e-06 -1.02734e-05 2.69292e+25 -3.64573 -0.545853 271.997 
3.58375e-06 -1.02734e-05 2.69106e+25 -3.36017 -0.807264 272.004 
5.49508e-06 -1.02734e-05 2.69215e+25 -2.90011 -0.963497 272.063 
7.40642e-06 -1.02734e-05 2.69264e+25 -2.08135 -1.09628 272.059 
9.31775e-06 -1.02734e-05 2.69154e+25 -1.80674 -1.00514 272.016 
1.12291e-05 -1.02734e-05 2.69302e+25 -1.21692 -1.03542 271.963 
1.31404e-05 -1.02734e-05 2.69285e+25 -0.438153 -0.907921 272.013 
1.50518e-05 -1.02734e-05 2.69199e+25 -0.123714 -0.42051 272.121 
1.69631e-05 -1.02734e-05 2.68605e+25 0.0359192 -0.0148464 272.68 
1.67242e-06 -9.79558e-06 2.69239e+25 -3.91724 -0.568734 272.019 
3.58375e-06 -9.79558e-06 2.69351e+25 -3.84972 -0.845037 271.959 
5.49508e-06 -9.79558e-06 2.69284e+25 -3.17331 -1.15184 272.017 
7.40642e-06 -9.79558e-06 2.69296e+25 -2.35406 -1.19725 271.998 
9.31775e-06 -9.79558e-06 2.69201e+25 -1.73642 -1.12603 272.002 
1.12291e-05 -9.79558e-06 2.69451e+25 -1.13193 -1.25836 271.905 
1.31404e-05 -9.79558e-06 2.69355e+25 -0.362296 -0.951595 271.907 
1.50518e-05 -9.79558e-06 2.69185e+25 -0.159842 -0.582856 272.088 
1.69631e-05 -9.79558e-06 2.68482e+25 -0.0404205 -0.0109955 272.713 
1.67242e-06 -9.31775e-06 2.6919e+25 -4.27238 -0.522969 271.957 
3.58375e-06 -9.31775e-06 2.69384e+25 -4.19552 -1.02791 271.89 
5.49508e-06 -9.31775e-06 2.69286e+25 -3.32408 -1.24105 271.978 
7.40642e-06 -9.31775e-06 2.69255e+25 -2.65241 -1.36506 272.042 
9.31775e-06 -9.31775e-06 2.69322e+25 -1.85607 -1.32739 271.983 
1.12291e-05 -9.31775e-06 2.69399e+25 -1.11762 -1.44309 271.885 
1.31404e-05 -9.31775e-06 2.69354e+25 -0.453332 -1.05678 271.942 
1.50518e-05 -9.31775e-06 2.69243e+25 -0.0805114 -0.67795 271.99 
1.69631e-05 -9.31775e-06 2.68486e+25 -0.0190839 -0.0437579 272.746 
1.67242e-06 -8.83992e-06 2.69014e+25 -4.56047 -0.42614 272.111 
3.58375e-06 -8.83992e-06 2.69318e+25 -4.33838 -1.24899 271.924 
5.49508e-06 -8.83992e-06 2.69176e+25 -3.78476 -1.44184 272.055 
7.40642e-06 -8.83992e-06 2.69319e+25 -2.8615 -1.57834 271.969 
9.31775e-06 -8.83992e-06 2.69311e+25 -2.04997 -1.57177 271.998 
1.12291e-05 -8.83992e-06 2.69346e+25 -1.26953 -1.59237 271.896 
1.31404e-05 -8.83992e-06 2.69211e+25 -0.468992 -1.29357 272.021 
1.50518e-05 -8.83992e-06 2.69139e+25 0.0528531 -0.676748 272.059 
1.69631e-05 -8.83992e-06 2.6852e+25 0.0422665 0.0080714 272.833 
1.67242e-06 -8.36208e-06 2.69189e+25 -4.90819 -0.355499 272.056 
3.58375e-06 -8.36208e-06 2.69292e+25 -4.54423 -1.35878 271.933 
5.49508e-06 -8.36208e-06 2.69009e+25 -4.07496 -1.61844 272.174 
7.40642e-06 -8.36208e-06 2.69294e+25 -3.14358 -1.82026 271.979 
9.31775e-06 -8.36208e-06 2.69302e+25 -2.32918 -1.79171 271.918 
1.12291e-05 -8.36208e-06 2.6926e+25 -1.26414 -1.84827 271.966 
1.31404e-05 -8.36208e-06 2.69364e+25 -0.637187 -1.48893 271.902 
1.50518e-05 -8.36208e-06 2.69041e+25 0.0614402 -0.72349 272.167 
1.69631e-05 -8.36208e-06 2.6851e+25 0.000552668 0.0426011 272.739 
1.67242e-06 -7.88425e-06 2.69229e+25 -5.15314 -0.410664 272.061 
3.58375e-06 -7.88425e-06 2.6914e+25 -4.71461 -1.46463 272.12 
5.49508e-06 -7.88425e-06 2.6907e+25 -4.30724 -1.81766 272.104 
7.40642e-06 -7.88425e-06 2.69162e+25 -3.59193 -2.08401 272.062 
9.31775e-06 -7.88425e-06 2.69312e+25 -2.55348 -2.03677 271.997 
1.12291e-05 -7.88425e-06 2.69264e+25 -1.403 -2.12605 271.996 
1.31404e-05 -7.88425e-06 2.69279e+25 -0.76273 -1.685 272.088 
1.50518e-05 -7.88425e-06 2.691e+25 -0.0878844 -0.773358 272.182 
1.69631e-05 -7.88425e-06 2.6855e+25 -0.0239058 0.00834532 272.764 
1.67242e-06 -7.40642e-06 2.69163e+25 -5.32528 -0.467653 271.983 
3.58375e-06 -7.40642e-06 2.6917e+25 -5.00833 -1.51123 272.085 
5.49508e-06 -7.40642e-06 2.69102e+25 -4.48665 -2.02846 272.148 
7.40642e-06 -7.40642e-06 2.69022e+25 -3.82898 -2.32929 272.236 
9.31775e-06 -7.40642e-06 2.69276e+25 -2.86719 -2.27214 271.952 
1.12291e-05 -7.40642e-06 2.69306e+25 -1.67056 -2.34082 271.947 
1.31404e-05 -7.40642e-06 2.69116e+25 -0.815957 -1.89302 272.089 
1.50518e-05 -7.40642e-06 2.69057e+25 -0.187381 -0.86741 272.12 
1.69631e-05 -7.40642e-06 2.68402e+25 -0.0114457 -0.0403307 272.805 
1.67242e-06 -6.92858e-06 2.69143e+25 -5.62362 -0.536886 272.039 
3.58375e-06 -6.92858e-06 2.69116e+25 -5.47409 -1.57279 272.106 
5.49508e-06 -6.92858e-06 2.69151e+25 -4.75718 -2.22394 272.121 
7.40642e-06 -6.92858e-06 2.68966e+25 -4.06679 -2.53982 272.26 
9.31775e-06 -6.92858e-06 2.69213e+25 -3.0444 -2.49607 272.032 
1.12291e-05 -6.92858e-06 2.69383e+25 -1.86151 -2.61582 271.933 
1.31404e-05 -6.92858e-06 2.69101e+25 -0.867562 -1.99304 272.044 
1.50518e-05 -6.92858e-06 2.68975e+25 -0.211904 -0.995494 272.217 
1.69631e-05 -6.92858e-06 2.68586e+25 0.0369644 0.0191554 272.752 
1.67242e-06 -6.45075e-06 2.69139e+25 -5.88598 -0.660197 272.163 
3.58375e-06 -6.45075e-06 2.69049e+25 -5.74555 -1.64355 272.103 
5.49508e-06 -6.45075e-06 2.69151e+25 -5.191 -2.39442 272.061 
7.40642e-06 -6.45075e-06 2.68901e+25 -4.3019 -2.67715 272.28 
9.31775e-06 -6.45075e-06 2.69205e+25 -3.15078 -2.86169 272.05 
1.12291e-05 -6.45075e-06 2.69415e+25 -2.08247 -2.89751 271.901 
1.31404e-05 -6.45075e-06 2.69095e+25 -1.08287 -2.14472 272.097 
1.50518e-05 -6.45075e-06 2.68947e+25 -0.415035 -1.07619 272.261 
1.69631e-05 -6.45075e-06 2.68434e+25 -0.0535761 0.0280341 272.865 
1.67242e-06 -5.97292e-06 2.69092e+25 -6.08048 -0.721209 272.191 
3.58375e-06 -5.97292e-06 2.68995e+25 -5.94533 -1.63809 272.231 
5.49508e-06 -5.97292e-06 2.69171e+25 -5.4484 -2.56491 272.116 
7.40642e-06 -5.97292e-06 2.68908e+25 -4.61655 -2.94717 272.291 
9.31775e-06 -5.97292e-06 2.69246e+25 -3.36934 -3.21378 272.012 
1.12291e-05 -5.97292e-06 2.69254e+25 -2.24426 -3.16609 272.012 
1.31404e-05 -5.97292e-06 2.69077e+25 -1.22428 -2.41698 272.119 
1.50518e-05 -5.97292e-06 2.69051e+25 -0.644299 -1.27023 272.136 
1.69631e-05 -5.97292e-06 2.68333e+25 -0.00568011 -0.0378139 272.908 
1.67242e-06 -5.49508e-06 2.69113e+25 -6.14803 -0.726448 272.138 
3.58375e-06 -5.49508e-06 2.69072e+25 -6.1291 -1.76194 272.184 
5.49508e-06 -5.49508e-06 2.69137e+25 -5.79919 -2.75522 272.24 
7.40642e-06 -5.49508e-06 2.68935e+25 -4.83833 -3.28929 272.264 
9.31775e-06 -5.49508e-06 2.6908e+25 -3.65627 -3.54583 272.114 
1.12291e-05 -5.49508e-06 2.69116e+25 -2.41581 -3.48241 272.062 
1.31404e-05 -5.49508e-06 2.69128e+25 -1.2719 -2.67595 272.124 
1.50518e-05 -5.49508e-06 2.69156e+25 -0.656138 -1.43844 272.061 
1.69631e-05 -5.49508e-06 2.68573e+25 -0.0320481 -0.0962001 272.785 
1.67242e-06 -5.01725e-06 2.69002e+25 -6.4625 -0.749435 272.152 
3.58375e-06 -5.01725e-06 2.69139e+25 -6.40284 -1.82363 272.1 
5.49508e-06 -5.01725e-06 2.69109e+25 -5.99887 -2.9406 272.126 
7.40642e-06 -5.01725e-06 2.68854e+25 -5.0922 -3.52249 272.361 
9.31775e-06 -5.01725e-06 2.69146e+25 -3.8519 -3.9024 272.159 
1.12291e-05 -5.01725e-06 2.69062e+25 -2.49066 -3.7921 272.138 
1.31404e-05 -5.01725e-06 2.69133e+25 -1.32984 -2.89239 272.119 
1.50518e-05 -5.01725e-06 2.69068e+25 -0.450654 -1.48733 272.091 
1.69631e-05 -5.01725e-06 2.68484e+25 -0.0311172 -0.1859 272.766 
1.67242e-06 -4.53942e-06 2.69078e+25 -6.63789 -0.752135 272.186 
3.58375e-06 -4.53942e-06 2.69113e+25 -6.77636 -1.81802 272.06 
5.49508e-06 -4.53942e-06 2.69044e+25 -6.3752 -3.09229 272.116 
7.40642e-06 -4.53942e-06 2.68846e+25 -5.46077 -3.80283 272.302 
9.31775e-06 -4.53942e-06 2.69226e+25 -4.22327 -4.25829 272.022 
1.12291e-05 -4.53942e-06 2.69181e+25 -2.68036 -4.13215 272.103 
1.31404e-05 -4.53942e-06 2.6913e+25 -1.2648 -3.16766 272.132 
1.50518e-05 -4.53942e-06 2.69232e+25 -0.342644 -1.60508 272.008 
1.69631e-05 -4.53942e-06 2.68329e+25 -0.0164034 -0.224899 272.849 
1.67242e-06 -4.06158e-06 2.68997e+25 -6.96725 -0.652164 272.238 
3.58375e-06 -4.06158e-06 2.69093e+25 -7.16524 -1.85337 272.121 
5.49508e-06 -4.06158e-06 2.69135e+25 -6.64731 -3.26897 272.102 
7.40642e-06 -4.06158e-06 2.69045e+25 -5.82954 -4.03719 272.223 
9.31775e-06 -4.06158e-06 2.69151e+25 -4.41248 -4.65864 272.147 
1.12291e-05 -4.06158e-06 2.69051e+25 -2.78958 -4.50784 272.13 
1.31404e-05 -4.06158e-06 2.69112e+25 -1.43135 -3.4994 272.181 
1.50518e-05 -4.06158e-06 2.6914e+25 -0.274346 -1.83334 271.944 
1.69631e-05 -4.06158e-06 2.68441e+25 -0.00844025 -0.252251 272.751 
1.67242e-06 -3.58375e-06 2.68879e+25 -7.22825 -0.477373 272.234 
3.58375e-06 -3.58375e-06 2.68948e+25 -7.53404 -1.96389 272.174 
5.49508e-06 -3.58375e-06 2.69164e+25 -7.00506 -3.40766 272.095 
7.40642e-06 -3.58375e-06 2.69074e+25 -6.13915 -4.30187 272.195 
9.31775e-06 -3.58375e-06 2.69288e+25 -4.61871 -5.00162 272.026 
1.12291e-05 -3.58375e-06 2.69118e+25 -2.84096 -4.89231 272.201 
1.31404e-05 -3.58375e-06 2.69007e+25 -1.48105 -3.79338 272.251 
1.50518e-05 -3.58375e-06 2.69278e+25 -0.401199 -2.0717 271.952 
1.69631e-05 -3.58375e-06 2.68623e+25 -0.000130698 -0.273688 272.662 
1.67242e-06 -3.10592e-06 2.68884e+25 -7.48156 -0.310161 272.246 
3.58375e-06 -3.10592e-06 2.69003e+25 -7.74079 -2.09799 272.188 
5.49508e-06 -3.10592e-06 2.68973e+25 -7.33899 -3.54754 272.168 
7.40642e-06 -3.10592e-06 2.68866e+25 -6.40402 -4.56534 272.279 
9.31775e-06 -3.10592e-06 2.69132e+25 -4.70858 -5.38746 272.028 
1.12291e-05 -3.10592e-06 2.69047e+25 -3.03991 -5.31379 272.252 
1.31404e-05 -3.10592e-06 2.68966e+25 -1.5857 -4.10297 272.235 
1.50518e-05 -3.10592e-06 2.69199e+25 -0.399721 -2.28768 272.05 
1.69631e-05 -3.10592e-06 2.68465e+25 -0.0275377 -0.306011 272.716 
1.67242e-06 -2.62808e-06 2.6896e+25 -7.56946 -0.224328 272.13 
3.58375e-06 -2.62808e-06 2.68937e+25 -7.79756 -2.13601 272.198 
5.49508e-06 -2.62808e-06 2.68956e+25 -7.48319 -3.71109 272.291 
7.40642e-06 -2.62808e-06 2.68935e+25 -6.66424 -4.89488 272.299 
9.31775e-06 -2.62808e-06 2.69138e+25 -5.01812 -5.79667 272.075 
1.12291e-05 -2.62808e-06 2.6902e+25 -3.41478 -5.69783 272.227 
1.31404e-05 -2.62808e-06 2.69108e+25 -1.71967 -4.50627 272.207 
1.50518e-05 -2.62808e-06 2.69047e+25 -0.42878 -2.55098 272.063 
1.69631e-05 -2.62808e-06 2.68431e+25 -0.0314918 -0.361315 272.823 
1.67242e-06 -2.15025e-06 2.69049e+25 -7.76988 -0.18143 271.985 
3.58375e-06 -2.15025e-06 2.68916e+25 -7.8201 -2.12476 272.231 
5.49508e-06 -2.15025e-06 2.69008e+25 -7.52601 -3.83046 272.281 
7.40642e-06 -2.15025e-06 2.69002e+25 -6.81117 -5.22733 272.274 
9.31775e-06 -2.15025e-06 2.69112e+25 -5.24179 -6.25562 272.224 
1.12291e-05 -2.15025e-06 2.69041e+25 -3.5737 -6.14254 272.16 
1.31404e-05 -2.15025e-06 2.69005e+25 -1.81825 -4.89494 272.269 
1.50518e-05 -2.15025e-06 2.69061e+25 -0.478776 -2.81189 272.114 
1.69631e-05 -2.15025e-06 2.6837e+25 -0.0209982 -0.385533 272.849 
1.67242e-06 -1.67242e-06 2.69158e+25 -7.85569 -0.153382 271.943 
3.58375e-06 -1.67242e-06 2.68721e+25 -7.89365 -2.12359 272.325 
5.49508e-06 -1.67242e-06 2.6893e+25 -7.65342 -4.0046 272.127 
7.40642e-06 -1.67242e-06 2.68831e+25 -6.88439 -5.50995 272.394 
9.31775e-06 -1.67242e-06 2.69084e+25 -5.437 -6.70744 272.177 
1.12291e-05 -1.67242e-06 2.69019e+25 -3.77545 -6.58358 272.279 
1.31404e-05 -1.67242e-06 2.69056e+25 -2.00456 -5.26707 272.133 
1.50518e-05 -1.67242e-06 2.69121e+25 -0.552807 -3.11248 272.104 
1.69631e-05 -1.67242e-06 2.68562e+25 -0.0523963 -0.452356 272.733 
1.67242e-06 -1.19458e-06 2.69069e+25 -7.78451 -0.0196924 271.974 
3.58375e-06 -1.19458e-06 2.68746e+25 -7.81258 -2.05905 272.393 
5.49508e-06 -1.19458e-06 2.68889e+25 -7.67248 -4.11025 272.162 
7.40642e-06 -1.19458e-06 2.6882e+25 -6.92665 -5.79843 272.283 
9.31775e-06 -1.19458e-06 2.69125e+25 -5.71901 -7.12539 272.168 
1.12291e-05 -1.19458e-06 2.69023e+25 -4.02134 -6.97764 272.213 
1.31404e-05 -1.19458e-06 2.69149e+25 -2.21108 -5.74914 272.103 
1.50518e-05 -1.19458e-06 2.68991e+25 -0.691083 -3.35171 272.14 
1.69631e-05 -1.19458e-06 2.68414e+25 0.0225361 -0.490998 272.767 
1.67242e-06 -7.1675e-07 2.68963e+25 -7.75556 0.0590984 272.053 
3.58375e-06 -7.1675e-07 2.68813e+25 -7.82129 -2.01595 272.26 
5.49508e-06 -7.1675e-07 2.68867e+25 -7.76144 -4.09486 272.267 
7.40642e-06 -7.1675e-07 2.68913e+25 -7.16149 -6.13373 272.175 
9.31775e-06 -7.1675e-07 2.69176e+25 -6.02936 -7.47666 272.092 
1.12291e-05 -7.1675e-07 2.6892e+25 -4.19313 -7.41495 272.274 
1.31404e-05 -7.1675e-07 2.69139e+25 -2.25984 -6.2669 272.131 
1.50518e-05 -7.1675e-07 2.69013e+25 -0.83564 -3.59752 272.198 
1.69631e-05 -7.1675e-07 2.68503e+25 0.00655872 -0.472194 272.674 
1.67242e-06 -2.38917e-07 2.68833e+25 -7.85658 0.139137 271.966 
3.58375e-06 -2.38917e-07 2.68648e+25 -7.92464 -2.1162 272.244 
5.49508e-06 -2.38917e-07 2.6858e+25 -7.81818 -4.10505 272.324 
7.40642e-06 -2.38917e-07 2.68719e+25 -7.42622 -6.35434 272.16 
9.31775e-06 -2.38917e-07 2.68847e+25 -6.17032 -7.84764 272.113 
1.12291e-05 -2.38917e-07 2.68722e+25 -4.45342 -7.86716 272.343 
1.31404e-05 -2.38917e-07 2.68905e+25 -2.50988 -6.73733 272.103 
1.50518e-05 -2.38917e-07 2.68877e+25 -0.896414 -3.92196 272.179 
1.69631e-05 -2.38917e-07 2.68287e+25 -0.00642619 -0.482718 272.681 
1.67242e-06 2.38917e-07 2.68706e+25 -8.05894 0.164323 272.057 
3.58375e-06 2.38917e-07 2.68728e+25 -8.07616 -2.24938 272.095 
5.49508e-06 2.38917e-07 2.6863e+25 -7.95848 -4.15744 272.238 
7.40642e-06 2.38917e-07 2.68765e+25 -7.53705 -6.52272 272.174 
9.31775e-06 2.38917e-07 2.68748e+25 -6.31009 -8.19712 272.196 
1.12291e-05 2.38917e-07 2.68691e+25 -4.67061 -8.37438 272.277 
1.31404e-05 2.38917e-07 2.68784e+25 -2.70161 -7.27365 272.206 
1.50518e-05 2.38917e-07 2.68844e+25 -0.831128 -4.34816 272.21 
1.69631e-05 2.38917e-07 2.68114e+25 -0.0147006 -0.50321 272.818 
1.67242e-06 7.1675e-07 2.68937e+25 -7.94322 0.245848 272.016 
3.58375e-06 7.1675e-07 2.68853e+25 -8.19999 -2.23091 272.109 
5.49508e-06 7.1675e-07 2.68905e+25 -8.01421 -4.17283 272.168 
7.40642e-06 7.1675e-07 2.68885e+25 -7.61545 -6.56911 272.183 
9.31775e-06 7.1675e-07 2.6903e+25 -6.55306 -8.4915 272.217 
1.12291e-05 7.1675e-07 2.6899e+25 -4.98755 -8.92462 272.265 
1.31404e-05 7.1675e-07 2.69008e+25 -2.85957 -7.73085 272.219 
1.50518e-05 7.1675e-07 2.68889e+25 -0.944005 -4.73422 272.251 
1.69631e-05 7.1675e-07 2.68331e+25 -0.0480369 -0.561106 272.929 
1.67242e-06 1.19458e-06 2.68858e+25 -7.69592 0.424005 272.061 
3.58375e-06 1.19458e-06 2.68963e+25 -8.1707 -2.13176 272.008 
5.49508e-06 1.19458e-06 2.6897e+25 -8.11243 -4.24708 272.128 
7.40642e-06 1.19458e-06 2.69015e+25 -7.6496 -6.70332 272.213 
9.31775e-06 1.19458e-06 2.68899e+25 -6.71104 -8.86899 272.281 
1.12291e-05 1.19458e-06 2.68944e+25 -5.18573 -9.42231 272.268 
1.31404e-05 1.19458e-06 2.68979e+25 -2.96592 -8.21138 272.213 
1.50518e-05 1.19458e-06 2.68959e+25 -1.0264 -5.05875 272.228 
1.69631e-05 1.19458e-06 2.68319e+25 -0.00921168 -0.616924 272.869 
1.67242e-06 1.67242e-06 2.68748e+25 -7.4646 0.614617 272.111 
3.58375e-06 1.67242e-06 2.69013e+25 -8.00661 -2.09168 271.951 
5.49508e-06 1.67242e-06 2.68979e+25 -8.12035 -4.37726 271.992 
7.40642e-06 1.67242e-06 2.68777e+25 -7.64965 -6.93393 272.281 
9.31775e-06 1.67242e-06 2.6882e+25 -6.84451 -9.16554 272.282 
1.12291e-05 1.67242e-06 2.68908e+25 -5.36393 -9.91474 272.311 
1.31404e-05 1.67242e-06 2.68817e+25 -3.14109 -8.77993 272.317 
1.50518e-05 1.67242e-06 2.68836e+25 -1.12384 -5.52835 272.296 
1.69631e-05 1.67242e-06 2.6839e+25 -0.0338415 -0.685118 272.927 
1.67242e-06 2.15025e-06 2.68737e+25 -7.07775 0.884075 272.147 
3.58375e-06 2.15025e-06 2.68957e+25 -7.83869 -1.98044 272.037 
5.49508e-06 2.15025e-06 2.68981e+25 -8.1113 -4.47608 271.929 
7.40642e-06 2.15025e-06 2.68697e+25 -7.63323 -7.09317 272.282 
9.31775e-06 2.15025e-06 2.6878e+25 -7.05432 -9.37983 272.242 
1.12291e-05 2.15025e-06 2.68899e+25 -5.44529 -10.5263 272.279 
1.31404e-05 2.15025e-06 2.68975e+25 -3.30251 -9.27022 272.188 
1.50518e-05 2.15025e-06 2.6901e+25 -1.10486 -6.02786 272.215 
1.69631e-05 2.15025e-06 2.68396e+25 -0.0254779 -0.766286 272.778 
1.67242e-06 2.62808e-06 2.68897e+25 -6.71376 1.11692 272.037 
3.58375e-06 2.62808e-06 2.68892e+25 -7.58895 -1.80167 272.032 
5.49508e-06 2.62808e-06 2.69004e+25 -7.86843 -4.5206 271.985 
7.40642e-06 2.62808e-06 2.68655e+25 -7.73288 -7.21374 272.282 
9.31775e-06 2.62808e-06 2.68694e+25 -7.14459 -9.58561 272.403 
1.12291e-05 2.62808e-06 2.68895e+25 -5.71969 -10.9991 272.325 
1.31404e-05 2.62808e-06 2.69059e+25 -3.55559 -9.77932 272.075 
1.50518e-05 2.62808e-06 2.68989e+25 -1.23207 -6.53833 272.235 
1.69631e-05 2.62808e-06 2.68387e+25 0.029618 -0.789584 272.85 
1.67242e-06 3.10592e-06 2.68921e+25 -6.31176 1.32519 271.965 
3.58375e-06 3.10592e-06 2.68721e+25 -7.20336 -1.57827 272.134 
5.49508e-06 3.10592e-06 2.68988e+25 -7.71275 -4.51718 271.968 
7.40642e-06 3.10592e-06 2.6888e+25 -7.67531 -7.23055 272.12 
9.31775e-06 3.10592e-06 2.68739e+25 -7.25072 -9.7796 272.406 
1.12291e-05 3.10592e-06 2.68836e+25 -5.84835 -11.4336 272.306 
1.31404e-05 3.10592e-06 2.69085e+25 -3.68344 -10.3749 272.154 
1.50518e-05 3.10592e-06 2.6905e+25 -1.22377 -6.99712 272.186 
1.69631e-05 3.10592e-06 2.68246e+25 -0.0296505 -0.812313 272.903 
1.67242e-06 3.58375e-06 2.68821e+25 -5.92421 1.49235 272.04 
3.58375e-06 3.58375e-06 2.6874e+25 -6.73255 -1.36401 272.068 
5.49508e-06 3.58375e-06 2.68629e+25 -7.58763 -4.4489 272.245 
7.40642e-06 3.58375e-06 2.68671e+25 -7.52212 -7.28651 272.291 
9.31775e-06 3.58375e-06 2.68818e+25 -7.37075 -9.96261 272.292 
1.12291e-05 3.58375e-06 2.68954e+25 -5.98066 -11.8886 272.252 
1.31404e-05 3.58375e-06 2.69045e+25 -3.84724 -11.0668 272.188 
1.50518e-05 3.58375e-06 2.69158e+25 -1.28382 -7.53496 272.05 
1.69631e-05 3.58375e-06 2.68369e+25 -0.0262266 -0.869384 272.866 
1.67242e-06 4.06158e-06 2.68861e+25 -5.37898 1.56094 272.01 
3.58375e-06 4.06158e-06 2.68793e+25 -6.20949 -1.16259 272.081 
5.49508e-06 4.06158e-06 2.68696e+25 -7.11608 -4.24374 272.174 
7.40642e-06 4.06158e-06 2.68717e+25 -7.27946 -7.23314 272.287 
9.31775e-06 4.06158e-06 2.68818e+25 -7.21683 -10.1317 272.255 
1.12291e-05 4.06158e-06 2.68885e+25 -6.07144 -12.3025 272.209 
1.31404e-05 4.06158e-06 2.68973e+25 -3.89973 -11.7883 272.206 
1.50518e-05 4.06158e-06 2.69092e+25 -1.38663 -8.10127 272.115 
1.69631e-05 4.06158e-06 2.68433e+25 -0.0598196 -0.967785 272.94 
1.67242e-06 4.53942e-06 2.6882e+25 -4.97968 1.54486 272.013 
3.58375e-06 4.53942e-06 2.68709e+25 -5.68488 -0.905202 272.076 
5.49508e-06 4.53942e-06 2.68637e+25 -6.52611 -4.08166 272.178 
7.40642e-06 4.53942e-06 2.68793e+25 -7.07417 -7.24221 272.188 
9.31775e-06 4.53942e-06 2.68775e+25 -7.07544 -10.3506 272.227 
1.12291e-05 4.53942e-06 2.68892e+25 -6.09551 -12.7078 272.255 
1.31404e-05 4.53942e-06 2.69086e+25 -3.98575 -12.4652 272.14 
1.50518e-05 4.53942e-06 2.69135e+25 -1.42901 -8.63199 272.168 
1.69631e-05 4.53942e-06 2.68429e+25 -0.0428775 -1.06975 272.884 
1.67242e-06 5.01725e-06 2.68783e+25 -4.62484 1.59946 272.043 
3.58375e-06 5.01725e-06 2.68729e+25 -5.12796 -0.672975 272.085 
5.49508e-06 5.01725e-06 2.68674e+25 -5.9421 -3.91312 272.211 
7.40642e-06 5.01725e-06 2.68727e+25 -6.7608 -7.1648 272.256 
9.31775e-06 5.01725e-06 2.68752e+25 -6.83018 -10.4829 272.213 
1.12291e-05 5.01725e-06 2.68711e+25 -6.02147 -13.0009 272.286 
1.31404e-05 5.01725e-06 2.69072e+25 -3.99985 -13.0856 272.156 
1.50518e-05 5.01725e-06 2.69091e+25 -1.52448 -9.16317 272.24 
1.69631e-05 5.01725e-06 2.68479e+25 -0.0712277 -1.21137 272.818 
1.67242e-06 5.49508e-06 2.68837e+25 -4.02534 1.78136 271.97 
3.58375e-06 5.49508e-06 2.6878e+25 -4.58395 -0.479092 272.012 
5.49508e-06 5.49508e-06 2.68727e+25 -5.47052 -3.75997 272.161 
7.40642e-06 5.49508e-06 2.68742e+25 -6.3119 -7.01372 272.177 
9.31775e-06 5.49508e-06 2.68836e+25 -6.64718 -10.5767 272.252 
1.12291e-05 5.49508e-06 2.68883e+25 -5.9049 -13.2908 272.181 
1.31404e-05 5.49508e-06 2.6897e+25 -4.17546 -13.6702 272.258 
1.50518e-05 5.49508e-06 2.69081e+25 -1.58607 -9.76158 272.273 
1.69631e-05 5.49508e-06 2.68603e+25 -0.0728994 -1.35335 272.699 
1.67242e-06 5.97292e-06 2.68871e+25 -3.36486 1.9383 271.977 
3.58375e-06 5.97292e-06 2.68737e+25 -4.06353 -0.279836 272.004 
5.49508e-06 5.97292e-06 2.68703e+25 -4.96745 -3.41399 272.129 
7.40642e-06 5.97292e-06 2.68818e+25 -5.87422 -6.88371 272.108 
9.31775e-06 5.97292e-06 2.68823e+25 -6.24574 -10.5987 272.251 
1.12291e-05 5.97292e-06 2.68983e+25 -5.88992 -13.5816 272.193 
1.31404e-05 5.97292e-06 2.69052e+25 -4.10082 -14.3049 272.21 
1.50518e-05 5.97292e-06 2.68937e+25 -1.65528 -10.4069 272.258 
1.69631e-05 5.97292e-06 2.68433e+25 -0.0410598 -1.47058 272.781 
1.67242e-06 6.45075e-06 2.68644e+25 -2.88763 2.02934 272.077 
3.58375e-06 6.45075e-06 2.68733e+25 -3.42838 -0.0988166 271.997 
5.49508e-06 6.45075e-06 2.68574e+25 -4.23318 -3.03396 272.219 
7.40642e-06 6.45075e-06 2.6883e+25 -5.32459 -6.73741 272.04 
9.31775e-06 6.45075e-06 2.68869e+25 -5.91744 -10.58 272.095 
1.12291e-05 6.45075e-06 2.68829e+25 -5.72631 -13.8281 272.309 
1.31404e-05 6.45075e-06 2.69025e+25 -4.27764 -14.8665 272.229 
1.50518e-05 6.45075e-06 2.69073e+25 -1.74921 -10.9714 272.301 
1.69631e-05 6.45075e-06 2.68476e+25 -0.0317105 -1.57985 272.822 
1.67242e-06 6.92858e-06 2.68852e+25 -2.33746 2.1051 271.959 
3.58375e-06 6.92858e-06 2.68863e+25 -2.82966 0.0702947 271.921 
5.49508e-06 6.92858e-06 2.68698e+25 -3.53423 -2.75462 272.128 
7.40642e-06 6.92858e-06 2.68855e+25 -4.55638 -6.4859 271.973 
9.31775e-06 6.92858e-06 2.68779e+25 -5.39664 -10.444 272.178 
1.12291e-05 6.92858e-06 2.68791e+25 -5.46318 -13.9843 272.379 
1.31404e-05 6.92858e-06 2.69072e+25 -4.3373 -15.3156 272.233 
1.50518e-05 6.92858e-06 2.69164e+25 -1.91558 -11.5482 272.202 
1.69631e-05 6.92858e-06 2.68608e+25 -0.0398779 -1.65496 272.79 
1.67242e-06 7.40642e-06 2.68926e+25 -1.52259 2.08918 271.864 
3.58375e-06 7.40642e-06 2.68791e+25 -2.00077 0.231031 272.004 
5.49508e-06 7.40642e-06 2.68716e+25 -2.65867 -2.58925 272.071 
7.40642e-06 7.40642e-06 2.68784e+25 -3.66705 -6.23753 272.075 
9.31775e-06 7.40642e-06 2.68736e+25 -4.6711 -10.2595 272.184 
1.12291e-05 7.40642e-06 2.68746e+25 -5.12602 -14.0128 272.438 
1.31404e-05 7.40642e-06 2.69062e+25 -4.24992 -15.8294 272.245 
1.50518e-05 7.40642e-06 2.6919e+25 -1.9423 -12.2021 272.215 
1.69631e-05 7.40642e-06 2.68617e+25 -0.124509 -1.87797 272.738 
1.67242e-06 7.88425e-06 2.6876e+25 -0.766469 2.14596 271.94 
3.58375e-06 7.88425e-06 2.68719e+25 -1.02713 0.378046 272.017 
5.49508e-06 7.88425e-06 2.68625e+25 -1.74981 -2.42022 272.135 
7.40642e-06 7.88425e-06 2.68659e+25 -2.60302 -5.99169 272.14 
9.31775e-06 7.88425e-06 2.68695e+25 -3.87042 -10.0223 272.251 
1.12291e-05 7.88425e-06 2.68862e+25 -4.79776 -14.0024 272.303 
1.31404e-05 7.88425e-06 2.69143e+25 -4.2132 -16.3073 272.204 
1.50518e-05 7.88425e-06 2.69187e+25 -1.87526 -12.8526 272.233 
1.69631e-05 7.88425e-06 2.68713e+25 -0.0610437 -2.0852 272.735 
1.67242e-06 8.36208e-06 2.68741e+25 -0.032544 2.22752 271.936 
3.58375e-06 8.36208e-06 2.68671e+25 -0.163622 0.409102 272.041 
5.49508e-06 8.36208e-06 2.6862e+25 -0.754799 -2.29237 272.17 
7.40642e-06 8.36208e-06 2.68833e+25 -1.63045 -5.7026 272.018 
9.31775e-06 8.36208e-06 2.6868e+25 -3.15145 -9.6123 272.231 
1.12291e-05 8.36208e-06 2.69058e+25 -4.41151 -13.8377 272.216 
1.31404e-05 8.36208e-06 2.6918e+25 -4.1743 -16.7359 272.271 
1.50518e-05 8.36208e-06 2.69149e+25 -1.97004 -13.4629 272.268 
1.69631e-05 8.36208e-06 2.68484e+25 -0.0472196 -2.19882 272.89 
1.67242e-06 8.83992e-06 2.68874e+25 0.883732 2.23702 271.851 
3.58375e-06 8.83992e-06 2.68759e+25 0.836288 0.475314 271.963 
5.49508e-06 8.83992e-06 2.68697e+25 0.305804 -2.17786 272.101 
7.40642e-06 8.83992e-06 2.68717e+25 -0.63959 -5.34691 272.085 
9.31775e-06 8.83992e-06 2.68807e+25 -2.3129 -9.11539 272.216 
1.12291e-05 8.83992e-06 2.69046e+25 -3.76385 -13.5527 272.224 
1.31404e-05 8.83992e-06 2.69111e+25 -4.08098 -16.9347 272.379 
1.50518e-05 8.83992e-06 2.69209e+25 -2.11443 -14.1259 272.309 
1.69631e-05 8.83992e-06 2.68761e+25 -0.0844308 -2.31212 272.8 
1.67242e-06 9.31775e-06 2.68675e+25 1.85094 2.30053 271.965 
3.58375e-06 9.31775e-06 2.68524e+25 1.79601 0.446213 272.118 
5.49508e-06 9.31775e-06 2.6855e+25 1.48166 -2.02495 272.142 
7.40642e-06 9.31775e-06 2.68579e+25 0.390851 -5.01589 272.222 
9.31775e-06 9.31775e-06 2.68666e+25 -1.3553 -8.6984 272.299 
1.12291e-05 9.31775e-06 2.69074e+25 -3.06329 -13.2663 272.209 
1.31404e-05 9.31775e-06 2.69051e+25 -3.81957 -17.0326 272.41 
1.50518e-05 9.31775e-06 2.6933e+25 -2.1626 -14.7736 272.347 
1.69631e-05 9.31775e-06 2.68797e+25 -0.0577701 -2.51033 272.826 
1.67242e-06 9.79558e-06 2.68711e+25 2.92834 2.26571 271.951 
3.58375e-06 9.79558e-06 2.68661e+25 2.93041 0.491079 272.064 
5.49508e-06 9.79558e-06 2.68584e+25 2.71719 -1.84628 272.143 
7.40642e-06 9.79558e-06 2.6864e+25 1.65471 -4.63912 272.189 
9.31775e-06 9.79558e-06 2.68787e+25 -0.30003 -8.23868 272.253 
1.12291e-05 9.79558e-06 2.69018e+25 -2.32831 -12.8325 272.185 
1.31404e-05 9.79558e-06 2.69109e+25 -3.55657 -17.0482 272.406 
1.50518e-05 9.79558e-06 2.69349e+25 -2.27759 -15.3648 272.393 
1.69631e-05 9.79558e-06 2.6879e+25 -0.056648 -2.67326 272.84 
1.67242e-06 1.02734e-05 2.6879e+25 4.03811 2.19132 271.961 
3.58375e-06 1.02734e-05 2.68672e+25 4.05216 0.55957 272.017 
5.49508e-06 1.02734e-05 2.68547e+25 3.94483 -1.646 272.197 
7.40642e-06 1.02734e-05 2.68754e+25 2.83326 -4.26008 272.15 
9.31775e-06 1.02734e-05 2.68701e+25 0.982558 -7.72353 272.357 
1.12291e-05 1.02734e-05 2.69037e+25 -1.38249 -12.3072 272.268 
1.31404e-05 1.02734e-05 2.69142e+25 -3.16285 -16.9783 272.523 
1.50518e-05 1.02734e-05 2.69345e+25 -2.19707 -16.0126 272.452 
1.69631e-05 1.02734e-05 2.68956e+25 -0.102747 -2.86151 272.785 
1.67242e-06 1.07512e-05 2.68628e+25 5.22015 2.1602 272.065 
3.58375e-06 1.07512e-05 2.68737e+25 5.44946 0.6151 271.996 
5.49508e-06 1.07512e-05 2.68525e+25 5.16019 -1.41706 272.255 
7.40642e-06 1.07512e-05 2.68771e+25 4.01251 -3.94347 272.039 
9.31775e-06 1.07512e-05 2.68802e+25 2.23002 -7.15387 272.208 
1.12291e-05 1.07512e-05 2.6906e+25 -0.390814 -11.6233 272.292 
1.31404e-05 1.07512e-05 2.69074e+25 -2.68846 -16.6574 272.498 
1.50518e-05 1.07512e-05 2.69547e+25 -2.23537 -16.6093 272.368 
1.69631e-05 1.07512e-05 2.6909e+25 -0.0612196 -3.07025 272.771 
1.67242e-06 1.12291e-05 2.68633e+25 6.4145 1.96078 272.032 
3.58375e-06 1.12291e-05 2.68691e+25 6.91573 0.586814 272.056 
5.49508e-06 1.12291e-05 2.68562e+25 6.61977 -1.2338 272.244 
7.40642e-06 1.12291e-05 2.68676e+25 5.50212 -3.51546 272.127 
9.31775e-06 1.12291e-05 2.68755e+25 3.6884 -6.60286 272.336 
1.12291e-05 1.12291e-05 2.69057e+25 0.678583 -10.8955 272.322 
1.31404e-05 1.12291e-05 2.69185e+25 -1.99543 -16.1821 272.483 
1.50518e-05 1.12291e-05 2.69575e+25 -2.17794 -17.1205 272.405 
1.69631e-05 1.12291e-05 2.69232e+25 -0.107532 -3.28575 272.829 
1.67242e-06 1.17069e-05 2.68699e+25 7.75712 1.78766 272.064 
3.58375e-06 1.17069e-05 2.68663e+25 8.40238 0.500466 272.067 
5.49508e-06 1.17069e-05 2.68464e+25 8.13121 -1.19534 272.3 
7.40642e-06 1.17069e-05 2.68882e+25 7.02603 -3.09961 272.073 
9.31775e-06 1.17069e-05 2.68663e+25 5.06113 -6.03503 272.471 
1.12291e-05 1.17069e-05 2.69049e+25 1.8254 -10.0999 272.416 
1.31404e-05 1.17069e-05 2.69213e+25 -1.43355 -15.6118 272.474 
1.50518e-05 1.17069e-05 2.69508e+25 -2.12653 -17.4765 272.58 
1.69631e-05 1.17069e-05 2.69097e+25 -0.126446 -3.56696 273.005 
1.67242e-06 1.21847e-05 2.68681e+25 9.28862 1.57802 272.052 
3.58375e-06 1.21847e-05 2.68809e+25 9.93979 0.513981 271.909 
5.49508e-06 1.21847e-05 2.68497e+25 9.64193 -1.096 272.235 
7.40642e-06 1.21847e-05 2.68746e+25 8.65987 -2.63513 272.181 
9.31775e-06 1.21847e-05 2.68662e+25 6.69921 -5.34555 272.398 
1.12291e-05 1.21847e-05 2.68989e+25 3.30634 -9.20134 272.455 
1.31404e-05 1.21847e-05 2.69423e+25 -0.37087 -14.9346 272.403 
1.50518e-05 1.21847e-05 2.69749e+25 -2.17844 -17.6972 272.557 
1.69631e-05 1.21847e-05 2.69411e+25 -0.103735 -3.8285 273.018 
1.67242e-06 1.26626e-05 2.68434e+25 11.0698 1.34657 272.216 
3.58375e-06 1.26626e-05 2.68866e+25 11.5918 0.531885 271.924 
5.49508e-06 1.26626e-05 2.68485e+25 11.4332 -0.953647 272.342 
7.40642e-06 1.26626e-05 2.68591e+25 10.3792 -2.24663 272.251 
9.31775e-06 1.26626e-05 2.68759e+25 8.5235 -4.6784 272.408 
1.12291e-05 1.26626e-05 2.69008e+25 5.08822 -8.19262 272.518 
1.31404e-05 1.26626e-05 2.69448e+25 0.757333 -14.0548 272.466 
1.50518e-05 1.26626e-05 2.69909e+25 -2.05392 -17.7629 272.523 
1.69631e-05 1.26626e-05 2.69712e+25 -0.158139 -4.14688 272.873 
1.67242e-06 1.31404e-05 2.6849e+25 12.8679 1.19232 272.225 
3.58375e-06 1.31404e-05 2.68628e+25 13.3839 0.469679 272.104 
5.49508e-06 1.31404e-05 2.68383e+25 13.392 -0.80159 272.35 
7.40642e-06 1.31404e-05 2.68687e+25 12.3798 -1.89643 272.282 
9.31775e-06 1.31404e-05 2.68789e+25 10.3528 -4.02745 272.318 
1.12291e-05 1.31404e-05 2.69017e+25 7.09785 -7.12489 272.509 
1.31404e-05 1.31404e-05 2.6962e+25 2.01753 -12.8434 272.519 
1.50518e-05 1.31404e-05 2.69988e+25 -1.8718 -17.6611 272.669 
1.69631e-05 1.31404e-05 2.70097e+25 -0.0995205 -4.45197 272.868 
1.67242e-06 1.36182e-05 2.68405e+25 14.8742 1.05273 272.349 
3.58375e-06 1.36182e-05 2.68566e+25 15.3082 0.321888 272.101 
5.49508e-06 1.36182e-05 2.68516e+25 15.3647 -0.674605 272.338 
7.40642e-06 1.36182e-05 2.68604e+25 14.4621 -1.57217 272.306 
9.31775e-06 1.36182e-05 2.68894e+25 12.3979 -3.32072 272.355 
1.12291e-05 1.36182e-05 2.69042e+25 9.11875 -6.0965 272.576 
1.31404e-05 1.36182e-05 2.69561e+25 3.46048 -11.3204 272.674 
1.50518e-05 1.36182e-05 2.70181e+25 -1.70816 -17.3616 272.665 
1.69631e-05 1.36182e-05 2.70225e+25 -0.217976 -4.84753 272.829 
1.67242e-06 1.40961e-05 2.68511e+25 16.9043 0.878141 272.263 
3.58375e-06 1.40961e-05 2.6851e+25 17.41 0.195455 272.257 
5.49508e-06 1.40961e-05 2.68455e+25 17.3765 -0.472199 272.367 
7.40642e-06 1.40961e-05 2.68728e+25 16.6346 -1.33072 272.332 
9.31775e-06 1.40961e-05 2.68797e+25 14.6472 -2.60657 272.442 
1.12291e-05 1.40961e-05 2.69049e+25 11.3536 -4.97079 272.592 
1.31404e-05 1.40961e-05 2.69543e+25 5.4437 -9.56866 272.792 
1.50518e-05 1.40961e-05 2.70278e+25 -1.12975 -16.7013 272.756 
1.69631e-05 1.40961e-05 2.706e+25 -0.218747 -5.3447 272.858 
1.67242e-06 1.45739e-05 2.68475e+25 19.2752 0.807021 272.289 
3.58375e-06 1.45739e-05 2.68496e+25 19.5838 0.131832 272.242 
5.49508e-06 1.45739e-05 2.686e+25 19.6519 -0.346805 272.275 
7.40642e-06 1.45739e-05 2.68557e+25 18.9628 -1.081 272.392 
9.31775e-06 1.45739e-05 2.68794e+25 17.2174 -2.09474 272.411 
1.12291e-05 1.45739e-05 2.69108e+25 13.8308 -3.80358 272.669 
1.31404e-05 1.45739e-05 2.69551e+25 7.9823 -7.63474 272.869 
1.50518e-05 1.45739e-05 2.70536e+25 -0.0772251 -15.4586 272.778 
1.69631e-05 1.45739e-05 2.7118e+25 -0.299089 -5.93168 272.906 
1.67242e-06 1.50518e-05 2.68381e+25 21.8814 0.684083 272.385 
3.58375e-06 1.50518e-05 2.68387e+25 22.1993 0.136175 272.432 
5.49508e-06 1.50518e-05 2.68505e+25 22.0212 -0.264062 272.354 
7.40642e-06 1.50518e-05 2.68678e+25 21.4729 -0.813736 272.363 
9.31775e-06 1.50518e-05 2.68877e+25 19.9072 -1.60531 272.454 
1.12291e-05 1.50518e-05 2.69174e+25 16.6125 -2.72574 272.65 
1.31404e-05 1.50518e-05 2.69553e+25 10.8597 -5.71054 272.941 
1.50518e-05 1.50518e-05 2.70703e+25 1.57201 -13.4902 272.91 
1.69631e-05 1.50518e-05 2.71934e+25 -0.436528 -6.6951 272.941 
1.67242e-06 1.55296e-05 2.68271e+25 24.5696 0.504275 272.495 
3.58375e-06 1.55296e-05 2.68432e+25 24.9011 0.156315 272.42 
5.49508e-06 1.55296e-05 2.6864e+25 24.6404 -0.210816 272.379 
7.40642e-06 1.55296e-05 2.68641e+25 23.9833 -0.601331 272.436 
9.31775e-06 1.55296e-05 2.68765e+25 22.821 -1.09132 272.498 
1.12291e-05 1.55296e-05 2.69103e+25 19.9171 -1.74283 272.737 
1.31404e-05 1.55296e-05 2.69497e+25 14.6323 -3.82492 273.068 
1.50518e-05 1.55296e-05 2.71005e+25 4.56832 -10.7433 272.946 
1.69631e-05 1.55296e-05 2.72917e+25 -0.587414 -7.7549 273.007 
1.67242e-06 1.60074e-05 2.68338e+25 27.2511 0.293966 272.57 
3.58375e-06 1.60074e-05 2.6847e+25 27.7347 0.155632 272.404 
5.49508e-06 1.60074e-05 2.68344e+25 27.4683 -0.168739 272.576 
7.40642e-06 1.60074e-05 2.68529e+25 26.884 -0.258429 272.53 
9.31775e-06 1.60074e-05 2.68633e+25 25.8741 -0.579439 272.62 
1.12291e-05 1.60074e-05 2.68982e+25 23.6755 -0.93041 272.845 
1.31404e-05 1.60074e-05 2.69573e+25 19.3705 -2.09906 272.99 
1.50518e-05 1.60074e-05 2.71082e+25 9.3685 -7.22628 273.238 
1.69631e-05 1.60074e-05 2.74698e+25 -0.63657 -8.92452 273.014 
1.67242e-06 1.64852e-05 2.68084e+25 30.124 0.157844 272.707 
3.58375e-06 1.64852e-05 2.68292e+25 30.3976 0.173057 272.567 
5.49508e-06 1.64852e-05 2.68177e+25 30.3921 -0.0634157 272.661 
7.40642e-06 1.64852e-05 2.68347e+25 29.9232 -0.0538302 272.639 
9.31775e-06 1.64852e-05 2.68566e+25 29.1171 -0.215376 272.687 
1.12291e-05 1.64852e-05 2.69083e+25 27.7423 -0.41259 272.756 
1.31404e-05 1.64852e-05 2.69513e+25 24.863 -0.768377 273.116 
1.50518e-05 1.64852e-05 2.7098e+25 16.8286 -3.57405 273.305 
1.69631e-05 1.64852e-05 2.77138e+25 -0.0211389 -9.58898 273.312 
1.67242e-06 1.69631e-05 2.67875e+25 32.9023 0.0608727 272.905 
3.58375e-06 1.69631e-05 2.68057e+25 32.948 0.0613277 272.894 
5.49508e-06 1.69631e-05 2.6805e+25 33.0493 -0.00898097 272.935 
7.40642e-06 1.69631e-05 2.68254e+25 32.8245 -0.016937 272.83 
9.31775e-06 1.69631e-05 2.68399e+25 32.3692 -0.0242287 272.931 
1.12291e-05 1.69631e-05 2.6886e+25 31.8814 -0.103728 272.933 
1.31404e-05 1.69631e-05 2.69416e+25 30.745 -0.111456 273.157 
1.50518e-05 1.69631e-05 2.70866e+25 26.7868 -0.806714 273.305 
1.69631e-05 1.69631e-05 2.85397e+25 4.083 -6.16404 273.959 
2.38917e-07 2.38917e-07 2.68602e+25 -7.5133 1.80017 272.101 
2.15025e-06 2.38917e-07 2.68841e+25 -8.09718 -0.41069 271.986 
4.06158e-06 2.38917e-07 2.68597e+25 -7.95962 -2.70961 272.219 
5.97292e-06 2.38917e-07 2.68678e+25 -7.87537 -4.64392 272.187 
7.88425e-06 2.38917e-07 2.68742e+25 -7.38551 -7.12931 272.213 
9.79558e-06 2.38917e-07 2.6883e+25 -5.97 -8.39707 272.177 
1.17069e-05 2.38917e-07 2.687e+25 -4.16013 -8.19929 272.26 
1.36182e-05 2.38917e-07 2.68761e+25 -2.13273 -6.61708 272.172 
1.55296e-05 2.38917e-07 2.68629e+25 -0.45481 -3.31787 272.326 
2.38917e-07 7.1675e-07 2.68693e+25 -7.42134 1.90238 272.147 
2.15025e-06 7.1675e-07 2.68944e+25 -8.04858 -0.352774 272.06 
4.06158e-06 7.1675e-07 2.68909e+25 -8.24617 -2.78143 272.113 
5.97292e-06 7.1675e-07 2.68908e+25 -7.93316 -4.76031 272.163 
7.88425e-06 7.1675e-07 2.68994e+25 -7.43081 -7.35141 272.243 
9.79558e-06 7.1675e-07 2.68952e+25 -6.18675 -8.75186 272.245 
1.17069e-05 7.1675e-07 2.6901e+25 -4.40059 -8.69923 272.242 
1.36182e-05 7.1675e-07 2.69039e+25 -2.40213 -7.12242 272.239 
1.55296e-05 7.1675e-07 2.68885e+25 -0.573101 -3.69264 272.312 
2.38917e-07 1.19458e-06 2.68666e+25 -7.07228 2.07833 272.164 
2.15025e-06 1.19458e-06 2.68913e+25 -7.822 -0.267382 272.049 
4.06158e-06 1.19458e-06 2.69098e+25 -8.17358 -2.79355 272.008 
5.97292e-06 1.19458e-06 2.68841e+25 -7.99479 -4.89358 272.21 
7.88425e-06 1.19458e-06 2.68845e+25 -7.46773 -7.56454 272.25 
9.79558e-06 1.19458e-06 2.68794e+25 -6.38176 -9.10585 272.314 
1.17069e-05 1.19458e-06 2.68992e+25 -4.64995 -9.28693 272.193 
1.36182e-05 1.19458e-06 2.6913e+25 -2.4551 -7.65677 272.181 
1.55296e-05 1.19458e-06 2.68994e+25 -0.662192 -4.08297 272.27 
2.38917e-07 1.67242e-06 2.68595e+25 -6.75468 2.26583 272.051 
2.15025e-06 1.67242e-06 2.68847e+25 -7.67843 -0.133736 272.101 
4.06158e-06 1.67242e-06 2.69095e+25 -8.03104 -2.77209 271.88 
5.97292e-06 1.67242e-06 2.68935e+25 -7.99527 -5.01262 272.111 
7.88425e-06 1.67242e-06 2.68732e+25 -7.45802 -7.74551 272.421 
9.79558e-06 1.67242e-06 2.68753e+25 -6.56366 -9.4187 272.405 
1.17069e-05 1.67242e-06 2.69001e+25 -4.84153 -9.84052 272.193 
1.36182e-05 1.67242e-06 2.69009e+25 -2.59099 -8.17521 272.205 
1.55296e-05 1.67242e-06 2.68934e+25 -0.717424 -4.39616 272.272 
2.38917e-07 2.15025e-06 2.68574e+25 -6.6537 2.52532 272.121 
2.15025e-06 2.15025e-06 2.68793e+25 -7.34474 0.102174 272.114 
4.06158e-06 2.15025e-06 2.69037e+25 -8.00242 -2.66862 271.939 
5.97292e-06 2.15025e-06 2.68949e+25 -7.99502 -5.12156 272.083 
7.88425e-06 2.15025e-06 2.68712e+25 -7.49652 -7.9071 272.44 
9.79558e-06 2.15025e-06 2.68735e+25 -6.81806 -9.72699 272.371 
1.17069e-05 2.15025e-06 2.69053e+25 -4.86806 -10.3757 272.161 
1.36182e-05 2.15025e-06 2.69144e+25 -2.81831 -8.66754 272.18 
1.55296e-05 2.15025e-06 2.68881e+25 -0.686946 -4.72261 272.287 
2.38917e-07 2.62808e-06 2.68577e+25 -6.28765 2.72779 272.135 
2.15025e-06 2.62808e-06 2.68859e+25 -6.95181 0.363673 272.062 
4.06158e-06 2.62808e-06 2.68973e+25 -7.75712 -2.53644 272.035 
5.97292e-06 2.62808e-06 2.68836e+25 -7.88689 -5.17732 272.119 
7.88425e-06 2.62808e-06 2.68757e+25 -7.66769 -8.01876 272.281 
9.79558e-06 2.62808e-06 2.68666e+25 -6.914 -10.0123 272.377 
1.17069e-05 2.62808e-06 2.69019e+25 -5.23876 -10.9033 272.209 
1.36182e-05 2.62808e-06 2.69254e+25 -2.9675 -9.19434 272.01 
1.55296e-05 2.62808e-06 2.69098e+25 -0.728327 -5.13342 272.243 
2.38917e-07 3.10592e-06 2.68388e+25 -5.8459 2.8705 272.278 
2.15025e-06 3.10592e-06 2.68949e+25 -6.56911 0.629225 271.98 
4.06158e-06 3.10592e-06 2.68839e+25 -7.41522 -2.36135 272.104 
5.97292e-06 3.10592e-06 2.6895e+25 -7.79283 -5.10652 271.991 
7.88425e-06 3.10592e-06 2.68704e+25 -7.62517 -8.09235 272.35 
9.79558e-06 3.10592e-06 2.68649e+25 -7.04182 -10.2723 272.433 
1.17069e-05 3.10592e-06 2.68927e+25 -5.38521 -11.4546 272.229 
1.36182e-05 3.10592e-06 2.69178e+25 -3.0727 -9.81908 272.07 
1.55296e-05 3.10592e-06 2.68869e+25 -0.774946 -5.57833 272.33 
2.38917e-07 3.58375e-06 2.68452e+25 -5.4968 3.01977 272.233 
2.15025e-06 3.58375e-06 2.68818e+25 -6.03395 0.822136 272.07 
4.06158e-06 3.58375e-06 2.68616e+25 -6.91846 -2.15981 272.223 
5.97292e-06 3.58375e-06 2.68677e+25 -7.64183 -5.06389 272.211 
7.88425e-06 3.58375e-06 2.68632e+25 -7.52686 -8.11893 272.349 
9.79558e-06 3.58375e-06 2.68809e+25 -7.12671 -10.5201 272.331 
1.17069e-05 3.58375e-06 2.68958e+25 -5.55983 -11.9294 272.201 
1.36182e-05 3.58375e-06 2.69e+25 -3.12291 -10.4634 272.158 
1.55296e-05 3.58375e-06 2.69199e+25 -0.815618 -5.97994 272.095 
2.38917e-07 4.06158e-06 2.68381e+25 -5.1275 3.20236 272.223 
2.15025e-06 4.06158e-06 2.68831e+25 -5.44678 0.944617 272.025 
4.06158e-06 4.06158e-06 2.68583e+25 -6.5266 -1.86353 272.183 
5.97292e-06 4.06158e-06 2.68861e+25 -7.21868 -5.09147 272.152 
7.88425e-06 4.06158e-06 2.6862e+25 -7.29303 -8.12271 272.376 
9.79558e-06 4.06158e-06 2.68813e+25 -7.03157 -10.7716 272.296 
1.17069e-05 4.06158e-06 2.68965e+25 -5.63133 -12.3457 272.193 
1.36182e-05 4.06158e-06 2.69128e+25 -3.20797 -11.1273 272.103 
1.55296e-05 4.06158e-06 2.69062e+25 -0.843301 -6.45429 272.181 
2.38917e-07 4.53942e-06 2.68353e+25 -4.74026 3.27123 272.221 
2.15025e-06 4.53942e-06 2.68827e+25 -5.06914 1.12933 272.019 
4.06158e-06 4.53942e-06 2.68758e+25 -5.95474 -1.56302 272.04 
5.97292e-06 4.53942e-06 2.687e+25 -6.67429 -5.04782 272.199 
7.88425e-06 4.53942e-06 2.68681e+25 -7.03463 -8.1386 272.249 
9.79558e-06 4.53942e-06 2.68814e+25 -6.83053 -11.0229 272.288 
1.17069e-05 4.53942e-06 2.68923e+25 -5.65428 -12.8171 272.29 
1.36182e-05 4.53942e-06 2.69089e+25 -3.36295 -11.7764 272.125 
1.55296e-05 4.53942e-06 2.69013e+25 -0.918988 -6.9416 272.274 
2.38917e-07 5.01725e-06 2.68516e+25 -4.41921 3.27708 272.097 
2.15025e-06 5.01725e-06 2.68825e+25 -4.66446 1.22843 271.978 
4.06158e-06 5.01725e-06 2.68807e+25 -5.35232 -1.34333 272.058 
5.97292e-06 5.01725e-06 2.6854e+25 -6.13791 -4.84747 272.277 
7.88425e-06 5.01725e-06 2.68627e+25 -6.87274 -8.093 272.278 
9.79558e-06 5.01725e-06 2.68724e+25 -6.65468 -11.2808 272.287 
1.17069e-05 5.01725e-06 2.68902e+25 -5.68585 -13.3032 272.312 
1.36182e-05 5.01725e-06 2.69053e+25 -3.32262 -12.4308 272.169 
1.55296e-05 5.01725e-06 2.68993e+25 -1.00745 -7.42601 272.241 
2.38917e-07 5.49508e-06 2.68459e+25 -3.8756 3.32802 272.111 
2.15025e-06 5.49508e-06 2.68758e+25 -4.24481 1.31629 271.993 
4.06158e-06 5.49508e-06 2.68694e+25 -4.77598 -1.12806 272.063 
5.97292e-06 5.49508e-06 2.68655e+25 -5.73723 -4.53317 272.185 
7.88425e-06 5.49508e-06 2.68698e+25 -6.49418 -7.97546 272.255 
9.79558e-06 5.49508e-06 2.68871e+25 -6.53708 -11.4699 272.201 
1.17069e-05 5.49508e-06 2.6899e+25 -5.53173 -13.7076 272.299 
1.36182e-05 5.49508e-06 2.69188e+25 -3.51373 -13.128 272.125 
1.55296e-05 5.49508e-06 2.68998e+25 -1.02947 -7.93787 272.262 
2.38917e-07 5.97292e-06 2.68513e+25 -3.3359 3.35258 272.059 
2.15025e-06 5.97292e-06 2.68801e+25 -3.51494 1.47412 271.926 
4.06158e-06 5.97292e-06 2.68716e+25 -4.19899 -0.981875 272.074 
5.97292e-06 5.97292e-06 2.68771e+25 -5.30242 -4.29485 272.122 
7.88425e-06 5.97292e-06 2.6869e+25 -6.0331 -7.7674 272.222 
9.79558e-06 5.97292e-06 2.68888e+25 -6.25646 -11.5467 272.178 
1.17069e-05 5.97292e-06 2.6881e+25 -5.56979 -14.1185 272.321 
1.36182e-05 5.97292e-06 2.69011e+25 -3.50311 -13.751 272.203 
1.55296e-05 5.97292e-06 2.68917e+25 -1.10419 -8.42045 272.372 
2.38917e-07 6.45075e-06 2.68643e+25 -2.70121 3.32866 271.852 
2.15025e-06 6.45075e-06 2.68936e+25 -2.94271 1.54497 271.9 
4.06158e-06 6.45075e-06 2.68649e+25 -3.60335 -0.853791 272.076 
5.97292e-06 6.45075e-06 2.68687e+25 -4.5936 -3.99123 272.055 
7.88425e-06 6.45075e-06 2.6875e+25 -5.5188 -7.59311 272.122 
9.79558e-06 6.45075e-06 2.68842e+25 -5.99232 -11.5106 272.196 
1.17069e-05 6.45075e-06 2.68875e+25 -5.49184 -14.4303 272.276 
1.36182e-05 6.45075e-06 2.69103e+25 -3.69323 -14.3544 272.22 
1.55296e-05 6.45075e-06 2.69142e+25 -1.15816 -8.93627 272.244 
2.38917e-07 6.92858e-06 2.68859e+25 -2.20667 3.22259 271.764 
2.15025e-06 6.92858e-06 2.68849e+25 -2.32582 1.5513 271.879 
4.06158e-06 6.92858e-06 2.68774e+25 -2.96882 -0.695433 272.01 
5.97292e-06 6.92858e-06 2.68648e+25 -3.75121 -3.674 272.054 
7.88425e-06 6.92858e-06 2.68719e+25 -4.85654 -7.37307 272.071 
9.79558e-06 6.92858e-06 2.68832e+25 -5.48434 -11.4838 272.269 
1.17069e-05 6.92858e-06 2.68771e+25 -5.33121 -14.6324 272.367 
1.36182e-05 6.92858e-06 2.69206e+25 -3.79077 -15.0685 272.136 
1.55296e-05 6.92858e-06 2.69082e+25 -1.27302 -9.54494 272.194 
2.38917e-07 7.40642e-06 2.6861e+25 -1.53526 3.21584 271.911 
2.15025e-06 7.40642e-06 2.68795e+25 -1.56425 1.59516 271.961 
4.06158e-06 7.40642e-06 2.68698e+25 -2.15702 -0.560023 272.047 
5.97292e-06 7.40642e-06 2.68741e+25 -2.87097 -3.40316 272.021 
7.88425e-06 7.40642e-06 2.6876e+25 -3.86409 -7.13988 272.053 
9.79558e-06 7.40642e-06 2.6881e+25 -4.87682 -11.3584 272.285 
1.17069e-05 7.40642e-06 2.68839e+25 -5.09693 -14.7673 272.419 
1.36182e-05 7.40642e-06 2.69095e+25 -3.75259 -15.5959 272.183 
1.55296e-05 7.40642e-06 2.69318e+25 -1.25422 -10.2025 272.155 
2.38917e-07 7.88425e-06 2.68477e+25 -0.85342 3.27685 271.891 
2.15025e-06 7.88425e-06 2.68682e+25 -0.906726 1.72893 271.997 
4.06158e-06 7.88425e-06 2.68664e+25 -1.15455 -0.411772 272.087 
5.97292e-06 7.88425e-06 2.68669e+25 -1.89593 -3.20406 272.044 
7.88425e-06 7.88425e-06 2.68767e+25 -2.93391 -6.85261 272.088 
9.79558e-06 7.88425e-06 2.68704e+25 -4.24278 -11.0557 272.265 
1.17069e-05 7.88425e-06 2.68737e+25 -4.86226 -14.7753 272.5 
1.36182e-05 7.88425e-06 2.69396e+25 -3.69945 -16.061 272.114 
1.55296e-05 7.88425e-06 2.6922e+25 -1.33688 -10.777 272.178 
2.38917e-07 8.36208e-06 2.68556e+25 0.0453868 3.38062 271.935 
2.15025e-06 8.36208e-06 2.68615e+25 -0.0887395 1.82962 272.019 
4.06158e-06 8.36208e-06 2.68557e+25 -0.302104 -0.192765 272.165 
5.97292e-06 8.36208e-06 2.68646e+25 -0.921269 -3.03312 272.101 
7.88425e-06 8.36208e-06 2.68807e+25 -1.94969 -6.48539 272.052 
9.79558e-06 8.36208e-06 2.6879e+25 -3.60815 -10.6521 272.211 
1.17069e-05 8.36208e-06 2.6885e+25 -4.56204 -14.7405 272.36 
1.36182e-05 8.36208e-06 2.6921e+25 -3.79453 -16.5161 272.288 
1.55296e-05 8.36208e-06 2.69205e+25 -1.33129 -11.3285 272.28 
2.38917e-07 8.83992e-06 2.68606e+25 0.987086 3.35127 271.897 
2.15025e-06 8.83992e-06 2.68861e+25 0.851894 1.8727 271.879 
4.06158e-06 8.83992e-06 2.68703e+25 0.77002 -0.0302882 272.007 
5.97292e-06 8.83992e-06 2.68684e+25 0.199916 -2.88204 272.001 
7.88425e-06 8.83992e-06 2.68726e+25 -1.02455 -6.12942 272.116 
9.79558e-06 8.83992e-06 2.68765e+25 -2.68379 -10.3246 272.232 
1.17069e-05 8.83992e-06 2.69016e+25 -4.01229 -14.6381 272.266 
1.36182e-05 8.83992e-06 2.69069e+25 -3.81065 -16.9746 272.388 
1.55296e-05 8.83992e-06 2.69166e+25 -1.44735 -11.9735 272.336 
2.38917e-07 9.31775e-06 2.68678e+25 1.84902 3.21538 271.904 
2.15025e-06 9.31775e-06 2.68639e+25 1.83693 1.9316 271.972 
4.06158e-06 9.31775e-06 2.68532e+25 1.76621 0.0325709 272.167 
5.97292e-06 9.31775e-06 2.68615e+25 1.28872 -2.72521 272.141 
7.88425e-06 9.31775e-06 2.68731e+25 0.0673296 -5.721 272.15 
9.79558e-06 9.31775e-06 2.68692e+25 -1.79769 -9.9334 272.303 
1.17069e-05 9.31775e-06 2.69011e+25 -3.41924 -14.3645 272.276 
1.36182e-05 9.31775e-06 2.69113e+25 -3.68052 -17.3193 272.387 
1.55296e-05 9.31775e-06 2.69429e+25 -1.51145 -12.5883 272.269 
2.38917e-07 9.79558e-06 2.68531e+25 2.66374 3.0754 271.996 
2.15025e-06 9.79558e-06 2.68705e+25 2.96899 1.95643 271.98 
4.06158e-06 9.79558e-06 2.68668e+25 2.91081 0.0276126 272.108 
5.97292e-06 9.79558e-06 2.68693e+25 2.45419 -2.46192 272.11 
7.88425e-06 9.79558e-06 2.68783e+25 1.21857 -5.34169 272.132 
9.79558e-06 9.79558e-06 2.68748e+25 -0.829463 -9.45026 272.255 
1.17069e-05 9.79558e-06 2.69093e+25 -2.77123 -13.9712 272.272 
1.36182e-05 9.79558e-06 2.69113e+25 -3.43622 -17.5748 272.34 
1.55296e-05 9.79558e-06 2.69425e+25 -1.62383 -13.2631 272.338 
2.38917e-07 1.02734e-05 2.68559e+25 3.62627 2.96244 271.984 
2.15025e-06 1.02734e-05 2.6882e+25 4.11511 1.90027 271.935 
4.06158e-06 1.02734e-05 2.68519e+25 4.03527 0.0120842 272.177 
5.97292e-06 1.02734e-05 2.68504e+25 3.70607 -2.15811 272.234 
7.88425e-06 1.02734e-05 2.68724e+25 2.45058 -4.9063 272.124 
9.79558e-06 1.02734e-05 2.68682e+25 0.433333 -8.85098 272.273 
1.17069e-05 1.02734e-05 2.68992e+25 -1.9796 -13.4631 272.392 
1.36182e-05 1.02734e-05 2.69121e+25 -3.28507 -17.6666 272.46 
1.55296e-05 1.02734e-05 2.69527e+25 -1.5124 -13.9295 272.313 
2.38917e-07 1.07512e-05 2.68645e+25 4.74198 2.8966 271.887 
2.15025e-06 1.07512e-05 2.68773e+25 5.26497 1.84461 271.965 
4.06158e-06 1.07512e-05 2.68503e+25 5.45462 0.0233668 272.188 
5.97292e-06 1.07512e-05 2.68541e+25 4.95568 -1.92783 272.283 
7.88425e-06 1.07512e-05 2.68842e+25 3.65098 -4.4513 272.08 
9.79558e-06 1.07512e-05 2.68692e+25 1.6219 -8.28001 272.362 
1.17069e-05 1.07512e-05 2.68993e+25 -1.08573 -12.8669 272.44 
1.36182e-05 1.07512e-05 2.69203e+25 -2.96813 -17.5575 272.464 
1.55296e-05 1.07512e-05 2.69479e+25 -1.63847 -14.5953 272.391 
2.38917e-07 1.12291e-05 2.68656e+25 5.8274 2.75927 271.889 
2.15025e-06 1.12291e-05 2.68753e+25 6.59497 1.72758 272.014 
4.06158e-06 1.12291e-05 2.6863e+25 6.9448 0.0206275 272.175 
5.97292e-06 1.12291e-05 2.68524e+25 6.39495 -1.71227 272.233 
7.88425e-06 1.12291e-05 2.6873e+25 5.03767 -4.09936 272.161 
9.79558e-06 1.12291e-05 2.68871e+25 3.01868 -7.59472 272.284 
1.17069e-05 1.12291e-05 2.69049e+25 -0.0992197 -12.163 272.362 
1.36182e-05 1.12291e-05 2.6938e+25 -2.46104 -17.2952 272.4 
1.55296e-05 1.12291e-05 2.69584e+25 -1.65126 -15.261 272.453 
2.38917e-07 1.17069e-05 2.68477e+25 7.14248 2.56905 272.084 
2.15025e-06 1.17069e-05 2.68792e+25 7.91654 1.55542 271.921 
4.06158e-06 1.17069e-05 2.68614e+25 8.36872 0.110823 272.099 
5.97292e-06 1.17069e-05 2.68462e+25 8.02979 -1.44095 272.326 
7.88425e-06 1.17069e-05 2.68729e+25 6.56118 -3.60634 272.142 
9.79558e-06 1.17069e-05 2.68898e+25 4.4314 -6.83995 272.287 
1.17069e-05 1.17069e-05 2.69115e+25 1.025 -11.3845 272.443 
1.36182e-05 1.17069e-05 2.69391e+25 -1.93373 -16.9174 272.448 
1.55296e-05 1.17069e-05 2.69533e+25 -1.68317 -15.8207 272.641 
2.38917e-07 1.21847e-05 2.68448e+25 8.68647 2.34249 272.088 
2.15025e-06 1.21847e-05 2.68727e+25 9.56033 1.34912 272.016 
4.06158e-06 1.21847e-05 2.68747e+25 9.89035 0.19657 272.025 
5.97292e-06 1.21847e-05 2.68552e+25 9.52028 -1.28987 272.142 
7.88425e-06 1.21847e-05 2.68686e+25 8.23837 -3.15985 272.218 
9.79558e-06 1.21847e-05 2.6878e+25 5.95307 -6.16359 272.368 
1.17069e-05 1.21847e-05 2.69169e+25 2.32966 -10.4882 272.387 
1.36182e-05 1.21847e-05 2.69564e+25 -1.07844 -16.3751 272.4 
1.55296e-05 1.21847e-05 2.6971e+25 -1.84321 -16.3428 272.602 
2.38917e-07 1.26626e-05 2.68273e+25 10.4357 2.10722 272.215 
2.15025e-06 1.26626e-05 2.68743e+25 11.2561 1.08171 272.065 
4.06158e-06 1.26626e-05 2.68838e+25 11.6033 0.241879 271.955 
5.97292e-06 1.26626e-05 2.68622e+25 11.2746 -1.14376 272.261 
7.88425e-06 1.26626e-05 2.68666e+25 10.0216 -2.81383 272.243 
9.79558e-06 1.26626e-05 2.68752e+25 7.80797 -5.34528 272.491 
1.17069e-05 1.26626e-05 2.69185e+25 4.00217 -9.46041 272.444 
1.36182e-05 1.26626e-05 2.6964e+25 -0.246506 -15.5521 272.479 
1.55296e-05 1.26626e-05 2.70012e+25 -1.90739 -16.7135 272.599 
2.38917e-07 1.31404e-05 2.68276e+25 12.2413 1.84838 272.242 
2.15025e-06 1.31404e-05 2.68518e+25 13.0119 0.933827 272.167 
4.06158e-06 1.31404e-05 2.68732e+25 13.5274 0.143823 272.013 
5.97292e-06 1.31404e-05 2.68472e+25 13.2574 -1.00172 272.401 
7.88425e-06 1.31404e-05 2.68735e+25 12.0046 -2.3932 272.26 
9.79558e-06 1.31404e-05 2.68794e+25 9.6522 -4.61417 272.404 
1.17069e-05 1.31404e-05 2.69081e+25 5.99027 -8.35431 272.592 
1.36182e-05 1.31404e-05 2.69791e+25 0.647839 -14.3654 272.44 
1.55296e-05 1.31404e-05 2.70116e+25 -1.81054 -16.987 272.673 
2.38917e-07 1.36182e-05 2.68258e+25 14.0238 1.5297 272.327 
2.15025e-06 1.36182e-05 2.68495e+25 14.9928 0.80525 272.285 
4.06158e-06 1.36182e-05 2.68536e+25 15.4422 0.0493896 272.142 
5.97292e-06 1.36182e-05 2.68464e+25 15.1733 -0.871604 272.414 
7.88425e-06 1.36182e-05 2.68838e+25 14.129 -2.01325 272.202 
9.79558e-06 1.36182e-05 2.68933e+25 11.6311 -3.90629 272.366 
1.17069e-05 1.36182e-05 2.69138e+25 7.90747 -7.06783 272.624 
1.36182e-05 1.36182e-05 2.69769e+25 1.80455 -12.9177 272.542 
1.55296e-05 1.36182e-05 2.70386e+25 -1.82676 -17.1998 272.65 
2.38917e-07 1.40961e-05 2.68189e+25 16.185 1.12655 272.355 
2.15025e-06 1.40961e-05 2.68603e+25 17.0036 0.699658 272.237 
4.06158e-06 1.40961e-05 2.68605e+25 17.4443 0.0245451 272.145 
5.97292e-06 1.40961e-05 2.68538e+25 17.2019 -0.737475 272.331 
7.88425e-06 1.40961e-05 2.68822e+25 16.2784 -1.57324 272.238 
9.79558e-06 1.40961e-05 2.68931e+25 14.0005 -3.1886 272.484 
1.17069e-05 1.40961e-05 2.69135e+25 10.091 -5.74042 272.722 
1.36182e-05 1.40961e-05 2.69744e+25 3.53923 -11.1155 272.726 
1.55296e-05 1.40961e-05 2.70645e+25 -1.64869 -17.1942 272.614 
2.38917e-07 1.45739e-05 2.68094e+25 18.5559 0.804006 272.444 
2.15025e-06 1.45739e-05 2.68465e+25 19.3683 0.638306 272.268 
4.06158e-06 1.45739e-05 2.68522e+25 19.6274 -0.030909 272.278 
5.97292e-06 1.45739e-05 2.68468e+25 19.4832 -0.529786 272.396 
7.88425e-06 1.45739e-05 2.68755e+25 18.6191 -1.11827 272.319 
9.79558e-06 1.45739e-05 2.68974e+25 16.61 -2.47314 272.498 
1.17069e-05 1.45739e-05 2.69238e+25 12.6683 -4.50706 272.727 
1.36182e-05 1.45739e-05 2.69904e+25 5.94324 -9.1068 272.822 
1.55296e-05 1.45739e-05 2.7091e+25 -1.2936 -16.7119 272.716 
2.38917e-07 1.50518e-05 2.68256e+25 21.129 0.497211 272.373 
2.15025e-06 1.50518e-05 2.68548e+25 21.9797 0.544699 272.363 
4.06158e-06 1.50518e-05 2.68415e+25 22.1559 -0.0440189 272.346 
5.97292e-06 1.50518e-05 2.68437e+25 21.9738 -0.397111 272.426 
7.88425e-06 1.50518e-05 2.68715e+25 21.1718 -0.764609 272.404 
9.79558e-06 1.50518e-05 2.68853e+25 19.3521 -1.79437 272.548 
1.17069e-05 1.50518e-05 2.693e+25 15.5262 -3.31377 272.703 
1.36182e-05 1.50518e-05 2.69836e+25 8.83192 -6.99796 272.926 
1.55296e-05 1.50518e-05 2.71281e+25 -0.456638 -15.5175 272.78 
2.38917e-07 1.55296e-05 2.6817e+25 24.0012 0.251861 272.355 
2.15025e-06 1.55296e-05 2.68242e+25 24.7557 0.415423 272.523 
4.06158e-06 1.55296e-05 2.68421e+25 24.8662 0.0102477 272.388 
5.97292e-06 1.55296e-05 2.68478e+25 24.6114 -0.32278 272.465 
7.88425e-06 1.55296e-05 2.68681e+25 23.7997 -0.521137 272.415 
9.79558e-06 1.55296e-05 2.68852e+25 22.2121 -1.13452 272.58 
1.17069e-05 1.55296e-05 2.69244e+25 18.9647 -2.22398 272.768 
1.36182e-05 1.55296e-05 2.69729e+25 12.7043 -4.90758 273.153 
1.55296e-05 1.55296e-05 2.71492e+25 1.51289 -13.3117 273.081 
2.38917e-07 1.60074e-05 2.68304e+25 26.7814 0.0713928 272.385 
2.15025e-06 1.60074e-05 2.6825e+25 27.4232 0.222684 272.537 
4.06158e-06 1.60074e-05 2.68418e+25 27.6857 0.124387 272.411 
5.97292e-06 1.60074e-05 2.68463e+25 27.3912 -0.253884 272.472 
7.88425e-06 1.60074e-05 2.68598e+25 26.6241 -0.419611 272.479 
9.79558e-06 1.60074e-05 2.68644e+25 25.3697 -0.585173 272.765 
1.17069e-05 1.60074e-05 2.69146e+25 22.92 -1.3059 272.8 
1.36182e-05 1.60074e-05 2.69873e+25 17.6142 -2.94096 273.039 
1.55296e-05 1.60074e-05 2.71832e+25 5.40522 -9.85999 273.248 
2.38917e-07 1.64852e-05 2.68074e+25 29.9687 -0.0050479 272.507 
2.15025e-06 1.64852e-05 2.68064e+25 30.2728 0.0302341 272.728 
4.06158e-06 1.64852e-05 2.68268e+25 30.4533 0.121283 272.524 
5.97292e-06 1.64852e-05 2.68272e+25 30.266 -0.179083 272.659 
7.88425e-06 1.64852e-05 2.68441e+25 29.7973 -0.225462 272.613 
9.79558e-06 1.64852e-05 2.68487e+25 28.8482 -0.179373 272.882 
1.17069e-05 1.64852e-05 2.6908e+25 27.2327 -0.557753 272.789 
1.36182e-05 1.64852e-05 2.69781e+25 23.659 -1.29665 273.061 
1.55296e-05 1.64852e-05 2.71941e+25 12.7618 -5.3943 273.368 
2.38917e-07 1.69631e-05 2.67867e+25 32.9112 0.000393793 272.799 
2.15025e-06 1.69631e-05 2.67974e+25 32.9505 -0.0442111 272.885 
4.06158e-06 1.69631e-05 2.68194e+25 33.0352 0.0367989 272.789 
5.97292e-06 1.69631e-05 2.68202e+25 32.9826 -0.0207682 272.838 
7.88425e-06 1.69631e-05 2.68327e+25 32.7161 -0.0482625 272.828 
9.79558e-06 1.69631e-05 2.68651e+25 32.2672 -0.0170241 272.88 
1.17069e-05 1.69631e-05 2.68995e+25 31.5966 -0.095299 272.976 
1.36182e-05 1.69631e-05 2.6959e+25 30.2346 -0.257518 273.154 
1.55296e-05 1.69631e-05 2.71713e+25 24.2457 -1.33373 273.426 
7.1675e-07 2.38917e-07 2.68782e+25 -7.64842 1.2593 272.087 
2.62808e-06 2.38917e-07 2.68694e+25 -8.11502 -0.963436 272.144 
4.53942e-06 2.38917e-07 2.68588e+25 -7.96244 -3.18278 272.253 
6.45075e-06 2.38917e-07 2.68676e+25 -7.77319 -5.30928 272.096 
8.36208e-06 2.38917e-07 2.6885e+25 -7.07301 -7.70102 272.012 
1.02734e-05 2.38917e-07 2.68659e+25 -5.59596 -8.62348 272.219 
1.21847e-05 2.38917e-07 2.68777e+25 -3.59729 -7.98598 272.216 
1.40961e-05 2.38917e-07 2.68817e+25 -1.6571 -5.83589 272.124 
1.60074e-05 2.38917e-07 2.68589e+25 -0.190973 -2.42223 272.345 
7.1675e-07 7.1675e-07 2.68806e+25 -7.54807 1.48712 272.138 
2.62808e-06 7.1675e-07 2.68805e+25 -8.11061 -0.990311 272.114 
4.53942e-06 7.1675e-07 2.68916e+25 -8.16184 -3.19949 272.155 
6.45075e-06 7.1675e-07 2.68924e+25 -7.77512 -5.39765 272.125 
8.36208e-06 7.1675e-07 2.68962e+25 -7.19628 -7.97593 272.128 
1.02734e-05 7.1675e-07 2.68975e+25 -5.87318 -8.93041 272.187 
1.21847e-05 7.1675e-07 2.69044e+25 -3.87925 -8.49768 272.205 
1.40961e-05 7.1675e-07 2.69028e+25 -1.84634 -6.3479 272.175 
1.60074e-05 7.1675e-07 2.68854e+25 -0.218402 -2.63267 272.311 
7.1675e-07 1.19458e-06 2.68883e+25 -7.26726 1.67423 272.054 
2.62808e-06 1.19458e-06 2.68931e+25 -7.94715 -0.87945 272.046 
4.53942e-06 1.19458e-06 2.68909e+25 -8.21413 -3.21514 272.085 
6.45075e-06 1.19458e-06 2.6889e+25 -7.89264 -5.50992 272.173 
8.36208e-06 1.19458e-06 2.68841e+25 -7.24456 -8.2302 272.283 
1.02734e-05 1.19458e-06 2.68874e+25 -6.02066 -9.2861 272.352 
1.21847e-05 1.19458e-06 2.69024e+25 -4.12194 -8.98477 272.179 
1.40961e-05 1.19458e-06 2.69104e+25 -1.97522 -6.80756 272.177 
1.60074e-05 1.19458e-06 2.68879e+25 -0.370814 -2.87009 272.376 
7.1675e-07 1.67242e-06 2.68812e+25 -7.004 1.91715 272.092 
2.62808e-06 1.67242e-06 2.68975e+25 -7.80506 -0.733984 272.089 
4.53942e-06 1.67242e-06 2.6896e+25 -8.09554 -3.1461 272.021 
6.45075e-06 1.67242e-06 2.68919e+25 -7.92057 -5.58486 272.136 
8.36208e-06 1.67242e-06 2.68799e+25 -7.29621 -8.43409 272.396 
1.02734e-05 1.67242e-06 2.68927e+25 -6.25865 -9.61998 272.246 
1.21847e-05 1.67242e-06 2.68926e+25 -4.19427 -9.56648 272.213 
1.40961e-05 1.67242e-06 2.68964e+25 -2.11697 -7.28386 272.152 
1.60074e-05 1.67242e-06 2.68869e+25 -0.400135 -3.11345 272.371 
7.1675e-07 2.15025e-06 2.68759e+25 -6.77262 2.06508 272.149 
2.62808e-06 2.15025e-06 2.68891e+25 -7.53368 -0.625228 272.073 
4.53942e-06 2.15025e-06 2.68882e+25 -8.10965 -3.12631 271.991 
6.45075e-06 2.15025e-06 2.68833e+25 -7.88248 -5.68059 272.184 
8.36208e-06 2.15025e-06 2.68728e+25 -7.3555 -8.61098 272.364 
1.02734e-05 2.15025e-06 2.6868e+25 -6.47918 -9.97945 272.42 
1.21847e-05 2.15025e-06 2.69072e+25 -4.41034 -10.1357 272.111 
1.40961e-05 2.15025e-06 2.69154e+25 -2.25197 -7.79806 272.044 
1.60074e-05 2.15025e-06 2.68763e+25 -0.39716 -3.43488 272.446 
7.1675e-07 2.62808e-06 2.68663e+25 -6.43006 2.17423 272.128 
2.62808e-06 2.62808e-06 2.68949e+25 -7.20708 -0.436232 271.97 
4.53942e-06 2.62808e-06 2.68961e+25 -7.87049 -3.00604 272.033 
6.45075e-06 2.62808e-06 2.68872e+25 -7.91734 -5.73677 272.057 
8.36208e-06 2.62808e-06 2.68767e+25 -7.53191 -8.77563 272.348 
1.02734e-05 2.62808e-06 2.68781e+25 -6.54334 -10.3593 272.33 
1.21847e-05 2.62808e-06 2.69079e+25 -4.61735 -10.7298 272.144 
1.40961e-05 2.62808e-06 2.69192e+25 -2.35685 -8.45708 272.069 
1.60074e-05 2.62808e-06 2.68876e+25 -0.371337 -3.72793 272.376 
7.1675e-07 3.10592e-06 2.68683e+25 -5.99286 2.31186 272.115 
2.62808e-06 3.10592e-06 2.68928e+25 -6.81717 -0.208243 271.989 
4.53942e-06 3.10592e-06 2.68788e+25 -7.57376 -2.94078 272.064 
6.45075e-06 3.10592e-06 2.68907e+25 -7.79868 -5.76223 272.105 
8.36208e-06 3.10592e-06 2.68821e+25 -7.56843 -8.90881 272.292 
1.02734e-05 3.10592e-06 2.6885e+25 -6.6834 -10.811 272.338 
1.21847e-05 3.10592e-06 2.68933e+25 -4.82737 -11.3357 272.265 
1.40961e-05 3.10592e-06 2.69136e+25 -2.39384 -9.11029 272.057 
1.60074e-05 3.10592e-06 2.69007e+25 -0.342311 -4.05074 272.318 
7.1675e-07 3.58375e-06 2.68735e+25 -5.68024 2.52003 272.146 
2.62808e-06 3.58375e-06 2.6872e+25 -6.14661 0.00635165 272.038 
4.53942e-06 3.58375e-06 2.68618e+25 -7.16307 -2.77085 272.248 
6.45075e-06 3.58375e-06 2.68856e+25 -7.56105 -5.86357 272.157 
8.36208e-06 3.58375e-06 2.68708e+25 -7.51803 -8.95198 272.345 
1.02734e-05 3.58375e-06 2.6887e+25 -6.82767 -11.1923 272.303 
1.21847e-05 3.58375e-06 2.68941e+25 -5.09167 -11.833 272.304 
1.40961e-05 3.58375e-06 2.69057e+25 -2.472 -9.79185 272.216 
1.60074e-05 3.58375e-06 2.68925e+25 -0.41971 -4.42344 272.266 
7.1675e-07 4.06158e-06 2.68701e+25 -5.23559 2.66641 272.14 
2.62808e-06 4.06158e-06 2.68892e+25 -5.7116 0.254814 271.959 
4.53942e-06 4.06158e-06 2.68672e+25 -6.78913 -2.52426 272.195 
6.45075e-06 4.06158e-06 2.68681e+25 -7.2296 -5.89534 272.177 
8.36208e-06 4.06158e-06 2.68636e+25 -7.27901 -8.962 272.401 
1.02734e-05 4.06158e-06 2.68816e+25 -6.71976 -11.5191 272.325 
1.21847e-05 4.06158e-06 2.68879e+25 -5.16931 -12.3514 272.337 
1.40961e-05 4.06158e-06 2.6903e+25 -2.55285 -10.4211 272.218 
1.60074e-05 4.06158e-06 2.68882e+25 -0.469945 -4.70494 272.324 
7.1675e-07 4.53942e-06 2.68787e+25 -4.80449 2.80773 272.113 
2.62808e-06 4.53942e-06 2.68887e+25 -5.27843 0.50736 271.993 
4.53942e-06 4.53942e-06 2.68675e+25 -6.20115 -2.31431 272.199 
6.45075e-06 4.53942e-06 2.68756e+25 -6.84057 -5.77536 272.15 
8.36208e-06 4.53942e-06 2.68616e+25 -7.10314 -8.92045 272.372 
1.02734e-05 4.53942e-06 2.68995e+25 -6.61196 -11.7671 272.146 
1.21847e-05 4.53942e-06 2.6901e+25 -5.12814 -12.8947 272.312 
1.40961e-05 4.53942e-06 2.69107e+25 -2.70393 -11.0493 272.156 
1.60074e-05 4.53942e-06 2.68914e+25 -0.498565 -5.03299 272.272 
7.1675e-07 5.01725e-06 2.68777e+25 -4.40049 2.87844 272.092 
2.62808e-06 5.01725e-06 2.6882e+25 -4.76237 0.728029 271.942 
4.53942e-06 5.01725e-06 2.68705e+25 -5.54463 -2.10467 272.177 
6.45075e-06 5.01725e-06 2.68677e+25 -6.39716 -5.54586 272.186 
8.36208e-06 5.01725e-06 2.687e+25 -6.95706 -8.81585 272.229 
1.02734e-05 5.01725e-06 2.68842e+25 -6.46981 -11.9251 272.287 
1.21847e-05 5.01725e-06 2.68815e+25 -5.16702 -13.4901 272.352 
1.40961e-05 5.01725e-06 2.69091e+25 -2.71923 -11.6964 272.199 
1.60074e-05 5.01725e-06 2.68949e+25 -0.563322 -5.41201 272.353 
7.1675e-07 5.49508e-06 2.6872e+25 -3.89549 2.86698 272.069 
2.62808e-06 5.49508e-06 2.68896e+25 -4.33724 0.773604 271.995 
4.53942e-06 5.49508e-06 2.68714e+25 -4.97123 -1.89243 272.106 
6.45075e-06 5.49508e-06 2.68765e+25 -6.02033 -5.30503 272.132 
8.36208e-06 5.49508e-06 2.68575e+25 -6.63183 -8.75297 272.317 
1.02734e-05 5.49508e-06 2.68854e+25 -6.3451 -12.1206 272.298 
1.21847e-05 5.49508e-06 2.68908e+25 -5.13322 -13.9628 272.357 
1.40961e-05 5.49508e-06 2.69026e+25 -2.8443 -12.2835 272.236 
1.60074e-05 5.49508e-06 2.68994e+25 -0.563947 -5.77099 272.285 
7.1675e-07 5.97292e-06 2.6873e+25 -3.34668 2.9092 272.079 
2.62808e-06 5.97292e-06 2.68798e+25 -3.62601 0.84522 271.96 
4.53942e-06 5.97292e-06 2.68677e+25 -4.35897 -1.65132 272.083 
6.45075e-06 5.97292e-06 2.68706e+25 -5.50772 -5.11501 272.093 
8.36208e-06 5.97292e-06 2.68641e+25 -6.16692 -8.67282 272.223 
1.02734e-05 5.97292e-06 2.68806e+25 -6.21677 -12.255 272.297 
1.21847e-05 5.97292e-06 2.68856e+25 -5.16395 -14.3623 272.36 
1.40961e-05 5.97292e-06 2.69058e+25 -2.92516 -12.9277 272.283 
1.60074e-05 5.97292e-06 2.6893e+25 -0.646637 -6.19877 272.354 
7.1675e-07 6.45075e-06 2.68754e+25 -2.64904 2.90416 272.025 
2.62808e-06 6.45075e-06 2.68707e+25 -3.01645 1.03962 271.96 
4.53942e-06 6.45075e-06 2.6874e+25 -3.72826 -1.49369 271.974 
6.45075e-06 6.45075e-06 2.68696e+25 -4.86776 -4.93748 272.049 
8.36208e-06 6.45075e-06 2.68787e+25 -5.70059 -8.5001 272.16 
1.02734e-05 6.45075e-06 2.68866e+25 -5.98005 -12.3527 272.221 
1.21847e-05 6.45075e-06 2.68941e+25 -5.19248 -14.7626 272.314 
1.40961e-05 6.45075e-06 2.69114e+25 -2.93047 -13.64 272.288 
1.60074e-05 6.45075e-06 2.69047e+25 -0.686376 -6.6463 272.235 
7.1675e-07 6.92858e-06 2.68849e+25 -2.12322 2.92606 271.914 
2.62808e-06 6.92858e-06 2.68745e+25 -2.41521 1.23675 271.893 
4.53942e-06 6.92858e-06 2.68719e+25 -3.1489 -1.37273 272.061 
6.45075e-06 6.92858e-06 2.68711e+25 -4.07587 -4.65279 272.044 
8.36208e-06 6.92858e-06 2.68733e+25 -5.06375 -8.30399 272.171 
1.02734e-05 6.92858e-06 2.68653e+25 -5.53182 -12.3504 272.377 
1.21847e-05 6.92858e-06 2.6883e+25 -5.10275 -15.0953 272.335 
1.40961e-05 6.92858e-06 2.69228e+25 -3.16311 -14.309 272.173 
1.60074e-05 6.92858e-06 2.69186e+25 -0.686741 -7.0979 272.213 
7.1675e-07 7.40642e-06 2.68873e+25 -1.57238 2.92721 271.802 
2.62808e-06 7.40642e-06 2.68685e+25 -1.73872 1.41475 271.986 
4.53942e-06 7.40642e-06 2.68711e+25 -2.27758 -1.16856 272.012 
6.45075e-06 7.40642e-06 2.68642e+25 -3.13408 -4.36431 272.107 
8.36208e-06 7.40642e-06 2.688e+25 -4.11802 -8.07904 272.16 
1.02734e-05 7.40642e-06 2.68812e+25 -5.04654 -12.2819 272.338 
1.21847e-05 7.40642e-06 2.68862e+25 -4.98998 -15.3107 272.452 
1.40961e-05 7.40642e-06 2.69224e+25 -3.24648 -14.947 272.15 
1.60074e-05 7.40642e-06 2.6912e+25 -0.712572 -7.59193 272.266 
7.1675e-07 7.88425e-06 2.68767e+25 -0.88384 2.92092 271.936 
2.62808e-06 7.88425e-06 2.6859e+25 -0.970086 1.4936 272.025 
4.53942e-06 7.88425e-06 2.68498e+25 -1.36679 -0.986876 272.217 
6.45075e-06 7.88425e-06 2.68741e+25 -2.08673 -4.10973 272.029 
8.36208e-06 7.88425e-06 2.68903e+25 -3.2363 -7.798 272.014 
1.02734e-05 7.88425e-06 2.6888e+25 -4.5309 -12.1101 272.261 
1.21847e-05 7.88425e-06 2.6879e+25 -4.81672 -15.4258 272.5 
1.40961e-05 7.88425e-06 2.69284e+25 -3.19814 -15.4461 272.139 
1.60074e-05 7.88425e-06 2.69192e+25 -0.806565 -8.04904 272.331 
7.1675e-07 8.36208e-06 2.68761e+25 -0.00202183 2.88978 271.956 
2.62808e-06 8.36208e-06 2.68568e+25 -0.104269 1.4827 272.039 
4.53942e-06 8.36208e-06 2.68476e+25 -0.507953 -0.776653 272.253 
6.45075e-06 8.36208e-06 2.68921e+25 -1.11582 -3.9214 271.925 
8.36208e-06 8.36208e-06 2.68908e+25 -2.31718 -7.49839 272.027 
1.02734e-05 8.36208e-06 2.68777e+25 -3.9194 -11.8709 272.233 
1.21847e-05 8.36208e-06 2.68914e+25 -4.50799 -15.5272 272.365 
1.40961e-05 8.36208e-06 2.69222e+25 -3.27529 -16.0449 272.268 
1.60074e-05 8.36208e-06 2.69077e+25 -0.771025 -8.60216 272.337 
7.1675e-07 8.83992e-06 2.68756e+25 1.02617 2.96649 271.942 
2.62808e-06 8.83992e-06 2.68764e+25 0.777663 1.50399 271.941 
4.53942e-06 8.83992e-06 2.68664e+25 0.599736 -0.616439 272.08 
6.45075e-06 8.83992e-06 2.68682e+25 -0.00950237 -3.6901 272.032 
8.36208e-06 8.83992e-06 2.68888e+25 -1.41367 -7.11792 271.997 
1.02734e-05 8.83992e-06 2.6883e+25 -3.0636 -11.5094 272.266 
1.21847e-05 8.83992e-06 2.69052e+25 -4.14423 -15.5676 272.256 
1.40961e-05 8.83992e-06 2.69096e+25 -3.37014 -16.563 272.385 
1.60074e-05 8.83992e-06 2.68961e+25 -0.812898 -9.13487 272.487 
7.1675e-07 9.31775e-06 2.68773e+25 1.91605 3.00631 271.886 
2.62808e-06 9.31775e-06 2.68669e+25 1.81987 1.52142 271.963 
4.53942e-06 9.31775e-06 2.68607e+25 1.78094 -0.508038 272.114 
6.45075e-06 9.31775e-06 2.68569e+25 1.07642 -3.35545 272.146 
8.36208e-06 9.31775e-06 2.68636e+25 -0.402772 -6.65998 272.258 
1.02734e-05 9.31775e-06 2.6884e+25 -2.2236 -11.0853 272.263 
1.21847e-05 9.31775e-06 2.68969e+25 -3.66186 -15.4196 272.363 
1.40961e-05 9.31775e-06 2.6907e+25 -3.23396 -17.0779 272.464 
1.60074e-05 9.31775e-06 2.6926e+25 -0.893404 -9.73565 272.386 
7.1675e-07 9.79558e-06 2.68727e+25 2.78605 3.0169 271.986 
2.62808e-06 9.79558e-06 2.68775e+25 2.95731 1.52026 271.916 
4.53942e-06 9.79558e-06 2.68647e+25 2.90414 -0.517407 272.083 
6.45075e-06 9.79558e-06 2.68534e+25 2.15297 -3.12254 272.218 
8.36208e-06 9.79558e-06 2.68702e+25 0.78101 -6.15275 272.194 
1.02734e-05 9.79558e-06 2.68821e+25 -1.35457 -10.6287 272.289 
1.21847e-05 9.79558e-06 2.69029e+25 -3.22601 -15.1338 272.368 
1.40961e-05 9.79558e-06 2.69286e+25 -3.18631 -17.4881 272.375 
1.60074e-05 9.79558e-06 2.69328e+25 -0.947188 -10.3571 272.303 
7.1675e-07 1.02734e-05 2.6872e+25 3.77922 2.84554 271.953 
2.62808e-06 1.02734e-05 2.68706e+25 4.1508 1.53513 271.942 
4.53942e-06 1.02734e-05 2.68625e+25 4.00049 -0.479098 272.148 
6.45075e-06 1.02734e-05 2.68538e+25 3.42905 -2.86042 272.265 
8.36208e-06 1.02734e-05 2.68652e+25 1.94264 -5.63599 272.156 
1.02734e-05 1.02734e-05 2.68784e+25 -0.197466 -10.0749 272.327 
1.21847e-05 1.02734e-05 2.6897e+25 -2.45507 -14.7137 272.441 
1.40961e-05 1.02734e-05 2.69479e+25 -3.15677 -17.7661 272.345 
1.60074e-05 1.02734e-05 2.69494e+25 -0.858002 -10.9847 272.368 
7.1675e-07 1.07512e-05 2.68848e+25 4.83434 2.63786 271.966 
2.62808e-06 1.07512e-05 2.68752e+25 5.40593 1.45131 271.912 
4.53942e-06 1.07512e-05 2.68507e+25 5.44294 -0.451519 272.162 
6.45075e-06 1.07512e-05 2.68702e+25 4.76017 -2.60424 272.175 
8.36208e-06 1.07512e-05 2.68794e+25 3.25681 -5.19085 272.193 
1.02734e-05 1.07512e-05 2.68914e+25 0.967507 -9.37908 272.314 
1.21847e-05 1.07512e-05 2.68985e+25 -1.7125 -14.2128 272.49 
1.40961e-05 1.07512e-05 2.69394e+25 -2.98481 -17.9947 272.324 
1.60074e-05 1.07512e-05 2.69459e+25 -0.999337 -11.5964 272.45 
7.1675e-07 1.12291e-05 2.68729e+25 5.98873 2.49736 271.927 
2.62808e-06 1.12291e-05 2.68709e+25 6.69823 1.35518 272.014 
4.53942e-06 1.12291e-05 2.68465e+25 6.86986 -0.394602 272.263 
6.45075e-06 1.12291e-05 2.68545e+25 6.10776 -2.36063 272.292 
8.36208e-06 1.12291e-05 2.68644e+25 4.61907 -4.73474 272.304 
1.02734e-05 1.12291e-05 2.68892e+25 2.2581 -8.6217 272.334 
1.21847e-05 1.12291e-05 2.69026e+25 -0.804541 -13.5841 272.464 
1.40961e-05 1.12291e-05 2.69459e+25 -2.62665 -18.0348 272.36 
1.60074e-05 1.12291e-05 2.69556e+25 -1.00183 -12.192 272.574 
7.1675e-07 1.17069e-05 2.68686e+25 7.39489 2.27824 272.022 
2.62808e-06 1.17069e-05 2.6877e+25 8.1232 1.2171 272.018 
4.53942e-06 1.17069e-05 2.68636e+25 8.24527 -0.244594 272.222 
6.45075e-06 1.17069e-05 2.68657e+25 7.76879 -2.08436 272.149 
8.36208e-06 1.17069e-05 2.68859e+25 6.0846 -4.30977 272.203 
1.02734e-05 1.17069e-05 2.69116e+25 3.63984 -7.83373 272.2 
1.21847e-05 1.17069e-05 2.69066e+25 0.218355 -12.8195 272.516 
1.40961e-05 1.17069e-05 2.6954e+25 -2.23445 -17.9142 272.434 
1.60074e-05 1.17069e-05 2.69464e+25 -1.1281 -12.7963 272.665 
7.1675e-07 1.21847e-05 2.68868e+25 8.90636 2.0235 271.953 
2.62808e-06 1.21847e-05 2.68708e+25 9.77642 1.01448 272.008 
4.53942e-06 1.21847e-05 2.68581e+25 9.79429 -0.161973 272.142 
6.45075e-06 1.21847e-05 2.68595e+25 9.31216 -1.7588 272.183 
8.36208e-06 1.21847e-05 2.68821e+25 7.81149 -3.8818 272.217 
1.02734e-05 1.21847e-05 2.68875e+25 5.1572 -6.9622 272.434 
1.21847e-05 1.21847e-05 2.69214e+25 1.32889 -11.8968 272.386 
1.40961e-05 1.21847e-05 2.69718e+25 -1.66822 -17.5692 272.458 
1.60074e-05 1.21847e-05 2.69623e+25 -1.25162 -13.4296 272.665 
7.1675e-07 1.26626e-05 2.68564e+25 10.6492 1.81064 272.158 
2.62808e-06 1.26626e-05 2.68641e+25 11.444 0.8533 272.072 
4.53942e-06 1.26626e-05 2.68679e+25 11.6455 -0.108476 272.069 
6.45075e-06 1.26626e-05 2.68613e+25 11.1026 -1.50205 272.177 
8.36208e-06 1.26626e-05 2.68773e+25 9.65034 -3.43477 272.257 
1.02734e-05 1.26626e-05 2.68971e+25 6.95039 -6.134 272.387 
1.21847e-05 1.26626e-05 2.69313e+25 2.95111 -10.8485 272.455 
1.40961e-05 1.26626e-05 2.6978e+25 -1.1848 -16.8972 272.534 
1.60074e-05 1.26626e-05 2.69948e+25 -1.38719 -14.1249 272.682 
7.1675e-07 1.31404e-05 2.68573e+25 12.4776 1.59585 272.179 
2.62808e-06 1.31404e-05 2.6865e+25 13.1135 0.714288 272.166 
4.53942e-06 1.31404e-05 2.68703e+25 13.5457 -0.109723 272.121 
6.45075e-06 1.31404e-05 2.68514e+25 13.0684 -1.26825 272.366 
8.36208e-06 1.31404e-05 2.68721e+25 11.5361 -2.97179 272.26 
1.02734e-05 1.31404e-05 2.69077e+25 8.94495 -5.28905 272.357 
1.21847e-05 1.31404e-05 2.69415e+25 4.71844 -9.63254 272.462 
1.40961e-05 1.31404e-05 2.69983e+25 -0.554108 -15.9244 272.498 
1.60074e-05 1.31404e-05 2.70066e+25 -1.31444 -14.7682 272.713 
7.1675e-07 1.36182e-05 2.68357e+25 14.4135 1.29191 272.415 
2.62808e-06 1.36182e-05 2.68637e+25 15.0957 0.608639 272.224 
4.53942e-06 1.36182e-05 2.68473e+25 15.456 -0.101519 272.181 
6.45075e-06 1.36182e-05 2.68495e+25 15.0247 -1.03874 272.4 
8.36208e-06 1.36182e-05 2.68791e+25 13.6745 -2.45477 272.163 
1.02734e-05 1.36182e-05 2.69006e+25 10.8745 -4.49115 272.349 
1.21847e-05 1.36182e-05 2.69338e+25 6.55092 -8.27162 272.579 
1.40961e-05 1.36182e-05 2.69951e+25 0.237741 -14.6455 272.632 
1.60074e-05 1.36182e-05 2.70498e+25 -1.51864 -15.3375 272.6 
7.1675e-07 1.40961e-05 2.68347e+25 16.4911 1.00474 272.448 
2.62808e-06 1.40961e-05 2.68713e+25 17.1396 0.456475 272.137 
4.53942e-06 1.40961e-05 2.68697e+25 17.5154 -0.117642 272.155 
6.45075e-06 1.40961e-05 2.68503e+25 17.031 -0.854472 272.401 
8.36208e-06 1.40961e-05 2.68764e+25 15.7079 -1.87185 272.29 
1.02734e-05 1.40961e-05 2.69103e+25 13.2192 -3.6822 272.396 
1.21847e-05 1.40961e-05 2.69255e+25 8.77176 -6.89621 272.77 
1.40961e-05 1.40961e-05 2.69852e+25 1.67562 -13.0578 272.74 
1.60074e-05 1.40961e-05 2.70843e+25 -1.5686 -15.7601 272.565 
7.1675e-07 1.45739e-05 2.68317e+25 18.8894 0.676537 272.443 
2.62808e-06 1.45739e-05 2.68569e+25 19.3845 0.328163 272.252 
4.53942e-06 1.45739e-05 2.68685e+25 19.6357 -0.169697 272.178 
6.45075e-06 1.45739e-05 2.685e+25 19.3137 -0.678672 272.446 
8.36208e-06 1.45739e-05 2.68663e+25 18.1963 -1.34752 272.48 
1.02734e-05 1.45739e-05 2.6894e+25 15.8748 -2.87981 272.547 
1.21847e-05 1.45739e-05 2.69291e+25 11.3791 -5.48982 272.78 
1.40961e-05 1.45739e-05 2.6998e+25 3.77819 -11.0595 272.848 
1.60074e-05 1.45739e-05 2.71363e+25 -1.55652 -16.0445 272.549 
7.1675e-07 1.50518e-05 2.6845e+25 21.3626 0.35779 272.416 
2.62808e-06 1.50518e-05 2.68419e+25 22.0853 0.31723 272.374 
4.53942e-06 1.50518e-05 2.6848e+25 22.1258 -0.109885 272.353 
6.45075e-06 1.50518e-05 2.68689e+25 21.8219 -0.530825 272.328 
8.36208e-06 1.50518e-05 2.68747e+25 20.8337 -0.955218 272.431 
1.02734e-05 1.50518e-05 2.68884e+25 18.6152 -2.09407 272.533 
1.21847e-05 1.50518e-05 2.6927e+25 14.2285 -4.06739 272.79 
1.40961e-05 1.50518e-05 2.70065e+25 6.56732 -8.74623 272.966 
1.60074e-05 1.50518e-05 2.7177e+25 -1.54308 -15.8886 272.646 
7.1675e-07 1.55296e-05 2.68408e+25 24.2 0.165695 272.422 
2.62808e-06 1.55296e-05 2.68421e+25 24.8823 0.203302 272.426 
4.53942e-06 1.55296e-05 2.68456e+25 24.7677 -0.0793117 272.415 
6.45075e-06 1.55296e-05 2.68559e+25 24.456 -0.384825 272.387 
8.36208e-06 1.55296e-05 2.68644e+25 23.5924 -0.621324 272.516 
1.02734e-05 1.55296e-05 2.68768e+25 21.5418 -1.28677 272.679 
1.21847e-05 1.55296e-05 2.69183e+25 17.818 -2.68576 272.866 
1.40961e-05 1.55296e-05 2.70025e+25 10.4147 -6.27658 273.1 
1.60074e-05 1.55296e-05 2.72107e+25 -0.738097 -14.878 272.975 
7.1675e-07 1.60074e-05 2.68435e+25 26.8971 -0.0231592 272.398 
2.62808e-06 1.60074e-05 2.68462e+25 27.6104 0.0588919 272.482 
4.53942e-06 1.60074e-05 2.68282e+25 27.6142 -0.0124986 272.492 
6.45075e-06 1.60074e-05 2.68513e+25 27.2794 -0.162215 272.587 
8.36208e-06 1.60074e-05 2.68715e+25 26.4806 -0.39194 272.476 
1.02734e-05 1.60074e-05 2.6868e+25 24.8788 -0.716781 272.742 
1.21847e-05 1.60074e-05 2.69336e+25 21.9393 -1.48872 272.888 
1.40961e-05 1.60074e-05 2.70186e+25 15.5206 -3.83692 273.1 
1.60074e-05 1.60074e-05 2.72678e+25 1.58055 -12.4491 273.166 
7.1675e-07 1.64852e-05 2.68294e+25 29.9798 -0.0802329 272.539 
2.62808e-06 1.64852e-05 2.68297e+25 30.3519 -0.0602524 272.607 
4.53942e-06 1.64852e-05 2.68277e+25 30.5101 0.0262596 272.591 
6.45075e-06 1.64852e-05 2.68436e+25 30.1792 -0.0687173 272.609 
8.36208e-06 1.64852e-05 2.68523e+25 29.5771 -0.227896 272.628 
1.02734e-05 1.64852e-05 2.68777e+25 28.5323 -0.355923 272.794 
1.21847e-05 1.64852e-05 2.6923e+25 26.5507 -0.584152 272.888 
1.40961e-05 1.64852e-05 2.70226e+25 22.027 -1.69264 273.1 
1.60074e-05 1.64852e-05 2.7306e+25 7.59157 -7.95563 273.455 
7.1675e-07 1.69631e-05 2.68068e+25 32.8648 -0.0208895 272.816 
2.62808e-06 1.69631e-05 2.68069e+25 32.8684 -0.0362551 272.797 
4.53942e-06 1.69631e-05 2.68073e+25 33.1033 0.0111325 272.826 
6.45075e-06 1.69631e-05 2.68268e+25 32.8701 -0.0422463 272.841 
8.36208e-06 1.69631e-05 2.68373e+25 32.5985 -0.0261154 272.823 
1.02734e-05 1.69631e-05 2.68724e+25 32.139 -0.101424 272.905 
1.21847e-05 1.69631e-05 2.69211e+25 31.2799 -0.118359 272.934 
1.40961e-05 1.69631e-05 2.6994e+25 29.4458 -0.330097 273.172 
1.60074e-05 1.69631e-05 2.73439e+25 20.0766 -2.32927 273.565 
1.19458e-06 2.38917e-07 2.68751e+25 -7.93776 0.629976 272 
3.10592e-06 2.38917e-07 2.68681e+25 -8.11963 -1.62763 272.144 
5.01725e-06 2.38917e-07 2.68577e+25 -7.94221 -3.60574 272.287 
6.92858e-06 2.38917e-07 2.68844e+25 -7.6553 -5.88248 271.979 
8.83992e-06 2.38917e-07 2.68845e+25 -6.66306 -7.98329 272.108 
1.07512e-05 2.38917e-07 2.68607e+25 -5.17351 -8.4911 272.332 
1.26626e-05 2.38917e-07 2.68891e+25 -3.17181 -7.73865 272.176 
1.45739e-05 2.38917e-07 2.68847e+25 -1.22487 -5.0739 272.154 
1.64852e-05 2.38917e-07 2.68514e+25 -0.0358085 -1.49013 272.521 
1.19458e-06 7.1675e-07 2.68865e+25 -7.75153 0.886806 272.089 
3.10592e-06 7.1675e-07 2.68778e+25 -8.12297 -1.56977 272.205 
5.01725e-06 7.1675e-07 2.68853e+25 -8.09182 -3.64859 272.179 
6.92858e-06 7.1675e-07 2.69021e+25 -7.64957 -6.00455 272.098 
8.83992e-06 7.1675e-07 2.69094e+25 -6.87849 -8.38876 272.162 
1.07512e-05 7.1675e-07 2.68959e+25 -5.50905 -8.95685 272.272 
1.26626e-05 7.1675e-07 2.69045e+25 -3.35782 -8.22091 272.187 
1.45739e-05 7.1675e-07 2.68997e+25 -1.37386 -5.48583 272.18 
1.64852e-05 7.1675e-07 2.68583e+25 -0.0816772 -1.51798 272.637 
1.19458e-06 1.19458e-06 2.68858e+25 -7.47595 1.14945 272.095 
3.10592e-06 1.19458e-06 2.68845e+25 -8.08823 -1.51318 272.084 
5.01725e-06 1.19458e-06 2.68968e+25 -8.21914 -3.72574 272.123 
6.92858e-06 1.19458e-06 2.69036e+25 -7.80557 -6.08669 272.084 
8.83992e-06 1.19458e-06 2.68895e+25 -7.03717 -8.62974 272.215 
1.07512e-05 1.19458e-06 2.68938e+25 -5.62223 -9.36287 272.318 
1.26626e-05 1.19458e-06 2.6904e+25 -3.56114 -8.78842 272.254 
1.45739e-05 1.19458e-06 2.6903e+25 -1.45245 -5.99928 272.198 
1.64852e-05 1.19458e-06 2.68461e+25 -0.168193 -1.64133 272.714 
1.19458e-06 1.67242e-06 2.6886e+25 -7.23854 1.37036 272.095 
3.10592e-06 1.67242e-06 2.6893e+25 -7.90664 -1.40866 271.993 
5.01725e-06 1.67242e-06 2.69032e+25 -8.16181 -3.72607 272.028 
6.92858e-06 1.67242e-06 2.68741e+25 -7.84703 -6.18937 272.3 
8.83992e-06 1.67242e-06 2.68777e+25 -7.08457 -8.90103 272.293 
1.07512e-05 1.67242e-06 2.68819e+25 -5.87184 -9.83089 272.327 
1.26626e-05 1.67242e-06 2.69117e+25 -3.63323 -9.34728 272.179 
1.45739e-05 1.67242e-06 2.68998e+25 -1.64256 -6.48705 272.119 
1.64852e-05 1.67242e-06 2.68621e+25 -0.162924 -1.8714 272.602 
1.19458e-06 2.15025e-06 2.68779e+25 -6.84304 1.55424 272.23 
3.10592e-06 2.15025e-06 2.689e+25 -7.6907 -1.27236 272 
5.01725e-06 2.15025e-06 2.69019e+25 -8.14344 -3.68863 271.95 
6.92858e-06 2.15025e-06 2.68703e+25 -7.77373 -6.32331 272.356 
8.83992e-06 2.15025e-06 2.68787e+25 -7.20803 -9.08314 272.405 
1.07512e-05 2.15025e-06 2.68833e+25 -6.0154 -10.2964 272.32 
1.26626e-05 2.15025e-06 2.69081e+25 -3.82308 -9.88069 272.11 
1.45739e-05 2.15025e-06 2.6905e+25 -1.67673 -7.03722 272.067 
1.64852e-05 2.15025e-06 2.6857e+25 -0.124878 -2.02014 272.592 
1.19458e-06 2.62808e-06 2.68838e+25 -6.56305 1.68776 272.012 
3.10592e-06 2.62808e-06 2.68844e+25 -7.408 -1.0916 272.049 
5.01725e-06 2.62808e-06 2.6895e+25 -7.89998 -3.74032 272.002 
6.92858e-06 2.62808e-06 2.68602e+25 -7.83948 -6.45597 272.27 
8.83992e-06 2.62808e-06 2.68788e+25 -7.32612 -9.21798 272.412 
1.07512e-05 2.62808e-06 2.68832e+25 -6.12993 -10.8044 272.343 
1.26626e-05 2.62808e-06 2.69037e+25 -4.06188 -10.4166 272.202 
1.45739e-05 2.62808e-06 2.69229e+25 -1.71813 -7.57488 272.084 
1.64852e-05 2.62808e-06 2.68679e+25 -0.113639 -2.21126 272.5 
1.19458e-06 3.10592e-06 2.68787e+25 -6.14239 1.82314 272.056 
3.10592e-06 3.10592e-06 2.68814e+25 -6.98875 -0.95634 272.03 
5.01725e-06 3.10592e-06 2.6887e+25 -7.68218 -3.6871 272.056 
6.92858e-06 3.10592e-06 2.6879e+25 -7.72753 -6.57173 272.195 
8.83992e-06 3.10592e-06 2.68748e+25 -7.41734 -9.4258 272.388 
1.07512e-05 3.10592e-06 2.68862e+25 -6.30067 -11.1803 272.354 
1.26626e-05 3.10592e-06 2.68998e+25 -4.29089 -10.9227 272.234 
1.45739e-05 3.10592e-06 2.69173e+25 -1.77692 -8.17402 272.011 
1.64852e-05 3.10592e-06 2.68759e+25 -0.0998707 -2.41666 272.492 
1.19458e-06 3.58375e-06 2.68791e+25 -5.81369 1.95774 272.036 
3.10592e-06 3.58375e-06 2.68915e+25 -6.45076 -0.684696 271.908 
5.01725e-06 3.58375e-06 2.68718e+25 -7.37394 -3.52529 272.195 
6.92858e-06 3.58375e-06 2.68789e+25 -7.50375 -6.58453 272.187 
8.83992e-06 3.58375e-06 2.68672e+25 -7.51598 -9.5687 272.41 
1.07512e-05 3.58375e-06 2.68828e+25 -6.43178 -11.5895 272.272 
1.26626e-05 3.58375e-06 2.68912e+25 -4.51719 -11.5398 272.338 
1.45739e-05 3.58375e-06 2.69147e+25 -1.86309 -8.74818 272.115 
1.64852e-05 3.58375e-06 2.68671e+25 -0.158835 -2.56671 272.608 
1.19458e-06 4.06158e-06 2.68737e+25 -5.34765 2.01195 272.026 
3.10592e-06 4.06158e-06 2.6884e+25 -5.97676 -0.370178 272.009 
5.01725e-06 4.06158e-06 2.68783e+25 -6.96319 -3.38214 272.153 
6.92858e-06 4.06158e-06 2.68657e+25 -7.26203 -6.6012 272.225 
8.83992e-06 4.06158e-06 2.68677e+25 -7.28351 -9.57466 272.351 
1.07512e-05 4.06158e-06 2.68874e+25 -6.41587 -11.9962 272.29 
1.26626e-05 4.06158e-06 2.69045e+25 -4.58842 -12.1889 272.243 
1.45739e-05 4.06158e-06 2.69102e+25 -1.96309 -9.32419 272.118 
1.64852e-05 4.06158e-06 2.68601e+25 -0.227496 -2.80314 272.632 
1.19458e-06 4.53942e-06 2.68612e+25 -4.9359 2.12988 272.159 
3.10592e-06 4.53942e-06 2.68835e+25 -5.49629 -0.174206 272.045 
5.01725e-06 4.53942e-06 2.68557e+25 -6.37639 -3.21838 272.243 
6.92858e-06 4.53942e-06 2.68805e+25 -7.01802 -6.51617 272.167 
8.83992e-06 4.53942e-06 2.68693e+25 -7.18691 -9.52028 272.191 
1.07512e-05 4.53942e-06 2.68987e+25 -6.397 -12.2422 272.22 
1.26626e-05 4.53942e-06 2.68983e+25 -4.58007 -12.7645 272.284 
1.45739e-05 4.53942e-06 2.69073e+25 -2.05096 -9.96499 272.217 
1.64852e-05 4.53942e-06 2.6865e+25 -0.178925 -3.0033 272.624 
1.19458e-06 5.01725e-06 2.6872e+25 -4.46573 2.2694 272.054 
3.10592e-06 5.01725e-06 2.68904e+25 -4.90804 -0.012263 271.948 
5.01725e-06 5.01725e-06 2.68641e+25 -5.76916 -3.0498 272.199 
6.92858e-06 5.01725e-06 2.68766e+25 -6.63945 -6.37476 272.192 
8.83992e-06 5.01725e-06 2.68707e+25 -6.94666 -9.58972 272.332 
1.07512e-05 5.01725e-06 2.68729e+25 -6.27919 -12.517 272.339 
1.26626e-05 5.01725e-06 2.68897e+25 -4.56368 -13.3186 272.256 
1.45739e-05 5.01725e-06 2.69154e+25 -2.07392 -10.615 272.221 
1.64852e-05 5.01725e-06 2.6875e+25 -0.280523 -3.23628 272.557 
1.19458e-06 5.49508e-06 2.68845e+25 -3.944 2.36308 271.993 
3.10592e-06 5.49508e-06 2.68908e+25 -4.41408 0.164063 271.959 
5.01725e-06 5.49508e-06 2.68708e+25 -5.20708 -2.79641 272.194 
6.92858e-06 5.49508e-06 2.6881e+25 -6.1378 -6.23638 272.145 
8.83992e-06 5.49508e-06 2.68651e+25 -6.65891 -9.64957 272.282 
1.07512e-05 5.49508e-06 2.68843e+25 -6.16801 -12.729 272.31 
1.26626e-05 5.49508e-06 2.68955e+25 -4.71457 -13.8516 272.326 
1.45739e-05 5.49508e-06 2.69064e+25 -2.24154 -11.2368 272.316 
1.64852e-05 5.49508e-06 2.68743e+25 -0.239316 -3.47921 272.475 
1.19458e-06 5.97292e-06 2.68728e+25 -3.34421 2.33954 272.067 
3.10592e-06 5.97292e-06 2.68838e+25 -3.82089 0.344584 271.999 
5.01725e-06 5.97292e-06 2.68689e+25 -4.62425 -2.51947 272.112 
6.92858e-06 5.97292e-06 2.68826e+25 -5.72177 -6.05314 272.057 
8.83992e-06 5.97292e-06 2.6881e+25 -6.24126 -9.61971 272.171 
1.07512e-05 5.97292e-06 2.68808e+25 -6.06064 -12.9147 272.318 
1.26626e-05 5.97292e-06 2.68864e+25 -4.69664 -14.3659 272.326 
1.45739e-05 5.97292e-06 2.69114e+25 -2.25311 -11.8284 272.187 
1.64852e-05 5.97292e-06 2.6866e+25 -0.252435 -3.7552 272.558 
1.19458e-06 6.45075e-06 2.68755e+25 -2.74248 2.44076 272.013 
3.10592e-06 6.45075e-06 2.687e+25 -3.25098 0.592634 272.008 
5.01725e-06 6.45075e-06 2.68648e+25 -3.90944 -2.23728 272.133 
6.92858e-06 6.45075e-06 2.68812e+25 -5.08485 -5.784 272.016 
8.83992e-06 6.45075e-06 2.68792e+25 -5.87048 -9.53174 272.128 
1.07512e-05 6.45075e-06 2.68779e+25 -5.90293 -13.0171 272.326 
1.26626e-05 6.45075e-06 2.69052e+25 -4.7577 -14.8561 272.183 
1.45739e-05 6.45075e-06 2.69117e+25 -2.32181 -12.4265 272.222 
1.64852e-05 6.45075e-06 2.68652e+25 -0.260546 -4.1262 272.604 
1.19458e-06 6.92858e-06 2.68747e+25 -2.20581 2.60373 271.98 
3.10592e-06 6.92858e-06 2.68681e+25 -2.63244 0.796671 271.994 
5.01725e-06 6.92858e-06 2.68692e+25 -3.3478 -1.98687 272.136 
6.92858e-06 6.92858e-06 2.6883e+25 -4.32495 -5.59145 272.046 
8.83992e-06 6.92858e-06 2.68834e+25 -5.21793 -9.45341 272.146 
1.07512e-05 6.92858e-06 2.68712e+25 -5.52163 -13.1191 272.349 
1.26626e-05 6.92858e-06 2.6913e+25 -4.77163 -15.2913 272.172 
1.45739e-05 6.92858e-06 2.6904e+25 -2.49843 -13.007 272.295 
1.64852e-05 6.92858e-06 2.68806e+25 -0.258385 -4.48062 272.461 
1.19458e-06 7.40642e-06 2.68863e+25 -1.55978 2.67949 271.862 
3.10592e-06 7.40642e-06 2.68721e+25 -1.84199 0.983477 271.961 
5.01725e-06 7.40642e-06 2.68732e+25 -2.4755 -1.79598 272.01 
6.92858e-06 7.40642e-06 2.68766e+25 -3.42167 -5.3179 272.046 
8.83992e-06 7.40642e-06 2.68759e+25 -4.3848 -9.22235 272.216 
1.07512e-05 7.40642e-06 2.68787e+25 -5.13118 -13.1244 272.393 
1.26626e-05 7.40642e-06 2.68989e+25 -4.72831 -15.6851 272.302 
1.45739e-05 7.40642e-06 2.69148e+25 -2.63061 -13.6371 272.224 
1.64852e-05 7.40642e-06 2.6884e+25 -0.394407 -4.71634 272.511 
1.19458e-06 7.88425e-06 2.68883e+25 -0.81272 2.58768 271.912 
3.10592e-06 7.88425e-06 2.68663e+25 -0.970157 1.0316 272.057 
5.01725e-06 7.88425e-06 2.68613e+25 -1.58276 -1.60544 272.103 
6.92858e-06 7.88425e-06 2.68595e+25 -2.29228 -5.06229 272.109 
8.83992e-06 7.88425e-06 2.68937e+25 -3.58367 -8.88979 272.048 
1.07512e-05 7.88425e-06 2.68773e+25 -4.70823 -13.0414 272.273 
1.26626e-05 7.88425e-06 2.68914e+25 -4.61324 -16.0653 272.469 
1.45739e-05 7.88425e-06 2.69166e+25 -2.54012 -14.3639 272.242 
1.64852e-05 7.88425e-06 2.68825e+25 -0.345512 -5.07001 272.538 
1.19458e-06 8.36208e-06 2.6887e+25 0.0375658 2.53062 271.884 
3.10592e-06 8.36208e-06 2.68671e+25 -0.144764 1.06008 272.054 
5.01725e-06 8.36208e-06 2.68501e+25 -0.636771 -1.43249 272.231 
6.92858e-06 8.36208e-06 2.68758e+25 -1.35441 -4.77437 272.065 
8.83992e-06 8.36208e-06 2.68833e+25 -2.68633 -8.48743 272.07 
1.07512e-05 8.36208e-06 2.68906e+25 -4.18452 -12.8668 272.188 
1.26626e-05 8.36208e-06 2.68874e+25 -4.40075 -16.298 272.408 
1.45739e-05 8.36208e-06 2.69215e+25 -2.66403 -15.0653 272.285 
1.64852e-05 8.36208e-06 2.68642e+25 -0.253676 -5.47044 272.669 
1.19458e-06 8.83992e-06 2.68793e+25 0.910639 2.59784 271.89 
3.10592e-06 8.83992e-06 2.68747e+25 0.801014 1.05686 271.921 
5.01725e-06 8.83992e-06 2.6858e+25 0.461386 -1.28863 272.208 
6.92858e-06 8.83992e-06 2.68583e+25 -0.334093 -4.51147 272.149 
8.83992e-06 8.83992e-06 2.68902e+25 -1.85926 -8.06855 271.994 
1.07512e-05 8.83992e-06 2.68916e+25 -3.4393 -12.5632 272.24 
1.26626e-05 8.83992e-06 2.69082e+25 -4.1366 -16.3517 272.293 
1.45739e-05 8.83992e-06 2.69175e+25 -2.76265 -15.7722 272.385 
1.64852e-05 8.83992e-06 2.69038e+25 -0.318822 -5.86778 272.5 
1.19458e-06 9.31775e-06 2.68756e+25 1.88164 2.63807 271.941 
3.10592e-06 9.31775e-06 2.68652e+25 1.80513 1.04291 271.974 
5.01725e-06 9.31775e-06 2.68729e+25 1.646 -1.14142 272.116 
6.92858e-06 9.31775e-06 2.68523e+25 0.744502 -4.19757 272.217 
8.83992e-06 9.31775e-06 2.68671e+25 -0.90067 -7.59971 272.17 
1.07512e-05 9.31775e-06 2.68919e+25 -2.69764 -12.1682 272.236 
1.26626e-05 9.31775e-06 2.69026e+25 -3.82202 -16.3388 272.408 
1.45739e-05 9.31775e-06 2.69185e+25 -2.73064 -16.3456 272.352 
1.64852e-05 9.31775e-06 2.69e+25 -0.384144 -6.253 272.529 
1.19458e-06 9.79558e-06 2.68768e+25 2.86979 2.60113 271.904 
3.10592e-06 9.79558e-06 2.68652e+25 2.97651 1.04811 271.996 
5.01725e-06 9.79558e-06 2.6873e+25 2.85111 -0.961856 272.082 
6.92858e-06 9.79558e-06 2.68729e+25 1.9434 -3.90394 272.081 
8.83992e-06 9.79558e-06 2.68783e+25 0.232709 -7.05988 272.221 
1.07512e-05 9.79558e-06 2.69022e+25 -1.82997 -11.696 272.195 
1.26626e-05 9.79558e-06 2.69073e+25 -3.50631 -16.2226 272.408 
1.45739e-05 9.79558e-06 2.69305e+25 -2.80821 -16.8244 272.345 
1.64852e-05 9.79558e-06 2.69193e+25 -0.381733 -6.70794 272.476 
1.19458e-06 1.02734e-05 2.68747e+25 3.96596 2.50359 271.951 
3.10592e-06 1.02734e-05 2.68752e+25 4.12347 1.10482 271.985 
5.01725e-06 1.02734e-05 2.68584e+25 4.05693 -0.960716 272.158 
6.92858e-06 1.02734e-05 2.68738e+25 3.17243 -3.67521 272.096 
8.83992e-06 1.02734e-05 2.68523e+25 1.4777 -6.54437 272.319 
1.07512e-05 1.02734e-05 2.6883e+25 -0.779683 -11.1629 272.319 
1.26626e-05 1.02734e-05 2.69075e+25 -2.85844 -15.9677 272.452 
1.45739e-05 1.02734e-05 2.69312e+25 -2.78987 -17.2756 272.436 
1.64852e-05 1.02734e-05 2.69239e+25 -0.390072 -7.0974 272.613 
1.19458e-06 1.07512e-05 2.68774e+25 5.05483 2.33095 271.971 
3.10592e-06 1.07512e-05 2.68697e+25 5.45005 1.10343 271.918 
5.01725e-06 1.07512e-05 2.68557e+25 5.33521 -0.924843 272.167 
6.92858e-06 1.07512e-05 2.6868e+25 4.40269 -3.30019 272.111 
8.83992e-06 1.07512e-05 2.68647e+25 2.75714 -6.05918 272.25 
1.07512e-05 1.07512e-05 2.68864e+25 0.238595 -10.5911 272.343 
1.26626e-05 1.07512e-05 2.68989e+25 -2.21486 -15.5478 272.514 
1.45739e-05 1.07512e-05 2.69411e+25 -2.70346 -17.7051 272.465 
1.64852e-05 1.07512e-05 2.69274e+25 -0.402924 -7.52794 272.601 
1.19458e-06 1.12291e-05 2.68721e+25 6.20697 2.10931 271.986 
3.10592e-06 1.12291e-05 2.68829e+25 6.80835 1.04178 271.847 
5.01725e-06 1.12291e-05 2.68454e+25 6.72442 -0.75761 272.222 
6.92858e-06 1.12291e-05 2.68605e+25 5.85286 -2.95163 272.171 
8.83992e-06 1.12291e-05 2.68657e+25 4.1712 -5.57609 272.356 
1.07512e-05 1.12291e-05 2.68935e+25 1.48252 -9.84207 272.429 
1.26626e-05 1.12291e-05 2.69114e+25 -1.46753 -15.0137 272.493 
1.45739e-05 1.12291e-05 2.69402e+25 -2.54617 -18.0098 272.505 
1.64852e-05 1.12291e-05 2.69344e+25 -0.458923 -8.02176 272.701 
1.19458e-06 1.17069e-05 2.6881e+25 7.575 1.93317 271.92 
3.10592e-06 1.17069e-05 2.68759e+25 8.2912 0.908562 271.928 
5.01725e-06 1.17069e-05 2.68502e+25 8.17829 -0.661258 272.271 
6.92858e-06 1.17069e-05 2.68782e+25 7.43075 -2.61434 272.08 
8.83992e-06 1.17069e-05 2.68649e+25 5.66012 -5.09078 272.346 
1.07512e-05 1.17069e-05 2.69014e+25 2.72961 -8.93566 272.296 
1.26626e-05 1.17069e-05 2.69147e+25 -0.629823 -14.2609 272.534 
1.45739e-05 1.17069e-05 2.69495e+25 -2.31529 -18.1822 272.492 
1.64852e-05 1.17069e-05 2.69413e+25 -0.56809 -8.5018 272.801 
1.19458e-06 1.21847e-05 2.68741e+25 9.09325 1.79108 271.994 
3.10592e-06 1.21847e-05 2.68645e+25 9.91946 0.765915 271.994 
5.01725e-06 1.21847e-05 2.68439e+25 9.71723 -0.618497 272.267 
6.92858e-06 1.21847e-05 2.68773e+25 8.98845 -2.33073 272.176 
8.83992e-06 1.21847e-05 2.68627e+25 7.34133 -4.56358 272.417 
1.07512e-05 1.21847e-05 2.68983e+25 4.26024 -7.99917 272.414 
1.26626e-05 1.21847e-05 2.69153e+25 0.400871 -13.3999 272.509 
1.45739e-05 1.21847e-05 2.6973e+25 -2.09547 -18.0224 272.543 
1.64852e-05 1.21847e-05 2.69479e+25 -0.544938 -9.08617 272.833 
1.19458e-06 1.26626e-05 2.68672e+25 10.8478 1.62915 272.144 
3.10592e-06 1.26626e-05 2.68693e+25 11.5762 0.691856 272.072 
5.01725e-06 1.26626e-05 2.68513e+25 11.6041 -0.530736 272.227 
6.92858e-06 1.26626e-05 2.68579e+25 10.8112 -1.97668 272.285 
8.83992e-06 1.26626e-05 2.68722e+25 9.10463 -3.98682 272.38 
1.07512e-05 1.26626e-05 2.69124e+25 6.10124 -7.05919 272.399 
1.26626e-05 1.26626e-05 2.6931e+25 1.81237 -12.4387 272.516 
1.45739e-05 1.26626e-05 2.69738e+25 -1.80839 -17.6362 272.548 
1.64852e-05 1.26626e-05 2.6991e+25 -0.68213 -9.69949 272.638 
1.19458e-06 1.31404e-05 2.6863e+25 12.7102 1.41754 272.206 
3.10592e-06 1.31404e-05 2.68658e+25 13.2454 0.586172 272.129 
5.01725e-06 1.31404e-05 2.68504e+25 13.506 -0.415724 272.306 
6.92858e-06 1.31404e-05 2.68577e+25 12.7384 -1.58212 272.328 
8.83992e-06 1.31404e-05 2.68759e+25 11.0048 -3.41384 272.336 
1.07512e-05 1.31404e-05 2.69167e+25 8.02375 -6.14785 272.365 
1.26626e-05 1.31404e-05 2.69397e+25 3.36995 -11.2062 272.566 
1.45739e-05 1.31404e-05 2.6989e+25 -1.45983 -17.1035 272.602 
1.64852e-05 1.31404e-05 2.70067e+25 -0.614186 -10.3894 272.729 
1.19458e-06 1.36182e-05 2.68467e+25 14.7033 1.21759 272.271 
3.10592e-06 1.36182e-05 2.68624e+25 15.1918 0.465067 272.151 
5.01725e-06 1.36182e-05 2.68626e+25 15.4477 -0.332422 272.192 
6.92858e-06 1.36182e-05 2.6846e+25 14.7861 -1.235 272.41 
8.83992e-06 1.36182e-05 2.68906e+25 13.0431 -2.78485 272.207 
1.07512e-05 1.36182e-05 2.69089e+25 10.0645 -5.27329 272.375 
1.26626e-05 1.36182e-05 2.69462e+25 5.07944 -9.73848 272.648 
1.45739e-05 1.36182e-05 2.70021e+25 -0.995545 -16.2836 272.641 
1.64852e-05 1.36182e-05 2.70273e+25 -0.882164 -11.0841 272.878 
1.19458e-06 1.40961e-05 2.68451e+25 16.7079 1.00541 272.376 
3.10592e-06 1.40961e-05 2.68633e+25 17.2948 0.366872 272.137 
5.01725e-06 1.40961e-05 2.68527e+25 17.5057 -0.279479 272.281 
6.92858e-06 1.40961e-05 2.68638e+25 16.8125 -0.982432 272.398 
8.83992e-06 1.40961e-05 2.68748e+25 15.2265 -2.24146 272.418 
1.07512e-05 1.40961e-05 2.69141e+25 12.4019 -4.41832 272.427 
1.26626e-05 1.40961e-05 2.69327e+25 7.2318 -8.13859 272.81 
1.45739e-05 1.40961e-05 2.7012e+25 0.0749833 -15.064 272.804 
1.64852e-05 1.40961e-05 2.70935e+25 -0.909887 -11.8488 272.608 
1.19458e-06 1.45739e-05 2.68258e+25 19.1897 0.783962 272.412 
3.10592e-06 1.45739e-05 2.68374e+25 19.5279 0.255112 272.308 
5.01725e-06 1.45739e-05 2.68532e+25 19.6565 -0.274666 272.292 
6.92858e-06 1.45739e-05 2.68688e+25 19.1456 -0.836468 272.32 
8.83992e-06 1.45739e-05 2.68772e+25 17.7079 -1.75397 272.459 
1.07512e-05 1.45739e-05 2.69115e+25 14.9087 -3.44854 272.56 
1.26626e-05 1.45739e-05 2.69249e+25 9.80133 -6.44958 272.912 
1.45739e-05 1.45739e-05 2.7036e+25 1.70235 -13.3829 272.691 
1.64852e-05 1.45739e-05 2.71436e+25 -1.08001 -12.5584 272.649 
1.19458e-06 1.50518e-05 2.68364e+25 21.6716 0.547034 272.427 
3.10592e-06 1.50518e-05 2.68362e+25 22.1563 0.0979785 272.43 
5.01725e-06 1.50518e-05 2.6849e+25 22.0749 -0.302573 272.255 
6.92858e-06 1.50518e-05 2.68745e+25 21.6946 -0.665978 272.318 
8.83992e-06 1.50518e-05 2.6884e+25 20.4096 -1.22439 272.387 
1.07512e-05 1.50518e-05 2.68992e+25 17.6764 -2.36418 272.565 
1.26626e-05 1.50518e-05 2.69373e+25 12.6594 -4.72772 272.933 
1.45739e-05 1.50518e-05 2.70405e+25 4.05996 -11.122 272.886 
1.64852e-05 1.50518e-05 2.72011e+25 -1.3702 -13.315 272.696 
1.19458e-06 1.55296e-05 2.68314e+25 24.339 0.323333 272.469 
3.10592e-06 1.55296e-05 2.68354e+25 24.9368 0.0948134 272.46 
5.01725e-06 1.55296e-05 2.68505e+25 24.7386 -0.215682 272.338 
6.92858e-06 1.55296e-05 2.68677e+25 24.21 -0.439328 272.372 
8.83992e-06 1.55296e-05 2.68737e+25 23.2579 -0.831018 272.487 
1.07512e-05 1.55296e-05 2.69083e+25 20.7722 -1.46485 272.697 
1.26626e-05 1.55296e-05 2.69406e+25 16.3528 -3.08727 272.862 
1.45739e-05 1.55296e-05 2.70371e+25 7.65223 -8.34862 273.119 
1.64852e-05 1.55296e-05 2.72694e+25 -1.40706 -13.7892 272.891 
1.19458e-06 1.60074e-05 2.68318e+25 27.0952 0.169225 272.518 
3.10592e-06 1.60074e-05 2.68413e+25 27.7287 0.0927644 272.415 
5.01725e-06 1.60074e-05 2.68281e+25 27.5403 -0.150086 272.567 
6.92858e-06 1.60074e-05 2.68543e+25 27.1618 -0.289606 272.524 
8.83992e-06 1.60074e-05 2.68689e+25 26.2139 -0.484908 272.497 
1.07512e-05 1.60074e-05 2.6878e+25 24.3761 -0.762501 272.843 
1.26626e-05 1.60074e-05 2.69461e+25 20.783 -1.64394 272.879 
1.45739e-05 1.60074e-05 2.70548e+25 12.8145 -5.30479 273.203 
1.64852e-05 1.60074e-05 2.73769e+25 -0.799284 -13.3581 272.94 
1.19458e-06 1.64852e-05 2.68127e+25 30.0201 0.0442674 272.684 
3.10592e-06 1.64852e-05 2.68318e+25 30.3717 0.051415 272.523 
5.01725e-06 1.64852e-05 2.6824e+25 30.484 -0.0849275 272.66 
6.92858e-06 1.64852e-05 2.68352e+25 30.0434 -0.111036 272.634 
8.83992e-06 1.64852e-05 2.68599e+25 29.349 -0.201669 272.664 
1.07512e-05 1.64852e-05 2.68833e+25 28.1572 -0.200166 272.851 
1.26626e-05 1.64852e-05 2.69416e+25 25.7771 -0.63616 272.933 
1.45739e-05 1.64852e-05 2.70324e+25 19.8554 -2.4214 273.274 
1.64852e-05 1.64852e-05 2.74805e+25 2.28685 -10.6295 273.449 
1.19458e-06 1.69631e-05 2.68006e+25 32.8231 -0.00611685 272.893 
3.10592e-06 1.69631e-05 2.67973e+25 32.8465 -0.00283661 272.857 
5.01725e-06 1.69631e-05 2.68058e+25 33.0784 -0.0345034 272.899 
6.92858e-06 1.69631e-05 2.68194e+25 32.8595 -0.00858849 272.834 
8.83992e-06 1.69631e-05 2.68437e+25 32.4836 -0.071663 272.852 
1.07512e-05 1.69631e-05 2.68681e+25 31.9975 0.0201626 272.978 
1.26626e-05 1.69631e-05 2.69297e+25 31.0187 -0.11243 272.976 
1.45739e-05 1.69631e-05 2.70212e+25 28.3893 -0.531493 273.256 
1.64852e-05 1.69631e-05 2.7691e+25 13.3994 -3.65356 273.805 
