ITEM: TIMESTEP
230000
ITEM: NUMBER OF CELLS
5184
ITEM: BOX BOUNDS ss ss pp
-1.7202e-05 1.7202e-05
-1.7202e-05 1.7202e-05
-0.5 0.5
ITEM: CELLS xc yc f_1[1] f_1[2] f_1[3] f_1[4] 
-1.69631e-05 -1.69631e-05 2.6815e+25 0.0234355 -0.0345938 272.975 
-1.50517e-05 -1.69631e-05 2.68211e+25 0.0287463 0.00012806 272.947 
-1.31404e-05 -1.69631e-05 2.68214e+25 -0.0572342 0.0208248 272.903 
-1.12291e-05 -1.69631e-05 2.68423e+25 -0.217956 0.0363304 272.716 
-9.31775e-06 -1.69631e-05 2.6841e+25 -0.0893453 -0.0488421 272.75 
-7.40642e-06 -1.69631e-05 2.68407e+25 -0.0947485 -0.0123939 272.877 
-5.49508e-06 -1.69631e-05 2.68202e+25 -0.284228 0.0440214 272.963 
-3.58375e-06 -1.69631e-05 2.68392e+25 -0.0165157 0.0102577 273.011 
-1.67242e-06 -1.69631e-05 2.68388e+25 -0.210314 0.0100474 272.822 
-1.69631e-05 -1.64852e-05 2.68461e+25 -0.0190793 0.00404607 272.801 
-1.50517e-05 -1.64852e-05 2.68823e+25 -0.0359083 -0.0454002 272.414 
-1.31404e-05 -1.64852e-05 2.68541e+25 -0.0803481 0.099092 272.543 
-1.12291e-05 -1.64852e-05 2.68575e+25 -0.0801658 -0.0232019 272.53 
-9.31775e-06 -1.64852e-05 2.68667e+25 -0.261064 -0.103183 272.551 
-7.40642e-06 -1.64852e-05 2.68942e+25 -0.12031 -0.0343356 272.223 
-5.49508e-06 -1.64852e-05 2.68468e+25 -0.320341 0.0944459 272.549 
-3.58375e-06 -1.64852e-05 2.68728e+25 -0.206413 0.0804106 272.558 
-1.67242e-06 -1.64852e-05 2.68533e+25 -0.321924 0.0794496 272.794 
-1.69631e-05 -1.60074e-05 2.68594e+25 -0.00582244 0.0143769 272.741 
-1.50517e-05 -1.60074e-05 2.68884e+25 0.0421194 0.0709059 272.405 
-1.31404e-05 -1.60074e-05 2.6889e+25 -0.0618579 0.168519 272.354 
-1.12291e-05 -1.60074e-05 2.68845e+25 -0.062196 -0.100915 272.329 
-9.31775e-06 -1.60074e-05 2.68705e+25 -0.378047 -0.0748737 272.434 
-7.40642e-06 -1.60074e-05 2.69197e+25 -0.436624 -0.01955 271.943 
-5.49508e-06 -1.60074e-05 2.68965e+25 -0.591525 -0.00327492 272.232 
-3.58375e-06 -1.60074e-05 2.68804e+25 -0.348611 -0.0270436 272.441 
-1.67242e-06 -1.60074e-05 2.68368e+25 -0.538317 0.0446206 272.829 
-1.69631e-05 -1.55296e-05 2.68395e+25 -0.0242019 0.0457543 272.835 
-1.50517e-05 -1.55296e-05 2.69242e+25 -0.0619649 0.169748 272.191 
-1.31404e-05 -1.55296e-05 2.68951e+25 -0.17686 0.121178 272.279 
-1.12291e-05 -1.55296e-05 2.68946e+25 -0.236412 -0.0389963 272.295 
-9.31775e-06 -1.55296e-05 2.69112e+25 -0.484602 0.0310309 272.171 
-7.40642e-06 -1.55296e-05 2.69034e+25 -0.536818 -0.0753098 272.104 
-5.49508e-06 -1.55296e-05 2.68964e+25 -0.962213 0.0587912 272.153 
-3.58375e-06 -1.55296e-05 2.69091e+25 -0.689572 -0.110936 272.206 
-1.67242e-06 -1.55296e-05 2.68594e+25 -0.695717 0.173276 272.639 
-1.69631e-05 -1.50517e-05 2.68561e+25 -0.0162584 0.0842879 272.801 
-1.50517e-05 -1.50517e-05 2.69065e+25 -0.0358581 0.264195 272.198 
-1.31404e-05 -1.50517e-05 2.69002e+25 -0.0447931 0.114468 272.244 
-1.12291e-05 -1.50517e-05 2.68803e+25 -0.482321 -0.137312 272.269 
-9.31775e-06 -1.50517e-05 2.69038e+25 -0.448447 0.0742772 272.069 
-7.40642e-06 -1.50517e-05 2.69142e+25 -0.658139 0.122104 272.009 
-5.49508e-06 -1.50517e-05 2.69085e+25 -0.790498 0.19293 272.029 
-3.58375e-06 -1.50517e-05 2.69188e+25 -0.951626 -0.138275 271.935 
-1.67242e-06 -1.50517e-05 2.68782e+25 -1.15352 0.374 272.502 
-1.69631e-05 -1.45739e-05 2.68629e+25 0.0575561 0.032611 272.74 
-1.50517e-05 -1.45739e-05 2.69274e+25 0.0490947 0.230431 271.985 
-1.31404e-05 -1.45739e-05 2.69042e+25 -0.157457 0.151728 272.091 
-1.12291e-05 -1.45739e-05 2.68754e+25 -0.411892 -0.10764 272.348 
-9.31775e-06 -1.45739e-05 2.69292e+25 -0.643624 0.270276 271.892 
-7.40642e-06 -1.45739e-05 2.6918e+25 -0.926324 0.0660751 272.027 
-5.49508e-06 -1.45739e-05 2.69244e+25 -1.09568 0.354928 271.998 
-3.58375e-06 -1.45739e-05 2.69231e+25 -1.30934 -0.155477 271.891 
-1.67242e-06 -1.45739e-05 2.68805e+25 -1.41754 0.464968 272.466 
-1.69631e-05 -1.40961e-05 2.68409e+25 0.0244995 0.00412588 272.849 
-1.50517e-05 -1.40961e-05 2.6912e+25 -0.0547333 0.148704 272.165 
-1.31404e-05 -1.40961e-05 2.69211e+25 -0.347046 0.253943 271.991 
-1.12291e-05 -1.40961e-05 2.68857e+25 -0.513893 -0.0132676 272.325 
-9.31775e-06 -1.40961e-05 2.69233e+25 -0.740251 0.463031 271.777 
-7.40642e-06 -1.40961e-05 2.69174e+25 -1.25046 -0.0070961 272.082 
-5.49508e-06 -1.40961e-05 2.69201e+25 -1.07766 0.521266 271.997 
-3.58375e-06 -1.40961e-05 2.69101e+25 -1.67052 -0.184043 272.123 
-1.67242e-06 -1.40961e-05 2.68901e+25 -1.51961 0.419912 272.352 
-1.69631e-05 -1.36182e-05 2.68289e+25 0.0604703 -0.089637 272.749 
-1.50517e-05 -1.36182e-05 2.69063e+25 -0.174799 0.124289 272.173 
-1.31404e-05 -1.36182e-05 2.69238e+25 -0.233328 0.353723 271.999 
-1.12291e-05 -1.36182e-05 2.69196e+25 -0.614798 0.0327225 271.938 
-9.31775e-06 -1.36182e-05 2.6934e+25 -1.09945 0.442513 271.759 
-7.40642e-06 -1.36182e-05 2.69469e+25 -1.71231 0.00979368 271.853 
-5.49508e-06 -1.36182e-05 2.69425e+25 -1.40857 0.410279 271.845 
-3.58375e-06 -1.36182e-05 2.68985e+25 -2.02919 -0.0696285 272.168 
-1.67242e-06 -1.36182e-05 2.69133e+25 -1.77693 0.293099 272.143 
-1.69631e-05 -1.31404e-05 2.68424e+25 0.0136229 -0.148463 272.637 
-1.50517e-05 -1.31404e-05 2.6918e+25 -0.2335 0.29215 271.869 
-1.31404e-05 -1.31404e-05 2.69144e+25 -0.280624 0.495446 271.947 
-1.12291e-05 -1.31404e-05 2.69093e+25 -0.786999 0.120465 271.966 
-9.31775e-06 -1.31404e-05 2.69701e+25 -1.53873 0.430844 271.685 
-7.40642e-06 -1.31404e-05 2.69482e+25 -1.92833 0.118828 271.786 
-5.49508e-06 -1.31404e-05 2.69241e+25 -1.73462 0.199244 271.827 
-3.58375e-06 -1.31404e-05 2.69252e+25 -2.13668 0.0352719 272.019 
-1.67242e-06 -1.31404e-05 2.69338e+25 -2.00034 0.374912 271.921 
-1.69631e-05 -1.26626e-05 2.68372e+25 -0.0525447 -0.134951 272.745 
-1.50517e-05 -1.26626e-05 2.69226e+25 -0.163168 0.284687 271.845 
-1.31404e-05 -1.26626e-05 2.69091e+25 -0.569786 0.630041 272.083 
-1.12291e-05 -1.26626e-05 2.6911e+25 -0.88442 0.466419 272.072 
-9.31775e-06 -1.26626e-05 2.69498e+25 -1.62909 0.586763 271.666 
-7.40642e-06 -1.26626e-05 2.69235e+25 -1.95646 0.190222 271.918 
-5.49508e-06 -1.26626e-05 2.69012e+25 -2.183 0.126431 272.141 
-3.58375e-06 -1.26626e-05 2.69257e+25 -2.26519 0.151439 271.873 
-1.67242e-06 -1.26626e-05 2.69262e+25 -2.32218 0.351169 271.954 
-1.69631e-05 -1.21847e-05 2.68551e+25 -0.0350166 -0.00384378 272.776 
-1.50517e-05 -1.21847e-05 2.69563e+25 -0.214725 0.272442 271.578 
-1.31404e-05 -1.21847e-05 2.6892e+25 -0.726995 0.656153 272.088 
-1.12291e-05 -1.21847e-05 2.69073e+25 -1.08506 0.711217 272.017 
-9.31775e-06 -1.21847e-05 2.69551e+25 -1.7838 0.751505 271.63 
-7.40642e-06 -1.21847e-05 2.69347e+25 -2.14095 0.391728 271.833 
-5.49508e-06 -1.21847e-05 2.69281e+25 -2.38182 0.145569 271.973 
-3.58375e-06 -1.21847e-05 2.69533e+25 -2.24253 0.127871 271.839 
-1.67242e-06 -1.21847e-05 2.69297e+25 -2.34062 0.234414 271.793 
-1.69631e-05 -1.17069e-05 2.68439e+25 -0.0151217 0.0336045 272.816 
-1.50517e-05 -1.17069e-05 2.69469e+25 -0.226177 0.574565 271.62 
-1.31404e-05 -1.17069e-05 2.69247e+25 -0.689217 0.662057 272.021 
-1.12291e-05 -1.17069e-05 2.68921e+25 -1.19501 0.912336 272.233 
-9.31775e-06 -1.17069e-05 2.6946e+25 -1.60427 0.895088 271.58 
-7.40642e-06 -1.17069e-05 2.6915e+25 -2.22196 0.505295 271.86 
-5.49508e-06 -1.17069e-05 2.69172e+25 -2.44354 0.172504 271.94 
-3.58375e-06 -1.17069e-05 2.69266e+25 -2.51081 0.129623 271.958 
-1.67242e-06 -1.17069e-05 2.69229e+25 -2.40685 0.229899 271.97 
-1.69631e-05 -1.12291e-05 2.68484e+25 0.0141455 0.0843521 272.806 
-1.50517e-05 -1.12291e-05 2.69337e+25 -0.286004 0.609376 271.881 
-1.31404e-05 -1.12291e-05 2.69258e+25 -0.699641 0.686693 272.033 
-1.12291e-05 -1.12291e-05 2.68909e+25 -1.24622 0.932497 272.107 
-9.31775e-06 -1.12291e-05 2.69395e+25 -1.64108 0.967792 271.749 
-7.40642e-06 -1.12291e-05 2.69492e+25 -2.17263 0.576228 271.904 
-5.49508e-06 -1.12291e-05 2.69415e+25 -2.59526 0.362266 271.796 
-3.58375e-06 -1.12291e-05 2.69177e+25 -2.85465 0.125147 272.081 
-1.67242e-06 -1.12291e-05 2.69276e+25 -2.73342 0.176995 271.941 
-1.69631e-05 -1.07512e-05 2.68552e+25 0.0579809 -0.00465501 272.647 
-1.50517e-05 -1.07512e-05 2.6939e+25 -0.274289 0.658184 271.81 
-1.31404e-05 -1.07512e-05 2.69105e+25 -0.574043 0.830664 271.996 
-1.12291e-05 -1.07512e-05 2.69101e+25 -1.15819 1.02797 272.017 
-9.31775e-06 -1.07512e-05 2.69447e+25 -1.79481 1.11338 271.776 
-7.40642e-06 -1.07512e-05 2.6921e+25 -2.0542 0.521087 271.911 
-5.49508e-06 -1.07512e-05 2.69479e+25 -2.71004 0.615596 271.678 
-3.58375e-06 -1.07512e-05 2.69179e+25 -3.01035 0.255619 272.144 
-1.67242e-06 -1.07512e-05 2.68896e+25 -3.25455 0.165633 272.118 
-1.69631e-05 -1.02734e-05 2.68396e+25 -0.085165 0.0332499 272.708 
-1.50517e-05 -1.02734e-05 2.69172e+25 0.0182201 0.624896 271.997 
-1.31404e-05 -1.02734e-05 2.69051e+25 -0.69554 0.894644 272.131 
-1.12291e-05 -1.02734e-05 2.69103e+25 -1.19416 1.20342 272.143 
-9.31775e-06 -1.02734e-05 2.6952e+25 -1.75231 1.25403 271.662 
-7.40642e-06 -1.02734e-05 2.69157e+25 -2.01615 0.59734 271.937 
-5.49508e-06 -1.02734e-05 2.69497e+25 -2.80062 0.726367 271.582 
-3.58375e-06 -1.02734e-05 2.69377e+25 -2.94717 0.387756 271.741 
-1.67242e-06 -1.02734e-05 2.68903e+25 -3.77659 0.311134 272.163 
-1.69631e-05 -9.79558e-06 2.68488e+25 0.0548923 0.103226 272.664 
-1.50517e-05 -9.79558e-06 2.69199e+25 -0.11975 0.794382 272.086 
-1.31404e-05 -9.79558e-06 2.69317e+25 -0.687403 1.1192 272.012 
-1.12291e-05 -9.79558e-06 2.69396e+25 -1.15488 1.25412 271.897 
-9.31775e-06 -9.79558e-06 2.69358e+25 -1.77773 1.53457 271.895 
-7.40642e-06 -9.79558e-06 2.69309e+25 -2.14631 0.767044 271.826 
-5.49508e-06 -9.79558e-06 2.69607e+25 -3.11303 0.844407 271.52 
-3.58375e-06 -9.79558e-06 2.69371e+25 -3.29895 0.542123 271.753 
-1.67242e-06 -9.79558e-06 2.69119e+25 -4.01584 0.463363 272.096 
-1.69631e-05 -9.31775e-06 2.68568e+25 -0.00963251 0.0395375 272.72 
-1.50517e-05 -9.31775e-06 2.69157e+25 0.0119009 0.95243 272.022 
-1.31404e-05 -9.31775e-06 2.69454e+25 -0.625147 1.27476 271.828 
-1.12291e-05 -9.31775e-06 2.69524e+25 -1.04379 1.28053 271.676 
-9.31775e-06 -9.31775e-06 2.69569e+25 -1.75747 1.69115 271.731 
-7.40642e-06 -9.31775e-06 2.69233e+25 -2.4556 0.956638 271.934 
-5.49508e-06 -9.31775e-06 2.69601e+25 -3.27515 1.02713 271.548 
-3.58375e-06 -9.31775e-06 2.69591e+25 -3.62456 0.683984 271.596 
-1.67242e-06 -9.31775e-06 2.68991e+25 -4.19484 0.435212 272.146 
-1.69631e-05 -8.83992e-06 2.68361e+25 -0.0722177 0.099453 272.853 
-1.50517e-05 -8.83992e-06 2.6926e+25 0.101324 0.952762 271.987 
-1.31404e-05 -8.83992e-06 2.69499e+25 -0.450557 1.40242 271.609 
-1.12291e-05 -8.83992e-06 2.69298e+25 -1.09869 1.60348 271.883 
-9.31775e-06 -8.83992e-06 2.6962e+25 -1.63651 1.85409 271.717 
-7.40642e-06 -8.83992e-06 2.69297e+25 -2.64746 1.23766 271.743 
-5.49508e-06 -8.83992e-06 2.69814e+25 -3.24208 1.1476 271.384 
-3.58375e-06 -8.83992e-06 2.69749e+25 -3.95632 0.788068 271.555 
-1.67242e-06 -8.83992e-06 2.68964e+25 -4.50036 0.466623 272.327 
-1.69631e-05 -8.36208e-06 2.68532e+25 0.0468347 0.153473 272.803 
-1.50517e-05 -8.36208e-06 2.69331e+25 -0.133968 0.872838 271.918 
-1.31404e-05 -8.36208e-06 2.69595e+25 -0.602727 1.50928 271.658 
-1.12291e-05 -8.36208e-06 2.69159e+25 -1.23841 1.79054 272.064 
-9.31775e-06 -8.36208e-06 2.69608e+25 -1.3854 1.92702 271.7 
-7.40642e-06 -8.36208e-06 2.69447e+25 -2.58285 1.5952 271.733 
-5.49508e-06 -8.36208e-06 2.69677e+25 -3.27885 1.23493 271.472 
-3.58375e-06 -8.36208e-06 2.6942e+25 -4.23702 0.840554 271.844 
-1.67242e-06 -8.36208e-06 2.69071e+25 -4.73649 0.553165 272.205 
-1.69631e-05 -7.88425e-06 2.68503e+25 -0.00303565 0.0979497 272.786 
-1.50517e-05 -7.88425e-06 2.69144e+25 -0.154763 0.903637 272.004 
-1.31404e-05 -7.88425e-06 2.69458e+25 -0.6945 1.71883 271.685 
-1.12291e-05 -7.88425e-06 2.69237e+25 -1.11828 1.84176 271.914 
-9.31775e-06 -7.88425e-06 2.69386e+25 -1.60313 2.11856 271.824 
-7.40642e-06 -7.88425e-06 2.69535e+25 -2.61887 1.91742 271.662 
-5.49508e-06 -7.88425e-06 2.6948e+25 -3.52831 1.38555 271.618 
-3.58375e-06 -7.88425e-06 2.69346e+25 -4.31506 1.03407 271.853 
-1.67242e-06 -7.88425e-06 2.69203e+25 -4.76983 0.642481 272.167 
-1.69631e-05 -7.40642e-06 2.68575e+25 0.0296193 0.0967843 272.718 
-1.50517e-05 -7.40642e-06 2.69326e+25 -0.216974 1.08323 271.812 
-1.31404e-05 -7.40642e-06 2.69406e+25 -0.734365 1.75903 271.736 
-1.12291e-05 -7.40642e-06 2.69258e+25 -1.30573 1.9295 271.929 
-9.31775e-06 -7.40642e-06 2.69581e+25 -1.70848 2.32511 271.524 
-7.40642e-06 -7.40642e-06 2.69734e+25 -2.63388 2.34366 271.55 
-5.49508e-06 -7.40642e-06 2.69456e+25 -3.57378 1.50237 271.68 
-3.58375e-06 -7.40642e-06 2.6956e+25 -4.42216 1.29648 271.693 
-1.67242e-06 -7.40642e-06 2.69084e+25 -4.7729 0.718639 272.046 
-1.69631e-05 -6.92858e-06 2.68465e+25 0.0212457 0.0873796 272.789 
-1.50517e-05 -6.92858e-06 2.69325e+25 -0.277198 1.36163 271.885 
-1.31404e-05 -6.92858e-06 2.69465e+25 -0.697561 1.82754 271.685 
-1.12291e-05 -6.92858e-06 2.69317e+25 -1.30588 2.06702 271.875 
-9.31775e-06 -6.92858e-06 2.69595e+25 -2.02159 2.38027 271.584 
-7.40642e-06 -6.92858e-06 2.69357e+25 -2.69061 2.62986 271.88 
-5.49508e-06 -6.92858e-06 2.69523e+25 -3.56693 1.67583 271.676 
-3.58375e-06 -6.92858e-06 2.69342e+25 -4.55849 1.54634 271.809 
-1.67242e-06 -6.92858e-06 2.69064e+25 -4.93651 0.773976 271.968 
-1.69631e-05 -6.45075e-06 2.68534e+25 -0.0277346 0.13969 272.769 
-1.50517e-05 -6.45075e-06 2.69304e+25 -0.241453 1.44607 271.854 
-1.31404e-05 -6.45075e-06 2.69563e+25 -0.694997 1.9485 271.649 
-1.12291e-05 -6.45075e-06 2.6923e+25 -1.39059 2.29337 271.782 
-9.31775e-06 -6.45075e-06 2.6948e+25 -2.36143 2.38119 271.667 
-7.40642e-06 -6.45075e-06 2.69374e+25 -2.83332 2.81555 271.774 
-5.49508e-06 -6.45075e-06 2.69597e+25 -3.76573 1.92645 271.582 
-3.58375e-06 -6.45075e-06 2.69315e+25 -4.71944 1.7125 271.808 
-1.67242e-06 -6.45075e-06 2.6897e+25 -5.3411 0.870079 272.069 
-1.69631e-05 -5.97292e-06 2.68663e+25 0.00033386 0.152208 272.731 
-1.50517e-05 -5.97292e-06 2.69468e+25 -0.266491 1.51886 271.742 
-1.31404e-05 -5.97292e-06 2.6946e+25 -0.915522 2.10964 271.751 
-1.12291e-05 -5.97292e-06 2.69288e+25 -1.68343 2.4847 271.79 
-9.31775e-06 -5.97292e-06 2.69472e+25 -2.49963 2.64274 271.659 
-7.40642e-06 -5.97292e-06 2.69462e+25 -3.15301 2.92098 271.507 
-5.49508e-06 -5.97292e-06 2.69563e+25 -4.18189 2.18882 271.556 
-3.58375e-06 -5.97292e-06 2.69533e+25 -4.83246 1.90444 271.838 
-1.67242e-06 -5.97292e-06 2.69092e+25 -5.48888 0.983745 271.958 
-1.69631e-05 -5.49508e-06 2.68543e+25 0.0419445 0.175999 272.732 
-1.50517e-05 -5.49508e-06 2.69191e+25 -0.447196 1.67571 271.94 
-1.31404e-05 -5.49508e-06 2.69071e+25 -1.01428 2.33197 271.973 
-1.12291e-05 -5.49508e-06 2.69311e+25 -2.11806 2.66435 271.812 
-9.31775e-06 -5.49508e-06 2.69413e+25 -2.70753 2.87273 271.675 
-7.40642e-06 -5.49508e-06 2.69873e+25 -3.75811 3.10409 271.308 
-5.49508e-06 -5.49508e-06 2.69581e+25 -4.52715 2.39623 271.668 
-3.58375e-06 -5.49508e-06 2.69295e+25 -5.17596 2.12138 271.873 
-1.67242e-06 -5.49508e-06 2.69098e+25 -5.54177 1.11015 272.113 
-1.69631e-05 -5.01725e-06 2.68544e+25 -0.0122848 0.109097 272.803 
-1.50517e-05 -5.01725e-06 2.69296e+25 -0.693735 1.81468 271.94 
-1.31404e-05 -5.01725e-06 2.69126e+25 -1.14017 2.62785 271.937 
-1.12291e-05 -5.01725e-06 2.69275e+25 -2.05772 2.9081 271.831 
-9.31775e-06 -5.01725e-06 2.69644e+25 -2.88929 3.12828 271.583 
-7.40642e-06 -5.01725e-06 2.69635e+25 -3.83916 3.27419 271.445 
-5.49508e-06 -5.01725e-06 2.6913e+25 -4.599 2.59465 271.948 
-3.58375e-06 -5.01725e-06 2.69013e+25 -5.3896 2.32521 271.839 
-1.67242e-06 -5.01725e-06 2.6906e+25 -5.83773 1.30359 272.027 
-1.69631e-05 -4.53942e-06 2.68417e+25 0.00761699 0.143963 272.77 
-1.50517e-05 -4.53942e-06 2.6937e+25 -0.653104 1.77206 271.974 
-1.31404e-05 -4.53942e-06 2.69117e+25 -0.967688 2.82002 271.997 
-1.12291e-05 -4.53942e-06 2.69179e+25 -2.05078 3.22642 271.917 
-9.31775e-06 -4.53942e-06 2.6945e+25 -3.04794 3.35747 271.577 
-7.40642e-06 -4.53942e-06 2.69467e+25 -3.95742 3.49664 271.782 
-5.49508e-06 -4.53942e-06 2.69363e+25 -4.70672 2.75581 271.79 
-3.58375e-06 -4.53942e-06 2.69337e+25 -5.46303 2.46971 271.82 
-1.67242e-06 -4.53942e-06 2.69032e+25 -5.98239 1.39003 271.96 
-1.69631e-05 -4.06158e-06 2.68356e+25 -0.00816282 0.16324 272.756 
-1.50517e-05 -4.06158e-06 2.69417e+25 -0.590833 2.03488 271.923 
-1.31404e-05 -4.06158e-06 2.69162e+25 -1.18245 3.02264 272.029 
-1.12291e-05 -4.06158e-06 2.69501e+25 -2.04336 3.55335 271.689 
-9.31775e-06 -4.06158e-06 2.69645e+25 -2.9428 3.54473 271.416 
-7.40642e-06 -4.06158e-06 2.69169e+25 -3.81981 3.66832 271.887 
-5.49508e-06 -4.06158e-06 2.69121e+25 -4.53073 3.12267 271.979 
-3.58375e-06 -4.06158e-06 2.69256e+25 -5.43745 2.56595 271.884 
-1.67242e-06 -4.06158e-06 2.69182e+25 -6.14718 1.43212 271.765 
-1.69631e-05 -3.58375e-06 2.68438e+25 -0.0698604 0.294004 272.753 
-1.50517e-05 -3.58375e-06 2.69076e+25 -0.581318 2.2679 272.071 
-1.31404e-05 -3.58375e-06 2.69136e+25 -1.02379 3.27993 272.067 
-1.12291e-05 -3.58375e-06 2.69299e+25 -1.96737 3.86214 271.724 
-9.31775e-06 -3.58375e-06 2.69729e+25 -2.97968 3.82399 271.409 
-7.40642e-06 -3.58375e-06 2.69282e+25 -3.79842 3.76824 271.792 
-5.49508e-06 -3.58375e-06 2.69045e+25 -4.89402 3.33269 272.049 
-3.58375e-06 -3.58375e-06 2.69381e+25 -5.574 2.64103 271.623 
-1.67242e-06 -3.58375e-06 2.69345e+25 -6.39186 1.67023 271.804 
-1.69631e-05 -3.10592e-06 2.68326e+25 -0.0622339 0.405229 272.863 
-1.50517e-05 -3.10592e-06 2.68994e+25 -0.639581 2.43819 272.132 
-1.31404e-05 -3.10592e-06 2.68934e+25 -1.34116 3.45693 272.234 
-1.12291e-05 -3.10592e-06 2.69215e+25 -1.90923 4.06927 271.798 
-9.31775e-06 -3.10592e-06 2.6959e+25 -2.80155 4.05113 271.529 
-7.40642e-06 -3.10592e-06 2.69434e+25 -3.82879 4.06953 271.769 
-5.49508e-06 -3.10592e-06 2.69244e+25 -4.91438 3.51255 271.849 
-3.58375e-06 -3.10592e-06 2.6925e+25 -5.7505 2.83493 271.783 
-1.67242e-06 -3.10592e-06 2.6923e+25 -6.53115 1.83146 271.874 
-1.69631e-05 -2.62808e-06 2.68456e+25 0.0731858 0.436764 272.775 
-1.50517e-05 -2.62808e-06 2.6886e+25 -0.529998 2.65032 272.287 
-1.31404e-05 -2.62808e-06 2.68923e+25 -1.45804 3.66031 272.253 
-1.12291e-05 -2.62808e-06 2.69369e+25 -1.68528 4.11228 271.707 
-9.31775e-06 -2.62808e-06 2.69307e+25 -2.66374 4.37264 271.787 
-7.40642e-06 -2.62808e-06 2.69494e+25 -3.91055 4.34111 271.653 
-5.49508e-06 -2.62808e-06 2.69256e+25 -4.9101 3.74658 271.78 
-3.58375e-06 -2.62808e-06 2.69208e+25 -5.75021 3.01414 271.883 
-1.67242e-06 -2.62808e-06 2.6916e+25 -6.60936 1.86964 271.84 
-1.69631e-05 -2.15025e-06 2.68466e+25 0.0343306 0.408854 272.844 
-1.50517e-05 -2.15025e-06 2.68864e+25 -0.284717 2.76818 272.244 
-1.31404e-05 -2.15025e-06 2.6897e+25 -1.26651 3.75597 272.09 
-1.12291e-05 -2.15025e-06 2.69523e+25 -1.79093 4.08052 271.636 
-9.31775e-06 -2.15025e-06 2.69581e+25 -2.62191 4.66797 271.561 
-7.40642e-06 -2.15025e-06 2.69376e+25 -3.87515 4.58089 271.738 
-5.49508e-06 -2.15025e-06 2.69215e+25 -4.78822 3.92969 271.776 
-3.58375e-06 -2.15025e-06 2.6901e+25 -5.70929 3.27147 271.969 
-1.67242e-06 -2.15025e-06 2.69278e+25 -6.49154 1.8471 271.665 
-1.69631e-05 -1.67242e-06 2.68403e+25 -0.0272724 0.37992 272.917 
-1.50517e-05 -1.67242e-06 2.68908e+25 -0.0505442 2.89072 272.273 
-1.31404e-05 -1.67242e-06 2.6937e+25 -1.03506 3.898 271.854 
-1.12291e-05 -1.67242e-06 2.6951e+25 -1.86212 4.19234 271.505 
-9.31775e-06 -1.67242e-06 2.69447e+25 -2.74057 4.85567 271.588 
-7.40642e-06 -1.67242e-06 2.6934e+25 -3.81556 4.72229 271.79 
-5.49508e-06 -1.67242e-06 2.69341e+25 -4.63404 4.14164 271.748 
-3.58375e-06 -1.67242e-06 2.68789e+25 -5.73768 3.5822 272.166 
-1.67242e-06 -1.67242e-06 2.69285e+25 -6.49307 2.10049 271.783 
-1.69631e-05 -1.19458e-06 2.68242e+25 0.00428698 0.398749 272.942 
-1.50517e-05 -1.19458e-06 2.69024e+25 -0.213325 3.04151 272.216 
-1.31404e-05 -1.19458e-06 2.693e+25 -0.832206 4.01996 271.863 
-1.12291e-05 -1.19458e-06 2.69504e+25 -1.72289 4.66171 271.567 
-9.31775e-06 -1.19458e-06 2.69554e+25 -2.77165 5.08866 271.627 
-7.40642e-06 -1.19458e-06 2.69533e+25 -3.70878 4.98807 271.564 
-5.49508e-06 -1.19458e-06 2.69145e+25 -4.71446 4.27672 271.788 
-3.58375e-06 -1.19458e-06 2.68839e+25 -5.68529 3.80587 272.056 
-1.67242e-06 -1.19458e-06 2.6901e+25 -6.6055 2.49208 272.022 
-1.69631e-05 -7.1675e-07 2.68381e+25 -0.0536706 0.475244 272.858 
-1.50517e-05 -7.1675e-07 2.6888e+25 -0.222204 3.21539 272.259 
-1.31404e-05 -7.1675e-07 2.69132e+25 -0.755262 4.11084 271.983 
-1.12291e-05 -7.1675e-07 2.69351e+25 -1.59779 5.08496 271.718 
-9.31775e-06 -7.1675e-07 2.69392e+25 -2.76304 5.3426 271.583 
-7.40642e-06 -7.1675e-07 2.69267e+25 -3.70707 5.32411 271.697 
-5.49508e-06 -7.1675e-07 2.69114e+25 -4.86931 4.61363 271.947 
-3.58375e-06 -7.1675e-07 2.69002e+25 -5.85584 4.00177 271.863 
-1.67242e-06 -7.1675e-07 2.69177e+25 -6.61651 2.91742 271.916 
-1.69631e-05 -2.38917e-07 2.67991e+25 0.0513175 0.487718 272.871 
-1.50517e-05 -2.38917e-07 2.68789e+25 -0.217664 3.31423 272.116 
-1.31404e-05 -2.38917e-07 2.69087e+25 -0.59443 4.29034 271.887 
-1.12291e-05 -2.38917e-07 2.69038e+25 -1.79425 5.34477 271.728 
-9.31775e-06 -2.38917e-07 2.68985e+25 -2.92025 5.61805 271.706 
-7.40642e-06 -2.38917e-07 2.69238e+25 -3.8059 5.66968 271.779 
-5.49508e-06 -2.38917e-07 2.69066e+25 -4.81979 4.97335 271.845 
-3.58375e-06 -2.38917e-07 2.69021e+25 -5.79006 4.17226 271.874 
-1.67242e-06 -2.38917e-07 2.68755e+25 -6.60453 3.20976 272.016 
-1.64852e-05 -1.69631e-05 2.68528e+25 -0.0461456 0.0441603 272.85 
-1.45739e-05 -1.69631e-05 2.68315e+25 0.0710076 0.0090715 272.751 
-1.26626e-05 -1.69631e-05 2.68489e+25 -0.099326 0.00225838 272.847 
-1.07512e-05 -1.69631e-05 2.68446e+25 -0.22034 -0.0263927 272.766 
-8.83992e-06 -1.69631e-05 2.68414e+25 -0.0618584 0.0507498 272.83 
-6.92858e-06 -1.69631e-05 2.68474e+25 -0.0317685 -0.0542773 272.796 
-5.01725e-06 -1.69631e-05 2.68317e+25 -0.276232 -0.0367829 272.888 
-3.10592e-06 -1.69631e-05 2.68318e+25 -0.0961449 0.0513776 272.866 
-1.19458e-06 -1.69631e-05 2.68507e+25 -0.187515 0.039979 272.864 
-1.64852e-05 -1.64852e-05 2.68747e+25 0.00191805 0.0525326 272.658 
-1.45739e-05 -1.64852e-05 2.68595e+25 -0.0885363 -0.0130122 272.534 
-1.26626e-05 -1.64852e-05 2.68587e+25 -0.180763 0.0592155 272.61 
-1.07512e-05 -1.64852e-05 2.68781e+25 -0.0457002 -0.091185 272.493 
-8.83992e-06 -1.64852e-05 2.688e+25 -0.240707 0.0042234 272.527 
-6.92858e-06 -1.64852e-05 2.6886e+25 -0.189001 -0.0231954 272.338 
-5.01725e-06 -1.64852e-05 2.68591e+25 -0.356358 -0.098202 272.613 
-3.10592e-06 -1.64852e-05 2.6861e+25 -0.245178 0.0576528 272.589 
-1.19458e-06 -1.64852e-05 2.68528e+25 -0.327552 0.00657512 272.759 
-1.64852e-05 -1.60074e-05 2.69016e+25 0.047864 -0.0296987 272.383 
-1.45739e-05 -1.60074e-05 2.68997e+25 -0.0416046 0.00795458 272.203 
-1.26626e-05 -1.60074e-05 2.68878e+25 -0.0847199 0.150076 272.352 
-1.07512e-05 -1.60074e-05 2.6876e+25 -0.0910095 -0.022195 272.463 
-8.83992e-06 -1.60074e-05 2.68937e+25 -0.351939 -0.0406674 272.324 
-6.92858e-06 -1.60074e-05 2.69194e+25 -0.412859 0.0729094 271.976 
-5.01725e-06 -1.60074e-05 2.68962e+25 -0.586532 0.0167969 272.323 
-3.10592e-06 -1.60074e-05 2.68915e+25 -0.262427 0.140838 272.367 
-1.19458e-06 -1.60074e-05 2.68479e+25 -0.550851 0.0177361 272.686 
-1.64852e-05 -1.55296e-05 2.68794e+25 -0.0412313 -0.0635754 272.497 
-1.45739e-05 -1.55296e-05 2.69032e+25 -0.148525 0.0374686 272.189 
-1.26626e-05 -1.55296e-05 2.689e+25 -0.191741 0.256812 272.213 
-1.07512e-05 -1.55296e-05 2.69049e+25 -0.236507 0.0660617 272.133 
-8.83992e-06 -1.55296e-05 2.68951e+25 -0.531823 -0.0571095 272.217 
-6.92858e-06 -1.55296e-05 2.69365e+25 -0.641047 0.155557 271.828 
-5.01725e-06 -1.55296e-05 2.69021e+25 -0.985359 0.0286131 272.242 
-3.10592e-06 -1.55296e-05 2.68825e+25 -0.617711 0.0777285 272.21 
-1.19458e-06 -1.55296e-05 2.68565e+25 -0.935326 0.130035 272.733 
-1.64852e-05 -1.50517e-05 2.68833e+25 -0.0409994 -0.133522 272.441 
-1.45739e-05 -1.50517e-05 2.69098e+25 -0.0523096 0.0743316 272.078 
-1.26626e-05 -1.50517e-05 2.68903e+25 -0.199075 0.38097 272.337 
-1.07512e-05 -1.50517e-05 2.69012e+25 -0.416267 0.0706561 272.108 
-8.83992e-06 -1.50517e-05 2.69126e+25 -0.62064 0.024065 272.116 
-6.92858e-06 -1.50517e-05 2.69312e+25 -0.726414 0.128968 271.935 
-5.01725e-06 -1.50517e-05 2.68959e+25 -0.887889 0.00395574 272.192 
-3.10592e-06 -1.50517e-05 2.68868e+25 -0.897712 -0.00639675 272.309 
-1.19458e-06 -1.50517e-05 2.68699e+25 -1.25876 0.201118 272.482 
-1.64852e-05 -1.45739e-05 2.6874e+25 0.0297223 -0.0175457 272.434 
-1.45739e-05 -1.45739e-05 2.69124e+25 0.0505349 0.0737821 272.054 
-1.26626e-05 -1.45739e-05 2.68667e+25 -0.156144 0.45314 272.418 
-1.07512e-05 -1.45739e-05 2.69131e+25 -0.425392 -0.0290506 272.099 
-8.83992e-06 -1.45739e-05 2.69362e+25 -0.846761 0.22203 271.921 
-6.92858e-06 -1.45739e-05 2.69074e+25 -0.898611 0.156676 272.005 
-5.01725e-06 -1.45739e-05 2.69047e+25 -1.18679 0.0473908 272.019 
-3.10592e-06 -1.45739e-05 2.68809e+25 -1.25885 -0.0729345 272.351 
-1.19458e-06 -1.45739e-05 2.68893e+25 -1.4541 0.26241 272.422 
-1.64852e-05 -1.40961e-05 2.68974e+25 0.103879 -0.0146995 272.396 
-1.45739e-05 -1.40961e-05 2.69282e+25 0.0920537 0.112811 271.919 
-1.26626e-05 -1.40961e-05 2.68833e+25 -0.345199 0.394718 272.373 
-1.07512e-05 -1.40961e-05 2.68964e+25 -0.660039 -0.00714421 272.115 
-8.83992e-06 -1.40961e-05 2.69437e+25 -0.85414 0.339361 271.793 
-6.92858e-06 -1.40961e-05 2.69154e+25 -1.20063 0.143141 272.033 
-5.01725e-06 -1.40961e-05 2.69289e+25 -1.13728 0.0335912 271.89 
-3.10592e-06 -1.40961e-05 2.68813e+25 -1.67982 -0.0514683 272.333 
-1.19458e-06 -1.40961e-05 2.69117e+25 -1.4425 0.277482 272.191 
-1.64852e-05 -1.36182e-05 2.68856e+25 0.0582641 0.00428985 272.484 
-1.45739e-05 -1.36182e-05 2.69057e+25 -0.303482 0.0862148 272.052 
-1.26626e-05 -1.36182e-05 2.68961e+25 -0.504973 0.581765 272.251 
-1.07512e-05 -1.36182e-05 2.6926e+25 -0.715764 0.227545 272.043 
-8.83992e-06 -1.36182e-05 2.69359e+25 -1.09639 0.437157 271.824 
-6.92858e-06 -1.36182e-05 2.69076e+25 -1.78368 0.201274 272.037 
-5.01725e-06 -1.36182e-05 2.69393e+25 -1.35939 0.149819 271.852 
-3.10592e-06 -1.36182e-05 2.68913e+25 -2.01872 -0.147027 272.245 
-1.19458e-06 -1.36182e-05 2.68978e+25 -1.69083 0.218489 272.234 
-1.64852e-05 -1.31404e-05 2.68786e+25 0.12676 -0.0526553 272.324 
-1.45739e-05 -1.31404e-05 2.69328e+25 -0.291678 0.0714435 271.855 
-1.26626e-05 -1.31404e-05 2.68972e+25 -0.355151 0.727838 272.113 
-1.07512e-05 -1.31404e-05 2.69123e+25 -0.939851 0.358395 272.002 
-8.83992e-06 -1.31404e-05 2.69261e+25 -1.65032 0.537515 271.868 
-6.92858e-06 -1.31404e-05 2.69407e+25 -1.94031 0.147699 271.743 
-5.01725e-06 -1.31404e-05 2.69443e+25 -1.71491 0.295614 271.728 
-3.10592e-06 -1.31404e-05 2.69111e+25 -2.2952 -0.120202 272.033 
-1.19458e-06 -1.31404e-05 2.69167e+25 -2.08453 0.151534 272.125 
-1.64852e-05 -1.26626e-05 2.69248e+25 -0.0727086 -0.108544 272.178 
-1.45739e-05 -1.26626e-05 2.69363e+25 -0.185707 0.198327 271.78 
-1.26626e-05 -1.26626e-05 2.69169e+25 -0.59122 0.675475 272.042 
-1.07512e-05 -1.26626e-05 2.69351e+25 -1.16729 0.549175 271.914 
-8.83992e-06 -1.26626e-05 2.69375e+25 -1.71627 0.593129 271.825 
-6.92858e-06 -1.26626e-05 2.6917e+25 -2.12182 0.238857 271.904 
-5.01725e-06 -1.26626e-05 2.69038e+25 -2.12448 0.24273 272.07 
-3.10592e-06 -1.26626e-05 2.69198e+25 -2.25928 -0.124886 271.913 
-1.19458e-06 -1.26626e-05 2.69271e+25 -2.19082 0.098852 272.018 
-1.64852e-05 -1.21847e-05 2.68887e+25 -0.156115 -0.114562 272.302 
-1.45739e-05 -1.21847e-05 2.69521e+25 -0.35544 0.341227 271.737 
-1.26626e-05 -1.21847e-05 2.69046e+25 -0.649182 0.622819 272.059 
-1.07512e-05 -1.21847e-05 2.6919e+25 -1.29945 0.726435 272.096 
-8.83992e-06 -1.21847e-05 2.69126e+25 -1.99143 0.674392 271.886 
-6.92858e-06 -1.21847e-05 2.69097e+25 -2.25987 0.421895 271.901 
-5.01725e-06 -1.21847e-05 2.69083e+25 -2.32158 0.20213 272.126 
-3.10592e-06 -1.21847e-05 2.69202e+25 -2.26981 -0.0558523 271.874 
-1.19458e-06 -1.21847e-05 2.69227e+25 -2.27685 0.0725365 271.922 
-1.64852e-05 -1.17069e-05 2.68649e+25 -0.13388 0.0844248 272.479 
-1.45739e-05 -1.17069e-05 2.69494e+25 -0.419043 0.404108 271.685 
-1.26626e-05 -1.17069e-05 2.69071e+25 -0.764247 0.741885 272.134 
-1.07512e-05 -1.17069e-05 2.68998e+25 -1.35639 0.854591 272.135 
-8.83992e-06 -1.17069e-05 2.69494e+25 -1.75833 0.81589 271.754 
-6.92858e-06 -1.17069e-05 2.69156e+25 -2.18774 0.348004 271.963 
-5.01725e-06 -1.17069e-05 2.69336e+25 -2.59043 0.261253 271.888 
-3.10592e-06 -1.17069e-05 2.69208e+25 -2.52175 0.0101877 271.907 
-1.19458e-06 -1.17069e-05 2.69139e+25 -2.43274 0.0544767 272.021 
-1.64852e-05 -1.12291e-05 2.68727e+25 -0.00447784 0.124993 272.596 
-1.45739e-05 -1.12291e-05 2.6923e+25 -0.375823 0.612234 271.91 
-1.26626e-05 -1.12291e-05 2.69132e+25 -0.742252 0.785546 272.051 
-1.07512e-05 -1.12291e-05 2.6923e+25 -1.23901 0.985366 271.97 
-8.83992e-06 -1.12291e-05 2.69491e+25 -1.74457 1.01206 271.779 
-6.92858e-06 -1.12291e-05 2.69264e+25 -2.09791 0.225375 271.907 
-5.01725e-06 -1.12291e-05 2.69353e+25 -2.83953 0.424951 271.708 
-3.10592e-06 -1.12291e-05 2.69121e+25 -2.894 0.0555385 272.042 
-1.19458e-06 -1.12291e-05 2.69169e+25 -2.82436 0.145297 271.998 
-1.64852e-05 -1.07512e-05 2.68629e+25 0.108417 0.195834 272.456 
-1.45739e-05 -1.07512e-05 2.69311e+25 -0.315173 0.720763 271.967 
-1.26626e-05 -1.07512e-05 2.69039e+25 -0.737317 0.902167 272.046 
-1.07512e-05 -1.07512e-05 2.69289e+25 -1.41769 1.11067 271.927 
-8.83992e-06 -1.07512e-05 2.69411e+25 -1.8345 1.06433 271.762 
-6.92858e-06 -1.07512e-05 2.6942e+25 -2.11992 0.309749 271.782 
-5.01725e-06 -1.07512e-05 2.69564e+25 -2.81363 0.512373 271.58 
-3.10592e-06 -1.07512e-05 2.69096e+25 -3.05478 0.122133 272.171 
-1.19458e-06 -1.07512e-05 2.69034e+25 -3.3867 0.375517 272.008 
-1.64852e-05 -1.02734e-05 2.68691e+25 -0.167385 0.218007 272.455 
-1.45739e-05 -1.02734e-05 2.69076e+25 -0.105665 0.927759 272.138 
-1.26626e-05 -1.02734e-05 2.69127e+25 -0.884435 1.19141 272.048 
-1.07512e-05 -1.02734e-05 2.69076e+25 -1.3686 1.35313 271.957 
-8.83992e-06 -1.02734e-05 2.69502e+25 -1.98727 1.15544 271.819 
-6.92858e-06 -1.02734e-05 2.69321e+25 -2.24655 0.546026 271.716 
-5.01725e-06 -1.02734e-05 2.69577e+25 -2.89383 0.584018 271.559 
-3.10592e-06 -1.02734e-05 2.69326e+25 -3.15503 0.227729 271.852 
-1.19458e-06 -1.02734e-05 2.69172e+25 -3.80462 0.388718 272.095 
-1.64852e-05 -9.79558e-06 2.68817e+25 0.104816 0.138537 272.367 
-1.45739e-05 -9.79558e-06 2.69197e+25 -0.226393 1.07828 271.981 
-1.26626e-05 -9.79558e-06 2.69202e+25 -0.886592 1.33047 271.88 
-1.07512e-05 -9.79558e-06 2.6913e+25 -1.13818 1.54041 271.93 
-8.83992e-06 -9.79558e-06 2.6933e+25 -1.91156 1.24129 271.89 
-6.92858e-06 -9.79558e-06 2.69102e+25 -2.48615 0.851936 271.871 
-5.01725e-06 -9.79558e-06 2.69613e+25 -3.11526 0.562043 271.478 
-3.10592e-06 -9.79558e-06 2.69319e+25 -3.48769 0.439705 271.855 
-1.19458e-06 -9.79558e-06 2.69109e+25 -4.04924 0.371249 272.028 
-1.64852e-05 -9.31775e-06 2.68597e+25 -0.0178365 0.133186 272.619 
-1.45739e-05 -9.31775e-06 2.69116e+25 -0.0804796 1.07266 271.933 
-1.26626e-05 -9.31775e-06 2.69333e+25 -0.686201 1.45522 271.878 
-1.07512e-05 -9.31775e-06 2.69313e+25 -1.18318 1.63869 271.865 
-8.83992e-06 -9.31775e-06 2.6929e+25 -1.91863 1.42395 271.786 
-6.92858e-06 -9.31775e-06 2.69285e+25 -2.59537 1.19114 271.864 
-5.01725e-06 -9.31775e-06 2.69691e+25 -3.42611 0.559377 271.39 
-3.10592e-06 -9.31775e-06 2.69469e+25 -3.78894 0.637794 271.728 
-1.19458e-06 -9.31775e-06 2.69122e+25 -4.16567 0.361334 272.047 
-1.64852e-05 -8.83992e-06 2.68594e+25 -0.094118 0.10779 272.607 
-1.45739e-05 -8.83992e-06 2.69325e+25 0.00554573 1.21769 271.985 
-1.26626e-05 -8.83992e-06 2.69483e+25 -0.563512 1.47497 271.639 
-1.07512e-05 -8.83992e-06 2.69163e+25 -1.30326 1.68296 271.92 
-8.83992e-06 -8.83992e-06 2.696e+25 -1.72766 1.55479 271.625 
-6.92858e-06 -8.83992e-06 2.69141e+25 -2.88725 1.28886 271.904 
-5.01725e-06 -8.83992e-06 2.69864e+25 -3.30493 0.65644 271.307 
-3.10592e-06 -8.83992e-06 2.69308e+25 -4.01327 0.7725 271.818 
-1.19458e-06 -8.83992e-06 2.69146e+25 -4.45023 0.33375 272.205 
-1.64852e-05 -8.36208e-06 2.68596e+25 -0.0321577 0.166964 272.531 
-1.45739e-05 -8.36208e-06 2.69419e+25 -0.0839192 1.36837 271.919 
-1.26626e-05 -8.36208e-06 2.6963e+25 -0.75848 1.53872 271.565 
-1.07512e-05 -8.36208e-06 2.69157e+25 -1.30592 1.75929 271.97 
-8.83992e-06 -8.36208e-06 2.69555e+25 -1.63102 1.80454 271.665 
-6.92858e-06 -8.36208e-06 2.69266e+25 -2.89727 1.50596 271.87 
-5.01725e-06 -8.36208e-06 2.69578e+25 -3.52814 0.840655 271.476 
-3.10592e-06 -8.36208e-06 2.69297e+25 -4.35354 0.87462 271.902 
-1.19458e-06 -8.36208e-06 2.68928e+25 -4.75056 0.201791 272.243 
-1.64852e-05 -7.88425e-06 2.68936e+25 -0.0150562 0.317515 272.448 
-1.45739e-05 -7.88425e-06 2.69289e+25 -0.260295 1.39055 271.903 
-1.26626e-05 -7.88425e-06 2.69435e+25 -0.86344 1.66789 271.48 
-1.07512e-05 -7.88425e-06 2.69061e+25 -1.16376 1.80454 272.082 
-8.83992e-06 -7.88425e-06 2.69516e+25 -1.83182 2.0483 271.799 
-6.92858e-06 -7.88425e-06 2.69332e+25 -2.93728 1.81029 271.752 
-5.01725e-06 -7.88425e-06 2.69341e+25 -3.65525 1.07027 271.76 
-3.10592e-06 -7.88425e-06 2.69305e+25 -4.45383 0.982173 271.881 
-1.19458e-06 -7.88425e-06 2.69016e+25 -4.8877 0.22717 272.236 
-1.64852e-05 -7.40642e-06 2.68942e+25 0.0637885 0.307847 272.336 
-1.45739e-05 -7.40642e-06 2.69104e+25 -0.479539 1.5432 271.995 
-1.26626e-05 -7.40642e-06 2.69378e+25 -0.754753 1.88675 271.702 
-1.07512e-05 -7.40642e-06 2.6918e+25 -1.43408 1.97126 271.882 
-8.83992e-06 -7.40642e-06 2.69763e+25 -1.81604 2.21862 271.561 
-6.92858e-06 -7.40642e-06 2.69193e+25 -2.92402 2.08745 271.818 
-5.01725e-06 -7.40642e-06 2.6949e+25 -3.70358 1.25692 271.766 
-3.10592e-06 -7.40642e-06 2.69148e+25 -4.69801 1.03193 272.033 
-1.19458e-06 -7.40642e-06 2.69152e+25 -4.80923 0.316523 271.999 
-1.64852e-05 -6.92858e-06 2.68963e+25 -0.0479135 0.280358 272.323 
-1.45739e-05 -6.92858e-06 2.69248e+25 -0.443598 1.75402 271.87 
-1.26626e-05 -6.92858e-06 2.69375e+25 -0.87658 1.96525 271.785 
-1.07512e-05 -6.92858e-06 2.69339e+25 -1.55461 2.18796 271.85 
-8.83992e-06 -6.92858e-06 2.69755e+25 -2.02885 2.21198 271.345 
-6.92858e-06 -6.92858e-06 2.69246e+25 -3.01427 2.39111 271.826 
-5.01725e-06 -6.92858e-06 2.69447e+25 -3.82874 1.43154 271.765 
-3.10592e-06 -6.92858e-06 2.69269e+25 -4.75876 1.16101 271.883 
-1.19458e-06 -6.92858e-06 2.69287e+25 -5.03155 0.488325 271.966 
-1.64852e-05 -6.45075e-06 2.69099e+25 -0.0380068 0.236421 272.236 
-1.45739e-05 -6.45075e-06 2.69112e+25 -0.339637 1.89777 271.958 
-1.26626e-05 -6.45075e-06 2.69759e+25 -0.843576 2.14591 271.617 
-1.07512e-05 -6.45075e-06 2.69362e+25 -1.61276 2.47509 271.771 
-8.83992e-06 -6.45075e-06 2.6953e+25 -2.49665 2.41754 271.638 
-6.92858e-06 -6.45075e-06 2.6942e+25 -2.99664 2.62934 271.825 
-5.01725e-06 -6.45075e-06 2.69525e+25 -4.00799 1.67788 271.644 
-3.10592e-06 -6.45075e-06 2.69146e+25 -4.84206 1.36377 271.963 
-1.19458e-06 -6.45075e-06 2.69078e+25 -5.4379 0.605885 272.015 
-1.64852e-05 -5.97292e-06 2.69004e+25 -0.0341114 0.311028 272.338 
-1.45739e-05 -5.97292e-06 2.6919e+25 -0.386158 1.98577 271.926 
-1.26626e-05 -5.97292e-06 2.69295e+25 -1.0825 2.34409 271.875 
-1.07512e-05 -5.97292e-06 2.69406e+25 -1.93135 2.76205 271.789 
-8.83992e-06 -5.97292e-06 2.69597e+25 -2.76099 2.67715 271.566 
-6.92858e-06 -5.97292e-06 2.69514e+25 -3.39189 2.88579 271.554 
-5.01725e-06 -5.97292e-06 2.69536e+25 -4.33502 1.91128 271.537 
-3.10592e-06 -5.97292e-06 2.69221e+25 -5.04233 1.544 271.897 
-1.19458e-06 -5.97292e-06 2.69125e+25 -5.67554 0.724516 272.097 
-1.64852e-05 -5.49508e-06 2.68726e+25 -0.0307575 0.368314 272.519 
-1.45739e-05 -5.49508e-06 2.69172e+25 -0.562003 2.14032 271.921 
-1.26626e-05 -5.49508e-06 2.69362e+25 -1.35562 2.59573 271.831 
-1.07512e-05 -5.49508e-06 2.69577e+25 -2.22263 2.95103 271.611 
-8.83992e-06 -5.49508e-06 2.69695e+25 -2.95494 2.85828 271.405 
-6.92858e-06 -5.49508e-06 2.69539e+25 -3.8198 3.0345 271.522 
-5.01725e-06 -5.49508e-06 2.69867e+25 -4.68784 1.99503 271.324 
-3.10592e-06 -5.49508e-06 2.69422e+25 -5.39754 1.72498 271.752 
-1.19458e-06 -5.49508e-06 2.68964e+25 -5.68162 0.852338 272.165 
-1.64852e-05 -5.01725e-06 2.68805e+25 -0.0123426 0.536236 272.228 
-1.45739e-05 -5.01725e-06 2.69217e+25 -0.693339 2.11138 271.875 
-1.26626e-05 -5.01725e-06 2.69161e+25 -1.35545 2.87024 272.043 
-1.07512e-05 -5.01725e-06 2.69733e+25 -2.3256 3.02913 271.498 
-8.83992e-06 -5.01725e-06 2.69681e+25 -3.14015 3.17901 271.442 
-6.92858e-06 -5.01725e-06 2.69508e+25 -4.06155 3.15634 271.497 
-5.01725e-06 -5.01725e-06 2.69524e+25 -4.83446 2.18579 271.599 
-3.10592e-06 -5.01725e-06 2.69313e+25 -5.51239 1.80599 271.844 
-1.19458e-06 -5.01725e-06 2.68998e+25 -6.01637 0.995171 272.137 
-1.64852e-05 -4.53942e-06 2.68802e+25 -0.105996 0.589976 272.267 
-1.45739e-05 -4.53942e-06 2.69119e+25 -0.624635 2.12983 272.018 
-1.26626e-05 -4.53942e-06 2.69145e+25 -1.10464 2.9605 271.982 
-1.07512e-05 -4.53942e-06 2.6961e+25 -2.28601 3.25684 271.622 
-8.83992e-06 -4.53942e-06 2.69437e+25 -3.20815 3.34027 271.584 
-6.92858e-06 -4.53942e-06 2.6906e+25 -4.12739 3.35039 271.884 
-5.01725e-06 -4.53942e-06 2.69348e+25 -4.93673 2.49879 271.842 
-3.10592e-06 -4.53942e-06 2.6922e+25 -5.59341 2.01715 271.92 
-1.19458e-06 -4.53942e-06 2.68876e+25 -6.11987 1.19743 272.112 
-1.64852e-05 -4.06158e-06 2.68735e+25 -0.129124 0.786588 272.38 
-1.45739e-05 -4.06158e-06 2.69325e+25 -0.790748 2.10177 271.987 
-1.26626e-05 -4.06158e-06 2.69107e+25 -1.35233 3.14214 272.097 
-1.07512e-05 -4.06158e-06 2.69525e+25 -2.33154 3.44331 271.522 
-8.83992e-06 -4.06158e-06 2.69793e+25 -3.31244 3.58584 271.513 
-6.92858e-06 -4.06158e-06 2.6912e+25 -3.96456 3.49377 271.981 
-5.01725e-06 -4.06158e-06 2.6902e+25 -4.8853 2.70875 271.905 
-3.10592e-06 -4.06158e-06 2.6923e+25 -5.51112 2.15248 271.895 
-1.19458e-06 -4.06158e-06 2.69102e+25 -6.26044 1.41455 272.01 
-1.64852e-05 -3.58375e-06 2.68836e+25 -0.234101 0.909389 272.418 
-1.45739e-05 -3.58375e-06 2.69019e+25 -0.732295 2.18868 272.129 
-1.26626e-05 -3.58375e-06 2.6909e+25 -1.36968 3.39184 271.993 
-1.07512e-05 -3.58375e-06 2.69317e+25 -2.2675 3.745 271.718 
-8.83992e-06 -3.58375e-06 2.69496e+25 -3.19409 3.95751 271.509 
-6.92858e-06 -3.58375e-06 2.6905e+25 -4.02266 3.77174 271.914 
-5.01725e-06 -3.58375e-06 2.69034e+25 -5.07678 2.97923 272.13 
-3.10592e-06 -3.58375e-06 2.69335e+25 -5.77452 2.3203 271.646 
-1.19458e-06 -3.58375e-06 2.68967e+25 -6.57344 1.43775 272.049 
-1.64852e-05 -3.10592e-06 2.68693e+25 -0.139169 1.05942 272.492 
-1.45739e-05 -3.10592e-06 2.69042e+25 -0.880967 2.43998 272.136 
-1.26626e-05 -3.10592e-06 2.69297e+25 -1.56796 3.68465 271.885 
-1.07512e-05 -3.10592e-06 2.69584e+25 -1.97104 3.87098 271.6 
-8.83992e-06 -3.10592e-06 2.69572e+25 -3.09498 4.27352 271.566 
-6.92858e-06 -3.10592e-06 2.69362e+25 -4.12595 4.04146 271.667 
-5.01725e-06 -3.10592e-06 2.6907e+25 -5.17909 3.20796 272.034 
-3.10592e-06 -3.10592e-06 2.69208e+25 -5.93484 2.56971 271.887 
-1.19458e-06 -3.10592e-06 2.69095e+25 -6.58489 1.50487 271.96 
-1.64852e-05 -2.62808e-06 2.68758e+25 -0.0543196 1.18089 272.407 
-1.45739e-05 -2.62808e-06 2.69167e+25 -0.75243 2.69415 272.091 
-1.26626e-05 -2.62808e-06 2.69179e+25 -1.62758 3.91411 272.067 
-1.07512e-05 -2.62808e-06 2.69265e+25 -1.88451 4.0552 271.689 
-8.83992e-06 -2.62808e-06 2.69499e+25 -2.9179 4.46578 271.656 
-6.92858e-06 -2.62808e-06 2.69306e+25 -4.13332 4.32225 271.83 
-5.01725e-06 -2.62808e-06 2.69265e+25 -5.11288 3.42873 271.82 
-3.10592e-06 -2.62808e-06 2.69006e+25 -6.00678 2.85134 271.98 
-1.19458e-06 -2.62808e-06 2.69331e+25 -6.58545 1.5037 271.758 
-1.64852e-05 -2.15025e-06 2.68668e+25 0.0124545 1.37659 272.509 
-1.45739e-05 -2.15025e-06 2.6899e+25 -0.56528 3.05473 272.142 
-1.26626e-05 -2.15025e-06 2.69192e+25 -1.38983 4.02154 271.962 
-1.07512e-05 -2.15025e-06 2.69534e+25 -1.95638 4.42528 271.528 
-8.83992e-06 -2.15025e-06 2.69571e+25 -2.86033 4.65095 271.54 
-6.92858e-06 -2.15025e-06 2.69374e+25 -4.0228 4.48411 271.857 
-5.01725e-06 -2.15025e-06 2.69421e+25 -5.0123 3.64934 271.759 
-3.10592e-06 -2.15025e-06 2.69043e+25 -6.01261 3.09925 272.019 
-1.19458e-06 -2.15025e-06 2.69137e+25 -6.63702 1.67117 271.847 
-1.64852e-05 -1.67242e-06 2.68765e+25 0.0343891 1.3262 272.537 
-1.45739e-05 -1.67242e-06 2.69096e+25 -0.315007 3.42406 272.033 
-1.26626e-05 -1.67242e-06 2.69455e+25 -1.1512 4.11692 271.757 
-1.07512e-05 -1.67242e-06 2.69429e+25 -2.09838 4.67153 271.601 
-8.83992e-06 -1.67242e-06 2.69507e+25 -3.03969 4.99035 271.595 
-6.92858e-06 -1.67242e-06 2.69159e+25 -4.10573 4.74092 271.811 
-5.01725e-06 -1.67242e-06 2.69326e+25 -4.90469 3.96214 271.764 
-3.10592e-06 -1.67242e-06 2.69019e+25 -5.92001 3.29439 272 
-1.19458e-06 -1.67242e-06 2.69251e+25 -6.85627 1.93634 271.77 
-1.64852e-05 -1.19458e-06 2.68668e+25 -0.0169293 1.2384 272.595 
-1.45739e-05 -1.19458e-06 2.69046e+25 -0.396229 3.68211 272.128 
-1.26626e-05 -1.19458e-06 2.69431e+25 -0.895404 4.23695 271.753 
-1.07512e-05 -1.19458e-06 2.69434e+25 -2.11141 4.87462 271.633 
-8.83992e-06 -1.19458e-06 2.69614e+25 -2.9962 5.2794 271.69 
-6.92858e-06 -1.19458e-06 2.69485e+25 -3.99506 5.04376 271.683 
-5.01725e-06 -1.19458e-06 2.69182e+25 -4.9347 4.29147 271.835 
-3.10592e-06 -1.19458e-06 2.69159e+25 -5.78934 3.42511 271.854 
-1.19458e-06 -1.19458e-06 2.6896e+25 -6.94199 2.19945 272.043 
-1.64852e-05 -7.1675e-07 2.68602e+25 -0.00556072 1.16453 272.604 
-1.45739e-05 -7.1675e-07 2.68757e+25 -0.286608 3.75765 272.289 
-1.26626e-05 -7.1675e-07 2.69388e+25 -0.894026 4.33755 271.881 
-1.07512e-05 -7.1675e-07 2.69436e+25 -1.94856 5.09846 271.597 
-8.83992e-06 -7.1675e-07 2.69424e+25 -2.99251 5.48915 271.665 
-6.92858e-06 -7.1675e-07 2.69197e+25 -4.12162 5.39236 271.684 
-5.01725e-06 -7.1675e-07 2.68977e+25 -5.09829 4.38462 271.966 
-3.10592e-06 -7.1675e-07 2.69212e+25 -6.01896 3.46256 271.835 
-1.19458e-06 -7.1675e-07 2.68934e+25 -6.88944 2.42294 272.006 
-1.64852e-05 -2.38917e-07 2.6828e+25 0.0176224 1.13018 272.652 
-1.45739e-05 -2.38917e-07 2.68757e+25 -0.150515 3.71195 272.225 
-1.26626e-05 -2.38917e-07 2.69027e+25 -0.819788 4.5354 271.932 
-1.07512e-05 -2.38917e-07 2.69307e+25 -2.02513 5.46635 271.599 
-8.83992e-06 -2.38917e-07 2.69142e+25 -3.13027 5.73512 271.66 
-6.92858e-06 -2.38917e-07 2.6907e+25 -3.98022 5.69525 271.664 
-5.01725e-06 -2.38917e-07 2.68997e+25 -5.1387 4.64568 271.821 
-3.10592e-06 -2.38917e-07 2.68908e+25 -6.0925 3.71161 271.876 
-1.19458e-06 -2.38917e-07 2.68745e+25 -6.83055 2.66826 271.997 
-1.60074e-05 -1.69631e-05 2.6852e+25 -0.00696796 -0.0176358 272.82 
-1.40961e-05 -1.69631e-05 2.68536e+25 0.0208101 0.0236427 272.602 
-1.21847e-05 -1.69631e-05 2.68347e+25 -0.101015 -0.0172153 272.782 
-1.02734e-05 -1.69631e-05 2.68294e+25 -0.107314 -0.0445309 272.855 
-8.36208e-06 -1.69631e-05 2.68537e+25 -0.0978263 0.0315804 272.739 
-6.45075e-06 -1.69631e-05 2.6869e+25 -0.00946031 0.0314942 272.666 
-4.53942e-06 -1.69631e-05 2.68375e+25 -0.150957 -0.0625446 272.893 
-2.62808e-06 -1.69631e-05 2.68271e+25 -0.130359 -0.0218257 272.893 
-7.1675e-07 -1.69631e-05 2.68495e+25 -0.226512 -0.0326662 272.766 
-1.60074e-05 -1.64852e-05 2.68866e+25 -0.0375193 -0.0225897 272.349 
-1.40961e-05 -1.64852e-05 2.68671e+25 -0.00882417 0.0713998 272.488 
-1.21847e-05 -1.64852e-05 2.68502e+25 -0.274948 0.0150921 272.583 
-1.02734e-05 -1.64852e-05 2.68642e+25 -0.127659 -0.0151691 272.734 
-8.36208e-06 -1.64852e-05 2.68837e+25 -0.175056 0.0160471 272.32 
-6.45075e-06 -1.64852e-05 2.68941e+25 -0.29287 0.121727 272.337 
-4.53942e-06 -1.64852e-05 2.68644e+25 -0.342323 -0.141607 272.463 
-2.62808e-06 -1.64852e-05 2.68484e+25 -0.286551 0.0491124 272.612 
-7.1675e-07 -1.64852e-05 2.68607e+25 -0.286622 -0.0933122 272.541 
-1.60074e-05 -1.60074e-05 2.6929e+25 0.168285 -0.0553065 272.174 
-1.40961e-05 -1.60074e-05 2.68833e+25 -0.10066 0.0222106 272.399 
-1.21847e-05 -1.60074e-05 2.68804e+25 -0.158475 0.0495596 272.342 
-1.02734e-05 -1.60074e-05 2.68603e+25 -0.211013 0.179053 272.585 
-8.36208e-06 -1.60074e-05 2.68908e+25 -0.322864 -0.0387925 272.262 
-6.45075e-06 -1.60074e-05 2.69231e+25 -0.509989 0.163603 271.997 
-4.53942e-06 -1.60074e-05 2.68913e+25 -0.602376 -0.273037 272.286 
-2.62808e-06 -1.60074e-05 2.6861e+25 -0.362929 0.0870408 272.5 
-7.1675e-07 -1.60074e-05 2.68609e+25 -0.573376 -0.0768869 272.656 
-1.60074e-05 -1.55296e-05 2.69117e+25 0.0736972 -0.240385 272.122 
-1.40961e-05 -1.55296e-05 2.69067e+25 -0.132912 -0.0397285 272.207 
-1.21847e-05 -1.55296e-05 2.68816e+25 -0.273316 0.0755652 272.414 
-1.02734e-05 -1.55296e-05 2.68669e+25 -0.325327 0.217401 272.441 
-8.36208e-06 -1.55296e-05 2.69024e+25 -0.565358 -0.0816666 272.158 
-6.45075e-06 -1.55296e-05 2.69315e+25 -0.680789 0.25474 271.862 
-4.53942e-06 -1.55296e-05 2.69073e+25 -0.89861 -0.368617 272.212 
-2.62808e-06 -1.55296e-05 2.68706e+25 -0.575091 0.17445 272.365 
-7.1675e-07 -1.55296e-05 2.68602e+25 -1.04138 0.026961 272.555 
-1.60074e-05 -1.50517e-05 2.69185e+25 -0.149535 -0.152231 272.16 
-1.40961e-05 -1.50517e-05 2.6893e+25 -0.0560234 -0.0221582 272.327 
-1.21847e-05 -1.50517e-05 2.68661e+25 -0.291184 0.116414 272.422 
-1.02734e-05 -1.50517e-05 2.68959e+25 -0.320989 0.293313 272.195 
-8.36208e-06 -1.50517e-05 2.69083e+25 -0.707423 -0.0389514 272.017 
-6.45075e-06 -1.50517e-05 2.69192e+25 -0.818029 0.358227 271.992 
-4.53942e-06 -1.50517e-05 2.69116e+25 -0.982511 -0.343082 272.123 
-2.62808e-06 -1.50517e-05 2.6894e+25 -0.870515 0.187688 272.359 
-7.1675e-07 -1.50517e-05 2.68858e+25 -1.29878 0.0988494 272.356 
-1.60074e-05 -1.45739e-05 2.69137e+25 -0.0303307 -0.176147 272.102 
-1.40961e-05 -1.45739e-05 2.68997e+25 -0.0224244 0.0338762 272.186 
-1.21847e-05 -1.45739e-05 2.68616e+25 -0.188399 0.222248 272.718 
-1.02734e-05 -1.45739e-05 2.69231e+25 -0.454749 0.283365 271.976 
-8.36208e-06 -1.45739e-05 2.69199e+25 -0.97235 0.0116836 271.958 
-6.45075e-06 -1.45739e-05 2.69156e+25 -0.763407 0.340367 271.932 
-4.53942e-06 -1.45739e-05 2.68969e+25 -1.15323 -0.320506 272.171 
-2.62808e-06 -1.45739e-05 2.68856e+25 -1.2842 0.258151 272.303 
-7.1675e-07 -1.45739e-05 2.68599e+25 -1.43069 0.111182 272.522 
-1.60074e-05 -1.40961e-05 2.69064e+25 0.0296363 -0.0702493 272.257 
-1.40961e-05 -1.40961e-05 2.69183e+25 -0.0421479 0.143892 272.074 
-1.21847e-05 -1.40961e-05 2.68944e+25 -0.370053 0.303905 272.437 
-1.02734e-05 -1.40961e-05 2.69167e+25 -0.653388 0.271392 271.937 
-8.36208e-06 -1.40961e-05 2.69085e+25 -0.973027 0.146536 271.985 
-6.45075e-06 -1.40961e-05 2.69301e+25 -1.17792 0.216889 271.897 
-4.53942e-06 -1.40961e-05 2.69231e+25 -1.30976 -0.106338 271.954 
-2.62808e-06 -1.40961e-05 2.68705e+25 -1.66133 0.266552 272.429 
-7.1675e-07 -1.40961e-05 2.6895e+25 -1.46537 0.111419 272.171 
-1.60074e-05 -1.36182e-05 2.68944e+25 0.0593279 0.0615314 272.28 
-1.40961e-05 -1.36182e-05 2.69118e+25 -0.215946 0.247205 271.965 
-1.21847e-05 -1.36182e-05 2.69174e+25 -0.638708 0.33664 272.135 
-1.02734e-05 -1.36182e-05 2.69272e+25 -1.02711 0.354594 272.066 
-8.36208e-06 -1.36182e-05 2.69258e+25 -1.27777 0.415133 271.831 
-6.45075e-06 -1.36182e-05 2.69168e+25 -1.73442 0.095172 272.026 
-4.53942e-06 -1.36182e-05 2.69328e+25 -1.60398 0.129463 271.946 
-2.62808e-06 -1.36182e-05 2.68865e+25 -1.94361 0.186259 272.375 
-7.1675e-07 -1.36182e-05 2.6881e+25 -1.66701 0.18688 272.219 
-1.60074e-05 -1.31404e-05 2.6887e+25 0.0649133 0.156437 272.178 
-1.40961e-05 -1.31404e-05 2.69338e+25 -0.268464 0.11619 271.75 
-1.21847e-05 -1.31404e-05 2.69122e+25 -0.395196 0.40907 272.044 
-1.02734e-05 -1.31404e-05 2.69426e+25 -1.0996 0.634033 271.816 
-8.36208e-06 -1.31404e-05 2.69383e+25 -1.72927 0.548736 271.834 
-6.45075e-06 -1.31404e-05 2.69166e+25 -1.97321 0.158238 271.912 
-4.53942e-06 -1.31404e-05 2.69544e+25 -1.78442 0.285503 271.715 
-2.62808e-06 -1.31404e-05 2.69157e+25 -2.13056 -0.0207687 272.147 
-7.1675e-07 -1.31404e-05 2.68842e+25 -1.99844 0.0922384 272.345 
-1.60074e-05 -1.26626e-05 2.6934e+25 -0.040623 0.234673 271.843 
-1.40961e-05 -1.26626e-05 2.69294e+25 -0.325943 0.144041 271.865 
-1.21847e-05 -1.26626e-05 2.69143e+25 -0.589126 0.403011 272.087 
-1.02734e-05 -1.26626e-05 2.69352e+25 -1.36137 0.7828 271.833 
-8.36208e-06 -1.26626e-05 2.69084e+25 -1.78205 0.611852 272.053 
-6.45075e-06 -1.26626e-05 2.69292e+25 -2.26169 0.225029 271.844 
-4.53942e-06 -1.26626e-05 2.69215e+25 -2.16691 0.44137 271.893 
-2.62808e-06 -1.26626e-05 2.69066e+25 -2.3321 -0.0775819 272.085 
-7.1675e-07 -1.26626e-05 2.69114e+25 -2.11355 0.0326904 272.046 
-1.60074e-05 -1.21847e-05 2.69138e+25 -0.252377 0.273596 272.083 
-1.40961e-05 -1.21847e-05 2.69297e+25 -0.483214 0.318649 271.931 
-1.21847e-05 -1.21847e-05 2.69202e+25 -0.735637 0.522743 272.015 
-1.02734e-05 -1.21847e-05 2.69353e+25 -1.41272 1.00122 271.821 
-8.36208e-06 -1.21847e-05 2.69143e+25 -2.02758 0.688895 271.927 
-6.45075e-06 -1.21847e-05 2.69238e+25 -2.32003 0.260113 271.964 
-4.53942e-06 -1.21847e-05 2.69122e+25 -2.31848 0.423398 272.053 
-2.62808e-06 -1.21847e-05 2.69174e+25 -2.35091 0.0142683 271.968 
-7.1675e-07 -1.21847e-05 2.69229e+25 -2.39702 0.0360645 271.9 
-1.60074e-05 -1.17069e-05 2.69176e+25 -0.155582 0.224086 272.008 
-1.40961e-05 -1.17069e-05 2.6916e+25 -0.568732 0.41504 271.965 
-1.21847e-05 -1.17069e-05 2.68881e+25 -0.927858 0.693802 272.251 
-1.02734e-05 -1.17069e-05 2.69166e+25 -1.46723 1.09256 271.91 
-8.36208e-06 -1.17069e-05 2.69257e+25 -1.89057 0.704535 271.872 
-6.45075e-06 -1.17069e-05 2.69305e+25 -2.1716 0.369587 271.951 
-4.53942e-06 -1.17069e-05 2.69265e+25 -2.52538 0.371032 271.999 
-2.62808e-06 -1.17069e-05 2.69252e+25 -2.55295 0.0648164 271.934 
-7.1675e-07 -1.17069e-05 2.69244e+25 -2.46936 0.17904 271.982 
-1.60074e-05 -1.12291e-05 2.6895e+25 -0.130644 0.311547 272.191 
-1.40961e-05 -1.12291e-05 2.69205e+25 -0.506843 0.538004 271.913 
-1.21847e-05 -1.12291e-05 2.6871e+25 -0.900355 0.929705 272.402 
-1.02734e-05 -1.12291e-05 2.69277e+25 -1.28821 1.17597 271.974 
-8.36208e-06 -1.12291e-05 2.69179e+25 -1.97502 0.891813 271.912 
-6.45075e-06 -1.12291e-05 2.69263e+25 -2.16136 0.478504 271.941 
-4.53942e-06 -1.12291e-05 2.69399e+25 -2.86953 0.286382 271.736 
-2.62808e-06 -1.12291e-05 2.69218e+25 -2.96413 0.0559818 272.061 
-7.1675e-07 -1.12291e-05 2.69385e+25 -2.92835 0.24224 271.959 
-1.60074e-05 -1.07512e-05 2.69063e+25 0.0016819 0.440359 272.322 
-1.40961e-05 -1.07512e-05 2.69085e+25 -0.463326 0.625715 272.119 
-1.21847e-05 -1.07512e-05 2.69048e+25 -0.901708 1.06984 272.224 
-1.02734e-05 -1.07512e-05 2.69325e+25 -1.56397 1.2979 271.832 
-8.36208e-06 -1.07512e-05 2.69071e+25 -1.9296 1.09481 271.989 
-6.45075e-06 -1.07512e-05 2.69346e+25 -2.22067 0.506936 271.947 
-4.53942e-06 -1.07512e-05 2.69465e+25 -2.83703 0.253585 271.686 
-2.62808e-06 -1.07512e-05 2.69064e+25 -3.14291 0.0660168 272.127 
-7.1675e-07 -1.07512e-05 2.69149e+25 -3.43369 0.223295 271.852 
-1.60074e-05 -1.02734e-05 2.6893e+25 -0.18476 0.513211 272.32 
-1.40961e-05 -1.02734e-05 2.69178e+25 -0.38794 0.817245 272.062 
-1.21847e-05 -1.02734e-05 2.69076e+25 -1.06691 1.14203 272.127 
-1.02734e-05 -1.02734e-05 2.69336e+25 -1.58112 1.39835 271.855 
-8.36208e-06 -1.02734e-05 2.69442e+25 -2.04635 1.15916 271.793 
-6.45075e-06 -1.02734e-05 2.69454e+25 -2.56581 0.725266 271.701 
-4.53942e-06 -1.02734e-05 2.69655e+25 -2.89081 0.243765 271.509 
-2.62808e-06 -1.02734e-05 2.68951e+25 -3.3531 0.23323 272.172 
-7.1675e-07 -1.02734e-05 2.69138e+25 -3.85199 0.323894 272.043 
-1.60074e-05 -9.79558e-06 2.68863e+25 0.104044 0.574297 272.249 
-1.40961e-05 -9.79558e-06 2.69088e+25 -0.259745 0.951724 272.058 
-1.21847e-05 -9.79558e-06 2.69158e+25 -1.03306 1.34323 271.87 
-1.02734e-05 -9.79558e-06 2.69315e+25 -1.30034 1.57404 272.083 
-8.36208e-06 -9.79558e-06 2.69195e+25 -1.99154 1.23257 271.763 
-6.45075e-06 -9.79558e-06 2.69319e+25 -2.81722 0.982267 271.74 
-4.53942e-06 -9.79558e-06 2.69664e+25 -3.19145 0.267791 271.375 
-2.62808e-06 -9.79558e-06 2.6895e+25 -3.67799 0.474129 272.109 
-7.1675e-07 -9.79558e-06 2.69003e+25 -4.01524 0.269443 272.004 
-1.60074e-05 -9.31775e-06 2.68646e+25 0.0739151 0.538334 272.477 
-1.40961e-05 -9.31775e-06 2.69282e+25 -0.272417 1.14894 271.799 
-1.21847e-05 -9.31775e-06 2.69607e+25 -0.733714 1.44443 271.648 
-1.02734e-05 -9.31775e-06 2.69276e+25 -1.33926 1.79479 271.97 
-8.36208e-06 -9.31775e-06 2.69664e+25 -2.06079 1.25136 271.73 
-6.45075e-06 -9.31775e-06 2.6933e+25 -2.76913 1.11874 271.774 
-4.53942e-06 -9.31775e-06 2.69646e+25 -3.46696 0.351636 271.394 
-2.62808e-06 -9.31775e-06 2.69176e+25 -3.93335 0.648265 272.041 
-7.1675e-07 -9.31775e-06 2.69297e+25 -4.10322 0.186372 271.983 
-1.60074e-05 -8.83992e-06 2.68602e+25 -0.0523722 0.429522 272.5 
-1.40961e-05 -8.83992e-06 2.69329e+25 -0.169481 1.4217 271.823 
-1.21847e-05 -8.83992e-06 2.69526e+25 -0.568999 1.52351 271.597 
-1.02734e-05 -8.83992e-06 2.69224e+25 -1.37316 1.94195 272.016 
-8.36208e-06 -8.83992e-06 2.69401e+25 -1.93593 1.4988 271.765 
-6.45075e-06 -8.83992e-06 2.69412e+25 -3.00105 1.25388 271.784 
-4.53942e-06 -8.83992e-06 2.69712e+25 -3.50065 0.505199 271.519 
-2.62808e-06 -8.83992e-06 2.6923e+25 -4.22183 0.801237 272.065 
-7.1675e-07 -8.83992e-06 2.69212e+25 -4.44311 0.136618 272.153 
-1.60074e-05 -8.36208e-06 2.68795e+25 -0.141628 0.445349 272.381 
-1.40961e-05 -8.36208e-06 2.69214e+25 -0.241714 1.57914 272.024 
-1.21847e-05 -8.36208e-06 2.694e+25 -0.880888 1.70731 271.739 
-1.02734e-05 -8.36208e-06 2.6924e+25 -1.30143 1.967 271.914 
-8.36208e-06 -8.36208e-06 2.69413e+25 -1.9177 1.72847 271.689 
-6.45075e-06 -8.36208e-06 2.6943e+25 -3.14866 1.43551 271.753 
-4.53942e-06 -8.36208e-06 2.69532e+25 -3.71444 0.78523 271.571 
-2.62808e-06 -8.36208e-06 2.69109e+25 -4.4557 0.929468 272.043 
-7.1675e-07 -8.36208e-06 2.69084e+25 -4.66953 0.148043 272.185 
-1.60074e-05 -7.88425e-06 2.68821e+25 -0.0260913 0.391602 272.254 
-1.40961e-05 -7.88425e-06 2.69167e+25 -0.293095 1.73294 271.943 
-1.21847e-05 -7.88425e-06 2.69207e+25 -0.979791 1.78786 271.723 
-1.02734e-05 -7.88425e-06 2.69299e+25 -1.29064 2.06585 271.937 
-8.36208e-06 -7.88425e-06 2.69331e+25 -1.94082 1.9447 271.802 
-6.45075e-06 -7.88425e-06 2.69457e+25 -3.28011 1.719 271.74 
-4.53942e-06 -7.88425e-06 2.69341e+25 -3.87717 0.964541 271.815 
-2.62808e-06 -7.88425e-06 2.69292e+25 -4.48471 1.00316 271.947 
-7.1675e-07 -7.88425e-06 2.69108e+25 -4.85833 0.113694 272.05 
-1.60074e-05 -7.40642e-06 2.69014e+25 0.0199538 0.433082 272.109 
-1.40961e-05 -7.40642e-06 2.69189e+25 -0.703699 1.85055 272.001 
-1.21847e-05 -7.40642e-06 2.69258e+25 -0.957822 1.85134 271.874 
-1.02734e-05 -7.40642e-06 2.69164e+25 -1.55968 2.10281 271.878 
-8.36208e-06 -7.40642e-06 2.69666e+25 -1.95951 2.09676 271.501 
-6.45075e-06 -7.40642e-06 2.69526e+25 -3.1824 1.95672 271.572 
-4.53942e-06 -7.40642e-06 2.69117e+25 -3.9074 1.21411 271.914 
-2.62808e-06 -7.40642e-06 2.69192e+25 -4.71448 1.05565 272.069 
-7.1675e-07 -7.40642e-06 2.69096e+25 -5.0631 0.182132 271.991 
-1.60074e-05 -6.92858e-06 2.69173e+25 -0.00739601 0.473644 272.054 
-1.40961e-05 -6.92858e-06 2.69221e+25 -0.582394 1.98594 271.899 
-1.21847e-05 -6.92858e-06 2.69213e+25 -0.99263 2.10768 271.855 
-1.02734e-05 -6.92858e-06 2.69215e+25 -1.81694 2.24146 271.933 
-8.36208e-06 -6.92858e-06 2.69614e+25 -2.20554 2.46306 271.521 
-6.45075e-06 -6.92858e-06 2.6936e+25 -3.23606 2.14869 271.717 
-4.53942e-06 -6.92858e-06 2.69419e+25 -4.10353 1.49671 271.545 
-2.62808e-06 -6.92858e-06 2.69009e+25 -4.90831 1.13841 272.07 
-7.1675e-07 -6.92858e-06 2.6886e+25 -5.22401 0.368643 272.179 
-1.60074e-05 -6.45075e-06 2.69277e+25 -0.118464 0.619457 271.911 
-1.40961e-05 -6.45075e-06 2.69076e+25 -0.38722 2.06888 271.941 
-1.21847e-05 -6.45075e-06 2.69442e+25 -1.08709 2.33483 271.711 
-1.02734e-05 -6.45075e-06 2.6927e+25 -1.91853 2.45567 271.743 
-8.36208e-06 -6.45075e-06 2.69695e+25 -2.71432 2.62034 271.492 
-6.45075e-06 -6.45075e-06 2.69506e+25 -3.22599 2.28089 271.666 
-4.53942e-06 -6.45075e-06 2.69636e+25 -4.33918 1.84861 271.537 
-2.62808e-06 -6.45075e-06 2.69126e+25 -5.04862 1.269 271.972 
-7.1675e-07 -6.45075e-06 2.69082e+25 -5.44229 0.468034 272.114 
-1.60074e-05 -5.97292e-06 2.69205e+25 -0.115985 0.663218 272.045 
-1.40961e-05 -5.97292e-06 2.69233e+25 -0.53554 2.21423 271.905 
-1.21847e-05 -5.97292e-06 2.69195e+25 -1.3034 2.50563 271.85 
-1.02734e-05 -5.97292e-06 2.69451e+25 -2.16924 2.75224 271.625 
-8.36208e-06 -5.97292e-06 2.69497e+25 -2.93104 2.65411 271.516 
-6.45075e-06 -5.97292e-06 2.69537e+25 -3.64306 2.58388 271.559 
-4.53942e-06 -5.97292e-06 2.69459e+25 -4.47968 2.02265 271.645 
-2.62808e-06 -5.97292e-06 2.68995e+25 -5.25794 1.43176 271.948 
-7.1675e-07 -5.97292e-06 2.69011e+25 -5.64248 0.453452 272.101 
-1.60074e-05 -5.49508e-06 2.68985e+25 -0.165794 0.763761 272.215 
-1.40961e-05 -5.49508e-06 2.69373e+25 -0.650017 2.28779 271.86 
-1.21847e-05 -5.49508e-06 2.69285e+25 -1.60679 2.72402 271.904 
-1.02734e-05 -5.49508e-06 2.69641e+25 -2.28431 2.87133 271.489 
-8.36208e-06 -5.49508e-06 2.69928e+25 -3.23063 2.93769 271.224 
-6.45075e-06 -5.49508e-06 2.69493e+25 -3.99785 2.82952 271.539 
-4.53942e-06 -5.49508e-06 2.69693e+25 -4.70704 2.10523 271.42 
-2.62808e-06 -5.49508e-06 2.69172e+25 -5.4302 1.51016 271.931 
-7.1675e-07 -5.49508e-06 2.69008e+25 -5.86257 0.48034 272.195 
-1.60074e-05 -5.01725e-06 2.68964e+25 -0.159183 0.918672 272.119 
-1.40961e-05 -5.01725e-06 2.69341e+25 -0.685592 2.29159 271.895 
-1.21847e-05 -5.01725e-06 2.6912e+25 -1.49549 2.9597 271.981 
-1.02734e-05 -5.01725e-06 2.69786e+25 -2.51699 3.04735 271.35 
-8.36208e-06 -5.01725e-06 2.69627e+25 -3.43611 3.20018 271.449 
-6.45075e-06 -5.01725e-06 2.69467e+25 -4.20657 3.01737 271.581 
-4.53942e-06 -5.01725e-06 2.69613e+25 -5.08556 2.25887 271.67 
-2.62808e-06 -5.01725e-06 2.69047e+25 -5.63236 1.56937 271.961 
-7.1675e-07 -5.01725e-06 2.69227e+25 -6.18625 0.636711 272.018 
-1.60074e-05 -4.53942e-06 2.6923e+25 -0.215211 1.1226 272.05 
-1.40961e-05 -4.53942e-06 2.69182e+25 -0.667719 2.45255 272.054 
-1.21847e-05 -4.53942e-06 2.69178e+25 -1.29313 3.2029 271.926 
-1.02734e-05 -4.53942e-06 2.69696e+25 -2.57142 3.33276 271.383 
-8.36208e-06 -4.53942e-06 2.69457e+25 -3.43318 3.54446 271.717 
-6.45075e-06 -4.53942e-06 2.69318e+25 -4.28397 3.16878 271.844 
-4.53942e-06 -4.53942e-06 2.6948e+25 -5.21503 2.50785 271.663 
-2.62808e-06 -4.53942e-06 2.69057e+25 -5.77881 1.6579 271.938 
-7.1675e-07 -4.53942e-06 2.69041e+25 -6.29907 0.757953 272.049 
-1.60074e-05 -4.06158e-06 2.68869e+25 -0.330573 1.30754 272.255 
-1.40961e-05 -4.06158e-06 2.69022e+25 -0.830618 2.56752 272.083 
-1.21847e-05 -4.06158e-06 2.69105e+25 -1.58756 3.44669 271.958 
-1.02734e-05 -4.06158e-06 2.69725e+25 -2.60368 3.68491 271.435 
-8.36208e-06 -4.06158e-06 2.69592e+25 -3.54267 3.741 271.603 
-6.45075e-06 -4.06158e-06 2.69088e+25 -4.1698 3.34898 271.936 
-4.53942e-06 -4.06158e-06 2.69373e+25 -5.08677 2.7822 271.827 
-2.62808e-06 -4.06158e-06 2.69391e+25 -5.76799 1.87838 271.833 
-7.1675e-07 -4.06158e-06 2.6896e+25 -6.38285 0.883751 272.167 
-1.60074e-05 -3.58375e-06 2.68993e+25 -0.35871 1.40966 272.134 
-1.40961e-05 -3.58375e-06 2.68959e+25 -0.859297 2.61256 272.077 
-1.21847e-05 -3.58375e-06 2.69099e+25 -1.53989 3.63899 271.905 
-1.02734e-05 -3.58375e-06 2.69494e+25 -2.41214 3.83098 271.636 
-8.36208e-06 -3.58375e-06 2.69597e+25 -3.47682 3.90415 271.511 
-6.45075e-06 -3.58375e-06 2.69309e+25 -4.34706 3.61677 271.786 
-4.53942e-06 -3.58375e-06 2.69403e+25 -5.2469 2.95444 271.823 
-2.62808e-06 -3.58375e-06 2.69469e+25 -5.92913 2.13684 271.765 
-7.1675e-07 -3.58375e-06 2.68964e+25 -6.5182 0.944143 272.155 
-1.60074e-05 -3.10592e-06 2.68954e+25 -0.270966 1.52963 272.134 
-1.40961e-05 -3.10592e-06 2.69051e+25 -1.09296 2.71591 272.116 
-1.21847e-05 -3.10592e-06 2.6911e+25 -1.80607 3.8045 271.899 
-1.02734e-05 -3.10592e-06 2.69331e+25 -2.12671 4.05474 271.706 
-8.36208e-06 -3.10592e-06 2.69532e+25 -3.33539 4.12126 271.55 
-6.45075e-06 -3.10592e-06 2.69433e+25 -4.45214 3.94414 271.671 
-4.53942e-06 -3.10592e-06 2.69221e+25 -5.39355 3.09881 271.983 
-2.62808e-06 -3.10592e-06 2.69286e+25 -6.19382 2.32869 271.813 
-7.1675e-07 -3.10592e-06 2.68887e+25 -6.57406 0.892457 272.206 
-1.60074e-05 -2.62808e-06 2.68921e+25 -0.255897 1.69985 272.217 
-1.40961e-05 -2.62808e-06 2.6899e+25 -1.11567 2.9456 272.115 
-1.21847e-05 -2.62808e-06 2.69244e+25 -1.73972 3.86373 271.871 
-1.02734e-05 -2.62808e-06 2.69416e+25 -2.17421 4.25439 271.797 
-8.36208e-06 -2.62808e-06 2.69448e+25 -3.10924 4.33016 271.638 
-6.45075e-06 -2.62808e-06 2.69271e+25 -4.33821 4.24767 271.839 
-4.53942e-06 -2.62808e-06 2.6915e+25 -5.32468 3.31585 272.075 
-2.62808e-06 -2.62808e-06 2.69247e+25 -6.34481 2.60752 271.893 
-7.1675e-07 -2.62808e-06 2.69013e+25 -6.83514 1.10234 272.038 
-1.60074e-05 -2.15025e-06 2.68653e+25 -0.181195 1.86623 272.448 
-1.40961e-05 -2.15025e-06 2.68923e+25 -0.929156 3.30493 272.169 
-1.21847e-05 -2.15025e-06 2.69364e+25 -1.50891 4.01957 271.829 
-1.02734e-05 -2.15025e-06 2.69442e+25 -2.1906 4.41366 271.749 
-8.36208e-06 -2.15025e-06 2.69539e+25 -3.20323 4.68113 271.572 
-6.45075e-06 -2.15025e-06 2.6926e+25 -4.31005 4.52789 271.991 
-4.53942e-06 -2.15025e-06 2.69065e+25 -5.28551 3.55134 272.079 
-2.62808e-06 -2.15025e-06 2.69124e+25 -6.16 2.83405 271.888 
-7.1675e-07 -2.15025e-06 2.69208e+25 -6.88359 1.37982 271.872 
-1.60074e-05 -1.67242e-06 2.68751e+25 0.148121 1.99011 272.291 
-1.40961e-05 -1.67242e-06 2.69042e+25 -0.565716 3.53692 272.068 
-1.21847e-05 -1.67242e-06 2.69266e+25 -1.33328 4.28335 271.817 
-1.02734e-05 -1.67242e-06 2.69342e+25 -2.30796 4.67597 271.831 
-8.36208e-06 -1.67242e-06 2.69452e+25 -3.35077 5.1032 271.713 
-6.45075e-06 -1.67242e-06 2.68989e+25 -4.2953 4.77014 271.942 
-4.53942e-06 -1.67242e-06 2.69029e+25 -5.18715 3.77525 272.011 
-2.62808e-06 -1.67242e-06 2.69166e+25 -6.11079 2.97314 271.791 
-7.1675e-07 -1.67242e-06 2.69073e+25 -7.05152 1.57039 271.839 
-1.60074e-05 -1.19458e-06 2.68719e+25 0.0926887 1.93422 272.383 
-1.40961e-05 -1.19458e-06 2.68964e+25 -0.537212 3.71774 272.11 
-1.21847e-05 -1.19458e-06 2.69324e+25 -0.979123 4.42966 271.699 
-1.02734e-05 -1.19458e-06 2.69425e+25 -2.34472 4.92934 271.515 
-8.36208e-06 -1.19458e-06 2.69521e+25 -3.25556 5.26944 271.576 
-6.45075e-06 -1.19458e-06 2.69258e+25 -4.32255 4.95629 271.809 
-4.53942e-06 -1.19458e-06 2.69098e+25 -5.17318 3.97089 271.956 
-2.62808e-06 -1.19458e-06 2.69343e+25 -5.82686 3.12491 271.657 
-7.1675e-07 -1.19458e-06 2.6909e+25 -7.22855 1.82774 271.956 
-1.60074e-05 -7.1675e-07 2.68689e+25 -0.0174899 1.90324 272.406 
-1.40961e-05 -7.1675e-07 2.68725e+25 -0.332239 3.85625 272.241 
-1.21847e-05 -7.1675e-07 2.69294e+25 -1.04935 4.6102 271.88 
-1.02734e-05 -7.1675e-07 2.69544e+25 -2.2322 5.23166 271.643 
-8.36208e-06 -7.1675e-07 2.69187e+25 -3.22076 5.52907 271.658 
-6.45075e-06 -7.1675e-07 2.69159e+25 -4.30632 5.13622 271.827 
-4.53942e-06 -7.1675e-07 2.68967e+25 -5.32005 4.26541 271.974 
-2.62808e-06 -7.1675e-07 2.69582e+25 -6.10713 3.22216 271.585 
-7.1675e-07 -7.1675e-07 2.692e+25 -7.04355 2.11144 271.776 
-1.60074e-05 -2.38917e-07 2.68263e+25 0.0145139 2.0026 272.548 
-1.40961e-05 -2.38917e-07 2.68646e+25 -0.246756 4.02039 272.172 
-1.21847e-05 -2.38917e-07 2.69056e+25 -1.09092 4.84463 271.889 
-1.02734e-05 -2.38917e-07 2.69255e+25 -2.31635 5.44339 271.625 
-8.36208e-06 -2.38917e-07 2.69198e+25 -3.34271 5.72597 271.663 
-6.45075e-06 -2.38917e-07 2.68848e+25 -4.19575 5.27913 271.854 
-4.53942e-06 -2.38917e-07 2.69123e+25 -5.37937 4.52952 271.817 
-2.62808e-06 -2.38917e-07 2.6901e+25 -6.40052 3.45301 271.791 
-7.1675e-07 -2.38917e-07 2.6892e+25 -7.00102 2.22437 271.939 
-1.55296e-05 -1.69631e-05 2.68396e+25 0.00333056 -0.0169066 272.787 
-1.36182e-05 -1.69631e-05 2.68361e+25 -0.0157159 0.0448647 272.811 
-1.17069e-05 -1.69631e-05 2.68521e+25 -0.113915 0.0643178 272.718 
-9.79558e-06 -1.69631e-05 2.68467e+25 -0.117722 -0.00140739 272.764 
-7.88425e-06 -1.69631e-05 2.68351e+25 -0.121623 0.0191369 272.745 
-5.97292e-06 -1.69631e-05 2.68498e+25 -0.147558 0.0884065 272.712 
-4.06158e-06 -1.69631e-05 2.68562e+25 -0.0773232 -0.0368364 272.853 
-2.15025e-06 -1.69631e-05 2.68339e+25 -0.140782 0.0216761 272.869 
-2.38917e-07 -1.69631e-05 2.68157e+25 -0.118061 -0.0745501 272.801 
-1.55296e-05 -1.64852e-05 2.68683e+25 -0.0358084 -0.036835 272.484 
-1.36182e-05 -1.64852e-05 2.6873e+25 -0.0110004 0.0363545 272.535 
-1.17069e-05 -1.64852e-05 2.6865e+25 -0.261046 0.0529853 272.5 
-9.79558e-06 -1.64852e-05 2.68571e+25 -0.218433 0.089024 272.603 
-7.88425e-06 -1.64852e-05 2.68695e+25 -0.124868 -0.0358261 272.473 
-5.97292e-06 -1.64852e-05 2.68724e+25 -0.362991 0.15807 272.448 
-4.06158e-06 -1.64852e-05 2.68781e+25 -0.263467 -0.138449 272.456 
-2.15025e-06 -1.64852e-05 2.68475e+25 -0.315158 0.0175421 272.738 
-2.38917e-07 -1.64852e-05 2.68381e+25 -0.337829 -0.0475313 272.446 
-1.55296e-05 -1.60074e-05 2.68793e+25 0.13684 0.0607911 272.387 
-1.36182e-05 -1.60074e-05 2.68676e+25 -0.0710573 0.0242212 272.475 
-1.17069e-05 -1.60074e-05 2.68809e+25 -0.0863775 -0.047172 272.348 
-9.79558e-06 -1.60074e-05 2.68713e+25 -0.344675 0.148391 272.534 
-7.88425e-06 -1.60074e-05 2.68996e+25 -0.387375 0.0325325 272.183 
-5.97292e-06 -1.60074e-05 2.69006e+25 -0.496285 0.236115 272.109 
-4.06158e-06 -1.60074e-05 2.68853e+25 -0.410072 -0.218289 272.343 
-2.15025e-06 -1.60074e-05 2.68543e+25 -0.459216 0.121318 272.614 
-2.38917e-07 -1.60074e-05 2.68346e+25 -0.656424 0.0794204 272.566 
-1.55296e-05 -1.55296e-05 2.68999e+25 0.0851959 0.165834 272.238 
-1.36182e-05 -1.55296e-05 2.68745e+25 -0.103712 0.0975645 272.336 
-1.17069e-05 -1.55296e-05 2.68838e+25 -0.259482 -0.192413 272.368 
-9.79558e-06 -1.55296e-05 2.68812e+25 -0.434626 0.17969 272.354 
-7.88425e-06 -1.55296e-05 2.69131e+25 -0.515705 0.124095 272.038 
-5.97292e-06 -1.55296e-05 2.6926e+25 -0.859572 0.329243 271.947 
-4.06158e-06 -1.55296e-05 2.68991e+25 -0.82495 -0.344706 272.161 
-2.15025e-06 -1.55296e-05 2.68768e+25 -0.609214 0.149736 272.366 
-2.38917e-07 -1.55296e-05 2.68559e+25 -1.01602 0.00599214 272.356 
-1.55296e-05 -1.50517e-05 2.68997e+25 -0.0874124 0.10909 272.187 
-1.36182e-05 -1.50517e-05 2.6889e+25 -0.0921739 0.114319 272.269 
-1.17069e-05 -1.50517e-05 2.68853e+25 -0.428903 -0.0738216 272.327 
-9.79558e-06 -1.50517e-05 2.6919e+25 -0.36515 0.308997 272.032 
-7.88425e-06 -1.50517e-05 2.69161e+25 -0.708512 -0.000538125 272.011 
-5.97292e-06 -1.50517e-05 2.69054e+25 -0.759951 0.330162 272.117 
-4.06158e-06 -1.50517e-05 2.69331e+25 -0.979306 -0.476874 271.905 
-2.15025e-06 -1.50517e-05 2.68965e+25 -0.990203 0.241115 272.3 
-2.38917e-07 -1.50517e-05 2.68834e+25 -1.28349 -0.0738593 272.226 
-1.55296e-05 -1.45739e-05 2.68927e+25 0.0327756 0.109255 272.128 
-1.36182e-05 -1.45739e-05 2.68817e+25 -0.0633534 0.14474 272.258 
-1.17069e-05 -1.45739e-05 2.68635e+25 -0.327289 0.0826107 272.51 
-9.79558e-06 -1.45739e-05 2.696e+25 -0.413298 0.344679 271.754 
-7.88425e-06 -1.45739e-05 2.69076e+25 -0.985965 -0.0603044 272.063 
-5.97292e-06 -1.45739e-05 2.6905e+25 -0.856125 0.387964 272.068 
-4.06158e-06 -1.45739e-05 2.69117e+25 -1.25704 -0.409696 272.095 
-2.15025e-06 -1.45739e-05 2.68809e+25 -1.36241 0.427067 272.396 
-2.38917e-07 -1.45739e-05 2.68571e+25 -1.50174 -0.103222 272.401 
-1.55296e-05 -1.40961e-05 2.69056e+25 -0.137215 0.037177 272.192 
-1.36182e-05 -1.40961e-05 2.69144e+25 -0.203506 0.235758 271.978 
-1.17069e-05 -1.40961e-05 2.68858e+25 -0.447082 0.174445 272.345 
-9.79558e-06 -1.40961e-05 2.69244e+25 -0.735115 0.437902 271.823 
-7.88425e-06 -1.40961e-05 2.69239e+25 -1.17921 -0.0126802 271.831 
-5.97292e-06 -1.40961e-05 2.69098e+25 -1.1189 0.545297 272.073 
-4.06158e-06 -1.40961e-05 2.69215e+25 -1.54554 -0.282608 271.98 
-2.15025e-06 -1.40961e-05 2.68789e+25 -1.56485 0.417942 272.341 
-2.38917e-07 -1.40961e-05 2.68624e+25 -1.55645 0.0747425 272.335 
-1.55296e-05 -1.36182e-05 2.69204e+25 -0.0675967 0.112116 271.979 
-1.36182e-05 -1.36182e-05 2.69362e+25 -0.1724 0.331398 271.87 
-1.17069e-05 -1.36182e-05 2.69112e+25 -0.644146 0.187541 272.096 
-9.79558e-06 -1.36182e-05 2.69203e+25 -1.14746 0.440115 271.94 
-7.88425e-06 -1.36182e-05 2.69654e+25 -1.55982 0.232445 271.755 
-5.97292e-06 -1.36182e-05 2.69156e+25 -1.52806 0.390889 271.942 
-4.06158e-06 -1.36182e-05 2.69187e+25 -1.86362 -0.0480129 271.981 
-2.15025e-06 -1.36182e-05 2.68732e+25 -1.83978 0.362797 272.431 
-2.38917e-07 -1.36182e-05 2.68674e+25 -1.68804 0.169174 272.229 
-1.55296e-05 -1.31404e-05 2.69251e+25 -0.0667657 0.263863 272.013 
-1.36182e-05 -1.31404e-05 2.69282e+25 -0.204539 0.315 271.965 
-1.17069e-05 -1.31404e-05 2.69204e+25 -0.526598 0.294711 272.04 
-9.79558e-06 -1.31404e-05 2.69275e+25 -1.30889 0.571606 271.897 
-7.88425e-06 -1.31404e-05 2.69485e+25 -1.82301 0.427926 271.813 
-5.97292e-06 -1.31404e-05 2.69266e+25 -2.04953 0.22108 271.889 
-4.06158e-06 -1.31404e-05 2.69259e+25 -1.9706 0.181636 272.039 
-2.15025e-06 -1.31404e-05 2.69005e+25 -1.99934 0.261577 272.221 
-2.38917e-07 -1.31404e-05 2.68698e+25 -1.84928 0.149465 272.322 
-1.55296e-05 -1.26626e-05 2.69241e+25 -0.174901 0.434774 271.963 
-1.36182e-05 -1.26626e-05 2.69178e+25 -0.461594 0.36819 271.901 
-1.17069e-05 -1.26626e-05 2.69044e+25 -0.622944 0.49537 271.988 
-9.79558e-06 -1.26626e-05 2.69294e+25 -1.51114 0.784698 271.754 
-7.88425e-06 -1.26626e-05 2.69371e+25 -1.82322 0.519938 271.874 
-5.97292e-06 -1.26626e-05 2.69282e+25 -2.15306 0.078038 272.001 
-4.06158e-06 -1.26626e-05 2.69032e+25 -2.14108 0.300013 272.062 
-2.15025e-06 -1.26626e-05 2.69193e+25 -2.38597 0.250392 272.09 
-2.38917e-07 -1.26626e-05 2.6888e+25 -2.01818 -0.0288254 272.137 
-1.55296e-05 -1.21847e-05 2.69319e+25 -0.18615 0.414233 271.823 
-1.36182e-05 -1.21847e-05 2.69261e+25 -0.665079 0.495698 271.885 
-1.17069e-05 -1.21847e-05 2.69063e+25 -0.952634 0.650513 272.12 
-9.79558e-06 -1.21847e-05 2.69356e+25 -1.62614 0.926694 271.692 
-7.88425e-06 -1.21847e-05 2.69415e+25 -2.03238 0.514196 271.743 
-5.97292e-06 -1.21847e-05 2.69017e+25 -2.40798 0.00586346 272.008 
-4.06158e-06 -1.21847e-05 2.6926e+25 -2.34008 0.296311 271.892 
-2.15025e-06 -1.21847e-05 2.69487e+25 -2.34752 0.228811 271.883 
-2.38917e-07 -1.21847e-05 2.68935e+25 -2.37272 -0.0671208 272.053 
-1.55296e-05 -1.17069e-05 2.69065e+25 -0.116456 0.362545 271.98 
-1.36182e-05 -1.17069e-05 2.69162e+25 -0.61055 0.610648 271.959 
-1.17069e-05 -1.17069e-05 2.68925e+25 -1.03447 0.736654 272.2 
-9.79558e-06 -1.17069e-05 2.69526e+25 -1.58776 1.06297 271.667 
-7.88425e-06 -1.17069e-05 2.69241e+25 -2.05731 0.654869 271.883 
-5.97292e-06 -1.17069e-05 2.69141e+25 -2.32614 0.103011 272.118 
-4.06158e-06 -1.17069e-05 2.69329e+25 -2.46446 0.251302 271.827 
-2.15025e-06 -1.17069e-05 2.69183e+25 -2.49238 0.143289 271.921 
-2.38917e-07 -1.17069e-05 2.69091e+25 -2.60075 -0.0547652 271.857 
-1.55296e-05 -1.12291e-05 2.68913e+25 -0.269588 0.408538 272.069 
-1.36182e-05 -1.12291e-05 2.69219e+25 -0.637924 0.700569 272.09 
-1.17069e-05 -1.12291e-05 2.69031e+25 -1.18402 0.94024 272.176 
-9.79558e-06 -1.12291e-05 2.69475e+25 -1.46714 1.21184 271.865 
-7.88425e-06 -1.12291e-05 2.69168e+25 -2.11669 0.833305 272.005 
-5.97292e-06 -1.12291e-05 2.69395e+25 -2.24775 0.290216 271.853 
-4.06158e-06 -1.12291e-05 2.69258e+25 -2.8528 0.270331 271.882 
-2.15025e-06 -1.12291e-05 2.69019e+25 -2.87504 0.00273033 272.048 
-2.38917e-07 -1.12291e-05 2.69245e+25 -3.00639 0.0890582 271.669 
-1.55296e-05 -1.07512e-05 2.6911e+25 -0.135731 0.599448 272.168 
-1.36182e-05 -1.07512e-05 2.69076e+25 -0.506911 0.743636 272.086 
-1.17069e-05 -1.07512e-05 2.68935e+25 -0.973513 1.11718 272.219 
-9.79558e-06 -1.07512e-05 2.69393e+25 -1.65464 1.41578 271.739 
-7.88425e-06 -1.07512e-05 2.69183e+25 -2.03625 0.926641 272.038 
-5.97292e-06 -1.07512e-05 2.69394e+25 -2.47962 0.630189 271.793 
-4.06158e-06 -1.07512e-05 2.6952e+25 -2.80768 0.266131 271.725 
-2.15025e-06 -1.07512e-05 2.68971e+25 -3.20082 -0.0622808 272.188 
-2.38917e-07 -1.07512e-05 2.69205e+25 -3.49229 0.246351 271.789 
-1.55296e-05 -1.02734e-05 2.69139e+25 -0.0496054 0.561026 272.061 
-1.36182e-05 -1.02734e-05 2.69002e+25 -0.578645 0.849595 272.148 
-1.17069e-05 -1.02734e-05 2.69056e+25 -1.14987 1.19802 272.178 
-9.79558e-06 -1.02734e-05 2.6947e+25 -1.63232 1.4424 271.737 
-7.88425e-06 -1.02734e-05 2.69144e+25 -2.01946 0.865063 272.018 
-5.97292e-06 -1.02734e-05 2.69637e+25 -2.71584 0.813625 271.561 
-4.06158e-06 -1.02734e-05 2.69492e+25 -2.89489 0.334708 271.569 
-2.15025e-06 -1.02734e-05 2.68896e+25 -3.60672 0.0677051 272.204 
-2.38917e-07 -1.02734e-05 2.68822e+25 -3.84603 0.196083 272.012 
-1.55296e-05 -9.79558e-06 2.69206e+25 0.0247188 0.509636 271.921 
-1.36182e-05 -9.79558e-06 2.6902e+25 -0.422367 1.0466 272.146 
-1.17069e-05 -9.79558e-06 2.69421e+25 -1.12299 1.15514 271.796 
-9.79558e-06 -9.79558e-06 2.69171e+25 -1.54975 1.54694 271.929 
-7.88425e-06 -9.79558e-06 2.69337e+25 -2.07789 0.855941 271.889 
-5.97292e-06 -9.79558e-06 2.69573e+25 -2.94974 0.932641 271.744 
-4.06158e-06 -9.79558e-06 2.69541e+25 -3.17852 0.369322 271.578 
-2.15025e-06 -9.79558e-06 2.68806e+25 -3.85401 0.293047 272.172 
-2.38917e-07 -9.79558e-06 2.6871e+25 -3.84377 0.0973316 272.024 
-1.55296e-05 -9.31775e-06 2.68844e+25 0.0280902 0.615115 272.197 
-1.36182e-05 -9.31775e-06 2.69182e+25 -0.50382 1.21633 271.993 
-1.17069e-05 -9.31775e-06 2.69559e+25 -0.874557 1.29865 271.557 
-9.79558e-06 -9.31775e-06 2.69086e+25 -1.54534 1.78416 271.944 
-7.88425e-06 -9.31775e-06 2.69667e+25 -2.18334 0.982173 271.713 
-5.97292e-06 -9.31775e-06 2.69738e+25 -2.99603 1.16381 271.553 
-4.06158e-06 -9.31775e-06 2.69319e+25 -3.52958 0.370381 271.706 
-2.15025e-06 -9.31775e-06 2.68903e+25 -4.1553 0.448218 272.252 
-2.38917e-07 -9.31775e-06 2.68769e+25 -4.11888 0.0564813 272.146 
-1.55296e-05 -8.83992e-06 2.68874e+25 0.0498227 0.571943 272.18 
-1.36182e-05 -8.83992e-06 2.69217e+25 -0.349246 1.3694 271.844 
-1.17069e-05 -8.83992e-06 2.69529e+25 -0.780959 1.5362 271.752 
-9.79558e-06 -8.83992e-06 2.69193e+25 -1.48861 1.99739 271.898 
-7.88425e-06 -8.83992e-06 2.69374e+25 -2.31025 1.3008 271.779 
-5.97292e-06 -8.83992e-06 2.69542e+25 -3.12807 1.43761 271.643 
-4.06158e-06 -8.83992e-06 2.69487e+25 -3.8112 0.512573 271.738 
-2.15025e-06 -8.83992e-06 2.69127e+25 -4.34795 0.648723 272.01 
-2.38917e-07 -8.83992e-06 2.68929e+25 -4.37708 0.0284519 272.09 
-1.55296e-05 -8.36208e-06 2.68917e+25 -0.13906 0.510241 272.207 
-1.36182e-05 -8.36208e-06 2.69433e+25 -0.416725 1.53156 271.887 
-1.17069e-05 -8.36208e-06 2.69489e+25 -1.07772 1.78563 271.837 
-9.79558e-06 -8.36208e-06 2.69248e+25 -1.30609 2.09468 271.933 
-7.88425e-06 -8.36208e-06 2.69323e+25 -2.20257 1.66519 271.674 
-5.97292e-06 -8.36208e-06 2.69496e+25 -3.26959 1.49365 271.772 
-4.06158e-06 -8.36208e-06 2.69387e+25 -4.01896 0.875155 271.788 
-2.15025e-06 -8.36208e-06 2.68942e+25 -4.58995 0.82026 272.172 
-2.38917e-07 -8.36208e-06 2.68812e+25 -4.66317 0.015153 272.135 
-1.55296e-05 -7.88425e-06 2.68861e+25 -0.0817583 0.615495 272.23 
-1.36182e-05 -7.88425e-06 2.69326e+25 -0.521041 1.78101 271.824 
-1.17069e-05 -7.88425e-06 2.69472e+25 -1.05936 1.91708 271.723 
-9.79558e-06 -7.88425e-06 2.6923e+25 -1.4216 2.15435 271.94 
-7.88425e-06 -7.88425e-06 2.69514e+25 -2.2387 2.04779 271.596 
-5.97292e-06 -7.88425e-06 2.69595e+25 -3.42349 1.45944 271.559 
-4.06158e-06 -7.88425e-06 2.69124e+25 -4.08428 1.11711 271.881 
-2.15025e-06 -7.88425e-06 2.69013e+25 -4.63771 1.01935 272.133 
-2.38917e-07 -7.88425e-06 2.6902e+25 -4.87167 0.00639075 271.905 
-1.55296e-05 -7.40642e-06 2.69051e+25 -0.021775 0.750461 272.087 
-1.36182e-05 -7.40642e-06 2.69508e+25 -0.734948 1.88325 271.781 
-1.17069e-05 -7.40642e-06 2.6923e+25 -1.13044 2.06078 271.962 
-9.79558e-06 -7.40642e-06 2.69208e+25 -1.58342 2.29029 271.917 
-7.88425e-06 -7.40642e-06 2.69585e+25 -2.2948 2.41329 271.539 
-5.97292e-06 -7.40642e-06 2.69569e+25 -3.38017 1.62849 271.561 
-4.06158e-06 -7.40642e-06 2.69302e+25 -4.21073 1.34735 271.877 
-2.15025e-06 -7.40642e-06 2.69045e+25 -4.72618 1.11795 272.039 
-2.38917e-07 -7.40642e-06 2.68653e+25 -5.14639 0.0486334 272.172 
-1.55296e-05 -6.92858e-06 2.69326e+25 -0.145525 0.781779 271.928 
-1.36182e-05 -6.92858e-06 2.69393e+25 -0.667525 1.84987 271.789 
-1.17069e-05 -6.92858e-06 2.69277e+25 -1.21107 2.20835 271.791 
-9.79558e-06 -6.92858e-06 2.69214e+25 -1.95518 2.32205 271.798 
-7.88425e-06 -6.92858e-06 2.6948e+25 -2.47351 2.65407 271.669 
-5.97292e-06 -6.92858e-06 2.69413e+25 -3.37003 1.81133 271.681 
-4.06158e-06 -6.92858e-06 2.69226e+25 -4.34994 1.61145 271.782 
-2.15025e-06 -6.92858e-06 2.69069e+25 -4.90844 1.082 271.985 
-2.38917e-07 -6.92858e-06 2.68696e+25 -5.3927 0.178803 272.129 
-1.55296e-05 -6.45075e-06 2.69342e+25 -0.199224 0.880836 271.852 
-1.36182e-05 -6.45075e-06 2.69335e+25 -0.542041 1.97964 271.86 
-1.17069e-05 -6.45075e-06 2.69491e+25 -1.2309 2.25954 271.723 
-9.79558e-06 -6.45075e-06 2.69394e+25 -2.24959 2.58149 271.729 
-7.88425e-06 -6.45075e-06 2.69418e+25 -2.77175 2.81217 271.714 
-5.97292e-06 -6.45075e-06 2.6954e+25 -3.40597 2.07851 271.544 
-4.06158e-06 -6.45075e-06 2.69377e+25 -4.54457 1.77461 271.639 
-2.15025e-06 -6.45075e-06 2.69142e+25 -5.19401 1.12269 272.01 
-2.38917e-07 -6.45075e-06 2.68842e+25 -5.51551 0.284427 272.091 
-1.55296e-05 -5.97292e-06 2.691e+25 -0.171833 0.979543 272.115 
-1.36182e-05 -5.97292e-06 2.69306e+25 -0.737707 2.1364 271.74 
-1.17069e-05 -5.97292e-06 2.69371e+25 -1.45948 2.46537 271.756 
-9.79558e-06 -5.97292e-06 2.69391e+25 -2.33297 2.70545 271.738 
-7.88425e-06 -5.97292e-06 2.69528e+25 -3.0806 2.85646 271.542 
-5.97292e-06 -5.97292e-06 2.69581e+25 -3.99024 2.3184 271.509 
-4.06158e-06 -5.97292e-06 2.69599e+25 -4.64722 1.94006 271.635 
-2.15025e-06 -5.97292e-06 2.69043e+25 -5.37051 1.26009 271.902 
-2.38917e-07 -5.97292e-06 2.68818e+25 -5.66146 0.310396 272.145 
-1.55296e-05 -5.49508e-06 2.69116e+25 -0.319176 1.02936 272.049 
-1.36182e-05 -5.49508e-06 2.69273e+25 -0.695831 2.39077 271.942 
-1.17069e-05 -5.49508e-06 2.69387e+25 -1.88226 2.67793 271.763 
-9.79558e-06 -5.49508e-06 2.6956e+25 -2.45838 2.87591 271.506 
-7.88425e-06 -5.49508e-06 2.69934e+25 -3.47611 3.04189 271.345 
-5.97292e-06 -5.49508e-06 2.69498e+25 -4.20975 2.62552 271.594 
-4.06158e-06 -5.49508e-06 2.69447e+25 -4.9003 2.21979 271.637 
-2.15025e-06 -5.49508e-06 2.6926e+25 -5.41402 1.35187 271.967 
-2.38917e-07 -5.49508e-06 2.68738e+25 -5.914 0.346547 272.16 
-1.55296e-05 -5.01725e-06 2.69238e+25 -0.460136 1.3211 271.921 
-1.36182e-05 -5.01725e-06 2.69096e+25 -0.915041 2.65292 271.99 
-1.17069e-05 -5.01725e-06 2.69325e+25 -1.74691 2.99325 271.886 
-9.79558e-06 -5.01725e-06 2.69679e+25 -2.68931 3.05925 271.387 
-7.88425e-06 -5.01725e-06 2.69697e+25 -3.68473 3.27466 271.432 
-5.97292e-06 -5.01725e-06 2.69455e+25 -4.42737 2.90354 271.695 
-4.06158e-06 -5.01725e-06 2.6934e+25 -5.26616 2.40165 271.737 
-2.15025e-06 -5.01725e-06 2.69091e+25 -5.73594 1.39016 271.927 
-2.38917e-07 -5.01725e-06 2.6872e+25 -6.26584 0.380694 272.177 
-1.55296e-05 -4.53942e-06 2.69222e+25 -0.462895 1.68067 272.005 
-1.36182e-05 -4.53942e-06 2.68966e+25 -0.846332 2.83967 272.227 
-1.17069e-05 -4.53942e-06 2.69133e+25 -1.69334 3.33963 271.887 
-9.79558e-06 -4.53942e-06 2.69542e+25 -2.85892 3.23377 271.599 
-7.88425e-06 -4.53942e-06 2.69324e+25 -3.70405 3.47752 271.781 
-5.97292e-06 -4.53942e-06 2.694e+25 -4.44987 3.09796 271.738 
-4.06158e-06 -4.53942e-06 2.69382e+25 -5.37675 2.46868 271.688 
-2.15025e-06 -4.53942e-06 2.69018e+25 -5.93712 1.49678 271.934 
-2.38917e-07 -4.53942e-06 2.68829e+25 -6.30159 0.327159 272.084 
-1.55296e-05 -4.06158e-06 2.69199e+25 -0.387338 1.80833 271.98 
-1.36182e-05 -4.06158e-06 2.69002e+25 -0.918767 2.94766 272.133 
-1.17069e-05 -4.06158e-06 2.6938e+25 -1.80255 3.64711 271.833 
-9.79558e-06 -4.06158e-06 2.69594e+25 -2.7741 3.38913 271.441 
-7.88425e-06 -4.06158e-06 2.69293e+25 -3.72077 3.68136 271.786 
-5.97292e-06 -4.06158e-06 2.69158e+25 -4.35468 3.23755 271.899 
-4.06158e-06 -4.06158e-06 2.69213e+25 -5.32963 2.54993 271.818 
-2.15025e-06 -4.06158e-06 2.69408e+25 -5.95913 1.68518 271.665 
-2.38917e-07 -4.06158e-06 2.68979e+25 -6.51759 0.378527 271.992 
-1.55296e-05 -3.58375e-06 2.69171e+25 -0.465466 1.89661 272.039 
-1.36182e-05 -3.58375e-06 2.68928e+25 -0.88276 3.10815 272.125 
-1.17069e-05 -3.58375e-06 2.69228e+25 -1.69726 3.85109 271.849 
-9.79558e-06 -3.58375e-06 2.69425e+25 -2.66928 3.57584 271.649 
-7.88425e-06 -3.58375e-06 2.6948e+25 -3.62522 3.79829 271.663 
-5.97292e-06 -3.58375e-06 2.69321e+25 -4.64551 3.49832 271.792 
-4.06158e-06 -3.58375e-06 2.69192e+25 -5.37672 2.74114 271.821 
-2.15025e-06 -3.58375e-06 2.69357e+25 -6.15825 1.83069 271.764 
-2.38917e-07 -3.58375e-06 2.68757e+25 -6.57228 0.464989 272.004 
-1.55296e-05 -3.10592e-06 2.68903e+25 -0.409385 1.99286 272.236 
-1.36182e-05 -3.10592e-06 2.69038e+25 -1.19836 3.17955 272.128 
-1.17069e-05 -3.10592e-06 2.69154e+25 -1.89674 3.94906 271.845 
-9.79558e-06 -3.10592e-06 2.69148e+25 -2.46518 4.01546 271.859 
-7.88425e-06 -3.10592e-06 2.69557e+25 -3.52374 3.96981 271.559 
-5.97292e-06 -3.10592e-06 2.69198e+25 -4.70351 3.72988 271.709 
-4.06158e-06 -3.10592e-06 2.69258e+25 -5.57707 2.93545 271.95 
-2.15025e-06 -3.10592e-06 2.69359e+25 -6.41752 2.05298 271.661 
-2.38917e-07 -3.10592e-06 2.68885e+25 -6.79626 0.723124 272.073 
-1.55296e-05 -2.62808e-06 2.68974e+25 -0.429989 2.19964 272.221 
-1.36182e-05 -2.62808e-06 2.68876e+25 -1.38873 3.29056 272.275 
-1.17069e-05 -2.62808e-06 2.69413e+25 -1.70216 3.94112 271.685 
-9.79558e-06 -2.62808e-06 2.69288e+25 -2.34522 4.32376 271.725 
-7.88425e-06 -2.62808e-06 2.69408e+25 -3.50266 4.33739 271.696 
-5.97292e-06 -2.62808e-06 2.69189e+25 -4.64593 3.9814 271.918 
-4.06158e-06 -2.62808e-06 2.69052e+25 -5.53556 3.1372 271.925 
-2.15025e-06 -2.62808e-06 2.69116e+25 -6.5361 2.20177 271.879 
-2.38917e-07 -2.62808e-06 2.68951e+25 -6.99327 0.891104 271.885 
-1.55296e-05 -2.15025e-06 2.68926e+25 -0.220022 2.26535 272.26 
-1.36182e-05 -2.15025e-06 2.68848e+25 -1.17115 3.43619 272.249 
-1.17069e-05 -2.15025e-06 2.69345e+25 -1.79218 3.94398 271.785 
-9.79558e-06 -2.15025e-06 2.69305e+25 -2.43631 4.57605 271.782 
-7.88425e-06 -2.15025e-06 2.69485e+25 -3.62462 4.80982 271.747 
-5.97292e-06 -2.15025e-06 2.68884e+25 -4.57276 4.25566 271.969 
-4.06158e-06 -2.15025e-06 2.69199e+25 -5.53006 3.32251 271.945 
-2.15025e-06 -2.15025e-06 2.69066e+25 -6.34743 2.37813 271.85 
-2.38917e-07 -2.15025e-06 2.6902e+25 -7.05787 1.07845 271.744 
-1.55296e-05 -1.67242e-06 2.68772e+25 0.0274562 2.3126 272.357 
-1.36182e-05 -1.67242e-06 2.69131e+25 -0.78134 3.65113 271.962 
-1.17069e-05 -1.67242e-06 2.69436e+25 -1.55722 4.17073 271.605 
-9.79558e-06 -1.67242e-06 2.6935e+25 -2.56015 4.77815 271.786 
-7.88425e-06 -1.67242e-06 2.69348e+25 -3.58832 5.05376 271.787 
-5.97292e-06 -1.67242e-06 2.68928e+25 -4.48824 4.47151 272.143 
-4.06158e-06 -1.67242e-06 2.68814e+25 -5.40642 3.59077 272.097 
-2.15025e-06 -1.67242e-06 2.6906e+25 -6.27914 2.54303 271.88 
-2.38917e-07 -1.67242e-06 2.69043e+25 -7.25088 1.25538 271.889 
-1.55296e-05 -1.19458e-06 2.68784e+25 -0.0140202 2.52412 272.313 
-1.36182e-05 -1.19458e-06 2.69033e+25 -0.711053 3.85111 271.998 
-1.17069e-05 -1.19458e-06 2.69449e+25 -1.27078 4.48656 271.692 
-9.79558e-06 -1.19458e-06 2.69427e+25 -2.52575 4.92369 271.612 
-7.88425e-06 -1.19458e-06 2.6953e+25 -3.43308 5.33239 271.433 
-5.97292e-06 -1.19458e-06 2.69191e+25 -4.50625 4.69341 271.933 
-4.06158e-06 -1.19458e-06 2.69024e+25 -5.43088 3.81814 272.066 
-2.15025e-06 -1.19458e-06 2.69473e+25 -6.05246 2.85448 271.794 
-2.38917e-07 -1.19458e-06 2.68899e+25 -7.44698 1.37751 271.874 
-1.55296e-05 -7.1675e-07 2.6889e+25 -0.0516233 2.68267 272.189 
-1.36182e-05 -7.1675e-07 2.68932e+25 -0.569 4.10193 272.122 
-1.17069e-05 -7.1675e-07 2.69316e+25 -1.2908 4.87933 271.814 
-9.79558e-06 -7.1675e-07 2.69635e+25 -2.5234 5.16385 271.525 
-7.88425e-06 -7.1675e-07 2.69546e+25 -3.39114 5.48729 271.683 
-5.97292e-06 -7.1675e-07 2.69238e+25 -4.53067 4.93499 271.796 
-4.06158e-06 -7.1675e-07 2.69163e+25 -5.59228 4.16823 271.942 
-2.15025e-06 -7.1675e-07 2.69295e+25 -6.35651 3.21856 271.776 
-2.38917e-07 -7.1675e-07 2.68754e+25 -7.31592 1.57181 271.837 
-1.55296e-05 -2.38917e-07 2.68736e+25 -0.115597 2.80033 272.336 
-1.36182e-05 -2.38917e-07 2.68972e+25 -0.349944 4.33796 272.001 
-1.17069e-05 -2.38917e-07 2.69045e+25 -1.48366 5.24345 271.887 
-9.79558e-06 -2.38917e-07 2.69179e+25 -2.58246 5.48516 271.675 
-7.88425e-06 -2.38917e-07 2.69196e+25 -3.58678 5.74888 271.733 
-5.97292e-06 -2.38917e-07 2.69066e+25 -4.42367 5.26459 271.761 
-4.06158e-06 -2.38917e-07 2.68973e+25 -5.66479 4.41198 271.797 
-2.15025e-06 -2.38917e-07 2.68762e+25 -6.44508 3.31732 271.959 
-2.38917e-07 -2.38917e-07 2.686e+25 -7.17258 1.8403 272.01 
-1.64852e-05 2.38917e-07 2.68411e+25 -0.0353098 1.25701 272.491 
-1.45739e-05 2.38917e-07 2.68703e+25 -0.218047 3.79246 272.162 
-1.26626e-05 2.38917e-07 2.69146e+25 -0.912056 4.83136 271.805 
-1.07512e-05 2.38917e-07 2.69455e+25 -2.27288 5.76305 271.538 
-8.83992e-06 2.38917e-07 2.69017e+25 -3.2709 6.00832 271.725 
-6.92858e-06 2.38917e-07 2.69246e+25 -3.89694 5.82158 271.679 
-5.01725e-06 2.38917e-07 2.68969e+25 -5.05638 5.00422 271.827 
-3.10592e-06 2.38917e-07 2.68801e+25 -5.98822 4.07159 271.98 
-1.19458e-06 2.38917e-07 2.68872e+25 -6.96009 2.84914 271.984 
-1.64852e-05 7.1675e-07 2.6866e+25 -0.044417 1.32768 272.402 
-1.45739e-05 7.1675e-07 2.69033e+25 -0.304981 3.87493 271.955 
-1.26626e-05 7.1675e-07 2.69127e+25 -1.07843 5.28132 271.769 
-1.07512e-05 7.1675e-07 2.69578e+25 -2.55874 6.0948 271.485 
-8.83992e-06 7.1675e-07 2.69453e+25 -3.09497 6.21374 271.661 
-6.92858e-06 7.1675e-07 2.69171e+25 -3.79277 6.00808 271.793 
-5.01725e-06 7.1675e-07 2.6932e+25 -4.76407 5.29956 271.649 
-3.10592e-06 7.1675e-07 2.68923e+25 -5.84661 4.42603 271.956 
-1.19458e-06 7.1675e-07 2.6882e+25 -6.83683 3.05321 272.145 
-1.64852e-05 1.19458e-06 2.68892e+25 -0.134965 1.42018 272.273 
-1.45739e-05 1.19458e-06 2.69122e+25 -0.268949 3.93087 272.006 
-1.26626e-05 1.19458e-06 2.69345e+25 -1.32523 5.75795 271.707 
-1.07512e-05 1.19458e-06 2.69322e+25 -2.41345 6.31824 271.572 
-8.83992e-06 1.19458e-06 2.69368e+25 -3.03022 6.30922 271.621 
-6.92858e-06 1.19458e-06 2.69116e+25 -3.78976 6.18372 271.753 
-5.01725e-06 1.19458e-06 2.69199e+25 -4.61529 5.64476 271.743 
-3.10592e-06 1.19458e-06 2.68808e+25 -5.70031 4.69077 272.017 
-1.19458e-06 1.19458e-06 2.68682e+25 -6.66539 3.23614 272.326 
-1.64852e-05 1.67242e-06 2.68473e+25 0.0301297 1.43943 272.607 
-1.45739e-05 1.67242e-06 2.6885e+25 -0.357368 4.07714 272.184 
-1.26626e-05 1.67242e-06 2.69301e+25 -1.38959 6.11335 271.615 
-1.07512e-05 1.67242e-06 2.69536e+25 -2.34888 6.52913 271.62 
-8.83992e-06 1.67242e-06 2.69319e+25 -3.21558 6.40752 271.693 
-6.92858e-06 1.67242e-06 2.69121e+25 -3.79334 6.22703 271.895 
-5.01725e-06 1.67242e-06 2.69135e+25 -4.41481 5.83968 271.755 
-3.10592e-06 1.67242e-06 2.68697e+25 -5.54821 4.82406 272.249 
-1.19458e-06 1.67242e-06 2.6869e+25 -6.30155 3.43227 272.215 
-1.64852e-05 2.15025e-06 2.68527e+25 0.141578 1.35541 272.477 
-1.45739e-05 2.15025e-06 2.68769e+25 -0.291453 4.26138 272.299 
-1.26626e-05 2.15025e-06 2.69682e+25 -1.46227 6.29043 271.389 
-1.07512e-05 2.15025e-06 2.69306e+25 -2.29175 6.73321 271.679 
-8.83992e-06 2.15025e-06 2.69184e+25 -3.1533 6.59052 271.722 
-6.92858e-06 2.15025e-06 2.693e+25 -3.842 6.38716 271.665 
-5.01725e-06 2.15025e-06 2.69236e+25 -4.44321 5.99061 271.681 
-3.10592e-06 2.15025e-06 2.68814e+25 -5.34873 4.98655 272.138 
-1.19458e-06 2.15025e-06 2.68463e+25 -6.00027 3.57736 272.354 
-1.64852e-05 2.62808e-06 2.68365e+25 0.093247 1.26049 272.557 
-1.45739e-05 2.62808e-06 2.68915e+25 -0.274823 4.55887 272.123 
-1.26626e-05 2.62808e-06 2.69517e+25 -1.33677 6.39259 271.435 
-1.07512e-05 2.62808e-06 2.69308e+25 -2.12248 6.88293 271.714 
-8.83992e-06 2.62808e-06 2.69118e+25 -3.13387 6.70549 271.73 
-6.92858e-06 2.62808e-06 2.69286e+25 -3.99395 6.74724 271.7 
-5.01725e-06 2.62808e-06 2.69223e+25 -4.54931 6.07969 271.815 
-3.10592e-06 2.62808e-06 2.68594e+25 -5.02855 5.30093 272.224 
-1.19458e-06 2.62808e-06 2.68348e+25 -5.53189 3.74961 272.501 
-1.64852e-05 3.10592e-06 2.68471e+25 -0.108685 1.26891 272.6 
-1.45739e-05 3.10592e-06 2.68893e+25 -0.376689 4.82415 272.121 
-1.26626e-05 3.10592e-06 2.69414e+25 -1.20363 6.71554 271.514 
-1.07512e-05 3.10592e-06 2.69474e+25 -2.13473 7.05465 271.529 
-8.83992e-06 3.10592e-06 2.69455e+25 -2.75225 6.80647 271.474 
-6.92858e-06 3.10592e-06 2.69137e+25 -3.8139 6.98237 271.809 
-5.01725e-06 3.10592e-06 2.69012e+25 -4.48947 6.21402 271.864 
-3.10592e-06 3.10592e-06 2.68678e+25 -4.75624 5.39938 272.247 
-1.19458e-06 3.10592e-06 2.68469e+25 -5.20526 3.93203 272.304 
-1.64852e-05 3.58375e-06 2.68542e+25 -0.0190572 1.25211 272.487 
-1.45739e-05 3.58375e-06 2.69246e+25 -0.239007 4.92337 271.932 
-1.26626e-05 3.58375e-06 2.69327e+25 -1.04552 6.98188 271.607 
-1.07512e-05 3.58375e-06 2.694e+25 -1.62939 7.3178 271.644 
-8.83992e-06 3.58375e-06 2.69433e+25 -2.72006 7.0833 271.561 
-6.92858e-06 3.58375e-06 2.6895e+25 -3.67184 7.11797 271.874 
-5.01725e-06 3.58375e-06 2.68955e+25 -4.28741 6.34811 271.871 
-3.10592e-06 3.58375e-06 2.68586e+25 -4.55539 5.44487 272.365 
-1.19458e-06 3.58375e-06 2.6849e+25 -5.00287 4.14439 272.272 
-1.64852e-05 4.06158e-06 2.68626e+25 -0.0491043 1.33792 272.332 
-1.45739e-05 4.06158e-06 2.69111e+25 -0.293424 5.02981 271.858 
-1.26626e-05 4.06158e-06 2.69136e+25 -1.08307 7.13289 271.716 
-1.07512e-05 4.06158e-06 2.69416e+25 -1.39442 7.52683 271.562 
-8.83992e-06 4.06158e-06 2.69332e+25 -2.71582 7.39778 271.59 
-6.92858e-06 4.06158e-06 2.69024e+25 -3.30711 7.29453 272.054 
-5.01725e-06 4.06158e-06 2.6892e+25 -3.86285 6.51571 271.957 
-3.10592e-06 4.06158e-06 2.68622e+25 -4.22976 5.51804 272.295 
-1.19458e-06 4.06158e-06 2.68543e+25 -4.71396 4.27695 272.369 
-1.64852e-05 4.53942e-06 2.68493e+25 -0.149023 1.48387 272.509 
-1.45739e-05 4.53942e-06 2.69074e+25 -0.638529 5.15869 271.959 
-1.26626e-05 4.53942e-06 2.69077e+25 -0.858638 7.261 271.844 
-1.07512e-05 4.53942e-06 2.69402e+25 -1.50866 7.69036 271.752 
-8.83992e-06 4.53942e-06 2.69397e+25 -2.29824 7.69944 271.544 
-6.92858e-06 4.53942e-06 2.68981e+25 -3.00485 7.40591 271.937 
-5.01725e-06 4.53942e-06 2.68678e+25 -3.49338 6.7129 272.179 
-3.10592e-06 4.53942e-06 2.68534e+25 -3.84147 5.68367 272.24 
-1.19458e-06 4.53942e-06 2.68496e+25 -4.3028 4.26326 272.43 
-1.64852e-05 5.01725e-06 2.68627e+25 -0.151142 1.64076 272.463 
-1.45739e-05 5.01725e-06 2.69174e+25 -0.71716 5.29655 271.933 
-1.26626e-05 5.01725e-06 2.68863e+25 -0.650618 7.25896 271.95 
-1.07512e-05 5.01725e-06 2.6908e+25 -1.5982 7.80849 271.66 
-8.83992e-06 5.01725e-06 2.69444e+25 -2.06045 7.9316 271.434 
-6.92858e-06 5.01725e-06 2.69016e+25 -2.80776 7.46095 271.865 
-5.01725e-06 5.01725e-06 2.68911e+25 -3.1782 6.83247 271.989 
-3.10592e-06 5.01725e-06 2.68778e+25 -3.64669 5.74515 272.173 
-1.19458e-06 5.01725e-06 2.68872e+25 -4.21498 4.39069 271.929 
-1.64852e-05 5.49508e-06 2.68541e+25 -0.0648007 1.65636 272.487 
-1.45739e-05 5.49508e-06 2.68776e+25 -0.809274 5.38241 272.078 
-1.26626e-05 5.49508e-06 2.69302e+25 -0.700241 7.33496 271.727 
-1.07512e-05 5.49508e-06 2.69268e+25 -1.60815 7.97261 271.524 
-8.83992e-06 5.49508e-06 2.69407e+25 -2.0616 8.04309 271.473 
-6.92858e-06 5.49508e-06 2.69391e+25 -2.71563 7.5788 271.652 
-5.01725e-06 5.49508e-06 2.68968e+25 -3.03571 6.83396 271.847 
-3.10592e-06 5.49508e-06 2.68609e+25 -3.21265 5.77508 272.084 
-1.19458e-06 5.49508e-06 2.68913e+25 -3.78069 4.5584 271.749 
-1.64852e-05 5.97292e-06 2.6863e+25 -0.0189171 1.72743 272.269 
-1.45739e-05 5.97292e-06 2.68877e+25 -0.560896 5.41288 272.04 
-1.26626e-05 5.97292e-06 2.69238e+25 -0.971985 7.37842 271.721 
-1.07512e-05 5.97292e-06 2.69483e+25 -1.68981 8.1358 271.452 
-8.83992e-06 5.97292e-06 2.69425e+25 -2.11923 8.2618 271.42 
-6.92858e-06 5.97292e-06 2.69383e+25 -2.61914 7.63801 271.456 
-5.01725e-06 5.97292e-06 2.68868e+25 -2.74096 6.91823 271.91 
-3.10592e-06 5.97292e-06 2.68877e+25 -2.81718 5.91618 271.942 
-1.19458e-06 5.97292e-06 2.68821e+25 -3.37859 4.67329 271.926 
-1.64852e-05 6.45075e-06 2.68602e+25 -0.0597212 1.77888 272.325 
-1.45739e-05 6.45075e-06 2.68756e+25 -0.578775 5.6483 272.076 
-1.26626e-05 6.45075e-06 2.69277e+25 -1.0783 7.41914 271.609 
-1.07512e-05 6.45075e-06 2.69305e+25 -1.3631 8.35387 271.515 
-8.83992e-06 6.45075e-06 2.69239e+25 -2.15187 8.4631 271.733 
-6.92858e-06 6.45075e-06 2.69189e+25 -2.33449 7.69133 271.738 
-5.01725e-06 6.45075e-06 2.68861e+25 -2.52456 6.97247 271.872 
-3.10592e-06 6.45075e-06 2.68989e+25 -2.51011 6.18691 271.89 
-1.19458e-06 6.45075e-06 2.69201e+25 -2.84625 4.7654 271.641 
-1.64852e-05 6.92858e-06 2.68364e+25 0.0658636 1.77783 272.653 
-1.45739e-05 6.92858e-06 2.68778e+25 -0.456914 5.96984 272.063 
-1.26626e-05 6.92858e-06 2.6909e+25 -1.17358 7.50968 271.669 
-1.07512e-05 6.92858e-06 2.69349e+25 -1.27045 8.48643 271.572 
-8.83992e-06 6.92858e-06 2.68919e+25 -1.78537 8.50975 271.894 
-6.92858e-06 6.92858e-06 2.69023e+25 -2.08585 7.74458 271.69 
-5.01725e-06 6.92858e-06 2.68787e+25 -2.04854 6.93108 271.945 
-3.10592e-06 6.92858e-06 2.69146e+25 -2.19065 6.24507 271.787 
-1.19458e-06 6.92858e-06 2.68965e+25 -2.43778 4.79225 271.888 
-1.64852e-05 7.40642e-06 2.68558e+25 -0.112402 1.87081 272.534 
-1.45739e-05 7.40642e-06 2.69176e+25 -0.464615 6.06754 271.943 
-1.26626e-05 7.40642e-06 2.69008e+25 -1.03582 7.65365 271.892 
-1.07512e-05 7.40642e-06 2.69319e+25 -1.1595 8.51487 271.621 
-8.83992e-06 7.40642e-06 2.68733e+25 -1.60211 8.48264 271.994 
-6.92858e-06 7.40642e-06 2.69251e+25 -1.90701 7.72171 271.704 
-5.01725e-06 7.40642e-06 2.68851e+25 -1.66549 6.82309 271.917 
-3.10592e-06 7.40642e-06 2.69119e+25 -1.89238 6.13158 271.695 
-1.19458e-06 7.40642e-06 2.69122e+25 -1.89689 4.83172 271.634 
-1.64852e-05 7.88425e-06 2.68227e+25 -0.0420136 1.89734 272.604 
-1.45739e-05 7.88425e-06 2.68882e+25 -0.555271 6.05348 271.985 
-1.26626e-05 7.88425e-06 2.69105e+25 -1.2435 7.76829 271.875 
-1.07512e-05 7.88425e-06 2.69075e+25 -1.30519 8.55862 271.714 
-8.83992e-06 7.88425e-06 2.68845e+25 -1.66314 8.53635 272.029 
-6.92858e-06 7.88425e-06 2.69131e+25 -1.49044 7.7581 271.8 
-5.01725e-06 7.88425e-06 2.68868e+25 -1.28585 6.76198 271.892 
-3.10592e-06 7.88425e-06 2.68953e+25 -1.49881 6.04625 271.886 
-1.19458e-06 7.88425e-06 2.68992e+25 -1.06986 4.97508 271.719 
-1.64852e-05 8.36208e-06 2.68665e+25 -0.0496528 1.95906 272.32 
-1.45739e-05 8.36208e-06 2.68684e+25 -0.531535 6.10381 272.142 
-1.26626e-05 8.36208e-06 2.68978e+25 -1.47818 7.98962 271.839 
-1.07512e-05 8.36208e-06 2.68989e+25 -1.51921 8.58692 271.821 
-8.83992e-06 8.36208e-06 2.69044e+25 -1.52316 8.53271 271.891 
-6.92858e-06 8.36208e-06 2.69064e+25 -1.05407 7.75378 271.8 
-5.01725e-06 8.36208e-06 2.6898e+25 -1.04703 6.73159 271.896 
-3.10592e-06 8.36208e-06 2.68784e+25 -0.871095 6.06062 271.93 
-1.19458e-06 8.36208e-06 2.68999e+25 -0.436212 4.90005 271.763 
-1.64852e-05 8.83992e-06 2.68248e+25 -0.00342 2.06354 272.495 
-1.45739e-05 8.83992e-06 2.68851e+25 -0.544994 6.19827 272.147 
-1.26626e-05 8.83992e-06 2.68779e+25 -1.45066 8.33784 271.885 
-1.07512e-05 8.83992e-06 2.69108e+25 -1.86445 8.54054 271.772 
-8.83992e-06 8.83992e-06 2.69066e+25 -1.70547 8.45572 271.84 
-6.92858e-06 8.83992e-06 2.68693e+25 -0.958925 7.69769 272.156 
-5.01725e-06 8.83992e-06 2.6879e+25 -0.593133 6.53603 272.028 
-3.10592e-06 8.83992e-06 2.6876e+25 0.00391133 6.04598 272.031 
-1.19458e-06 8.83992e-06 2.68913e+25 0.455926 4.71755 271.771 
-1.64852e-05 9.31775e-06 2.6809e+25 -0.0936661 2.22311 272.586 
-1.45739e-05 9.31775e-06 2.68603e+25 -0.735604 6.45752 272.103 
-1.26626e-05 9.31775e-06 2.68725e+25 -1.72301 8.49479 271.916 
-1.07512e-05 9.31775e-06 2.69153e+25 -2.0072 8.67125 271.624 
-8.83992e-06 9.31775e-06 2.69102e+25 -1.6061 8.34744 271.862 
-6.92858e-06 9.31775e-06 2.68583e+25 -1.04387 7.5133 272.184 
-5.01725e-06 9.31775e-06 2.68828e+25 -0.172652 6.25869 271.943 
-3.10592e-06 9.31775e-06 2.68729e+25 0.715378 5.98725 271.975 
-1.19458e-06 9.31775e-06 2.68851e+25 1.32779 4.59347 271.913 
-1.64852e-05 9.79558e-06 2.68006e+25 -0.203066 2.35837 272.609 
-1.45739e-05 9.79558e-06 2.68679e+25 -0.960032 6.69224 272.091 
-1.26626e-05 9.79558e-06 2.69019e+25 -1.89602 8.54971 271.819 
-1.07512e-05 9.79558e-06 2.69302e+25 -2.39877 8.74197 271.555 
-8.83992e-06 9.79558e-06 2.69005e+25 -1.62386 8.20202 271.921 
-6.92858e-06 9.79558e-06 2.68924e+25 -1.0418 7.44279 272.024 
-5.01725e-06 9.79558e-06 2.68875e+25 0.269145 5.9598 271.972 
-3.10592e-06 9.79558e-06 2.6892e+25 1.51215 5.72689 271.952 
-1.19458e-06 9.79558e-06 2.68592e+25 2.08494 4.50977 272.018 
-1.64852e-05 1.02734e-05 2.68169e+25 -0.297501 2.51709 272.523 
-1.45739e-05 1.02734e-05 2.68628e+25 -1.20025 6.99978 272.084 
-1.26626e-05 1.02734e-05 2.68889e+25 -1.97482 8.62893 271.846 
-1.07512e-05 1.02734e-05 2.69143e+25 -2.24627 8.61529 271.685 
-8.83992e-06 1.02734e-05 2.69046e+25 -1.46516 8.01082 271.886 
-6.92858e-06 1.02734e-05 2.68695e+25 -0.702373 7.27942 272.162 
-5.01725e-06 1.02734e-05 2.69063e+25 0.702078 5.66014 271.875 
-3.10592e-06 1.02734e-05 2.6868e+25 1.9476 5.55087 271.998 
-1.19458e-06 1.02734e-05 2.6874e+25 3.08286 4.30019 272.001 
-1.64852e-05 1.07512e-05 2.68139e+25 -0.170551 2.66021 272.634 
-1.45739e-05 1.07512e-05 2.68673e+25 -1.36038 7.28406 272.004 
-1.26626e-05 1.07512e-05 2.68984e+25 -2.19103 8.68093 271.784 
-1.07512e-05 1.07512e-05 2.69302e+25 -1.92924 8.51092 271.616 
-8.83992e-06 1.07512e-05 2.69017e+25 -1.28985 7.69452 271.876 
-6.92858e-06 1.07512e-05 2.68752e+25 -0.216008 6.87136 272.129 
-5.01725e-06 1.07512e-05 2.69061e+25 1.3005 5.30046 271.823 
-3.10592e-06 1.07512e-05 2.68675e+25 2.73406 5.19265 272.05 
-1.19458e-06 1.07512e-05 2.68596e+25 4.04136 3.92282 272.013 
-1.64852e-05 1.12291e-05 2.68049e+25 -0.190822 2.97759 272.571 
-1.45739e-05 1.12291e-05 2.6859e+25 -1.73558 7.61464 272.099 
-1.26626e-05 1.12291e-05 2.68912e+25 -2.28671 8.75936 271.737 
-1.07512e-05 1.12291e-05 2.69328e+25 -2.05496 8.23433 271.567 
-8.83992e-06 1.12291e-05 2.69011e+25 -0.811887 7.4038 271.812 
-6.92858e-06 1.12291e-05 2.68798e+25 0.658661 6.4151 272.154 
-5.01725e-06 1.12291e-05 2.68733e+25 1.91548 4.92541 271.958 
-3.10592e-06 1.12291e-05 2.68911e+25 3.40001 4.71212 271.974 
-1.19458e-06 1.12291e-05 2.68771e+25 5.1023 3.65819 271.967 
-1.64852e-05 1.17069e-05 2.68241e+25 -0.195925 3.28631 272.47 
-1.45739e-05 1.17069e-05 2.68639e+25 -1.84458 8.01686 272.024 
-1.26626e-05 1.17069e-05 2.68774e+25 -2.46756 8.84356 271.884 
-1.07512e-05 1.17069e-05 2.69346e+25 -2.11393 8.00395 271.568 
-8.83992e-06 1.17069e-05 2.68844e+25 -0.461823 7.07651 271.927 
-6.92858e-06 1.17069e-05 2.68671e+25 1.56698 6.02052 272.203 
-5.01725e-06 1.17069e-05 2.68456e+25 2.90654 4.55378 272.198 
-3.10592e-06 1.17069e-05 2.68729e+25 4.50319 4.27738 272.006 
-1.19458e-06 1.17069e-05 2.68879e+25 6.2919 3.51687 271.779 
-1.64852e-05 1.21847e-05 2.6801e+25 -0.258875 3.59271 272.529 
-1.45739e-05 1.21847e-05 2.68601e+25 -2.11939 8.30733 271.905 
-1.26626e-05 1.21847e-05 2.68694e+25 -2.69822 8.88325 271.91 
-1.07512e-05 1.21847e-05 2.69315e+25 -1.78077 7.69947 271.583 
-8.83992e-06 1.21847e-05 2.69067e+25 -0.000354692 6.70197 272.011 
-6.92858e-06 1.21847e-05 2.68509e+25 2.2693 5.57144 272.236 
-5.01725e-06 1.21847e-05 2.68541e+25 3.91366 4.31948 272.135 
-3.10592e-06 1.21847e-05 2.68724e+25 5.70358 3.79117 272.029 
-1.19458e-06 1.21847e-05 2.68669e+25 7.51672 3.2238 271.986 
-1.64852e-05 1.26626e-05 2.68038e+25 -0.362993 3.91757 272.533 
-1.45739e-05 1.26626e-05 2.683e+25 -2.45737 8.60911 272.148 
-1.26626e-05 1.26626e-05 2.68828e+25 -2.73329 8.65494 271.953 
-1.07512e-05 1.26626e-05 2.6905e+25 -1.27493 7.45085 271.8 
-8.83992e-06 1.26626e-05 2.68746e+25 0.930841 6.02815 272.042 
-6.92858e-06 1.26626e-05 2.68516e+25 3.23371 5.06253 272.291 
-5.01725e-06 1.26626e-05 2.68459e+25 5.4023 4.08987 272.279 
-3.10592e-06 1.26626e-05 2.68673e+25 7.21628 3.26761 272.119 
-1.19458e-06 1.26626e-05 2.68872e+25 8.97895 2.79688 271.908 
-1.64852e-05 1.31404e-05 2.6805e+25 -0.588107 4.41084 272.494 
-1.45739e-05 1.31404e-05 2.6832e+25 -3.19074 8.86634 272.171 
-1.26626e-05 1.31404e-05 2.68876e+25 -2.64527 8.30334 271.885 
-1.07512e-05 1.31404e-05 2.69098e+25 -0.554899 6.87094 271.813 
-8.83992e-06 1.31404e-05 2.68718e+25 2.08972 5.39829 272.118 
-6.92858e-06 1.31404e-05 2.6856e+25 4.77603 4.48293 272.39 
-5.01725e-06 1.31404e-05 2.68512e+25 6.93836 3.53336 272.262 
-3.10592e-06 1.31404e-05 2.68796e+25 9.06154 2.87074 272.11 
-1.19458e-06 1.31404e-05 2.68686e+25 10.8355 2.25115 272.023 
-1.64852e-05 1.36182e-05 2.67924e+25 -0.830121 5.18675 272.458 
-1.45739e-05 1.36182e-05 2.68307e+25 -3.46221 9.1447 272.133 
-1.26626e-05 1.36182e-05 2.68596e+25 -2.1198 7.82974 272.084 
-1.07512e-05 1.36182e-05 2.68763e+25 0.621781 6.12397 271.98 
-8.83992e-06 1.36182e-05 2.68702e+25 3.77851 4.64935 272.192 
-6.92858e-06 1.36182e-05 2.68722e+25 6.5956 3.88733 272.239 
-5.01725e-06 1.36182e-05 2.68577e+25 9.00723 2.92387 272.289 
-3.10592e-06 1.36182e-05 2.68622e+25 11.1778 2.30831 272.161 
-1.19458e-06 1.36182e-05 2.68665e+25 12.6237 1.80688 272.157 
-1.64852e-05 1.40961e-05 2.67543e+25 -0.903119 6.03746 272.576 
-1.45739e-05 1.40961e-05 2.68293e+25 -3.33978 9.32519 272.024 
-1.26626e-05 1.40961e-05 2.6871e+25 -1.05284 7.23261 271.957 
-1.07512e-05 1.40961e-05 2.687e+25 2.36481 5.23585 272.06 
-8.83992e-06 1.40961e-05 2.68913e+25 5.44923 3.91974 272.107 
-6.92858e-06 1.40961e-05 2.68636e+25 8.71893 3.12493 272.258 
-5.01725e-06 1.40961e-05 2.68423e+25 11.3284 2.35638 272.411 
-3.10592e-06 1.40961e-05 2.68628e+25 13.2999 1.94072 272.152 
-1.19458e-06 1.40961e-05 2.68592e+25 14.5155 1.40392 272.119 
-1.64852e-05 1.45739e-05 2.67358e+25 -1.34717 7.01647 272.606 
-1.45739e-05 1.45739e-05 2.68095e+25 -2.8782 9.08606 272.087 
-1.26626e-05 1.45739e-05 2.6863e+25 0.558635 6.24586 271.98 
-1.07512e-05 1.45739e-05 2.68812e+25 4.68065 4.27677 272.168 
-8.83992e-06 1.45739e-05 2.68881e+25 8.04433 3.00591 272.157 
-6.92858e-06 1.45739e-05 2.68728e+25 11.3309 2.3627 272.254 
-5.01725e-06 1.45739e-05 2.68576e+25 13.8239 1.73592 272.241 
-3.10592e-06 1.45739e-05 2.68578e+25 15.7287 1.45691 272.213 
-1.19458e-06 1.45739e-05 2.68525e+25 17.0777 1.1233 272.307 
-1.64852e-05 1.50518e-05 2.66937e+25 -1.78035 8.25061 272.69 
-1.45739e-05 1.50518e-05 2.67776e+25 -1.88324 8.44781 272.282 
-1.26626e-05 1.50518e-05 2.6836e+25 3.15899 4.99012 272.289 
-1.07512e-05 1.50518e-05 2.68523e+25 7.97209 3.30553 272.399 
-8.83992e-06 1.50518e-05 2.68674e+25 11.6312 2.10602 272.367 
-6.92858e-06 1.50518e-05 2.68562e+25 14.3036 1.76952 272.224 
-5.01725e-06 1.50518e-05 2.68502e+25 16.6506 1.20923 272.32 
-3.10592e-06 1.50518e-05 2.68447e+25 18.6933 1.10253 272.352 
-1.19458e-06 1.50518e-05 2.68547e+25 19.9342 0.749142 272.315 
-1.64852e-05 1.55296e-05 2.66603e+25 -2.17251 9.68205 272.544 
-1.45739e-05 1.55296e-05 2.67533e+25 0.790182 7.08291 272.41 
-1.26626e-05 1.55296e-05 2.68081e+25 7.4155 3.65759 272.477 
-1.07512e-05 1.55296e-05 2.68287e+25 12.2722 2.30326 272.632 
-8.83992e-06 1.55296e-05 2.68613e+25 15.8665 1.3245 272.294 
-6.92858e-06 1.55296e-05 2.68679e+25 18.3096 1.25276 272.444 
-5.01725e-06 1.55296e-05 2.68561e+25 20.2901 0.73306 272.444 
-3.10592e-06 1.55296e-05 2.68517e+25 21.8142 0.741438 272.423 
-1.19458e-06 1.55296e-05 2.68443e+25 23.1362 0.524752 272.512 
-1.64852e-05 1.60074e-05 2.6611e+25 -1.87525 10.5882 272.499 
-1.45739e-05 1.60074e-05 2.67705e+25 6.0875 5.1109 272.479 
-1.26626e-05 1.60074e-05 2.67961e+25 13.2079 2.243 272.734 
-1.07512e-05 1.60074e-05 2.6817e+25 17.7616 1.30873 272.719 
-8.83992e-06 1.60074e-05 2.68668e+25 20.6853 0.692446 272.472 
-6.92858e-06 1.60074e-05 2.68271e+25 22.7496 0.803811 272.724 
-5.01725e-06 1.60074e-05 2.68274e+25 24.4326 0.331718 272.58 
-3.10592e-06 1.60074e-05 2.68414e+25 25.3869 0.392144 272.481 
-1.19458e-06 1.60074e-05 2.68351e+25 26.4329 0.233907 272.558 
-1.64852e-05 1.64852e-05 2.64561e+25 0.864393 9.3434 272.903 
-1.45739e-05 1.64852e-05 2.67397e+25 14.6108 2.53187 272.827 
-1.26626e-05 1.64852e-05 2.67973e+25 20.7988 0.960873 272.859 
-1.07512e-05 1.64852e-05 2.68312e+25 24.0597 0.540525 272.833 
-8.83992e-06 1.64852e-05 2.68391e+25 26.161 0.156638 272.798 
-6.92858e-06 1.64852e-05 2.68332e+25 27.5343 0.438252 272.905 
-5.01725e-06 1.64852e-05 2.68154e+25 28.4641 0.0920873 272.737 
-3.10592e-06 1.64852e-05 2.68432e+25 29.004 0.180692 272.518 
-1.19458e-06 1.64852e-05 2.68241e+25 29.8093 0.0998192 272.671 
-1.64852e-05 1.69631e-05 2.62243e+25 12.3836 3.54661 273.585 
-1.45739e-05 1.69631e-05 2.67459e+25 25.9453 0.596499 273.069 
-1.26626e-05 1.69631e-05 2.68191e+25 29.0916 0.156288 272.921 
-1.07512e-05 1.69631e-05 2.68272e+25 30.6266 0.0964225 272.922 
-8.83992e-06 1.69631e-05 2.6839e+25 31.3113 0.0296156 272.824 
-6.92858e-06 1.69631e-05 2.68169e+25 31.8607 0.0904838 273.049 
-5.01725e-06 1.69631e-05 2.68189e+25 32.1517 0.00477117 272.81 
-3.10592e-06 1.69631e-05 2.68214e+25 32.5169 0.0523004 272.756 
-1.19458e-06 1.69631e-05 2.68035e+25 32.8767 0.0510251 272.893 
-1.69631e-05 2.38917e-07 2.68113e+25 0.0102276 0.383857 272.731 
-1.50517e-05 2.38917e-07 2.68655e+25 -0.129761 3.29912 272.149 
-1.31404e-05 2.38917e-07 2.68939e+25 -0.561004 4.54172 271.859 
-1.12291e-05 2.38917e-07 2.6923e+25 -1.9909 5.56171 271.722 
-9.31775e-06 2.38917e-07 2.69098e+25 -3.0099 5.87974 271.676 
-7.40642e-06 2.38917e-07 2.69035e+25 -3.76939 5.80595 271.761 
-5.49508e-06 2.38917e-07 2.68914e+25 -4.65571 5.34301 271.792 
-3.58375e-06 2.38917e-07 2.68934e+25 -5.71016 4.36741 271.798 
-1.67242e-06 2.38917e-07 2.68569e+25 -6.79629 3.37495 272.132 
-1.69631e-05 7.1675e-07 2.68426e+25 -0.0388132 0.396223 272.73 
-1.50517e-05 7.1675e-07 2.68976e+25 -0.283878 3.29031 272.117 
-1.31404e-05 7.1675e-07 2.69044e+25 -0.638374 4.8223 271.884 
-1.12291e-05 7.1675e-07 2.69475e+25 -2.22592 5.86554 271.631 
-9.31775e-06 7.1675e-07 2.69239e+25 -3.00338 5.98898 271.76 
-7.40642e-06 7.1675e-07 2.69304e+25 -3.58459 5.90687 271.707 
-5.49508e-06 7.1675e-07 2.69034e+25 -4.52397 5.61637 271.808 
-3.58375e-06 7.1675e-07 2.68992e+25 -5.60605 4.57652 271.926 
-1.67242e-06 7.1675e-07 2.68757e+25 -6.76242 3.43346 272.181 
-1.69631e-05 1.19458e-06 2.68584e+25 0.0246653 0.472655 272.68 
-1.50517e-05 1.19458e-06 2.68853e+25 -0.206065 3.32497 272.229 
-1.31404e-05 1.19458e-06 2.69153e+25 -0.91102 5.21588 271.923 
-1.12291e-05 1.19458e-06 2.69442e+25 -2.14698 6.24299 271.612 
-9.31775e-06 1.19458e-06 2.69313e+25 -2.98915 6.0136 271.719 
-7.40642e-06 1.19458e-06 2.69048e+25 -3.61084 6.11854 271.84 
-5.49508e-06 1.19458e-06 2.6909e+25 -4.38212 5.7533 271.701 
-3.58375e-06 1.19458e-06 2.6906e+25 -5.46084 4.8173 271.917 
-1.67242e-06 1.19458e-06 2.68841e+25 -6.42406 3.54474 272.185 
-1.69631e-05 1.67242e-06 2.68379e+25 -0.0013034 0.498925 272.755 
-1.50517e-05 1.67242e-06 2.68672e+25 -0.0949756 3.4625 272.254 
-1.31404e-05 1.67242e-06 2.68933e+25 -1.13936 5.53452 271.905 
-1.12291e-05 1.67242e-06 2.69412e+25 -2.07915 6.55785 271.538 
-9.31775e-06 1.67242e-06 2.69342e+25 -3.04341 6.15611 271.723 
-7.40642e-06 1.67242e-06 2.69308e+25 -3.59396 6.38485 271.638 
-5.49508e-06 1.67242e-06 2.69267e+25 -4.16583 6.07597 271.788 
-3.58375e-06 1.67242e-06 2.6891e+25 -5.34548 5.08387 272.083 
-1.67242e-06 1.67242e-06 2.68518e+25 -6.13635 3.81513 272.301 
-1.69631e-05 2.15025e-06 2.68266e+25 0.0363737 0.444813 272.843 
-1.50517e-05 2.15025e-06 2.68835e+25 -0.0612023 3.79922 272.275 
-1.31404e-05 2.15025e-06 2.69472e+25 -1.31468 5.83192 271.626 
-1.12291e-05 2.15025e-06 2.69554e+25 -2.07562 6.78231 271.431 
-9.31775e-06 2.15025e-06 2.69223e+25 -2.96753 6.3567 271.816 
-7.40642e-06 2.15025e-06 2.69308e+25 -3.65369 6.57098 271.687 
-5.49508e-06 2.15025e-06 2.69234e+25 -4.33691 6.25167 271.738 
-3.58375e-06 2.15025e-06 2.68807e+25 -5.04567 5.37895 272.111 
-1.67242e-06 2.15025e-06 2.68623e+25 -5.81546 3.98098 272.295 
-1.69631e-05 2.62808e-06 2.68383e+25 0.00873662 0.381649 272.707 
-1.50517e-05 2.62808e-06 2.68834e+25 -0.197178 3.75906 272.252 
-1.31404e-05 2.62808e-06 2.69691e+25 -1.13101 6.06833 271.4 
-1.12291e-05 2.62808e-06 2.69713e+25 -1.954 6.99217 271.439 
-9.31775e-06 2.62808e-06 2.69256e+25 -3.00045 6.56125 271.795 
-7.40642e-06 2.62808e-06 2.69428e+25 -3.64176 6.77896 271.514 
-5.49508e-06 2.62808e-06 2.69171e+25 -4.4249 6.40027 271.83 
-3.58375e-06 2.62808e-06 2.68767e+25 -4.83657 5.52901 272.165 
-1.67242e-06 2.62808e-06 2.6852e+25 -5.33846 4.17179 272.319 
-1.69631e-05 3.10592e-06 2.68109e+25 -0.0679091 0.397541 272.995 
-1.50517e-05 3.10592e-06 2.68801e+25 -0.132918 3.87398 272.226 
-1.31404e-05 3.10592e-06 2.69448e+25 -0.888561 6.26869 271.544 
-1.12291e-05 3.10592e-06 2.69535e+25 -2.00239 7.15772 271.481 
-9.31775e-06 3.10592e-06 2.69351e+25 -2.61894 6.78221 271.635 
-7.40642e-06 3.10592e-06 2.69503e+25 -3.64296 7.08714 271.551 
-5.49508e-06 3.10592e-06 2.69055e+25 -4.37536 6.44934 271.812 
-3.58375e-06 3.10592e-06 2.68865e+25 -4.7254 5.64534 272.102 
-1.67242e-06 3.10592e-06 2.68699e+25 -5.10837 4.31212 272.272 
-1.69631e-05 3.58375e-06 2.68289e+25 0.0292516 0.465928 272.783 
-1.50517e-05 3.58375e-06 2.68947e+25 -0.07771 4.13632 272.127 
-1.31404e-05 3.58375e-06 2.69432e+25 -0.86971 6.4588 271.58 
-1.12291e-05 3.58375e-06 2.69269e+25 -1.37682 7.25721 271.598 
-9.31775e-06 3.58375e-06 2.69464e+25 -2.33132 7.01102 271.573 
-7.40642e-06 3.58375e-06 2.69262e+25 -3.47773 7.24295 271.809 
-5.49508e-06 3.58375e-06 2.69157e+25 -4.1916 6.5244 271.794 
-3.58375e-06 3.58375e-06 2.68614e+25 -4.5354 5.62978 272.152 
-1.67242e-06 3.58375e-06 2.68603e+25 -4.81065 4.42263 272.248 
-1.69631e-05 4.06158e-06 2.68419e+25 0.0323289 0.452303 272.57 
-1.50517e-05 4.06158e-06 2.69014e+25 -0.238172 4.18789 271.949 
-1.31404e-05 4.06158e-06 2.69268e+25 -0.930757 6.71105 271.706 
-1.12291e-05 4.06158e-06 2.69235e+25 -1.30578 7.35449 271.742 
-9.31775e-06 4.06158e-06 2.69284e+25 -2.37414 7.44876 271.637 
-7.40642e-06 4.06158e-06 2.68954e+25 -3.21315 7.40775 271.992 
-5.49508e-06 4.06158e-06 2.69076e+25 -3.62771 6.65982 271.943 
-3.58375e-06 4.06158e-06 2.68637e+25 -4.12926 5.68119 272.275 
-1.67242e-06 4.06158e-06 2.68681e+25 -4.66666 4.54249 271.986 
-1.69631e-05 4.53942e-06 2.68196e+25 -0.0692749 0.494958 272.893 
-1.50517e-05 4.53942e-06 2.68909e+25 -0.527396 4.26455 272.033 
-1.31404e-05 4.53942e-06 2.69076e+25 -0.833168 6.77322 271.792 
-1.12291e-05 4.53942e-06 2.69162e+25 -1.27617 7.51251 271.679 
-9.31775e-06 4.53942e-06 2.6942e+25 -1.91325 7.8123 271.57 
-7.40642e-06 4.53942e-06 2.68983e+25 -2.93366 7.49195 271.923 
-5.49508e-06 4.53942e-06 2.68976e+25 -3.31605 6.8483 271.858 
-3.58375e-06 4.53942e-06 2.68667e+25 -3.78489 5.73797 272.171 
-1.67242e-06 4.53942e-06 2.68734e+25 -4.21316 4.69062 272.075 
-1.69631e-05 5.01725e-06 2.67961e+25 -0.0263152 0.600088 272.908 
-1.50517e-05 5.01725e-06 2.68853e+25 -0.568332 4.36758 272.124 
-1.31404e-05 5.01725e-06 2.69136e+25 -0.63652 6.82697 271.917 
-1.12291e-05 5.01725e-06 2.69445e+25 -1.44387 7.80414 271.612 
-9.31775e-06 5.01725e-06 2.69261e+25 -2.05199 8.02449 271.746 
-7.40642e-06 5.01725e-06 2.69284e+25 -2.738 7.60693 271.701 
-5.49508e-06 5.01725e-06 2.68868e+25 -3.13789 6.96631 271.837 
-3.58375e-06 5.01725e-06 2.68659e+25 -3.5391 5.85563 272.085 
-1.67242e-06 5.01725e-06 2.68783e+25 -3.98944 4.80555 271.986 
-1.69631e-05 5.49508e-06 2.68449e+25 -0.0243958 0.68349 272.69 
-1.50517e-05 5.49508e-06 2.68825e+25 -0.649584 4.57337 272.164 
-1.31404e-05 5.49508e-06 2.69039e+25 -0.703591 6.75116 271.864 
-1.12291e-05 5.49508e-06 2.69276e+25 -1.44517 8.0091 271.63 
-9.31775e-06 5.49508e-06 2.69246e+25 -1.91754 8.11516 271.642 
-7.40642e-06 5.49508e-06 2.69409e+25 -2.616 7.61177 271.544 
-5.49508e-06 5.49508e-06 2.68964e+25 -3.01338 7.03302 271.857 
-3.58375e-06 5.49508e-06 2.68933e+25 -3.13233 5.93919 271.902 
-1.67242e-06 5.49508e-06 2.68702e+25 -3.60886 4.99398 271.939 
-1.69631e-05 5.97292e-06 2.6852e+25 0.00284402 0.696365 272.51 
-1.50517e-05 5.97292e-06 2.68794e+25 -0.401943 4.85769 272.18 
-1.31404e-05 5.97292e-06 2.69255e+25 -0.854667 6.76688 271.722 
-1.12291e-05 5.97292e-06 2.69393e+25 -1.4379 8.29627 271.538 
-9.31775e-06 5.97292e-06 2.69347e+25 -1.91572 8.25557 271.605 
-7.40642e-06 5.97292e-06 2.69356e+25 -2.49013 7.74867 271.488 
-5.49508e-06 5.97292e-06 2.68882e+25 -2.64363 7.06161 271.892 
-3.58375e-06 5.97292e-06 2.68992e+25 -2.64359 6.02212 271.902 
-1.67242e-06 5.97292e-06 2.68994e+25 -3.33287 5.1487 271.751 
-1.69631e-05 6.45075e-06 2.68242e+25 0.00369019 0.712227 272.784 
-1.50517e-05 6.45075e-06 2.68684e+25 -0.285968 5.08375 272.312 
-1.31404e-05 6.45075e-06 2.69142e+25 -1.04199 6.86681 271.813 
-1.12291e-05 6.45075e-06 2.69394e+25 -1.21574 8.50749 271.474 
-9.31775e-06 6.45075e-06 2.69344e+25 -2.01471 8.43221 271.678 
-7.40642e-06 6.45075e-06 2.69253e+25 -2.28725 7.93128 271.648 
-5.49508e-06 6.45075e-06 2.6894e+25 -2.50958 7.08774 271.876 
-3.58375e-06 6.45075e-06 2.68863e+25 -2.36825 6.07129 271.998 
-1.67242e-06 6.45075e-06 2.69238e+25 -2.75045 5.16468 271.639 
-1.69631e-05 6.92858e-06 2.68253e+25 -0.010427 0.683045 272.853 
-1.50517e-05 6.92858e-06 2.68756e+25 -0.326463 5.14313 272.193 
-1.31404e-05 6.92858e-06 2.68826e+25 -1.03163 7.02119 272.019 
-1.12291e-05 6.92858e-06 2.6941e+25 -1.20418 8.53305 271.446 
-9.31775e-06 6.92858e-06 2.69077e+25 -1.78065 8.51465 271.723 
-7.40642e-06 6.92858e-06 2.69146e+25 -2.07923 7.93055 271.674 
-5.49508e-06 6.92858e-06 2.688e+25 -2.12686 7.09529 271.958 
-3.58375e-06 6.92858e-06 2.68923e+25 -2.10758 6.21024 271.747 
-1.67242e-06 6.92858e-06 2.69183e+25 -2.42921 5.31105 271.501 
-1.69631e-05 7.40642e-06 2.68205e+25 0.0193693 0.711354 272.818 
-1.50517e-05 7.40642e-06 2.68799e+25 -0.410988 5.2793 272.281 
-1.31404e-05 7.40642e-06 2.691e+25 -0.948483 7.13455 271.935 
-1.12291e-05 7.40642e-06 2.695e+25 -1.2564 8.42308 271.351 
-9.31775e-06 7.40642e-06 2.69046e+25 -1.64715 8.49941 271.856 
-7.40642e-06 7.40642e-06 2.6926e+25 -1.77385 8.10277 271.584 
-5.49508e-06 7.40642e-06 2.69016e+25 -1.76728 7.04414 271.779 
-3.58375e-06 7.40642e-06 2.68862e+25 -1.98709 6.316 271.803 
-1.67242e-06 7.40642e-06 2.69298e+25 -1.73486 5.41876 271.544 
-1.69631e-05 7.88425e-06 2.68068e+25 -0.00529656 0.730739 272.826 
-1.50517e-05 7.88425e-06 2.68595e+25 -0.469764 5.4312 272.316 
-1.31404e-05 7.88425e-06 2.69035e+25 -0.994718 7.38633 271.893 
-1.12291e-05 7.88425e-06 2.69349e+25 -1.28033 8.35008 271.541 
-9.31775e-06 7.88425e-06 2.68913e+25 -1.47724 8.63523 271.928 
-7.40642e-06 7.88425e-06 2.69218e+25 -1.43954 8.20905 271.715 
-5.49508e-06 7.88425e-06 2.68698e+25 -1.41272 6.89324 272.004 
-3.58375e-06 7.88425e-06 2.68927e+25 -1.47289 6.35398 271.893 
-1.67242e-06 7.88425e-06 2.69183e+25 -1.13998 5.37098 271.649 
-1.69631e-05 8.36208e-06 2.68231e+25 -0.0292437 0.757561 272.715 
-1.50517e-05 8.36208e-06 2.68593e+25 -0.469672 5.56019 272.178 
-1.31404e-05 8.36208e-06 2.68934e+25 -1.13839 7.75103 272.036 
-1.12291e-05 8.36208e-06 2.69002e+25 -1.56075 8.37993 271.729 
-9.31775e-06 8.36208e-06 2.6888e+25 -1.57534 8.71653 271.876 
-7.40642e-06 8.36208e-06 2.69063e+25 -1.22416 8.12998 271.762 
-5.49508e-06 8.36208e-06 2.68706e+25 -1.14484 6.67117 271.955 
-3.58375e-06 8.36208e-06 2.68832e+25 -0.785445 6.50268 271.908 
-1.67242e-06 8.36208e-06 2.69122e+25 -0.649404 5.25605 271.686 
-1.69631e-05 8.83992e-06 2.6817e+25 0.0324906 0.753621 272.716 
-1.50517e-05 8.83992e-06 2.68496e+25 -0.404373 5.61939 272.278 
-1.31404e-05 8.83992e-06 2.68822e+25 -1.23931 7.97828 272.108 
-1.12291e-05 8.83992e-06 2.69002e+25 -1.81226 8.37602 271.844 
-9.31775e-06 8.83992e-06 2.6901e+25 -1.69519 8.69256 271.835 
-7.40642e-06 8.83992e-06 2.68856e+25 -1.12346 7.86318 271.906 
-5.49508e-06 8.83992e-06 2.68533e+25 -0.753598 6.62085 272.16 
-3.58375e-06 8.83992e-06 2.69006e+25 -0.0563089 6.46612 271.893 
-1.67242e-06 8.83992e-06 2.69193e+25 0.362454 5.10179 271.688 
-1.69631e-05 9.31775e-06 2.6807e+25 0.00616738 0.726102 272.651 
-1.50517e-05 9.31775e-06 2.68497e+25 -0.532015 5.70414 272.142 
-1.31404e-05 9.31775e-06 2.6881e+25 -1.5746 8.14862 271.997 
-1.12291e-05 9.31775e-06 2.69137e+25 -1.88281 8.35234 271.606 
-9.31775e-06 9.31775e-06 2.68767e+25 -1.81182 8.6085 271.967 
-7.40642e-06 9.31775e-06 2.68947e+25 -1.2727 7.59747 271.909 
-5.49508e-06 9.31775e-06 2.68738e+25 -0.324976 6.61234 272.108 
-3.58375e-06 9.31775e-06 2.68945e+25 0.459947 6.23864 271.882 
-1.67242e-06 9.31775e-06 2.68932e+25 1.14576 4.96714 271.844 
-1.69631e-05 9.79558e-06 2.68191e+25 -0.0786251 0.810388 272.744 
-1.50517e-05 9.79558e-06 2.68741e+25 -0.666469 5.93526 272.07 
-1.31404e-05 9.79558e-06 2.68888e+25 -1.75382 8.39532 271.925 
-1.12291e-05 9.79558e-06 2.69202e+25 -2.35151 8.46849 271.539 
-9.31775e-06 9.79558e-06 2.68797e+25 -1.70981 8.43862 271.886 
-7.40642e-06 9.79558e-06 2.68977e+25 -1.03487 7.48773 272.037 
-5.49508e-06 9.79558e-06 2.6889e+25 -0.0735398 6.3435 272.177 
-3.58375e-06 9.79558e-06 2.6896e+25 1.19042 5.89246 271.893 
-1.67242e-06 9.79558e-06 2.69045e+25 1.8997 4.71853 271.756 
-1.69631e-05 1.02734e-05 2.67874e+25 -0.0862044 1.00746 272.863 
-1.50517e-05 1.02734e-05 2.68472e+25 -0.971026 6.21032 272.162 
-1.31404e-05 1.02734e-05 2.68912e+25 -1.92688 8.52974 271.837 
-1.12291e-05 1.02734e-05 2.6904e+25 -2.28578 8.59311 271.695 
-9.31775e-06 1.02734e-05 2.69038e+25 -1.7122 8.27956 271.847 
-7.40642e-06 1.02734e-05 2.68776e+25 -1.00614 7.44308 272.084 
-5.49508e-06 1.02734e-05 2.6884e+25 0.352048 5.90278 272.039 
-3.58375e-06 1.02734e-05 2.68882e+25 1.73118 5.55779 271.914 
-1.67242e-06 1.02734e-05 2.68821e+25 2.76698 4.47724 271.94 
-1.69631e-05 1.07512e-05 2.68038e+25 -0.041425 1.16107 272.75 
-1.50517e-05 1.07512e-05 2.68719e+25 -1.06364 6.44128 271.997 
-1.31404e-05 1.07512e-05 2.69098e+25 -2.0555 8.69873 271.811 
-1.12291e-05 1.07512e-05 2.69013e+25 -2.0899 8.50467 271.688 
-9.31775e-06 1.07512e-05 2.69143e+25 -1.56912 8.08727 271.679 
-7.40642e-06 1.07512e-05 2.68549e+25 -0.565222 7.22277 272.207 
-5.49508e-06 1.07512e-05 2.68895e+25 0.899603 5.55419 272.011 
-3.58375e-06 1.07512e-05 2.68892e+25 2.23258 5.32473 271.959 
-1.67242e-06 1.07512e-05 2.68879e+25 3.71579 4.18109 271.901 
-1.69631e-05 1.12291e-05 2.67969e+25 -0.00240486 1.20435 272.825 
-1.50517e-05 1.12291e-05 2.68736e+25 -1.32576 6.78585 272.021 
-1.31404e-05 1.12291e-05 2.68723e+25 -2.16991 8.84802 272.093 
-1.12291e-05 1.12291e-05 2.69209e+25 -2.16941 8.40484 271.677 
-9.31775e-06 1.12291e-05 2.69205e+25 -1.16366 7.70144 271.635 
-7.40642e-06 1.12291e-05 2.6883e+25 0.288295 6.88458 272.046 
-5.49508e-06 1.12291e-05 2.68895e+25 1.65431 5.23114 271.926 
-3.58375e-06 1.12291e-05 2.68942e+25 3.01701 4.86033 271.949 
-1.67242e-06 1.12291e-05 2.68859e+25 4.81417 3.86151 271.809 
-1.69631e-05 1.17069e-05 2.67939e+25 -0.0283099 1.25825 272.788 
-1.50517e-05 1.17069e-05 2.68664e+25 -1.4679 7.1992 272.058 
-1.31404e-05 1.17069e-05 2.68497e+25 -2.37764 8.95486 272.208 
-1.12291e-05 1.17069e-05 2.69172e+25 -2.30272 8.3445 271.571 
-9.31775e-06 1.17069e-05 2.68947e+25 -0.823205 7.29858 271.876 
-7.40642e-06 1.17069e-05 2.68812e+25 1.03116 6.46641 272.19 
-5.49508e-06 1.17069e-05 2.6876e+25 2.59163 5.11378 272.101 
-3.58375e-06 1.17069e-05 2.68925e+25 4.03114 4.35975 271.92 
-1.67242e-06 1.17069e-05 2.68893e+25 5.95338 3.43823 271.867 
-1.69631e-05 1.21847e-05 2.67817e+25 -0.028761 1.35109 272.94 
-1.50517e-05 1.21847e-05 2.68752e+25 -1.69259 7.73367 271.954 
-1.31404e-05 1.21847e-05 2.68443e+25 -2.81227 9.00361 272.289 
-1.12291e-05 1.21847e-05 2.68866e+25 -2.10454 8.12846 271.721 
-9.31775e-06 1.21847e-05 2.69131e+25 -0.494261 6.81399 271.685 
-7.40642e-06 1.21847e-05 2.68674e+25 1.7254 5.83436 272.208 
-5.49508e-06 1.21847e-05 2.68672e+25 3.61915 4.72167 272.196 
-3.58375e-06 1.21847e-05 2.68859e+25 5.19666 3.90347 272.071 
-1.67242e-06 1.21847e-05 2.68903e+25 7.14509 3.01391 271.932 
-1.69631e-05 1.26626e-05 2.68027e+25 -0.0781662 1.4767 272.72 
-1.50517e-05 1.26626e-05 2.68324e+25 -2.19945 8.18286 272.159 
-1.31404e-05 1.26626e-05 2.68595e+25 -2.85789 8.93056 272.071 
-1.12291e-05 1.26626e-05 2.6889e+25 -1.5552 7.75919 271.758 
-9.31775e-06 1.26626e-05 2.68976e+25 0.25561 6.3344 271.919 
-7.40642e-06 1.26626e-05 2.68596e+25 2.68059 5.27048 272.288 
-5.49508e-06 1.26626e-05 2.68608e+25 4.98276 4.21693 272.302 
-3.58375e-06 1.26626e-05 2.68831e+25 6.71873 3.45182 272.075 
-1.67242e-06 1.26626e-05 2.68772e+25 8.53951 2.59022 271.985 
-1.69631e-05 1.31404e-05 2.67921e+25 -0.111594 1.7601 272.61 
-1.50517e-05 1.31404e-05 2.68247e+25 -2.64049 8.75255 272.105 
-1.31404e-05 1.31404e-05 2.68564e+25 -3.06356 8.74376 271.95 
-1.12291e-05 1.31404e-05 2.68832e+25 -1.19484 7.3741 271.99 
-9.31775e-06 1.31404e-05 2.692e+25 1.43509 5.6854 271.867 
-7.40642e-06 1.31404e-05 2.68417e+25 4.24001 4.74142 272.286 
-5.49508e-06 1.31404e-05 2.68591e+25 6.33318 3.67928 272.369 
-3.58375e-06 1.31404e-05 2.68813e+25 8.59654 2.85671 272.025 
-1.67242e-06 1.31404e-05 2.68794e+25 10.4585 2.27237 272.011 
-1.69631e-05 1.36182e-05 2.67824e+25 -0.18308 2.0807 272.632 
-1.50517e-05 1.36182e-05 2.68261e+25 -3.1708 9.2801 272.047 
-1.31404e-05 1.36182e-05 2.68545e+25 -2.66285 8.25778 272.078 
-1.12291e-05 1.36182e-05 2.68693e+25 -0.103975 6.68004 272.141 
-9.31775e-06 1.36182e-05 2.68961e+25 2.96628 4.9665 271.9 
-7.40642e-06 1.36182e-05 2.68805e+25 5.92 4.13663 272.09 
-5.49508e-06 1.36182e-05 2.68739e+25 8.41229 3.07412 272.286 
-3.58375e-06 1.36182e-05 2.68744e+25 10.6943 2.37645 272.236 
-1.67242e-06 1.36182e-05 2.68614e+25 12.118 1.79593 272.205 
-1.69631e-05 1.40961e-05 2.67276e+25 -0.22901 2.5767 272.923 
-1.50517e-05 1.40961e-05 2.67937e+25 -3.13451 9.6679 272.249 
-1.31404e-05 1.40961e-05 2.68789e+25 -1.86265 7.5902 271.827 
-1.12291e-05 1.40961e-05 2.68481e+25 1.28204 5.80694 272.22 
-9.31775e-06 1.40961e-05 2.68828e+25 4.73798 4.14096 272.03 
-7.40642e-06 1.40961e-05 2.68919e+25 7.96625 3.44494 272.073 
-5.49508e-06 1.40961e-05 2.68731e+25 10.7632 2.50161 272.356 
-3.58375e-06 1.40961e-05 2.68425e+25 12.8945 1.96913 272.311 
-1.67242e-06 1.40961e-05 2.68588e+25 14.2857 1.53708 272.299 
-1.69631e-05 1.45739e-05 2.67153e+25 -0.341199 3.20093 272.85 
-1.50517e-05 1.45739e-05 2.6791e+25 -3.12523 9.79454 272.322 
-1.31404e-05 1.45739e-05 2.68579e+25 -0.551337 6.68489 271.981 
-1.12291e-05 1.45739e-05 2.68639e+25 3.64539 4.65353 272.196 
-9.31775e-06 1.45739e-05 2.688e+25 7.19809 3.49458 272.088 
-7.40642e-06 1.45739e-05 2.68757e+25 10.6648 2.745 272.25 
-5.49508e-06 1.45739e-05 2.68691e+25 13.1693 1.92667 272.214 
-3.58375e-06 1.45739e-05 2.68366e+25 15.3621 1.57932 272.41 
-1.67242e-06 1.45739e-05 2.68369e+25 16.7718 1.29951 272.372 
-1.69631e-05 1.50518e-05 2.66695e+25 -0.412725 4.12438 273.01 
-1.50517e-05 1.50518e-05 2.67584e+25 -2.7213 9.50251 272.42 
-1.31404e-05 1.50518e-05 2.68561e+25 1.84504 5.57429 272.051 
-1.12291e-05 1.50518e-05 2.68503e+25 6.95671 3.60426 272.283 
-9.31775e-06 1.50518e-05 2.68604e+25 10.7566 2.67721 272.304 
-7.40642e-06 1.50518e-05 2.68591e+25 13.721 2.11604 272.405 
-5.49508e-06 1.50518e-05 2.68413e+25 16.1081 1.25415 272.463 
-3.58375e-06 1.50518e-05 2.68306e+25 18.2265 1.1369 272.462 
-1.67242e-06 1.50518e-05 2.6849e+25 19.6631 1.07862 272.402 
-1.69631e-05 1.55296e-05 2.66024e+25 -0.691842 5.39979 272.864 
-1.50517e-05 1.55296e-05 2.67367e+25 -0.848656 8.40536 272.551 
-1.31404e-05 1.55296e-05 2.68256e+25 5.81951 4.01483 272.363 
-1.12291e-05 1.55296e-05 2.68171e+25 11.3131 2.59804 272.726 
-9.31775e-06 1.55296e-05 2.68848e+25 15.0151 1.69155 272.238 
-7.40642e-06 1.55296e-05 2.6852e+25 17.8058 1.50145 272.489 
-5.49508e-06 1.55296e-05 2.68409e+25 19.9016 0.768193 272.515 
-3.58375e-06 1.55296e-05 2.68457e+25 21.4676 0.660427 272.453 
-1.67242e-06 1.55296e-05 2.68429e+25 22.8359 0.759083 272.537 
-1.69631e-05 1.60074e-05 2.64976e+25 -0.814838 7.01778 272.919 
-1.50517e-05 1.60074e-05 2.67412e+25 3.64824 6.31134 272.661 
-1.31404e-05 1.60074e-05 2.68058e+25 11.798 2.3523 272.627 
-1.12291e-05 1.60074e-05 2.68004e+25 16.7536 1.61011 272.938 
-9.31775e-06 1.60074e-05 2.68517e+25 20.0584 0.877937 272.491 
-7.40642e-06 1.60074e-05 2.68368e+25 22.2248 0.929729 272.605 
-5.49508e-06 1.60074e-05 2.6825e+25 24.019 0.393234 272.657 
-3.58375e-06 1.60074e-05 2.68468e+25 25.2308 0.404263 272.493 
-1.67242e-06 1.60074e-05 2.68407e+25 26.177 0.443874 272.633 
-1.69631e-05 1.64852e-05 2.62642e+25 -0.355668 8.45799 272.952 
-1.50517e-05 1.64852e-05 2.67186e+25 11.8257 3.53478 272.892 
-1.31404e-05 1.64852e-05 2.68025e+25 19.6497 0.994298 272.712 
-1.12291e-05 1.64852e-05 2.68173e+25 23.3512 0.629823 272.887 
-9.31775e-06 1.64852e-05 2.68417e+25 25.752 0.322487 272.549 
-7.40642e-06 1.64852e-05 2.68114e+25 27.1317 0.363864 272.859 
-5.49508e-06 1.64852e-05 2.68093e+25 28.3028 0.0890102 272.852 
-3.58375e-06 1.64852e-05 2.6845e+25 28.7478 0.245512 272.618 
-1.67242e-06 1.64852e-05 2.68421e+25 29.7082 0.245787 272.574 
-1.69631e-05 1.69631e-05 2.55384e+25 3.98523 6.16764 273.117 
-1.50517e-05 1.69631e-05 2.67158e+25 24.3448 0.851134 273.121 
-1.31404e-05 1.69631e-05 2.67974e+25 28.675 0.195175 273.13 
-1.12291e-05 1.69631e-05 2.67962e+25 30.4049 0.105103 273.12 
-9.31775e-06 1.69631e-05 2.68403e+25 31.2585 0.0184133 272.767 
-7.40642e-06 1.69631e-05 2.68195e+25 31.6907 0.0534212 272.903 
-5.49508e-06 1.69631e-05 2.67918e+25 32.2131 -0.0192891 273.052 
-3.58375e-06 1.69631e-05 2.68094e+25 32.4168 0.0372284 272.914 
-1.67242e-06 1.69631e-05 2.68196e+25 32.7001 0.0239176 272.799 
-1.60074e-05 2.38917e-07 2.68362e+25 -0.185166 2.0424 272.38 
-1.40961e-05 2.38917e-07 2.68723e+25 -0.367938 4.11356 272.121 
-1.21847e-05 2.38917e-07 2.68802e+25 -1.30967 5.14569 272.078 
-1.02734e-05 2.38917e-07 2.6935e+25 -2.65333 5.76724 271.535 
-8.36208e-06 2.38917e-07 2.69122e+25 -3.52361 5.90611 271.793 
-6.45075e-06 2.38917e-07 2.68839e+25 -4.17264 5.51613 271.952 
-4.53942e-06 2.38917e-07 2.68929e+25 -5.37335 4.7311 271.807 
-2.62808e-06 2.38917e-07 2.68788e+25 -6.40608 3.69407 272.024 
-7.1675e-07 2.38917e-07 2.68805e+25 -7.20555 2.37758 272.156 
-1.60074e-05 7.1675e-07 2.68765e+25 -0.131407 2.1719 272.355 
-1.40961e-05 7.1675e-07 2.68932e+25 -0.352628 4.25062 272.145 
-1.21847e-05 7.1675e-07 2.69125e+25 -1.53989 5.64088 271.824 
-1.02734e-05 7.1675e-07 2.69296e+25 -2.8106 5.97916 271.53 
-8.36208e-06 7.1675e-07 2.69252e+25 -3.33506 6.16155 271.71 
-6.45075e-06 7.1675e-07 2.69198e+25 -4.0472 5.8392 271.835 
-4.53942e-06 7.1675e-07 2.68972e+25 -5.05531 5.00337 271.893 
-2.62808e-06 7.1675e-07 2.68875e+25 -6.2165 4.12826 272.04 
-7.1675e-07 7.1675e-07 2.68977e+25 -7.08811 2.64319 272.09 
-1.60074e-05 1.19458e-06 2.6887e+25 -0.202795 2.32872 272.238 
-1.40961e-05 1.19458e-06 2.68856e+25 -0.379281 4.3495 272.137 
-1.21847e-05 1.19458e-06 2.69513e+25 -1.72864 5.97808 271.552 
-1.02734e-05 1.19458e-06 2.69525e+25 -2.60819 6.29884 271.527 
-8.36208e-06 1.19458e-06 2.6939e+25 -3.12568 6.36917 271.687 
-6.45075e-06 1.19458e-06 2.69284e+25 -3.90408 6.09268 271.713 
-4.53942e-06 1.19458e-06 2.69189e+25 -4.88683 5.32296 271.808 
-2.62808e-06 1.19458e-06 2.68992e+25 -5.87486 4.4174 272.047 
-7.1675e-07 1.19458e-06 2.68908e+25 -6.79768 2.84045 272.094 
-1.60074e-05 1.67242e-06 2.6866e+25 0.131523 2.27439 272.401 
-1.40961e-05 1.67242e-06 2.69034e+25 -0.580698 4.49078 272.046 
-1.21847e-05 1.67242e-06 2.6946e+25 -1.65834 6.25978 271.565 
-1.02734e-05 1.67242e-06 2.69303e+25 -2.52235 6.47148 271.687 
-8.36208e-06 1.67242e-06 2.69352e+25 -3.27286 6.45719 271.51 
-6.45075e-06 1.67242e-06 2.69265e+25 -3.81162 6.23442 271.656 
-4.53942e-06 1.67242e-06 2.69174e+25 -4.6762 5.58508 271.755 
-2.62808e-06 1.67242e-06 2.68813e+25 -5.65754 4.61051 272.109 
-7.1675e-07 1.67242e-06 2.68894e+25 -6.45014 2.94893 272.099 
-1.60074e-05 2.15025e-06 2.68552e+25 0.26063 2.19113 272.535 
-1.40961e-05 2.15025e-06 2.68939e+25 -0.531874 4.82302 272.072 
-1.21847e-05 2.15025e-06 2.69669e+25 -1.57946 6.4385 271.354 
-1.02734e-05 2.15025e-06 2.6924e+25 -2.42586 6.61276 271.73 
-8.36208e-06 2.15025e-06 2.69412e+25 -3.3119 6.53543 271.631 
-6.45075e-06 2.15025e-06 2.69457e+25 -4.09882 6.36627 271.604 
-4.53942e-06 2.15025e-06 2.69174e+25 -4.55853 5.86624 271.687 
-2.62808e-06 2.15025e-06 2.68762e+25 -5.5484 4.76793 272.13 
-7.1675e-07 2.15025e-06 2.68687e+25 -6.12378 3.12538 272.182 
-1.60074e-05 2.62808e-06 2.68697e+25 0.018698 2.25335 272.373 
-1.40961e-05 2.62808e-06 2.69081e+25 -0.662818 5.16762 272.018 
-1.21847e-05 2.62808e-06 2.69728e+25 -1.51261 6.62709 271.265 
-1.02734e-05 2.62808e-06 2.69289e+25 -2.3778 6.91875 271.64 
-8.36208e-06 2.62808e-06 2.69331e+25 -3.18914 6.65826 271.65 
-6.45075e-06 2.62808e-06 2.69337e+25 -4.19826 6.45944 271.62 
-4.53942e-06 2.62808e-06 2.69119e+25 -4.60983 5.99464 271.824 
-2.62808e-06 2.62808e-06 2.68656e+25 -5.15946 4.90363 272.322 
-7.1675e-07 2.62808e-06 2.68686e+25 -5.77811 3.30816 272.251 
-1.60074e-05 3.10592e-06 2.68947e+25 -0.073744 2.29778 272.144 
-1.40961e-05 3.10592e-06 2.69138e+25 -0.549934 5.43858 271.817 
-1.21847e-05 3.10592e-06 2.6954e+25 -1.44652 6.80426 271.508 
-1.02734e-05 3.10592e-06 2.69311e+25 -2.31103 7.0943 271.67 
-8.36208e-06 3.10592e-06 2.69266e+25 -3.06342 6.92446 271.615 
-6.45075e-06 3.10592e-06 2.6922e+25 -4.0418 6.61755 271.719 
-4.53942e-06 3.10592e-06 2.69015e+25 -4.68982 6.09187 271.884 
-2.62808e-06 3.10592e-06 2.68596e+25 -4.82662 4.94194 272.324 
-7.1675e-07 3.10592e-06 2.68599e+25 -5.46293 3.69882 272.307 
-1.60074e-05 3.58375e-06 2.68776e+25 -0.121437 2.36378 272.143 
-1.40961e-05 3.58375e-06 2.69109e+25 -0.355169 5.5942 271.805 
-1.21847e-05 3.58375e-06 2.69389e+25 -1.30865 7.08706 271.594 
-1.02734e-05 3.58375e-06 2.69417e+25 -1.93179 7.30292 271.554 
-8.36208e-06 3.58375e-06 2.69379e+25 -3.01317 7.24262 271.639 
-6.45075e-06 3.58375e-06 2.68968e+25 -3.84787 6.92926 271.809 
-4.53942e-06 3.58375e-06 2.68825e+25 -4.37275 6.26217 271.965 
-2.62808e-06 3.58375e-06 2.6854e+25 -4.63345 5.08478 272.222 
-7.1675e-07 3.58375e-06 2.68554e+25 -5.11692 3.86521 272.268 
-1.60074e-05 4.06158e-06 2.69024e+25 -0.135719 2.49818 271.928 
-1.40961e-05 4.06158e-06 2.69293e+25 -0.471832 5.82996 271.696 
-1.21847e-05 4.06158e-06 2.69306e+25 -1.28695 7.28014 271.564 
-1.02734e-05 4.06158e-06 2.69321e+25 -1.54866 7.60901 271.564 
-8.36208e-06 4.06158e-06 2.69431e+25 -2.88513 7.4199 271.579 
-6.45075e-06 4.06158e-06 2.69036e+25 -3.46841 7.08915 271.857 
-4.53942e-06 4.06158e-06 2.68809e+25 -3.99142 6.32543 272.166 
-2.62808e-06 4.06158e-06 2.68774e+25 -4.35006 5.1753 272.099 
-7.1675e-07 4.06158e-06 2.68541e+25 -4.77855 3.94529 272.418 
-1.60074e-05 4.53942e-06 2.68816e+25 -0.319591 2.5404 272.189 
-1.40961e-05 4.53942e-06 2.69049e+25 -0.824422 6.05822 271.787 
-1.21847e-05 4.53942e-06 2.69319e+25 -0.909149 7.37344 271.67 
-1.02734e-05 4.53942e-06 2.69408e+25 -1.66089 7.74518 271.563 
-8.36208e-06 4.53942e-06 2.69603e+25 -2.6273 7.59992 271.37 
-6.45075e-06 4.53942e-06 2.69068e+25 -3.09032 7.21756 271.815 
-4.53942e-06 4.53942e-06 2.68637e+25 -3.58948 6.39967 272.261 
-2.62808e-06 4.53942e-06 2.6877e+25 -3.97433 5.32881 272.081 
-7.1675e-07 4.53942e-06 2.68519e+25 -4.43529 4.06079 272.306 
-1.60074e-05 5.01725e-06 2.68952e+25 -0.209176 2.60454 272.111 
-1.40961e-05 5.01725e-06 2.6905e+25 -0.695811 6.03585 271.871 
-1.21847e-05 5.01725e-06 2.6929e+25 -0.783972 7.53592 271.737 
-1.02734e-05 5.01725e-06 2.69228e+25 -1.75758 7.87743 271.572 
-8.36208e-06 5.01725e-06 2.69169e+25 -2.32121 7.95054 271.606 
-6.45075e-06 5.01725e-06 2.68974e+25 -2.92897 7.27245 271.883 
-4.53942e-06 5.01725e-06 2.689e+25 -3.29544 6.485 272.092 
-2.62808e-06 5.01725e-06 2.68883e+25 -3.7659 5.50093 271.989 
-7.1675e-07 5.01725e-06 2.68766e+25 -4.25725 4.16796 272.016 
-1.60074e-05 5.49508e-06 2.68938e+25 -0.121884 2.7427 272.103 
-1.40961e-05 5.49508e-06 2.68825e+25 -0.793624 5.96575 272.017 
-1.21847e-05 5.49508e-06 2.69254e+25 -0.912281 7.78317 271.632 
-1.02734e-05 5.49508e-06 2.69276e+25 -1.77024 8.0535 271.642 
-8.36208e-06 5.49508e-06 2.69344e+25 -2.20454 8.21723 271.506 
-6.45075e-06 5.49508e-06 2.69095e+25 -2.82745 7.40772 271.874 
-4.53942e-06 5.49508e-06 2.68975e+25 -3.09002 6.62121 271.939 
-2.62808e-06 5.49508e-06 2.69033e+25 -3.23258 5.57177 271.886 
-7.1675e-07 5.49508e-06 2.68748e+25 -3.94123 4.26599 271.842 
-1.60074e-05 5.97292e-06 2.68781e+25 -0.13427 2.78896 272.195 
-1.40961e-05 5.97292e-06 2.68693e+25 -0.73949 6.06667 272.146 
-1.21847e-05 5.97292e-06 2.69161e+25 -0.983476 7.98754 271.696 
-1.02734e-05 5.97292e-06 2.69334e+25 -1.73583 8.06062 271.634 
-8.36208e-06 5.97292e-06 2.693e+25 -2.28477 8.35139 271.632 
-6.45075e-06 5.97292e-06 2.69117e+25 -2.61745 7.47785 271.72 
-4.53942e-06 5.97292e-06 2.69095e+25 -2.81932 6.60688 271.854 
-2.62808e-06 5.97292e-06 2.69076e+25 -3.04023 5.72518 271.798 
-7.1675e-07 5.97292e-06 2.68669e+25 -3.50986 4.3732 272.084 
-1.60074e-05 6.45075e-06 2.68665e+25 -0.0799543 2.85841 272.253 
-1.40961e-05 6.45075e-06 2.68772e+25 -0.801774 6.19698 272.006 
-1.21847e-05 6.45075e-06 2.69138e+25 -1.12122 8.02546 271.822 
-1.02734e-05 6.45075e-06 2.69351e+25 -1.62385 8.10157 271.523 
-8.36208e-06 6.45075e-06 2.69443e+25 -2.18572 8.32501 271.57 
-6.45075e-06 6.45075e-06 2.692e+25 -2.37236 7.44466 271.756 
-4.53942e-06 6.45075e-06 2.69046e+25 -2.40496 6.54741 271.846 
-2.62808e-06 6.45075e-06 2.69066e+25 -2.67967 5.82341 271.792 
-7.1675e-07 6.45075e-06 2.68767e+25 -2.88274 4.44013 271.97 
-1.60074e-05 6.92858e-06 2.68499e+25 -0.118153 3.02472 272.468 
-1.40961e-05 6.92858e-06 2.69041e+25 -0.64655 6.33022 271.903 
-1.21847e-05 6.92858e-06 2.69111e+25 -1.22225 8.03195 271.762 
-1.02734e-05 6.92858e-06 2.69111e+25 -1.39397 8.40326 271.63 
-8.36208e-06 6.92858e-06 2.69086e+25 -1.82078 8.43568 271.714 
-6.45075e-06 6.92858e-06 2.68934e+25 -2.10153 7.46869 271.796 
-4.53942e-06 6.92858e-06 2.69019e+25 -2.00808 6.47228 271.91 
-2.62808e-06 6.92858e-06 2.6909e+25 -2.18235 5.9602 271.71 
-7.1675e-07 6.92858e-06 2.68812e+25 -2.56118 4.55474 271.802 
-1.60074e-05 7.40642e-06 2.68581e+25 -0.155715 3.18186 272.355 
-1.40961e-05 7.40642e-06 2.68903e+25 -0.530723 6.46197 271.953 
-1.21847e-05 7.40642e-06 2.69016e+25 -1.25882 8.15131 271.689 
-1.02734e-05 7.40642e-06 2.69177e+25 -1.27083 8.66642 271.773 
-8.36208e-06 7.40642e-06 2.69051e+25 -1.70595 8.57354 271.726 
-6.45075e-06 7.40642e-06 2.69148e+25 -1.87058 7.51694 271.649 
-4.53942e-06 7.40642e-06 2.68805e+25 -1.69165 6.57064 272.102 
-2.62808e-06 7.40642e-06 2.68976e+25 -1.75131 5.99303 271.874 
-7.1675e-07 7.40642e-06 2.68858e+25 -1.85952 4.56925 271.838 
-1.60074e-05 7.88425e-06 2.68331e+25 -0.0776483 3.2399 272.478 
-1.40961e-05 7.88425e-06 2.68967e+25 -0.585053 6.60459 271.85 
-1.21847e-05 7.88425e-06 2.69302e+25 -1.21994 8.26109 271.544 
-1.02734e-05 7.88425e-06 2.68995e+25 -1.35379 8.73818 271.885 
-8.36208e-06 7.88425e-06 2.68857e+25 -1.59218 8.55032 271.921 
-6.45075e-06 7.88425e-06 2.69162e+25 -1.51817 7.46529 271.776 
-4.53942e-06 7.88425e-06 2.6878e+25 -1.29947 6.62768 272.075 
-2.62808e-06 7.88425e-06 2.6901e+25 -1.4361 5.83867 271.832 
-7.1675e-07 7.88425e-06 2.68824e+25 -1.16563 4.46566 271.887 
-1.60074e-05 8.36208e-06 2.68452e+25 -0.178805 3.35613 272.289 
-1.40961e-05 8.36208e-06 2.68799e+25 -0.544859 6.704 271.917 
-1.21847e-05 8.36208e-06 2.69175e+25 -1.68699 8.17161 271.61 
-1.02734e-05 8.36208e-06 2.69136e+25 -1.48997 8.7669 271.829 
-8.36208e-06 8.36208e-06 2.687e+25 -1.4816 8.46469 272.012 
-6.45075e-06 8.36208e-06 2.68859e+25 -1.12293 7.57666 271.953 
-4.53942e-06 8.36208e-06 2.68972e+25 -0.854769 6.45543 271.906 
-2.62808e-06 8.36208e-06 2.68805e+25 -0.846233 5.70222 271.799 
-7.1675e-07 8.36208e-06 2.68882e+25 -0.361207 4.50142 272.025 
-1.60074e-05 8.83992e-06 2.68426e+25 -0.196525 3.53052 272.386 
-1.40961e-05 8.83992e-06 2.68681e+25 -0.702502 6.82647 272.082 
-1.21847e-05 8.83992e-06 2.6896e+25 -1.71047 8.31631 271.817 
-1.02734e-05 8.83992e-06 2.69056e+25 -1.84322 8.75126 271.762 
-8.36208e-06 8.83992e-06 2.68791e+25 -1.52238 8.37784 271.964 
-6.45075e-06 8.83992e-06 2.68636e+25 -0.896293 7.65478 272.221 
-4.53942e-06 8.83992e-06 2.68795e+25 -0.380388 6.28358 272.034 
-2.62808e-06 8.83992e-06 2.68806e+25 0.0423584 5.64883 271.896 
-7.1675e-07 8.83992e-06 2.6875e+25 0.553903 4.46055 272.096 
-1.60074e-05 9.31775e-06 2.68664e+25 -0.283583 3.71305 272.32 
-1.40961e-05 9.31775e-06 2.68574e+25 -1.05552 7.12143 272.093 
-1.21847e-05 9.31775e-06 2.68962e+25 -1.84968 8.52017 271.846 
-1.02734e-05 9.31775e-06 2.69013e+25 -2.08007 8.7256 271.912 
-8.36208e-06 9.31775e-06 2.68957e+25 -1.6352 8.26942 271.924 
-6.45075e-06 9.31775e-06 2.68694e+25 -0.795115 7.47631 272.134 
-4.53942e-06 9.31775e-06 2.68945e+25 0.146637 6.05797 271.882 
-2.62808e-06 9.31775e-06 2.68692e+25 0.88457 5.55596 271.892 
-7.1675e-07 9.31775e-06 2.68599e+25 1.44736 4.35542 272.224 
-1.60074e-05 9.79558e-06 2.68588e+25 -0.326627 3.82317 272.252 
-1.40961e-05 9.79558e-06 2.68557e+25 -1.25671 7.46695 272.136 
-1.21847e-05 9.79558e-06 2.69029e+25 -1.89127 8.58354 271.763 
-1.02734e-05 9.79558e-06 2.69136e+25 -2.26437 8.59482 271.639 
-8.36208e-06 9.79558e-06 2.68956e+25 -1.38424 8.24275 271.859 
-6.45075e-06 9.79558e-06 2.68786e+25 -0.886254 7.12269 271.982 
-4.53942e-06 9.79558e-06 2.68941e+25 0.53742 5.82073 271.975 
-2.62808e-06 9.79558e-06 2.68712e+25 1.68493 5.43584 271.993 
-7.1675e-07 9.79558e-06 2.68654e+25 2.19286 4.23493 272.004 
-1.60074e-05 1.02734e-05 2.68562e+25 -0.422163 3.93583 272.246 
-1.40961e-05 1.02734e-05 2.6861e+25 -1.57081 7.78601 272.114 
-1.21847e-05 1.02734e-05 2.69279e+25 -2.09764 8.67456 271.597 
-1.02734e-05 1.02734e-05 2.69097e+25 -2.04257 8.29761 271.743 
-8.36208e-06 1.02734e-05 2.68827e+25 -1.16294 7.90751 271.994 
-6.45075e-06 1.02734e-05 2.68866e+25 -0.393958 6.86639 271.968 
-4.53942e-06 1.02734e-05 2.68955e+25 0.980425 5.52636 271.856 
-2.62808e-06 1.02734e-05 2.68689e+25 2.14829 5.23446 271.979 
-7.1675e-07 1.02734e-05 2.68793e+25 3.43805 3.93805 271.988 
-1.60074e-05 1.07512e-05 2.68325e+25 -0.480002 4.21356 272.328 
-1.40961e-05 1.07512e-05 2.68745e+25 -1.58671 8.10093 271.95 
-1.21847e-05 1.07512e-05 2.69102e+25 -2.21096 8.73729 271.685 
-1.02734e-05 1.07512e-05 2.69258e+25 -1.81411 8.13114 271.589 
-8.36208e-06 1.07512e-05 2.69025e+25 -1.00098 7.66478 271.972 
-6.45075e-06 1.07512e-05 2.68916e+25 0.24866 6.4963 271.974 
-4.53942e-06 1.07512e-05 2.69073e+25 1.61849 5.25542 271.823 
-2.62808e-06 1.07512e-05 2.68816e+25 3.118 4.97937 271.884 
-7.1675e-07 1.07512e-05 2.68625e+25 4.35557 3.68219 272.123 
-1.60074e-05 1.12291e-05 2.6856e+25 -0.52828 4.59897 272.181 
-1.40961e-05 1.12291e-05 2.68489e+25 -1.95242 8.23739 272.114 
-1.21847e-05 1.12291e-05 2.69115e+25 -2.27366 8.7027 271.641 
-1.02734e-05 1.12291e-05 2.69445e+25 -1.81824 8.04918 271.43 
-8.36208e-06 1.12291e-05 2.69014e+25 -0.523231 7.33523 271.906 
-6.45075e-06 1.12291e-05 2.689e+25 1.05845 6.09948 272.074 
-4.53942e-06 1.12291e-05 2.68844e+25 2.29385 4.95298 271.882 
-2.62808e-06 1.12291e-05 2.68707e+25 3.87377 4.58341 271.99 
-7.1675e-07 1.12291e-05 2.68476e+25 5.22018 3.54683 272.08 
-1.60074e-05 1.17069e-05 2.68337e+25 -0.574412 4.95809 272.279 
-1.40961e-05 1.17069e-05 2.68421e+25 -2.22353 8.39156 272.208 
-1.21847e-05 1.17069e-05 2.68843e+25 -2.47613 8.67389 271.873 
-1.02734e-05 1.17069e-05 2.69145e+25 -1.70123 7.72086 271.708 
-8.36208e-06 1.17069e-05 2.6879e+25 0.000466715 6.94114 271.904 
-6.45075e-06 1.17069e-05 2.68736e+25 1.92335 5.69753 272.17 
-4.53942e-06 1.17069e-05 2.68805e+25 3.23168 4.6426 271.897 
-2.62808e-06 1.17069e-05 2.68798e+25 5.04598 4.08196 271.913 
-7.1675e-07 1.17069e-05 2.68871e+25 6.4693 3.36643 271.977 
-1.60074e-05 1.21847e-05 2.68228e+25 -0.612147 5.41382 272.369 
-1.40961e-05 1.21847e-05 2.68601e+25 -2.36092 8.678 272.045 
-1.21847e-05 1.21847e-05 2.68837e+25 -2.5978 8.53962 271.841 
-1.02734e-05 1.21847e-05 2.69189e+25 -1.36786 7.25766 271.734 
-8.36208e-06 1.21847e-05 2.69048e+25 0.511351 6.38162 271.964 
-6.45075e-06 1.21847e-05 2.688e+25 2.72123 5.24654 272.059 
-4.53942e-06 1.21847e-05 2.6896e+25 4.18651 4.25637 271.953 
-2.62808e-06 1.21847e-05 2.68943e+25 6.20278 3.52549 271.978 
-7.1675e-07 1.21847e-05 2.68626e+25 7.88737 3.10022 272.064 
-1.60074e-05 1.26626e-05 2.68181e+25 -0.965616 5.98275 272.325 
-1.40961e-05 1.26626e-05 2.68468e+25 -2.66193 8.87932 272.22 
-1.21847e-05 1.26626e-05 2.68884e+25 -2.35395 8.30216 271.821 
-1.02734e-05 1.26626e-05 2.6875e+25 -0.81157 6.7096 271.935 
-8.36208e-06 1.26626e-05 2.68508e+25 1.53547 5.89764 272.188 
-6.45075e-06 1.26626e-05 2.6867e+25 3.79304 4.7727 272.147 
-4.53942e-06 1.26626e-05 2.68702e+25 5.78936 3.84061 272.155 
-2.62808e-06 1.26626e-05 2.68674e+25 7.74209 3.01638 272.079 
-7.1675e-07 1.26626e-05 2.68573e+25 9.63005 2.51272 272.091 
-1.60074e-05 1.31404e-05 2.68238e+25 -1.23408 6.71331 272.341 
-1.40961e-05 1.31404e-05 2.68539e+25 -3.50658 9.09999 272.077 
-1.21847e-05 1.31404e-05 2.68708e+25 -2.23337 7.88399 271.938 
-1.02734e-05 1.31404e-05 2.68852e+25 0.132222 6.16471 271.893 
-8.36208e-06 1.31404e-05 2.68474e+25 2.89184 5.1398 272.414 
-6.45075e-06 1.31404e-05 2.68616e+25 5.32843 4.18977 272.303 
-4.53942e-06 1.31404e-05 2.6853e+25 7.50233 3.40156 272.31 
-2.62808e-06 1.31404e-05 2.68823e+25 9.45516 2.50518 272.057 
-7.1675e-07 1.31404e-05 2.6864e+25 11.2866 2.00823 272.096 
-1.60074e-05 1.36182e-05 2.67946e+25 -1.74303 7.43756 272.371 
-1.40961e-05 1.36182e-05 2.68581e+25 -3.47948 9.14289 271.939 
-1.21847e-05 1.36182e-05 2.6851e+25 -1.57888 7.39189 272.258 
-1.02734e-05 1.36182e-05 2.68752e+25 1.40881 5.48277 271.983 
-8.36208e-06 1.36182e-05 2.68666e+25 4.49837 4.38304 272.379 
-6.45075e-06 1.36182e-05 2.68544e+25 7.23698 3.65562 272.337 
-4.53942e-06 1.36182e-05 2.68588e+25 9.62481 2.86077 272.317 
-2.62808e-06 1.36182e-05 2.68741e+25 11.551 2.26459 271.998 
-7.1675e-07 1.36182e-05 2.68669e+25 13.0741 1.64928 272.089 
-1.60074e-05 1.40961e-05 2.67781e+25 -1.86146 8.36748 272.275 
-1.40961e-05 1.40961e-05 2.68538e+25 -3.13685 8.87846 271.844 
-1.21847e-05 1.40961e-05 2.68462e+25 -0.363409 6.75083 272.239 
-1.02734e-05 1.40961e-05 2.68572e+25 3.15679 4.76244 272.183 
-8.36208e-06 1.40961e-05 2.68918e+25 6.31404 3.5589 272.171 
-6.45075e-06 1.40961e-05 2.68654e+25 9.49318 3.00703 272.371 
-4.53942e-06 1.40961e-05 2.68461e+25 11.9404 2.17493 272.467 
-2.62808e-06 1.40961e-05 2.68751e+25 13.7833 1.82056 272.144 
-7.1675e-07 1.40961e-05 2.68529e+25 14.8753 1.25158 272.236 
-1.60074e-05 1.45739e-05 2.67516e+25 -2.28636 9.34269 272.236 
-1.40961e-05 1.45739e-05 2.68198e+25 -2.27457 8.37136 272.138 
-1.21847e-05 1.45739e-05 2.68557e+25 1.64743 5.98019 272.157 
-1.02734e-05 1.45739e-05 2.68706e+25 5.58727 3.93474 272.195 
-8.36208e-06 1.45739e-05 2.68837e+25 8.97165 2.64179 272.169 
-6.45075e-06 1.45739e-05 2.6888e+25 11.9303 2.35785 272.16 
-4.53942e-06 1.45739e-05 2.68444e+25 14.4522 1.61354 272.354 
-2.62808e-06 1.45739e-05 2.68556e+25 16.1532 1.3929 272.242 
-7.1675e-07 1.45739e-05 2.68499e+25 17.3683 0.915224 272.249 
-1.60074e-05 1.50518e-05 2.67051e+25 -2.87328 10.1411 272.473 
-1.40961e-05 1.50518e-05 2.68017e+25 -0.693206 7.29006 272.245 
-1.21847e-05 1.50518e-05 2.68406e+25 4.47562 4.75262 272.371 
-1.02734e-05 1.50518e-05 2.68727e+25 8.93671 3.081 272.21 
-8.36208e-06 1.50518e-05 2.68518e+25 12.4026 1.85742 272.336 
-6.45075e-06 1.50518e-05 2.68668e+25 14.8711 1.81611 272.263 
-4.53942e-06 1.50518e-05 2.68445e+25 17.1583 1.04358 272.367 
-2.62808e-06 1.50518e-05 2.68583e+25 18.9636 1.04107 272.34 
-7.1675e-07 1.50518e-05 2.68696e+25 20.2154 0.630783 272.186 
-1.60074e-05 1.55296e-05 2.67015e+25 -2.91567 10.587 272.431 
-1.40961e-05 1.55296e-05 2.68011e+25 2.45199 5.80489 272.344 
-1.21847e-05 1.55296e-05 2.68052e+25 8.85063 3.32491 272.744 
-1.02734e-05 1.55296e-05 2.68595e+25 13.2466 2.13131 272.343 
-8.36208e-06 1.55296e-05 2.68583e+25 16.6277 1.12405 272.39 
-6.45075e-06 1.55296e-05 2.68303e+25 18.8593 1.20467 272.533 
-4.53942e-06 1.55296e-05 2.68428e+25 20.6911 0.600616 272.388 
-2.62808e-06 1.55296e-05 2.68395e+25 22.216 0.695111 272.483 
-7.1675e-07 1.55296e-05 2.68357e+25 23.4321 0.262456 272.447 
-1.60074e-05 1.60074e-05 2.66427e+25 -1.02984 9.85121 272.756 
-1.40961e-05 1.60074e-05 2.67904e+25 8.31318 3.89996 272.446 
-1.21847e-05 1.60074e-05 2.6804e+25 14.4557 1.99202 272.771 
-1.02734e-05 1.60074e-05 2.6843e+25 18.6293 1.25314 272.541 
-8.36208e-06 1.60074e-05 2.68531e+25 21.224 0.536468 272.609 
-6.45075e-06 1.60074e-05 2.68055e+25 23.2435 0.686946 272.875 
-4.53942e-06 1.60074e-05 2.68296e+25 24.6947 0.274476 272.742 
-2.62808e-06 1.60074e-05 2.68303e+25 25.693 0.410001 272.475 
-7.1675e-07 1.60074e-05 2.68466e+25 26.5554 0.131986 272.527 
-1.60074e-05 1.64852e-05 2.6554e+25 4.75653 6.98486 273.177 
-1.40961e-05 1.64852e-05 2.67953e+25 16.716 1.94938 272.59 
-1.21847e-05 1.64852e-05 2.68122e+25 21.7977 0.928236 272.963 
-1.02734e-05 1.64852e-05 2.68135e+25 24.6718 0.507737 272.871 
-8.36208e-06 1.64852e-05 2.68288e+25 26.3803 0.212764 272.665 
-6.45075e-06 1.64852e-05 2.68238e+25 27.8993 0.28019 272.912 
-4.53942e-06 1.64852e-05 2.68224e+25 28.5806 0.109379 272.735 
-2.62808e-06 1.64852e-05 2.68471e+25 29.1679 0.0944869 272.482 
-7.1675e-07 1.64852e-05 2.68192e+25 29.9325 0.0630274 272.646 
-1.60074e-05 1.69631e-05 2.65034e+25 18.2379 2.16734 273.487 
-1.40961e-05 1.69631e-05 2.67788e+25 27.1254 0.450861 272.898 
-1.21847e-05 1.69631e-05 2.68076e+25 29.6111 0.236571 272.981 
-1.02734e-05 1.69631e-05 2.68004e+25 30.9035 0.0967467 273.031 
-8.36208e-06 1.69631e-05 2.68113e+25 31.4435 0.0423627 272.936 
-6.45075e-06 1.69631e-05 2.68387e+25 32.0278 0.0797748 272.977 
-4.53942e-06 1.69631e-05 2.68022e+25 32.2623 0.0765144 272.898 
-2.62808e-06 1.69631e-05 2.68092e+25 32.5912 -0.030577 272.75 
-7.1675e-07 1.69631e-05 2.67986e+25 32.9008 0.00828062 272.895 
-1.55296e-05 2.38917e-07 2.6856e+25 -0.228744 2.82613 272.308 
-1.36182e-05 2.38917e-07 2.68745e+25 -0.458709 4.41417 272.073 
-1.17069e-05 2.38917e-07 2.68785e+25 -1.68625 5.63015 271.975 
-9.79558e-06 2.38917e-07 2.69181e+25 -2.83707 5.62858 271.611 
-7.88425e-06 2.38917e-07 2.6919e+25 -3.70615 5.91768 271.813 
-5.97292e-06 2.38917e-07 2.68985e+25 -4.37108 5.48745 271.801 
-4.06158e-06 2.38917e-07 2.69003e+25 -5.5166 4.5632 271.795 
-2.15025e-06 2.38917e-07 2.68636e+25 -6.71222 3.39907 272.179 
-2.38917e-07 2.38917e-07 2.68431e+25 -7.39967 2.06136 272.183 
-1.55296e-05 7.1675e-07 2.68985e+25 -0.267483 2.80221 272.165 
-1.36182e-05 7.1675e-07 2.6893e+25 -0.40383 4.451 272.132 
-1.17069e-05 7.1675e-07 2.69262e+25 -1.91656 5.95395 271.772 
-9.79558e-06 7.1675e-07 2.6916e+25 -2.97737 5.79157 271.748 
-7.88425e-06 7.1675e-07 2.69184e+25 -3.52129 5.98703 271.824 
-5.97292e-06 7.1675e-07 2.69157e+25 -4.30452 5.6929 271.89 
-4.06158e-06 7.1675e-07 2.69049e+25 -5.37697 4.77594 271.94 
-2.15025e-06 7.1675e-07 2.68825e+25 -6.55731 3.679 272.172 
-2.38917e-07 7.1675e-07 2.68574e+25 -7.30132 2.22771 272.04 
-1.55296e-05 1.19458e-06 2.69079e+25 -0.221702 2.80005 271.969 
-1.36182e-05 1.19458e-06 2.69025e+25 -0.622066 4.61917 272.089 
-1.17069e-05 1.19458e-06 2.69414e+25 -1.89132 6.14758 271.608 
-9.79558e-06 1.19458e-06 2.69351e+25 -2.88655 5.87094 271.578 
-7.88425e-06 1.19458e-06 2.69334e+25 -3.31656 6.18582 271.786 
-5.97292e-06 1.19458e-06 2.69312e+25 -4.1624 5.98471 271.734 
-4.06158e-06 1.19458e-06 2.69078e+25 -5.18873 5.025 271.939 
-2.15025e-06 1.19458e-06 2.68943e+25 -6.15514 3.98662 272.1 
-2.38917e-07 1.19458e-06 2.68587e+25 -6.88043 2.4018 272.032 
-1.55296e-05 1.67242e-06 2.68902e+25 0.15671 2.86888 272.175 
-1.36182e-05 1.67242e-06 2.69023e+25 -0.80156 4.97046 271.988 
-1.17069e-05 1.67242e-06 2.69073e+25 -1.8499 6.3054 271.758 
-9.79558e-06 1.67242e-06 2.69148e+25 -2.76071 6.17234 271.744 
-7.88425e-06 1.67242e-06 2.6939e+25 -3.41679 6.38989 271.61 
-5.97292e-06 1.67242e-06 2.69322e+25 -3.9571 6.14315 271.67 
-4.06158e-06 1.67242e-06 2.6907e+25 -5.03243 5.41083 271.923 
-2.15025e-06 1.67242e-06 2.68786e+25 -5.93848 4.27627 272.147 
-2.38917e-07 1.67242e-06 2.68673e+25 -6.54684 2.4814 271.938 
-1.55296e-05 2.15025e-06 2.68613e+25 0.130002 3.06998 272.345 
-1.36182e-05 2.15025e-06 2.68828e+25 -0.95004 5.25848 271.992 
-1.17069e-05 2.15025e-06 2.69538e+25 -1.80762 6.51771 271.446 
-9.79558e-06 2.15025e-06 2.69237e+25 -2.72073 6.49164 271.715 
-7.88425e-06 2.15025e-06 2.69367e+25 -3.45852 6.59017 271.712 
-5.97292e-06 2.15025e-06 2.69212e+25 -4.22695 6.27269 271.745 
-4.06158e-06 2.15025e-06 2.69015e+25 -4.80758 5.68373 271.877 
-2.15025e-06 2.15025e-06 2.68603e+25 -5.64228 4.51852 272.201 
-2.38917e-07 2.15025e-06 2.68611e+25 -6.39593 2.62862 272.071 
-1.55296e-05 2.62808e-06 2.68718e+25 -0.208187 3.28465 272.307 
-1.36182e-05 2.62808e-06 2.69354e+25 -0.907185 5.59507 271.789 
-1.17069e-05 2.62808e-06 2.69662e+25 -1.77512 6.81317 271.37 
-9.79558e-06 2.62808e-06 2.69391e+25 -2.67444 6.83731 271.728 
-7.88425e-06 2.62808e-06 2.69416e+25 -3.40691 6.78406 271.556 
-5.97292e-06 2.62808e-06 2.69173e+25 -4.27369 6.37196 271.796 
-4.06158e-06 2.62808e-06 2.68993e+25 -4.67673 5.89876 271.976 
-2.15025e-06 2.62808e-06 2.6863e+25 -5.22865 4.57069 272.399 
-2.38917e-07 2.62808e-06 2.68489e+25 -6.05333 2.96285 272.146 
-1.55296e-05 3.10592e-06 2.68845e+25 -0.00717259 3.29913 272.266 
-1.36182e-05 3.10592e-06 2.69343e+25 -0.708115 5.76064 271.795 
-1.17069e-05 3.10592e-06 2.69519e+25 -1.73755 7.12263 271.431 
-9.79558e-06 3.10592e-06 2.69342e+25 -2.43199 7.07783 271.676 
-7.88425e-06 3.10592e-06 2.6938e+25 -3.36377 7.01689 271.655 
-5.97292e-06 3.10592e-06 2.69183e+25 -4.29124 6.58638 271.707 
-4.06158e-06 3.10592e-06 2.69232e+25 -4.79153 5.93364 271.839 
-2.15025e-06 3.10592e-06 2.68693e+25 -4.93578 4.65613 272.24 
-2.38917e-07 3.10592e-06 2.68299e+25 -5.79032 3.19908 272.214 
-1.55296e-05 3.58375e-06 2.6899e+25 -0.116508 3.179 272.145 
-1.36182e-05 3.58375e-06 2.69312e+25 -0.608004 6.01984 271.805 
-1.17069e-05 3.58375e-06 2.69421e+25 -1.41544 7.24972 271.528 
-9.79558e-06 3.58375e-06 2.69425e+25 -2.11041 7.18756 271.55 
-7.88425e-06 3.58375e-06 2.69227e+25 -3.31368 7.33806 271.721 
-5.97292e-06 3.58375e-06 2.69142e+25 -4.02426 6.76578 271.633 
-4.06158e-06 3.58375e-06 2.68907e+25 -4.4349 5.94312 272.005 
-2.15025e-06 3.58375e-06 2.68653e+25 -4.71068 4.75281 272.154 
-2.38917e-07 3.58375e-06 2.68171e+25 -5.27567 3.46572 272.326 
-1.55296e-05 4.06158e-06 2.69005e+25 -0.203619 3.11104 271.951 
-1.36182e-05 4.06158e-06 2.69353e+25 -0.731384 6.28038 271.759 
-1.17069e-05 4.06158e-06 2.69386e+25 -1.24719 7.18581 271.671 
-9.79558e-06 4.06158e-06 2.69409e+25 -1.89237 7.4577 271.565 
-7.88425e-06 4.06158e-06 2.69288e+25 -3.02041 7.53177 271.717 
-5.97292e-06 4.06158e-06 2.69157e+25 -3.5472 6.83469 271.89 
-4.06158e-06 4.06158e-06 2.69006e+25 -4.01622 5.96591 271.987 
-2.15025e-06 4.06158e-06 2.68826e+25 -4.53093 4.90616 272.039 
-2.38917e-07 4.06158e-06 2.68215e+25 -4.90181 3.72443 272.327 
-1.55296e-05 4.53942e-06 2.68733e+25 -0.384918 3.20047 272.07 
-1.36182e-05 4.53942e-06 2.69059e+25 -0.910879 6.38333 271.84 
-1.17069e-05 4.53942e-06 2.69249e+25 -1.07695 7.23706 271.666 
-9.79558e-06 4.53942e-06 2.69211e+25 -1.74218 7.75772 271.62 
-7.88425e-06 4.53942e-06 2.6922e+25 -2.82835 7.686 271.767 
-5.97292e-06 4.53942e-06 2.69079e+25 -3.15401 6.88893 271.812 
-4.06158e-06 4.53942e-06 2.68524e+25 -3.69776 6.11025 272.118 
-2.15025e-06 4.53942e-06 2.68708e+25 -4.14009 5.00049 272.06 
-2.38917e-07 4.53942e-06 2.6825e+25 -4.59242 3.89541 272.373 
-1.55296e-05 5.01725e-06 2.68855e+25 -0.425313 3.42977 272.045 
-1.36182e-05 5.01725e-06 2.68858e+25 -0.610924 6.36292 272.011 
-1.17069e-05 5.01725e-06 2.69276e+25 -1.03431 7.5283 271.68 
-9.79558e-06 5.01725e-06 2.69239e+25 -1.86544 7.86223 271.74 
-7.88425e-06 5.01725e-06 2.69216e+25 -2.6164 7.83668 271.831 
-5.97292e-06 5.01725e-06 2.68839e+25 -3.07318 7.06017 271.891 
-4.06158e-06 5.01725e-06 2.68661e+25 -3.4464 6.22469 272.188 
-2.15025e-06 5.01725e-06 2.68693e+25 -3.84901 5.12508 272.037 
-2.38917e-07 5.01725e-06 2.68543e+25 -4.34961 4.03366 272.133 
-1.55296e-05 5.49508e-06 2.689e+25 -0.292299 3.67837 272.092 
-1.36182e-05 5.49508e-06 2.69167e+25 -0.766811 6.30905 271.798 
-1.17069e-05 5.49508e-06 2.69124e+25 -1.22926 7.90193 271.634 
-9.79558e-06 5.49508e-06 2.69227e+25 -1.85338 7.9517 271.616 
-7.88425e-06 5.49508e-06 2.69179e+25 -2.48108 8.13096 271.634 
-5.97292e-06 5.49508e-06 2.69151e+25 -2.94316 7.09669 271.887 
-4.06158e-06 5.49508e-06 2.68826e+25 -3.07621 6.28119 271.99 
-2.15025e-06 5.49508e-06 2.68854e+25 -3.41966 5.26074 271.884 
-2.38917e-07 5.49508e-06 2.68507e+25 -3.9761 4.0671 272.05 
-1.55296e-05 5.97292e-06 2.68614e+25 -0.257996 3.94916 272.184 
-1.36182e-05 5.97292e-06 2.69103e+25 -0.781154 6.32608 271.77 
-1.17069e-05 5.97292e-06 2.69168e+25 -1.15073 8.17615 271.677 
-9.79558e-06 5.97292e-06 2.69178e+25 -1.76119 7.97333 271.657 
-7.88425e-06 5.97292e-06 2.69311e+25 -2.33317 8.31311 271.608 
-5.97292e-06 5.97292e-06 2.68911e+25 -2.63085 7.1713 271.839 
-4.06158e-06 5.97292e-06 2.69012e+25 -2.67757 6.18392 271.879 
-2.15025e-06 5.97292e-06 2.68989e+25 -3.17647 5.46602 271.792 
-2.38917e-07 5.97292e-06 2.68307e+25 -3.53854 4.04936 272.093 
-1.55296e-05 6.45075e-06 2.68497e+25 -0.133632 4.01559 272.254 
-1.36182e-05 6.45075e-06 2.69018e+25 -0.895713 6.39206 271.816 
-1.17069e-05 6.45075e-06 2.69264e+25 -1.15404 8.29295 271.616 
-9.79558e-06 6.45075e-06 2.6928e+25 -1.75443 8.17078 271.677 
-7.88425e-06 6.45075e-06 2.69414e+25 -2.24406 8.3484 271.614 
-5.97292e-06 6.45075e-06 2.69065e+25 -2.44197 7.2713 271.901 
-4.06158e-06 6.45075e-06 2.68767e+25 -2.35195 6.11533 272.025 
-2.15025e-06 6.45075e-06 2.69054e+25 -2.7148 5.56804 271.681 
-2.38917e-07 6.45075e-06 2.6864e+25 -2.99718 4.1459 271.926 
-1.55296e-05 6.92858e-06 2.68373e+25 -0.267732 4.17778 272.497 
-1.36182e-05 6.92858e-06 2.69053e+25 -0.878141 6.55845 271.856 
-1.17069e-05 6.92858e-06 2.69288e+25 -1.22382 8.29162 271.529 
-9.79558e-06 6.92858e-06 2.69315e+25 -1.77656 8.43618 271.563 
-7.88425e-06 6.92858e-06 2.69142e+25 -1.95401 8.44343 271.605 
-5.97292e-06 6.92858e-06 2.68733e+25 -2.08862 7.33366 271.988 
-4.06158e-06 6.92858e-06 2.69022e+25 -2.04259 6.08166 271.759 
-2.15025e-06 6.92858e-06 2.69302e+25 -2.29091 5.56555 271.608 
-2.38917e-07 6.92858e-06 2.68525e+25 -2.50892 4.12364 271.786 
-1.55296e-05 7.40642e-06 2.68461e+25 -0.248554 4.21611 272.463 
-1.36182e-05 7.40642e-06 2.68886e+25 -0.734755 6.78187 271.939 
-1.17069e-05 7.40642e-06 2.69389e+25 -1.37298 8.30067 271.559 
-9.79558e-06 7.40642e-06 2.69033e+25 -1.45945 8.63972 271.801 
-7.88425e-06 7.40642e-06 2.69158e+25 -1.69756 8.48287 271.659 
-5.97292e-06 7.40642e-06 2.69193e+25 -1.86818 7.24901 271.747 
-4.06158e-06 7.40642e-06 2.68884e+25 -1.81315 6.15752 271.944 
-2.15025e-06 7.40642e-06 2.69014e+25 -1.68838 5.58631 271.688 
-2.38917e-07 7.40642e-06 2.68545e+25 -1.82567 4.04816 271.871 
-1.55296e-05 7.88425e-06 2.68458e+25 -0.263789 4.46875 272.425 
-1.36182e-05 7.88425e-06 2.69047e+25 -0.737438 6.96658 271.835 
-1.17069e-05 7.88425e-06 2.69328e+25 -1.24958 8.3082 271.51 
-9.79558e-06 7.88425e-06 2.68975e+25 -1.41607 8.812 271.914 
-7.88425e-06 7.88425e-06 2.69022e+25 -1.47002 8.41824 271.778 
-5.97292e-06 7.88425e-06 2.68857e+25 -1.53923 7.23231 271.937 
-4.06158e-06 7.88425e-06 2.68685e+25 -1.3505 6.36276 271.985 
-2.15025e-06 7.88425e-06 2.69059e+25 -1.28824 5.56829 271.721 
-2.38917e-07 7.88425e-06 2.68477e+25 -1.08115 4.04586 272.025 
-1.55296e-05 8.36208e-06 2.68404e+25 -0.319888 4.64556 272.43 
-1.36182e-05 8.36208e-06 2.68922e+25 -0.785631 7.24791 272.07 
-1.17069e-05 8.36208e-06 2.69114e+25 -1.57025 8.28572 271.628 
-9.79558e-06 8.36208e-06 2.69059e+25 -1.53795 8.82892 271.794 
-7.88425e-06 8.36208e-06 2.68957e+25 -1.46256 8.31237 271.873 
-5.97292e-06 8.36208e-06 2.68888e+25 -1.19829 7.29067 272.135 
-4.06158e-06 8.36208e-06 2.68823e+25 -0.705516 6.43407 271.972 
-2.15025e-06 8.36208e-06 2.68895e+25 -0.730094 5.42293 271.726 
-2.38917e-07 8.36208e-06 2.68483e+25 -0.351961 3.99813 272.062 
-1.55296e-05 8.83992e-06 2.68507e+25 -0.341223 4.7797 272.342 
-1.36182e-05 8.83992e-06 2.68948e+25 -1.01991 7.60956 272.036 
-1.17069e-05 8.83992e-06 2.69285e+25 -1.88291 8.26701 271.711 
-9.79558e-06 8.83992e-06 2.6913e+25 -1.75985 8.83679 271.732 
-7.88425e-06 8.83992e-06 2.68893e+25 -1.34106 8.17452 271.836 
-5.97292e-06 8.83992e-06 2.68449e+25 -0.84691 7.21263 272.34 
-4.06158e-06 8.83992e-06 2.69077e+25 -0.208939 6.38123 271.792 
-2.15025e-06 8.83992e-06 2.69003e+25 0.167522 5.29578 271.742 
-2.38917e-07 8.83992e-06 2.68315e+25 0.72424 3.87944 272.188 
-1.55296e-05 9.31775e-06 2.68631e+25 -0.392923 4.8732 272.241 
-1.36182e-05 9.31775e-06 2.68905e+25 -1.30489 7.87093 272.042 
-1.17069e-05 9.31775e-06 2.68945e+25 -1.86135 8.24554 271.758 
-9.79558e-06 9.31775e-06 2.69326e+25 -1.94148 8.69005 271.594 
-7.88425e-06 9.31775e-06 2.68899e+25 -1.52648 7.97512 271.879 
-5.97292e-06 9.31775e-06 2.68593e+25 -0.48722 7.033 272.367 
-4.06158e-06 9.31775e-06 2.6904e+25 0.255827 6.2284 271.759 
-2.15025e-06 9.31775e-06 2.68652e+25 0.976571 5.146 271.915 
-2.38917e-07 9.31775e-06 2.68419e+25 1.56018 3.76463 272.041 
-1.55296e-05 9.79558e-06 2.68536e+25 -0.427028 5.03744 272.139 
-1.36182e-05 9.79558e-06 2.68639e+25 -1.53083 8.12105 272.06 
-1.17069e-05 9.79558e-06 2.69056e+25 -2.11291 8.39136 271.76 
-9.79558e-06 9.79558e-06 2.68998e+25 -1.94527 8.46023 271.582 
-7.88425e-06 9.79558e-06 2.69056e+25 -1.18369 7.69011 272.003 
-5.97292e-06 9.79558e-06 2.68637e+25 -0.542187 6.6853 272.167 
-4.06158e-06 9.79558e-06 2.68926e+25 0.808997 6.03759 271.879 
-2.15025e-06 9.79558e-06 2.68779e+25 1.79191 5.05818 271.929 
-2.38917e-07 9.79558e-06 2.68267e+25 2.43118 3.53806 271.957 
-1.55296e-05 1.02734e-05 2.68723e+25 -0.680158 5.2492 272.184 
-1.36182e-05 1.02734e-05 2.68704e+25 -1.80169 8.29833 272.045 
-1.17069e-05 1.02734e-05 2.69068e+25 -2.2021 8.6382 271.688 
-9.79558e-06 1.02734e-05 2.68956e+25 -1.87002 8.23268 271.788 
-7.88425e-06 1.02734e-05 2.68768e+25 -0.9841 7.59549 272.021 
-5.97292e-06 1.02734e-05 2.6868e+25 -0.0543597 6.22048 272.122 
-4.06158e-06 1.02734e-05 2.69022e+25 1.4153 5.67191 271.724 
-2.15025e-06 1.02734e-05 2.68723e+25 2.40891 4.87643 271.943 
-2.38917e-07 1.02734e-05 2.68355e+25 3.53155 3.46788 272.006 
-1.55296e-05 1.07512e-05 2.68588e+25 -0.852938 5.55457 272.196 
-1.36182e-05 1.07512e-05 2.68956e+25 -1.84267 8.46071 271.874 
-1.17069e-05 1.07512e-05 2.6893e+25 -2.20939 8.69377 271.736 
-9.79558e-06 1.07512e-05 2.69275e+25 -1.71489 8.10725 271.521 
-7.88425e-06 1.07512e-05 2.68556e+25 -0.762827 7.55176 272.106 
-5.97292e-06 1.07512e-05 2.68803e+25 0.599397 5.92316 272.09 
-4.06158e-06 1.07512e-05 2.69e+25 1.89501 5.22047 271.687 
-2.15025e-06 1.07512e-05 2.68766e+25 3.4662 4.54665 271.965 
-2.38917e-07 1.07512e-05 2.68423e+25 4.55075 3.45691 271.912 
-1.55296e-05 1.12291e-05 2.68855e+25 -0.934135 5.87576 272.019 
-1.36182e-05 1.12291e-05 2.68745e+25 -2.02637 8.66344 272.142 
-1.17069e-05 1.12291e-05 2.69109e+25 -2.24037 8.63026 271.766 
-9.79558e-06 1.12291e-05 2.69331e+25 -1.61633 7.92431 271.399 
-7.88425e-06 1.12291e-05 2.6886e+25 -0.132834 7.26209 272.098 
-5.97292e-06 1.12291e-05 2.68955e+25 1.42539 5.61876 271.955 
-4.06158e-06 1.12291e-05 2.68818e+25 2.56639 4.9328 271.833 
-2.15025e-06 1.12291e-05 2.68871e+25 4.38568 4.0821 271.955 
-2.38917e-07 1.12291e-05 2.68608e+25 5.36151 3.36177 271.926 
-1.55296e-05 1.17069e-05 2.68682e+25 -0.941049 6.29425 271.994 
-1.36182e-05 1.17069e-05 2.68487e+25 -2.34914 8.76543 272.261 
-1.17069e-05 1.17069e-05 2.69129e+25 -2.37488 8.52599 271.723 
-9.79558e-06 1.17069e-05 2.69322e+25 -1.24773 7.55038 271.586 
-7.88425e-06 1.17069e-05 2.68767e+25 0.507901 6.74483 272.064 
-5.97292e-06 1.17069e-05 2.68576e+25 2.32938 5.24867 272.175 
-4.06158e-06 1.17069e-05 2.68966e+25 3.5893 4.61925 271.917 
-2.15025e-06 1.17069e-05 2.68747e+25 5.52668 3.64026 271.904 
-2.38917e-07 1.17069e-05 2.68395e+25 6.82196 3.08706 272.142 
-1.55296e-05 1.21847e-05 2.68403e+25 -1.21209 6.7858 272.145 
-1.36182e-05 1.21847e-05 2.68647e+25 -2.64413 8.87024 272.211 
-1.17069e-05 1.21847e-05 2.69021e+25 -2.38331 8.38223 271.821 
-9.79558e-06 1.21847e-05 2.689e+25 -0.966448 7.08786 271.803 
-7.88425e-06 1.21847e-05 2.6881e+25 1.06865 6.21509 272.089 
-5.97292e-06 1.21847e-05 2.68784e+25 3.15924 4.95821 272.093 
-4.06158e-06 1.21847e-05 2.68887e+25 4.72308 4.11467 271.873 
-2.15025e-06 1.21847e-05 2.68782e+25 6.66616 3.16032 272.058 
-2.38917e-07 1.21847e-05 2.68307e+25 8.38371 2.67698 272.191 
-1.55296e-05 1.26626e-05 2.68452e+25 -1.64063 7.41088 272.204 
-1.36182e-05 1.26626e-05 2.68541e+25 -2.85634 9.1447 272.169 
-1.17069e-05 1.26626e-05 2.68916e+25 -1.94941 8.06615 271.877 
-9.79558e-06 1.26626e-05 2.68865e+25 -0.238816 6.68222 271.941 
-7.88425e-06 1.26626e-05 2.68624e+25 2.15727 5.56204 272.252 
-5.97292e-06 1.26626e-05 2.68603e+25 4.39625 4.37176 272.213 
-4.06158e-06 1.26626e-05 2.68736e+25 6.17464 3.60873 272.142 
-2.15025e-06 1.26626e-05 2.68833e+25 8.20793 2.76821 272.011 
-2.38917e-07 1.26626e-05 2.68155e+25 10.1109 2.29501 272.275 
-1.55296e-05 1.31404e-05 2.68374e+25 -1.90041 8.06751 272.022 
-1.36182e-05 1.31404e-05 2.68663e+25 -3.3708 9.05054 271.897 
-1.17069e-05 1.31404e-05 2.68687e+25 -1.76748 7.57662 272.062 
-9.79558e-06 1.31404e-05 2.69069e+25 0.737442 6.03583 271.819 
-7.88425e-06 1.31404e-05 2.68609e+25 3.61109 4.98651 272.355 
-5.97292e-06 1.31404e-05 2.68757e+25 5.80794 3.89205 272.186 
-4.06158e-06 1.31404e-05 2.68442e+25 8.05288 3.13386 272.305 
-2.15025e-06 1.31404e-05 2.68713e+25 9.90572 2.272 272.047 
-2.38917e-07 1.31404e-05 2.68188e+25 11.6894 1.91958 272.22 
-1.55296e-05 1.36182e-05 2.68277e+25 -2.59407 8.89249 272.15 
-1.36182e-05 1.36182e-05 2.68651e+25 -3.21513 8.66749 271.94 
-1.17069e-05 1.36182e-05 2.68373e+25 -0.879886 6.93313 272.275 
-9.79558e-06 1.36182e-05 2.68943e+25 2.15329 5.31708 271.832 
-7.88425e-06 1.36182e-05 2.68517e+25 5.26022 4.23527 272.417 
-5.97292e-06 1.36182e-05 2.68823e+25 7.82947 3.33273 272.231 
-4.06158e-06 1.36182e-05 2.68455e+25 10.2197 2.5679 272.426 
-2.15025e-06 1.36182e-05 2.68666e+25 11.8317 1.86921 272.138 
-2.38917e-07 1.36182e-05 2.68283e+25 13.4052 1.59933 272.169 
-1.55296e-05 1.40961e-05 2.67843e+25 -2.69421 9.61389 272.358 
-1.36182e-05 1.40961e-05 2.68707e+25 -2.56195 8.06042 271.855 
-1.17069e-05 1.40961e-05 2.68191e+25 0.328435 6.1911 272.422 
-9.79558e-06 1.40961e-05 2.68833e+25 3.94822 4.48235 271.931 
-7.88425e-06 1.40961e-05 2.68621e+25 7.24143 3.48038 272.353 
-5.97292e-06 1.40961e-05 2.68646e+25 10.1578 2.7282 272.236 
-4.06158e-06 1.40961e-05 2.68421e+25 12.5324 2.03132 272.457 
-2.15025e-06 1.40961e-05 2.68559e+25 14.1416 1.65405 272.366 
-2.38917e-07 1.40961e-05 2.68098e+25 15.3981 1.17386 272.238 
-1.55296e-05 1.45739e-05 2.6779e+25 -2.98534 10.126 272.243 
-1.36182e-05 1.45739e-05 2.68323e+25 -1.47741 7.33945 272.122 
-1.17069e-05 1.45739e-05 2.68486e+25 2.60364 5.29048 272.442 
-9.79558e-06 1.45739e-05 2.68799e+25 6.46974 3.66455 272.139 
-7.88425e-06 1.45739e-05 2.68826e+25 9.82991 2.59927 272.377 
-5.97292e-06 1.45739e-05 2.68827e+25 12.5247 2.07553 272.126 
-4.06158e-06 1.45739e-05 2.68517e+25 14.8809 1.60829 272.322 
-2.15025e-06 1.45739e-05 2.68572e+25 16.5426 1.41887 272.345 
-2.38917e-07 1.45739e-05 2.68259e+25 17.6747 0.745486 272.327 
-1.55296e-05 1.50518e-05 2.67626e+25 -3.1316 10.3013 272.391 
-1.36182e-05 1.50518e-05 2.68343e+25 0.605539 6.31024 272.221 
-1.17069e-05 1.50518e-05 2.68243e+25 5.86648 4.22448 272.484 
-9.79558e-06 1.50518e-05 2.6859e+25 9.8097 2.76964 272.278 
-7.88425e-06 1.50518e-05 2.68595e+25 13.1 1.80269 272.363 
-5.97292e-06 1.50518e-05 2.68727e+25 15.4704 1.41091 272.269 
-4.06158e-06 1.50518e-05 2.68704e+25 17.6768 1.09666 272.251 
-2.15025e-06 1.50518e-05 2.68421e+25 19.3412 1.03205 272.435 
-2.38917e-07 1.50518e-05 2.68485e+25 20.6539 0.373846 272.225 
-1.55296e-05 1.55296e-05 2.67222e+25 -2.27202 9.66253 272.646 
-1.36182e-05 1.55296e-05 2.68267e+25 4.10931 4.90423 272.377 
-1.17069e-05 1.55296e-05 2.68064e+25 10.1687 2.89767 272.742 
-9.79558e-06 1.55296e-05 2.68697e+25 14.0819 1.88954 272.276 
-7.88425e-06 1.55296e-05 2.68603e+25 17.2518 1.23135 272.405 
-5.97292e-06 1.55296e-05 2.68511e+25 19.3956 0.867998 272.508 
-4.06158e-06 1.55296e-05 2.68518e+25 21.1022 0.630056 272.375 
-2.15025e-06 1.55296e-05 2.68423e+25 22.4833 0.723129 272.562 
-2.38917e-07 1.55296e-05 2.6803e+25 23.6375 0.196574 272.465 
-1.55296e-05 1.60074e-05 2.66712e+25 1.13807 7.90744 272.834 
-1.36182e-05 1.60074e-05 2.68019e+25 10.1289 3.15983 272.46 
-1.17069e-05 1.60074e-05 2.68163e+25 15.6825 1.70683 272.875 
-9.79558e-06 1.60074e-05 2.68465e+25 19.4125 1.1018 272.554 
-7.88425e-06 1.60074e-05 2.68366e+25 21.6759 0.661309 272.547 
-5.97292e-06 1.60074e-05 2.68435e+25 23.6448 0.346513 272.579 
-4.06158e-06 1.60074e-05 2.68518e+25 24.959 0.292192 272.494 
-2.15025e-06 1.60074e-05 2.68235e+25 26.0028 0.452513 272.665 
-2.38917e-07 1.60074e-05 2.68159e+25 26.674 0.0802568 272.489 
-1.55296e-05 1.64852e-05 2.66259e+25 8.57617 4.78447 273.159 
-1.36182e-05 1.64852e-05 2.67817e+25 18.3528 1.51169 272.842 
-1.17069e-05 1.64852e-05 2.68212e+25 22.5839 0.727877 272.818 
-9.79558e-06 1.64852e-05 2.68084e+25 25.2246 0.482181 272.754 
-7.88425e-06 1.64852e-05 2.68227e+25 26.676 0.287172 272.68 
-5.97292e-06 1.64852e-05 2.6814e+25 28.1468 0.11403 272.835 
-4.06158e-06 1.64852e-05 2.68326e+25 28.6118 0.069539 272.794 
-2.15025e-06 1.64852e-05 2.68378e+25 29.4653 0.229235 272.593 
-2.38917e-07 1.64852e-05 2.67947e+25 29.9747 0.0571375 272.649 
-1.55296e-05 1.69631e-05 2.66595e+25 21.9087 1.3595 273.207 
-1.36182e-05 1.69631e-05 2.6793e+25 28.065 0.31161 272.938 
-1.17069e-05 1.69631e-05 2.68078e+25 30.0571 0.177181 273.109 
-9.79558e-06 1.69631e-05 2.68265e+25 31.1358 0.0734952 272.935 
-7.88425e-06 1.69631e-05 2.68201e+25 31.5324 0.0375272 272.929 
-5.97292e-06 1.69631e-05 2.67978e+25 32.1421 -0.00606374 273.062 
-4.06158e-06 1.69631e-05 2.67985e+25 32.3275 0.0161787 272.999 
-2.15025e-06 1.69631e-05 2.67875e+25 32.6042 0.0795997 272.964 
-2.38917e-07 1.69631e-05 2.6806e+25 32.947 -0.021217 272.694 
1.19458e-06 -1.69631e-05 2.68241e+25 -0.153851 -0.0106944 272.972 
3.10592e-06 -1.69631e-05 2.68365e+25 -0.234417 -0.0922471 272.916 
5.01725e-06 -1.69631e-05 2.68617e+25 -0.260028 0.0514758 272.753 
6.92858e-06 -1.69631e-05 2.68408e+25 -0.238713 -0.00823563 272.825 
8.83992e-06 -1.69631e-05 2.68553e+25 -0.264278 -0.0143974 272.772 
1.07512e-05 -1.69631e-05 2.68538e+25 -0.197597 -0.116694 272.721 
1.26626e-05 -1.69631e-05 2.6835e+25 -0.0861083 0.0170567 272.843 
1.45739e-05 -1.69631e-05 2.68237e+25 -0.0325541 0.0200155 272.923 
1.64852e-05 -1.69631e-05 2.68173e+25 -0.00808111 0.00927288 272.976 
1.19458e-06 -1.64852e-05 2.68605e+25 -0.408748 -0.0319139 272.67 
3.10592e-06 -1.64852e-05 2.68672e+25 -0.417717 -0.124122 272.698 
5.01725e-06 -1.64852e-05 2.68398e+25 -0.375984 0.193965 272.721 
6.92858e-06 -1.64852e-05 2.68707e+25 -0.52585 0.00372902 272.599 
8.83992e-06 -1.64852e-05 2.68745e+25 -0.352758 -0.0230518 272.554 
1.07512e-05 -1.64852e-05 2.68921e+25 -0.283516 -0.26256 272.326 
1.26626e-05 -1.64852e-05 2.68521e+25 -0.120075 0.0230267 272.644 
1.45739e-05 -1.64852e-05 2.68667e+25 -0.236333 -0.0183947 272.701 
1.64852e-05 -1.64852e-05 2.68485e+25 -0.0476732 -0.0492525 272.795 
1.19458e-06 -1.60074e-05 2.68802e+25 -0.69898 -0.130635 272.345 
3.10592e-06 -1.60074e-05 2.68939e+25 -0.61065 0.0458343 272.263 
5.01725e-06 -1.60074e-05 2.68804e+25 -0.879943 0.19418 272.592 
6.92858e-06 -1.60074e-05 2.68868e+25 -0.750587 -0.121255 272.5 
8.83992e-06 -1.60074e-05 2.68605e+25 -0.554983 -0.117981 272.586 
1.07512e-05 -1.60074e-05 2.69233e+25 -0.399169 -0.200165 272.072 
1.26626e-05 -1.60074e-05 2.68885e+25 -0.289066 0.0241243 272.325 
1.45739e-05 -1.60074e-05 2.6881e+25 -0.131878 -0.0773584 272.384 
1.64852e-05 -1.60074e-05 2.68764e+25 0.0335838 -0.0340819 272.584 
1.19458e-06 -1.55296e-05 2.6897e+25 -1.01982 -0.168676 272.326 
3.10592e-06 -1.55296e-05 2.68922e+25 -0.79028 0.111525 272.272 
5.01725e-06 -1.55296e-05 2.6889e+25 -0.952776 0.18684 272.403 
6.92858e-06 -1.55296e-05 2.68777e+25 -0.929529 -0.180835 272.622 
8.83992e-06 -1.55296e-05 2.68602e+25 -0.6385 -0.217584 272.591 
1.07512e-05 -1.55296e-05 2.69086e+25 -0.332731 -0.211135 272.237 
1.26626e-05 -1.55296e-05 2.68836e+25 -0.386831 0.0393108 272.269 
1.45739e-05 -1.55296e-05 2.68902e+25 -0.252973 -0.20966 272.431 
1.64852e-05 -1.55296e-05 2.68975e+25 0.0669296 0.100641 272.353 
1.19458e-06 -1.50517e-05 2.68908e+25 -1.33838 -0.0937745 272.156 
3.10592e-06 -1.50517e-05 2.69108e+25 -1.04327 -0.0395482 272.065 
5.01725e-06 -1.50517e-05 2.68831e+25 -1.03036 0.178634 272.297 
6.92858e-06 -1.50517e-05 2.68748e+25 -0.906713 -0.20156 272.488 
8.83992e-06 -1.50517e-05 2.68565e+25 -0.661045 -0.442682 272.539 
1.07512e-05 -1.50517e-05 2.68851e+25 -0.319219 -0.0819658 272.429 
1.26626e-05 -1.50517e-05 2.69004e+25 -0.372964 -0.0239599 272.183 
1.45739e-05 -1.50517e-05 2.68726e+25 -0.0611839 -0.204113 272.343 
1.64852e-05 -1.50517e-05 2.6887e+25 0.0186914 0.0986117 272.317 
1.19458e-06 -1.45739e-05 2.69418e+25 -1.37407 0.0607878 271.791 
3.10592e-06 -1.45739e-05 2.69075e+25 -1.33997 -0.168997 272.137 
5.01725e-06 -1.45739e-05 2.68982e+25 -1.07099 0.0672133 272.262 
6.92858e-06 -1.45739e-05 2.68782e+25 -1.05036 -0.180024 272.474 
8.83992e-06 -1.45739e-05 2.68535e+25 -0.812711 -0.380359 272.52 
1.07512e-05 -1.45739e-05 2.68813e+25 -0.328127 -0.153623 272.458 
1.26626e-05 -1.45739e-05 2.68952e+25 -0.0293868 -0.103196 272.181 
1.45739e-05 -1.45739e-05 2.68878e+25 0.0462386 -0.248415 272.469 
1.64852e-05 -1.45739e-05 2.68775e+25 0.0431107 0.11582 272.406 
1.19458e-06 -1.40961e-05 2.69573e+25 -1.49799 0.000869125 271.705 
3.10592e-06 -1.40961e-05 2.6916e+25 -1.65272 -0.137376 272.039 
5.01725e-06 -1.40961e-05 2.69189e+25 -1.27669 -0.0093859 272.103 
6.92858e-06 -1.40961e-05 2.6888e+25 -1.30677 -0.262766 272.416 
8.83992e-06 -1.40961e-05 2.68604e+25 -0.885493 -0.270256 272.56 
1.07512e-05 -1.40961e-05 2.68934e+25 -0.373094 -0.276449 272.304 
1.26626e-05 -1.40961e-05 2.68823e+25 -0.2672 -0.156642 272.225 
1.45739e-05 -1.40961e-05 2.68884e+25 0.0986684 -0.270101 272.361 
1.64852e-05 -1.40961e-05 2.68649e+25 -0.0899734 0.122723 272.693 
1.19458e-06 -1.36182e-05 2.69411e+25 -1.77443 -0.00515121 271.705 
3.10592e-06 -1.36182e-05 2.69418e+25 -2.01097 -0.116076 271.955 
5.01725e-06 -1.36182e-05 2.68944e+25 -1.33792 0.0934896 272.266 
6.92858e-06 -1.36182e-05 2.68734e+25 -1.44451 -0.279402 272.412 
8.83992e-06 -1.36182e-05 2.68798e+25 -0.99113 -0.422019 272.451 
1.07512e-05 -1.36182e-05 2.68805e+25 -0.39141 -0.357178 272.459 
1.26626e-05 -1.36182e-05 2.68929e+25 -0.421921 -0.275842 272.26 
1.45739e-05 -1.36182e-05 2.68792e+25 0.247607 -0.25648 272.35 
1.64852e-05 -1.36182e-05 2.68593e+25 -0.0884681 0.182858 272.538 
1.19458e-06 -1.31404e-05 2.69276e+25 -1.86971 0.0831655 271.959 
3.10592e-06 -1.31404e-05 2.69172e+25 -1.82546 -0.252899 272.005 
5.01725e-06 -1.31404e-05 2.68886e+25 -1.52641 0.0680241 272.331 
6.92858e-06 -1.31404e-05 2.68734e+25 -1.52582 -0.174803 272.439 
8.83992e-06 -1.31404e-05 2.68819e+25 -0.882575 -0.629827 272.424 
1.07512e-05 -1.31404e-05 2.68769e+25 -0.490009 -0.360718 272.553 
1.26626e-05 -1.31404e-05 2.68921e+25 -0.353153 -0.456971 272.26 
1.45739e-05 -1.31404e-05 2.6865e+25 -0.0880545 -0.219334 272.569 
1.64852e-05 -1.31404e-05 2.68628e+25 -0.0263834 0.0782687 272.612 
1.19458e-06 -1.26626e-05 2.69279e+25 -2.17828 0.125052 271.974 
3.10592e-06 -1.26626e-05 2.69105e+25 -1.88218 -0.264002 271.918 
5.01725e-06 -1.26626e-05 2.69047e+25 -1.73241 -0.194986 272.227 
6.92858e-06 -1.26626e-05 2.68847e+25 -1.34339 -0.264996 272.429 
8.83992e-06 -1.26626e-05 2.69109e+25 -0.994606 -0.884175 272.336 
1.07512e-05 -1.26626e-05 2.68849e+25 -0.555297 -0.353383 272.396 
1.26626e-05 -1.26626e-05 2.68975e+25 -0.298693 -0.570142 272.281 
1.45739e-05 -1.26626e-05 2.68449e+25 -0.365344 -0.210008 272.649 
1.64852e-05 -1.26626e-05 2.68584e+25 -0.142695 -0.0672118 272.577 
1.19458e-06 -1.21847e-05 2.68995e+25 -2.37316 0.126709 272.123 
3.10592e-06 -1.21847e-05 2.69351e+25 -2.09772 -0.265016 271.946 
5.01725e-06 -1.21847e-05 2.69016e+25 -1.89003 -0.31971 272.191 
6.92858e-06 -1.21847e-05 2.69003e+25 -1.29156 -0.444015 272.202 
8.83992e-06 -1.21847e-05 2.68992e+25 -1.05028 -1.01943 272.255 
1.07512e-05 -1.21847e-05 2.68925e+25 -0.749009 -0.442577 272.269 
1.26626e-05 -1.21847e-05 2.68998e+25 -0.431519 -0.594711 272.184 
1.45739e-05 -1.21847e-05 2.68669e+25 -0.448905 -0.179611 272.618 
1.64852e-05 -1.21847e-05 2.68662e+25 -0.062266 -0.247603 272.447 
1.19458e-06 -1.17069e-05 2.69296e+25 -2.63938 -0.0210869 271.955 
3.10592e-06 -1.17069e-05 2.69146e+25 -2.51667 -0.272841 272.061 
5.01725e-06 -1.17069e-05 2.69127e+25 -1.88369 -0.467218 272.127 
6.92858e-06 -1.17069e-05 2.69091e+25 -1.45831 -0.597179 272.117 
8.83992e-06 -1.17069e-05 2.69046e+25 -1.25344 -1.06634 272.232 
1.07512e-05 -1.17069e-05 2.6873e+25 -1.24954 -0.622135 272.403 
1.26626e-05 -1.17069e-05 2.68937e+25 -0.632212 -0.724634 272.283 
1.45739e-05 -1.17069e-05 2.68671e+25 -0.47054 -0.159807 272.531 
1.64852e-05 -1.17069e-05 2.68879e+25 -0.0961406 -0.378526 272.307 
1.19458e-06 -1.12291e-05 2.69174e+25 -3.04596 0.0448679 272.112 
3.10592e-06 -1.12291e-05 2.6922e+25 -2.72299 -0.395706 271.948 
5.01725e-06 -1.12291e-05 2.69079e+25 -2.47853 -0.584202 272.078 
6.92858e-06 -1.12291e-05 2.69181e+25 -1.69056 -0.638455 272.21 
8.83992e-06 -1.12291e-05 2.69268e+25 -1.35506 -1.01742 272.154 
1.07512e-05 -1.12291e-05 2.69071e+25 -1.33684 -0.760917 272.074 
1.26626e-05 -1.12291e-05 2.69194e+25 -0.572511 -0.972005 272.017 
1.45739e-05 -1.12291e-05 2.68942e+25 -0.445434 -0.267682 272.186 
1.64852e-05 -1.12291e-05 2.68613e+25 -0.0739364 -0.41708 272.462 
1.19458e-06 -1.07512e-05 2.69331e+25 -3.41441 -0.0176811 271.901 
3.10592e-06 -1.07512e-05 2.69163e+25 -2.8945 -0.592169 271.908 
5.01725e-06 -1.07512e-05 2.69266e+25 -2.94869 -0.734605 272.143 
6.92858e-06 -1.07512e-05 2.69074e+25 -1.88412 -0.851103 272.192 
8.83992e-06 -1.07512e-05 2.69193e+25 -1.77534 -0.981511 272.165 
1.07512e-05 -1.07512e-05 2.69079e+25 -1.67553 -0.930509 271.882 
1.26626e-05 -1.07512e-05 2.69052e+25 -0.514661 -1.03674 272.008 
1.45739e-05 -1.07512e-05 2.69118e+25 -0.0130744 -0.304532 272.151 
1.64852e-05 -1.07512e-05 2.68646e+25 0.0255088 -0.430325 272.567 
1.19458e-06 -1.02734e-05 2.692e+25 -3.60762 -0.120136 271.847 
3.10592e-06 -1.02734e-05 2.69165e+25 -3.24609 -0.667105 272.085 
5.01725e-06 -1.02734e-05 2.69069e+25 -3.10243 -0.728181 272.092 
6.92858e-06 -1.02734e-05 2.69087e+25 -2.02754 -1.113 272.174 
8.83992e-06 -1.02734e-05 2.68707e+25 -1.87422 -0.921766 272.267 
1.07512e-05 -1.02734e-05 2.69595e+25 -1.57982 -1.08442 271.688 
1.26626e-05 -1.02734e-05 2.69211e+25 -0.412905 -1.12724 271.955 
1.45739e-05 -1.02734e-05 2.68959e+25 -0.194448 -0.449395 272.156 
1.64852e-05 -1.02734e-05 2.68678e+25 0.134766 -0.465493 272.596 
1.19458e-06 -9.79558e-06 2.69344e+25 -3.70952 -0.131683 271.873 
3.10592e-06 -9.79558e-06 2.69004e+25 -3.72827 -0.822373 272.234 
5.01725e-06 -9.79558e-06 2.69087e+25 -3.25259 -0.805222 272.18 
6.92858e-06 -9.79558e-06 2.69063e+25 -2.3874 -1.43462 272.121 
8.83992e-06 -9.79558e-06 2.68937e+25 -1.70067 -0.978813 272.256 
1.07512e-05 -9.79558e-06 2.69544e+25 -1.19231 -1.34457 271.755 
1.26626e-05 -9.79558e-06 2.69317e+25 -0.436708 -1.17765 271.967 
1.45739e-05 -9.79558e-06 2.69261e+25 -0.118059 -0.709043 271.996 
1.64852e-05 -9.79558e-06 2.68675e+25 0.123055 -0.377369 272.545 
1.19458e-06 -9.31775e-06 2.69217e+25 -3.98895 -0.085508 272.021 
3.10592e-06 -9.31775e-06 2.69179e+25 -4.095 -0.998799 271.898 
5.01725e-06 -9.31775e-06 2.69022e+25 -3.29962 -0.99282 271.985 
6.92858e-06 -9.31775e-06 2.69104e+25 -2.6802 -1.6498 272.127 
8.83992e-06 -9.31775e-06 2.68896e+25 -1.89301 -1.28866 272.229 
1.07512e-05 -9.31775e-06 2.69292e+25 -1.11765 -1.49748 271.803 
1.26626e-05 -9.31775e-06 2.69068e+25 -0.622445 -1.41151 272.068 
1.45739e-05 -9.31775e-06 2.69311e+25 -0.0409103 -0.746004 271.94 
1.64852e-05 -9.31775e-06 2.68558e+25 0.10538 -0.31849 272.604 
1.19458e-06 -8.83992e-06 2.68978e+25 -4.46502 -0.132478 272.174 
3.10592e-06 -8.83992e-06 2.69017e+25 -4.14247 -1.23419 271.972 
5.01725e-06 -8.83992e-06 2.69142e+25 -3.4506 -1.12977 272.12 
6.92858e-06 -8.83992e-06 2.69096e+25 -2.81479 -1.64553 272.197 
8.83992e-06 -8.83992e-06 2.69163e+25 -2.04794 -1.47237 272.081 
1.07512e-05 -8.83992e-06 2.69256e+25 -1.29516 -1.59637 271.957 
1.26626e-05 -8.83992e-06 2.69174e+25 -0.847944 -1.66276 271.995 
1.45739e-05 -8.83992e-06 2.69187e+25 -0.16991 -0.889693 271.998 
1.64852e-05 -8.83992e-06 2.68561e+25 0.174059 -0.303517 272.524 
1.19458e-06 -8.36208e-06 2.68983e+25 -4.85775 -0.09346 272.128 
3.10592e-06 -8.36208e-06 2.69069e+25 -4.38471 -1.35001 272.052 
5.01725e-06 -8.36208e-06 2.68857e+25 -3.80687 -1.28082 272.314 
6.92858e-06 -8.36208e-06 2.69072e+25 -2.77551 -1.77975 272.074 
8.83992e-06 -8.36208e-06 2.69025e+25 -2.2843 -1.55339 272.116 
1.07512e-05 -8.36208e-06 2.69229e+25 -1.47461 -1.81962 271.895 
1.26626e-05 -8.36208e-06 2.69181e+25 -0.991637 -1.74515 272.022 
1.45739e-05 -8.36208e-06 2.69264e+25 -0.138414 -1.03787 271.978 
1.64852e-05 -8.36208e-06 2.68757e+25 -0.119749 -0.220789 272.432 
1.19458e-06 -7.88425e-06 2.69169e+25 -5.09668 -0.123709 272.024 
3.10592e-06 -7.88425e-06 2.68992e+25 -4.41756 -1.4368 271.999 
5.01725e-06 -7.88425e-06 2.69237e+25 -3.8978 -1.5588 271.998 
6.92858e-06 -7.88425e-06 2.69307e+25 -3.31605 -1.95694 271.993 
8.83992e-06 -7.88425e-06 2.68988e+25 -2.60636 -1.74479 272.118 
1.07512e-05 -7.88425e-06 2.69167e+25 -1.70216 -2.03148 271.941 
1.26626e-05 -7.88425e-06 2.69239e+25 -1.08686 -1.84881 272.031 
1.45739e-05 -7.88425e-06 2.6904e+25 -0.188525 -1.1112 272.093 
1.64852e-05 -7.88425e-06 2.68635e+25 -0.176176 -0.149744 272.579 
1.19458e-06 -7.40642e-06 2.69204e+25 -5.03036 -0.0829823 272.024 
3.10592e-06 -7.40642e-06 2.69007e+25 -4.69075 -1.54929 272.181 
5.01725e-06 -7.40642e-06 2.69231e+25 -3.99177 -1.71487 272.05 
6.92858e-06 -7.40642e-06 2.69246e+25 -3.68736 -2.2004 272.109 
8.83992e-06 -7.40642e-06 2.69307e+25 -2.94127 -1.83177 271.914 
1.07512e-05 -7.40642e-06 2.69414e+25 -1.78514 -2.33172 271.757 
1.26626e-05 -7.40642e-06 2.69213e+25 -0.852816 -1.84632 272.045 
1.45739e-05 -7.40642e-06 2.68984e+25 -0.347157 -1.27644 272.214 
1.64852e-05 -7.40642e-06 2.68432e+25 0.068073 -0.174663 272.517 
1.19458e-06 -6.92858e-06 2.69278e+25 -5.29555 -0.222767 271.949 
3.10592e-06 -6.92858e-06 2.68972e+25 -5.10523 -1.73834 272.208 
5.01725e-06 -6.92858e-06 2.69166e+25 -4.27975 -1.92641 272.08 
6.92858e-06 -6.92858e-06 2.69087e+25 -4.0221 -2.27149 272.084 
8.83992e-06 -6.92858e-06 2.69144e+25 -3.32716 -2.02807 271.93 
1.07512e-05 -6.92858e-06 2.6941e+25 -1.96983 -2.65092 271.864 
1.26626e-05 -6.92858e-06 2.69355e+25 -0.950825 -1.93517 271.865 
1.45739e-05 -6.92858e-06 2.69041e+25 -0.266517 -1.51449 272.295 
1.64852e-05 -6.92858e-06 2.68679e+25 -0.00221233 -0.330577 272.477 
1.19458e-06 -6.45075e-06 2.69068e+25 -5.49335 -0.297646 272.022 
3.10592e-06 -6.45075e-06 2.69152e+25 -5.24697 -1.7488 272.024 
5.01725e-06 -6.45075e-06 2.69205e+25 -4.99613 -2.0713 271.989 
6.92858e-06 -6.45075e-06 2.69111e+25 -4.44353 -2.34828 272.029 
8.83992e-06 -6.45075e-06 2.69157e+25 -3.29073 -2.35795 271.996 
1.07512e-05 -6.45075e-06 2.69345e+25 -2.02429 -2.84908 271.949 
1.26626e-05 -6.45075e-06 2.69091e+25 -1.24408 -2.08172 272.031 
1.45739e-05 -6.45075e-06 2.68949e+25 -0.48104 -1.64618 272.27 
1.64852e-05 -6.45075e-06 2.68494e+25 -0.0870119 -0.423273 272.69 
1.19458e-06 -5.97292e-06 2.69309e+25 -5.47513 -0.320209 271.986 
3.10592e-06 -5.97292e-06 2.69536e+25 -5.53838 -1.65275 271.799 
5.01725e-06 -5.97292e-06 2.69127e+25 -5.30667 -2.23826 272.124 
6.92858e-06 -5.97292e-06 2.6927e+25 -4.8157 -2.55957 271.925 
8.83992e-06 -5.97292e-06 2.69079e+25 -3.68128 -2.84141 272.022 
1.07512e-05 -5.97292e-06 2.69083e+25 -2.34808 -3.11194 272.043 
1.26626e-05 -5.97292e-06 2.69084e+25 -1.23738 -2.20223 272.021 
1.45739e-05 -5.97292e-06 2.68986e+25 -0.676838 -1.58546 272.329 
1.64852e-05 -5.97292e-06 2.68553e+25 -0.194046 -0.416968 272.695 
1.19458e-06 -5.49508e-06 2.69123e+25 -5.74453 -0.403686 272.036 
3.10592e-06 -5.49508e-06 2.69419e+25 -5.6961 -1.521 271.817 
5.01725e-06 -5.49508e-06 2.69032e+25 -5.69749 -2.44197 272.128 
6.92858e-06 -5.49508e-06 2.69097e+25 -5.03575 -2.7327 272.039 
8.83992e-06 -5.49508e-06 2.6922e+25 -3.90954 -3.3168 271.933 
1.07512e-05 -5.49508e-06 2.69157e+25 -2.58012 -3.40458 272.181 
1.26626e-05 -5.49508e-06 2.68999e+25 -1.44137 -2.49462 272.311 
1.45739e-05 -5.49508e-06 2.69009e+25 -0.718318 -1.6523 272.246 
1.64852e-05 -5.49508e-06 2.68774e+25 -0.0231292 -0.546434 272.477 
1.19458e-06 -5.01725e-06 2.68778e+25 -6.1173 -0.453553 272.242 
3.10592e-06 -5.01725e-06 2.69188e+25 -6.06828 -1.46292 271.884 
5.01725e-06 -5.01725e-06 2.68848e+25 -5.74805 -2.5882 272.246 
6.92858e-06 -5.01725e-06 2.69003e+25 -5.12852 -2.88075 272.204 
8.83992e-06 -5.01725e-06 2.6935e+25 -3.93388 -3.53608 272.003 
1.07512e-05 -5.01725e-06 2.6915e+25 -2.8697 -3.66201 272.069 
1.26626e-05 -5.01725e-06 2.69077e+25 -1.60648 -2.91598 272.143 
1.45739e-05 -5.01725e-06 2.68798e+25 -0.634092 -1.85955 272.338 
1.64852e-05 -5.01725e-06 2.69075e+25 -0.0316057 -0.580686 272.197 
1.19458e-06 -4.53942e-06 2.69057e+25 -6.36 -0.522738 272.005 
3.10592e-06 -4.53942e-06 2.69015e+25 -6.40434 -1.53134 272.02 
5.01725e-06 -4.53942e-06 2.69084e+25 -6.23319 -2.64807 272.116 
6.92858e-06 -4.53942e-06 2.68827e+25 -5.26905 -3.18691 272.343 
8.83992e-06 -4.53942e-06 2.69161e+25 -4.2039 -3.79376 272.007 
1.07512e-05 -4.53942e-06 2.68736e+25 -3.06833 -3.87832 272.374 
1.26626e-05 -4.53942e-06 2.68944e+25 -1.56354 -3.23294 272.248 
1.45739e-05 -4.53942e-06 2.68939e+25 -0.468198 -2.00769 272.197 
1.64852e-05 -4.53942e-06 2.6881e+25 0.050047 -0.598488 272.367 
1.19458e-06 -4.06158e-06 2.68842e+25 -6.60517 -0.563525 272.189 
3.10592e-06 -4.06158e-06 2.69042e+25 -6.87587 -1.49425 272.067 
5.01725e-06 -4.06158e-06 2.69085e+25 -6.65235 -2.79215 272.105 
6.92858e-06 -4.06158e-06 2.69252e+25 -5.86767 -3.46945 272.088 
8.83992e-06 -4.06158e-06 2.69111e+25 -4.62214 -3.97694 272.084 
1.07512e-05 -4.06158e-06 2.68826e+25 -3.0164 -4.22956 272.4 
1.26626e-05 -4.06158e-06 2.6872e+25 -1.7542 -3.65359 272.477 
1.45739e-05 -4.06158e-06 2.68729e+25 -0.444706 -2.33404 272.367 
1.64852e-05 -4.06158e-06 2.69004e+25 -0.0735539 -0.642605 272.36 
1.19458e-06 -3.58375e-06 2.69004e+25 -6.88614 -0.585688 272.103 
3.10592e-06 -3.58375e-06 2.68859e+25 -7.32743 -1.47271 272.044 
5.01725e-06 -3.58375e-06 2.69232e+25 -7.00723 -2.92847 271.985 
6.92858e-06 -3.58375e-06 2.69102e+25 -6.05366 -3.57468 271.949 
8.83992e-06 -3.58375e-06 2.69104e+25 -4.85262 -4.38759 272.122 
1.07512e-05 -3.58375e-06 2.68888e+25 -3.05108 -4.65481 272.318 
1.26626e-05 -3.58375e-06 2.68712e+25 -1.76009 -3.90371 272.483 
1.45739e-05 -3.58375e-06 2.68738e+25 -0.53877 -2.73154 272.374 
1.64852e-05 -3.58375e-06 2.68917e+25 -0.166503 -0.682779 272.366 
1.19458e-06 -3.10592e-06 2.68862e+25 -7.33719 -0.486779 272.11 
3.10592e-06 -3.10592e-06 2.69092e+25 -7.72622 -1.45665 272.074 
5.01725e-06 -3.10592e-06 2.69148e+25 -7.40695 -2.98937 271.861 
6.92858e-06 -3.10592e-06 2.6909e+25 -6.76698 -3.83772 271.888 
8.83992e-06 -3.10592e-06 2.69155e+25 -5.05184 -4.87553 271.99 
1.07512e-05 -3.10592e-06 2.69022e+25 -3.42785 -5.07138 272.323 
1.26626e-05 -3.10592e-06 2.68657e+25 -1.75982 -4.27514 272.437 
1.45739e-05 -3.10592e-06 2.69001e+25 -0.61721 -2.94373 272.224 
1.64852e-05 -3.10592e-06 2.68693e+25 -0.141417 -0.745755 272.321 
1.19458e-06 -2.62808e-06 2.68999e+25 -7.60797 -0.339871 272.044 
3.10592e-06 -2.62808e-06 2.68832e+25 -7.90864 -1.50334 272.144 
5.01725e-06 -2.62808e-06 2.69136e+25 -7.56139 -3.1001 271.973 
6.92858e-06 -2.62808e-06 2.69182e+25 -7.21685 -4.19686 271.994 
8.83992e-06 -2.62808e-06 2.69413e+25 -5.4638 -5.37871 271.785 
1.07512e-05 -2.62808e-06 2.68995e+25 -3.93303 -5.54041 272.086 
1.26626e-05 -2.62808e-06 2.68899e+25 -2.08994 -4.66238 272.23 
1.45739e-05 -2.62808e-06 2.68711e+25 -0.664897 -3.21195 272.3 
1.64852e-05 -2.62808e-06 2.68441e+25 -0.0217996 -0.74868 272.54 
1.19458e-06 -2.15025e-06 2.69263e+25 -7.74396 -0.118916 271.826 
3.10592e-06 -2.15025e-06 2.68745e+25 -7.85689 -1.60146 272.331 
5.01725e-06 -2.15025e-06 2.68994e+25 -7.74029 -3.2516 271.998 
6.92858e-06 -2.15025e-06 2.69097e+25 -7.37696 -4.4042 272.059 
8.83992e-06 -2.15025e-06 2.69333e+25 -5.91942 -5.82238 271.775 
1.07512e-05 -2.15025e-06 2.68947e+25 -4.18619 -5.9097 272.205 
1.26626e-05 -2.15025e-06 2.68945e+25 -2.23695 -5.12014 272.281 
1.45739e-05 -2.15025e-06 2.68985e+25 -0.693394 -3.59714 272.242 
1.64852e-05 -2.15025e-06 2.68475e+25 -0.0519489 -0.858749 272.537 
1.19458e-06 -1.67242e-06 2.69235e+25 -7.89313 0.0616994 271.743 
3.10592e-06 -1.67242e-06 2.68947e+25 -7.92152 -1.69177 272.31 
5.01725e-06 -1.67242e-06 2.68966e+25 -7.88596 -3.16997 272.113 
6.92858e-06 -1.67242e-06 2.69011e+25 -7.50902 -4.62557 272.09 
8.83992e-06 -1.67242e-06 2.69194e+25 -6.16818 -6.33866 272.005 
1.07512e-05 -1.67242e-06 2.68882e+25 -4.552 -6.40441 272.284 
1.26626e-05 -1.67242e-06 2.69021e+25 -2.55062 -5.69128 272.198 
1.45739e-05 -1.67242e-06 2.69036e+25 -0.759543 -3.95971 272.148 
1.64852e-05 -1.67242e-06 2.6879e+25 0.0322586 -0.890726 272.449 
1.19458e-06 -1.19458e-06 2.69188e+25 -7.89208 0.235295 271.872 
3.10592e-06 -1.19458e-06 2.68872e+25 -7.80325 -1.76374 272.078 
5.01725e-06 -1.19458e-06 2.68997e+25 -7.93738 -3.07754 272.073 
6.92858e-06 -1.19458e-06 2.69043e+25 -7.37277 -4.92014 272 
8.83992e-06 -1.19458e-06 2.69205e+25 -6.31299 -6.71234 271.772 
1.07512e-05 -1.19458e-06 2.69054e+25 -4.50659 -6.95536 272.027 
1.26626e-05 -1.19458e-06 2.69017e+25 -2.79346 -6.17002 272.2 
1.45739e-05 -1.19458e-06 2.68833e+25 -0.970276 -4.21863 272.241 
1.64852e-05 -1.19458e-06 2.68518e+25 0.0802527 -0.938868 272.515 
1.19458e-06 -7.1675e-07 2.69189e+25 -7.72841 0.298751 271.746 
3.10592e-06 -7.1675e-07 2.68971e+25 -8.00462 -1.71699 272.063 
5.01725e-06 -7.1675e-07 2.69141e+25 -7.88724 -3.09483 272.114 
6.92858e-06 -7.1675e-07 2.694e+25 -7.40906 -5.31853 271.829 
8.83992e-06 -7.1675e-07 2.69302e+25 -6.44955 -6.89625 271.814 
1.07512e-05 -7.1675e-07 2.69092e+25 -4.68845 -7.36428 272.014 
1.26626e-05 -7.1675e-07 2.68823e+25 -2.99643 -6.59586 272.211 
1.45739e-05 -7.1675e-07 2.6897e+25 -1.35733 -4.42353 272.218 
1.64852e-05 -7.1675e-07 2.68713e+25 -0.0464934 -1.08736 272.448 
1.19458e-06 -2.38917e-07 2.69036e+25 -7.77447 0.32239 271.717 
3.10592e-06 -2.38917e-07 2.68798e+25 -8.10732 -1.7352 272.024 
5.01725e-06 -2.38917e-07 2.68559e+25 -7.73841 -3.19476 272.132 
6.92858e-06 -2.38917e-07 2.69083e+25 -7.11605 -5.51902 271.791 
8.83992e-06 -2.38917e-07 2.69024e+25 -6.4864 -7.15442 271.996 
1.07512e-05 -2.38917e-07 2.69086e+25 -4.83273 -7.71378 271.961 
1.26626e-05 -2.38917e-07 2.68595e+25 -3.31381 -7.06011 272.202 
1.45739e-05 -2.38917e-07 2.68845e+25 -1.52144 -4.81776 272.166 
1.64852e-05 -2.38917e-07 2.68549e+25 -0.135742 -1.18367 272.386 
2.38917e-07 -1.69631e-05 2.68273e+25 -0.113894 0.0701538 272.756 
2.15025e-06 -1.69631e-05 2.68407e+25 -0.230899 0.0516156 273.021 
4.06158e-06 -1.69631e-05 2.68237e+25 -0.136908 0.0172511 272.861 
5.97292e-06 -1.69631e-05 2.68347e+25 -0.338007 -0.0615326 272.948 
7.88425e-06 -1.69631e-05 2.68188e+25 -0.368465 -0.0192365 272.961 
9.79558e-06 -1.69631e-05 2.68607e+25 -0.174812 0.0393087 272.635 
1.17069e-05 -1.69631e-05 2.68635e+25 0.115722 0.0410716 272.724 
1.36182e-05 -1.69631e-05 2.68371e+25 0.0448367 -0.0334077 272.923 
1.55296e-05 -1.69631e-05 2.68497e+25 -0.0265537 -0.000595139 272.806 
2.38917e-07 -1.64852e-05 2.68344e+25 -0.47121 0.165126 272.572 
2.15025e-06 -1.64852e-05 2.6851e+25 -0.256992 0.0361364 272.799 
4.06158e-06 -1.64852e-05 2.68467e+25 -0.407458 0.0272588 272.773 
5.97292e-06 -1.64852e-05 2.68485e+25 -0.71297 -0.0274504 272.622 
7.88425e-06 -1.64852e-05 2.68585e+25 -0.344924 -0.063231 272.7 
9.79558e-06 -1.64852e-05 2.68909e+25 -0.375737 0.040989 272.346 
1.17069e-05 -1.64852e-05 2.68911e+25 -0.231943 0.101374 272.305 
1.36182e-05 -1.64852e-05 2.68488e+25 -0.22854 -0.0069648 272.611 
1.55296e-05 -1.64852e-05 2.68865e+25 -0.11879 -0.0817633 272.429 
2.38917e-07 -1.60074e-05 2.68602e+25 -0.674518 0.144371 272.462 
2.15025e-06 -1.60074e-05 2.68948e+25 -0.592801 -0.0713403 272.265 
4.06158e-06 -1.60074e-05 2.68794e+25 -0.788439 0.0339786 272.527 
5.97292e-06 -1.60074e-05 2.68733e+25 -0.918462 -0.0195273 272.624 
7.88425e-06 -1.60074e-05 2.6869e+25 -0.673795 -0.124546 272.529 
9.79558e-06 -1.60074e-05 2.68851e+25 -0.392035 0.108888 272.334 
1.17069e-05 -1.60074e-05 2.69066e+25 -0.417333 0.0247728 272.258 
1.36182e-05 -1.60074e-05 2.6859e+25 -0.396991 0.0666789 272.667 
1.55296e-05 -1.60074e-05 2.69038e+25 -0.0306002 -0.16597 272.176 
2.38917e-07 -1.55296e-05 2.68873e+25 -0.977587 0.153082 272.22 
2.15025e-06 -1.55296e-05 2.6917e+25 -1.03565 -0.0556895 272.047 
4.06158e-06 -1.55296e-05 2.68972e+25 -0.820735 0.00299443 272.292 
5.97292e-06 -1.55296e-05 2.68976e+25 -0.861418 0.00432467 272.397 
7.88425e-06 -1.55296e-05 2.68398e+25 -0.826984 -0.0868754 272.797 
9.79558e-06 -1.55296e-05 2.68776e+25 -0.411841 0.0567566 272.356 
1.17069e-05 -1.55296e-05 2.69135e+25 -0.52299 -0.0946517 272.107 
1.36182e-05 -1.55296e-05 2.68888e+25 -0.385089 0.0105346 272.345 
1.55296e-05 -1.55296e-05 2.69142e+25 -0.0324229 -0.196938 271.989 
2.38917e-07 -1.50517e-05 2.68693e+25 -1.20439 0.118583 272.205 
2.15025e-06 -1.50517e-05 2.69146e+25 -1.24528 -0.0806711 271.932 
4.06158e-06 -1.50517e-05 2.68957e+25 -0.995785 0.0442736 272.221 
5.97292e-06 -1.50517e-05 2.69199e+25 -0.931135 0.00586905 272.106 
7.88425e-06 -1.50517e-05 2.68711e+25 -0.772712 -0.200085 272.682 
9.79558e-06 -1.50517e-05 2.68533e+25 -0.302378 -0.0678873 272.493 
1.17069e-05 -1.50517e-05 2.69053e+25 -0.33141 -0.104609 272.178 
1.36182e-05 -1.50517e-05 2.69187e+25 -0.161725 -0.0348207 272.15 
1.55296e-05 -1.50517e-05 2.69186e+25 0.0520444 -0.283349 272.031 
2.38917e-07 -1.45739e-05 2.6886e+25 -1.48844 0.0200033 272.127 
2.15025e-06 -1.45739e-05 2.69276e+25 -1.44257 -0.199728 271.824 
4.06158e-06 -1.45739e-05 2.69016e+25 -1.32345 0.116812 272.184 
5.97292e-06 -1.45739e-05 2.69188e+25 -0.945313 -0.0843734 271.986 
7.88425e-06 -1.45739e-05 2.68375e+25 -0.876769 -0.361474 272.708 
9.79558e-06 -1.45739e-05 2.68575e+25 -0.711728 -0.218452 272.587 
1.17069e-05 -1.45739e-05 2.6897e+25 -0.105803 -0.106259 272.297 
1.36182e-05 -1.45739e-05 2.6935e+25 0.0280497 -0.0524641 271.998 
1.55296e-05 -1.45739e-05 2.68878e+25 0.0370427 -0.339771 272.369 
2.38917e-07 -1.40961e-05 2.68845e+25 -1.71282 -0.112698 272.068 
2.15025e-06 -1.40961e-05 2.6935e+25 -1.48278 -0.177345 271.818 
4.06158e-06 -1.40961e-05 2.69128e+25 -1.41114 -0.0261609 272.226 
5.97292e-06 -1.40961e-05 2.6917e+25 -1.44554 -0.0105623 272.021 
7.88425e-06 -1.40961e-05 2.68552e+25 -1.09867 -0.455117 272.592 
9.79558e-06 -1.40961e-05 2.68837e+25 -0.853303 -0.40857 272.479 
1.17069e-05 -1.40961e-05 2.68957e+25 -0.33657 -0.0896377 272.231 
1.36182e-05 -1.40961e-05 2.68922e+25 -0.0340648 -0.187514 272.29 
1.55296e-05 -1.40961e-05 2.68958e+25 0.0521473 -0.172799 272.402 
2.38917e-07 -1.36182e-05 2.68884e+25 -1.74654 -0.0688882 272.036 
2.15025e-06 -1.36182e-05 2.6941e+25 -1.93989 -0.059045 271.751 
4.06158e-06 -1.36182e-05 2.69087e+25 -1.58492 -0.22922 272.064 
5.97292e-06 -1.36182e-05 2.69065e+25 -1.32461 -0.0927091 272.12 
7.88425e-06 -1.36182e-05 2.68754e+25 -1.24963 -0.488371 272.521 
9.79558e-06 -1.36182e-05 2.68968e+25 -0.705062 -0.589289 272.334 
1.17069e-05 -1.36182e-05 2.6911e+25 -0.576995 -0.0590349 272.176 
1.36182e-05 -1.36182e-05 2.688e+25 0.0340345 -0.442084 272.491 
1.55296e-05 -1.36182e-05 2.68661e+25 -0.0184986 -0.117933 272.487 
2.38917e-07 -1.31404e-05 2.68896e+25 -1.81574 -0.0158433 272.044 
2.15025e-06 -1.31404e-05 2.69388e+25 -1.97917 -0.0405641 271.917 
4.06158e-06 -1.31404e-05 2.69376e+25 -1.69831 -0.286268 272.033 
5.97292e-06 -1.31404e-05 2.6897e+25 -1.17286 -0.0215227 272.245 
7.88425e-06 -1.31404e-05 2.68727e+25 -1.39871 -0.657208 272.42 
9.79558e-06 -1.31404e-05 2.68836e+25 -0.521229 -0.760964 272.458 
1.17069e-05 -1.31404e-05 2.69114e+25 -0.455499 0.0341489 272.227 
1.36182e-05 -1.31404e-05 2.68724e+25 -0.120778 -0.680573 272.532 
1.55296e-05 -1.31404e-05 2.68755e+25 -0.0478437 -0.0632295 272.389 
2.38917e-07 -1.26626e-05 2.6889e+25 -2.02979 -0.00155536 272.138 
2.15025e-06 -1.26626e-05 2.69153e+25 -2.00055 -0.159209 272.108 
4.06158e-06 -1.26626e-05 2.69202e+25 -1.9394 -0.333372 271.931 
5.97292e-06 -1.26626e-05 2.69015e+25 -1.5213 -0.070646 272.266 
7.88425e-06 -1.26626e-05 2.68896e+25 -1.20545 -0.769876 272.459 
9.79558e-06 -1.26626e-05 2.68313e+25 -0.59871 -0.879709 272.73 
1.17069e-05 -1.26626e-05 2.68887e+25 -0.438507 -0.00761198 272.271 
1.36182e-05 -1.26626e-05 2.68639e+25 -0.219029 -0.539422 272.41 
1.55296e-05 -1.26626e-05 2.68686e+25 -0.295305 0.00566482 272.396 
2.38917e-07 -1.21847e-05 2.68929e+25 -2.45366 0.0958137 272.048 
2.15025e-06 -1.21847e-05 2.69061e+25 -2.30672 -0.342372 272.146 
4.06158e-06 -1.21847e-05 2.68985e+25 -2.06887 -0.342463 272.072 
5.97292e-06 -1.21847e-05 2.69049e+25 -1.49509 -0.079648 272.023 
7.88425e-06 -1.21847e-05 2.68694e+25 -1.24156 -0.761472 272.36 
9.79558e-06 -1.21847e-05 2.68646e+25 -0.95324 -0.849888 272.467 
1.17069e-05 -1.21847e-05 2.69038e+25 -0.570157 -0.0336928 272.143 
1.36182e-05 -1.21847e-05 2.68808e+25 -0.193708 -0.54003 272.383 
1.55296e-05 -1.21847e-05 2.68912e+25 -0.443708 -0.177575 272.195 
2.38917e-07 -1.17069e-05 2.69264e+25 -2.62441 0.117282 271.833 
2.15025e-06 -1.17069e-05 2.69157e+25 -2.69255 -0.387735 272.093 
4.06158e-06 -1.17069e-05 2.6911e+25 -2.14982 -0.520343 272.13 
5.97292e-06 -1.17069e-05 2.6925e+25 -1.6846 -0.161543 272.002 
7.88425e-06 -1.17069e-05 2.69024e+25 -1.21019 -0.901027 272.231 
9.79558e-06 -1.17069e-05 2.6874e+25 -1.29738 -0.91319 272.515 
1.17069e-05 -1.17069e-05 2.68947e+25 -0.912973 -0.159574 272.181 
1.36182e-05 -1.17069e-05 2.68951e+25 -0.537399 -0.545891 272.307 
1.55296e-05 -1.17069e-05 2.68811e+25 -0.334707 -0.30904 272.31 
2.38917e-07 -1.12291e-05 2.69156e+25 -3.10963 0.0919869 271.749 
2.15025e-06 -1.12291e-05 2.69084e+25 -2.87928 -0.309164 272.125 
4.06158e-06 -1.12291e-05 2.69336e+25 -2.51973 -0.565766 271.891 
5.97292e-06 -1.12291e-05 2.69006e+25 -2.08686 -0.367593 272.35 
7.88425e-06 -1.12291e-05 2.69074e+25 -1.46755 -0.987048 271.986 
9.79558e-06 -1.12291e-05 2.68661e+25 -1.48509 -0.922759 272.521 
1.17069e-05 -1.12291e-05 2.69052e+25 -0.969971 -0.345866 272.009 
1.36182e-05 -1.12291e-05 2.69054e+25 -0.422018 -0.520697 272.201 
1.55296e-05 -1.12291e-05 2.68965e+25 -0.21053 -0.386698 272.183 
2.38917e-07 -1.07512e-05 2.69168e+25 -3.56431 0.0706989 271.839 
2.15025e-06 -1.07512e-05 2.69242e+25 -3.21416 -0.414959 271.923 
4.06158e-06 -1.07512e-05 2.69243e+25 -2.95637 -0.594878 272.07 
5.97292e-06 -1.07512e-05 2.6883e+25 -2.56261 -0.649424 272.354 
7.88425e-06 -1.07512e-05 2.69037e+25 -1.56332 -0.962473 272.11 
9.79558e-06 -1.07512e-05 2.68812e+25 -1.85756 -0.923989 272.322 
1.17069e-05 -1.07512e-05 2.69382e+25 -0.969028 -0.649515 272 
1.36182e-05 -1.07512e-05 2.69055e+25 -0.339876 -0.58958 272.275 
1.55296e-05 -1.07512e-05 2.69061e+25 -0.0364007 -0.411512 272.139 
2.38917e-07 -1.02734e-05 2.68894e+25 -3.70653 0.0335237 271.983 
2.15025e-06 -1.02734e-05 2.69272e+25 -3.47958 -0.480461 271.945 
4.06158e-06 -1.02734e-05 2.69204e+25 -3.0987 -0.582333 272.048 
5.97292e-06 -1.02734e-05 2.68893e+25 -2.74237 -0.946911 272.195 
7.88425e-06 -1.02734e-05 2.6898e+25 -1.87071 -0.944051 272.212 
9.79558e-06 -1.02734e-05 2.69027e+25 -1.87462 -0.943429 272.198 
1.17069e-05 -1.02734e-05 2.69227e+25 -0.948299 -1.00444 271.938 
1.36182e-05 -1.02734e-05 2.69107e+25 -0.522483 -0.615484 272.062 
1.55296e-05 -1.02734e-05 2.68937e+25 0.152463 -0.508905 272.161 
2.38917e-07 -9.79558e-06 2.6883e+25 -3.80943 -0.0584159 272.1 
2.15025e-06 -9.79558e-06 2.69143e+25 -3.93087 -0.544527 272.121 
4.06158e-06 -9.79558e-06 2.69166e+25 -3.46952 -0.606187 272.106 
5.97292e-06 -9.79558e-06 2.68941e+25 -2.87619 -1.23311 272.23 
7.88425e-06 -9.79558e-06 2.6902e+25 -1.93913 -0.884685 272.176 
9.79558e-06 -9.79558e-06 2.69074e+25 -1.53876 -1.04556 272.209 
1.17069e-05 -9.79558e-06 2.69129e+25 -0.773615 -1.32403 271.986 
1.36182e-05 -9.79558e-06 2.69259e+25 -0.310562 -0.569049 271.908 
1.55296e-05 -9.79558e-06 2.6912e+25 0.168726 -0.56435 272.122 
2.38917e-07 -9.31775e-06 2.68918e+25 -4.08928 -0.164151 272.096 
2.15025e-06 -9.31775e-06 2.69231e+25 -4.06804 -0.502751 271.984 
4.06158e-06 -9.31775e-06 2.69199e+25 -3.67859 -0.725031 272.04 
5.97292e-06 -9.31775e-06 2.69099e+25 -2.88818 -1.44185 272.135 
7.88425e-06 -9.31775e-06 2.69132e+25 -2.34171 -1.01913 272.133 
9.79558e-06 -9.31775e-06 2.68832e+25 -1.43983 -1.10803 272.209 
1.17069e-05 -9.31775e-06 2.69292e+25 -0.998856 -1.56696 271.843 
1.36182e-05 -9.31775e-06 2.69078e+25 -0.198056 -0.674688 272.076 
1.55296e-05 -9.31775e-06 2.69256e+25 -0.00426658 -0.640961 272.042 
2.38917e-07 -8.83992e-06 2.68732e+25 -4.51216 -0.0278739 272.158 
2.15025e-06 -8.83992e-06 2.6906e+25 -4.44204 -0.479062 272.097 
4.06158e-06 -8.83992e-06 2.69272e+25 -3.78299 -0.933124 271.96 
5.97292e-06 -8.83992e-06 2.68966e+25 -3.11679 -1.63383 272.157 
7.88425e-06 -8.83992e-06 2.69139e+25 -2.44118 -1.3434 272.055 
9.79558e-06 -8.83992e-06 2.69133e+25 -1.71709 -1.35147 272.18 
1.17069e-05 -8.83992e-06 2.6937e+25 -1.17532 -1.6626 271.831 
1.36182e-05 -8.83992e-06 2.69181e+25 -0.479475 -0.828685 271.992 
1.55296e-05 -8.83992e-06 2.69051e+25 0.110068 -0.77938 272.147 
2.38917e-07 -8.36208e-06 2.68765e+25 -4.71898 0.0699966 272.214 
2.15025e-06 -8.36208e-06 2.69193e+25 -4.56738 -0.641883 272.008 
4.06158e-06 -8.36208e-06 2.69169e+25 -4.13554 -1.10955 271.955 
5.97292e-06 -8.36208e-06 2.68978e+25 -3.33824 -1.97753 272.266 
7.88425e-06 -8.36208e-06 2.68898e+25 -2.56697 -1.63885 272.139 
9.79558e-06 -8.36208e-06 2.68973e+25 -1.97172 -1.52282 272.152 
1.17069e-05 -8.36208e-06 2.69209e+25 -1.07277 -1.77952 271.912 
1.36182e-05 -8.36208e-06 2.69294e+25 -0.650018 -1.03423 271.916 
1.55296e-05 -8.36208e-06 2.69081e+25 0.0629307 -0.780859 272.164 
2.38917e-07 -7.88425e-06 2.68808e+25 -4.89905 0.109268 272.047 
2.15025e-06 -7.88425e-06 2.69116e+25 -4.90308 -0.891293 272.028 
4.06158e-06 -7.88425e-06 2.69117e+25 -4.23946 -1.23436 272.064 
5.97292e-06 -7.88425e-06 2.68916e+25 -3.54638 -2.09209 272.173 
7.88425e-06 -7.88425e-06 2.69248e+25 -2.95503 -1.7255 271.948 
9.79558e-06 -7.88425e-06 2.69175e+25 -2.1386 -1.68895 271.95 
1.17069e-05 -7.88425e-06 2.69102e+25 -1.18994 -1.81191 272.136 
1.36182e-05 -7.88425e-06 2.69102e+25 -0.724241 -1.37457 272.018 
1.55296e-05 -7.88425e-06 2.69164e+25 -0.0765642 -0.738626 272.092 
2.38917e-07 -7.40642e-06 2.68891e+25 -5.16368 0.124416 272.072 
2.15025e-06 -7.40642e-06 2.6918e+25 -4.98883 -1.03599 272.009 
4.06158e-06 -7.40642e-06 2.6882e+25 -4.37072 -1.34419 272.207 
5.97292e-06 -7.40642e-06 2.69068e+25 -3.80275 -2.10578 272.102 
7.88425e-06 -7.40642e-06 2.69419e+25 -3.26383 -1.94991 271.897 
9.79558e-06 -7.40642e-06 2.69149e+25 -2.36723 -1.92961 271.978 
1.17069e-05 -7.40642e-06 2.6904e+25 -1.22358 -2.00894 272.115 
1.36182e-05 -7.40642e-06 2.69047e+25 -0.738714 -1.73692 272.192 
1.55296e-05 -7.40642e-06 2.68981e+25 -0.0948375 -0.787326 272.19 
2.38917e-07 -6.92858e-06 2.68666e+25 -5.45744 0.0648721 272.136 
2.15025e-06 -6.92858e-06 2.68954e+25 -5.13601 -1.02445 272.118 
4.06158e-06 -6.92858e-06 2.69133e+25 -4.72754 -1.54865 272.139 
5.97292e-06 -6.92858e-06 2.69102e+25 -4.07836 -2.17337 272.021 
7.88425e-06 -6.92858e-06 2.69301e+25 -3.67268 -2.15862 271.966 
9.79558e-06 -6.92858e-06 2.6882e+25 -2.55786 -2.40105 272.291 
1.17069e-05 -6.92858e-06 2.69268e+25 -1.39832 -2.19498 271.982 
1.36182e-05 -6.92858e-06 2.68955e+25 -0.734192 -1.90064 272.136 
1.55296e-05 -6.92858e-06 2.68916e+25 -0.255751 -0.781759 272.24 
2.38917e-07 -6.45075e-06 2.68688e+25 -5.55389 0.0640629 272.26 
2.15025e-06 -6.45075e-06 2.69113e+25 -5.20952 -1.06645 272.102 
4.06158e-06 -6.45075e-06 2.69313e+25 -5.25554 -1.76162 271.975 
5.97292e-06 -6.45075e-06 2.69333e+25 -4.68797 -2.24453 271.873 
7.88425e-06 -6.45075e-06 2.69153e+25 -3.97418 -2.39421 272.041 
9.79558e-06 -6.45075e-06 2.69063e+25 -2.64256 -2.82455 272.229 
1.17069e-05 -6.45075e-06 2.69077e+25 -1.65921 -2.41732 271.886 
1.36182e-05 -6.45075e-06 2.69039e+25 -0.771931 -2.07267 272.175 
1.55296e-05 -6.45075e-06 2.68835e+25 -0.256299 -0.898395 272.276 
2.38917e-07 -5.97292e-06 2.68555e+25 -5.6239 -0.102836 272.283 
2.15025e-06 -5.97292e-06 2.69165e+25 -5.35091 -1.12779 272.032 
4.06158e-06 -5.97292e-06 2.6895e+25 -5.61189 -1.83484 272.294 
5.97292e-06 -5.97292e-06 2.69221e+25 -4.95341 -2.31036 271.832 
7.88425e-06 -5.97292e-06 2.68992e+25 -4.31385 -2.59567 272.133 
9.79558e-06 -5.97292e-06 2.69273e+25 -2.92757 -3.18969 271.964 
1.17069e-05 -5.97292e-06 2.69248e+25 -1.76294 -2.78449 272.003 
1.36182e-05 -5.97292e-06 2.69035e+25 -0.861462 -2.23806 272.264 
1.55296e-05 -5.97292e-06 2.68807e+25 -0.470062 -1.05465 272.23 
2.38917e-07 -5.49508e-06 2.68587e+25 -5.97644 -0.114135 272.26 
2.15025e-06 -5.49508e-06 2.69263e+25 -5.55935 -1.17053 271.951 
4.06158e-06 -5.49508e-06 2.68919e+25 -5.72392 -1.76649 272.252 
5.97292e-06 -5.49508e-06 2.68955e+25 -5.36595 -2.45848 272.014 
7.88425e-06 -5.49508e-06 2.69103e+25 -4.59092 -2.92621 272.139 
9.79558e-06 -5.49508e-06 2.69277e+25 -2.98708 -3.39108 271.959 
1.17069e-05 -5.49508e-06 2.68917e+25 -1.98987 -3.04223 272.195 
1.36182e-05 -5.49508e-06 2.68838e+25 -0.995927 -2.37148 272.342 
1.55296e-05 -5.49508e-06 2.68939e+25 -0.473927 -1.37 272.161 
2.38917e-07 -5.01725e-06 2.68695e+25 -6.20239 -0.167731 272.213 
2.15025e-06 -5.01725e-06 2.69032e+25 -6.09323 -1.17642 272.051 
4.06158e-06 -5.01725e-06 2.68952e+25 -6.12705 -1.83823 272.187 
5.97292e-06 -5.01725e-06 2.69039e+25 -5.56523 -2.58835 272.138 
7.88425e-06 -5.01725e-06 2.69034e+25 -4.67494 -3.24632 272.094 
9.79558e-06 -5.01725e-06 2.69188e+25 -3.38617 -3.63535 272.022 
1.17069e-05 -5.01725e-06 2.6893e+25 -2.24764 -3.38557 272.291 
1.36182e-05 -5.01725e-06 2.69012e+25 -0.955907 -2.54331 272.213 
1.55296e-05 -5.01725e-06 2.6904e+25 -0.31496 -1.48287 272.104 
2.38917e-07 -4.53942e-06 2.68819e+25 -6.38324 -0.164878 272.138 
2.15025e-06 -4.53942e-06 2.69001e+25 -6.41008 -1.10513 272.184 
4.06158e-06 -4.53942e-06 2.69223e+25 -6.43754 -1.99178 271.877 
5.97292e-06 -4.53942e-06 2.69036e+25 -5.8439 -2.94783 272.017 
7.88425e-06 -4.53942e-06 2.69174e+25 -4.70181 -3.48149 271.852 
9.79558e-06 -4.53942e-06 2.69311e+25 -3.73947 -3.9555 272.034 
1.17069e-05 -4.53942e-06 2.68779e+25 -2.36537 -3.79216 272.357 
1.36182e-05 -4.53942e-06 2.69001e+25 -1.06112 -2.80447 272.196 
1.55296e-05 -4.53942e-06 2.69168e+25 -0.0616368 -1.65189 272.126 
2.38917e-07 -4.06158e-06 2.68864e+25 -6.62627 -0.0340478 272.011 
2.15025e-06 -4.06158e-06 2.68836e+25 -6.83854 -1.06861 272.295 
4.06158e-06 -4.06158e-06 2.69281e+25 -6.85468 -1.98767 271.932 
5.97292e-06 -4.06158e-06 2.69198e+25 -6.37771 -3.21474 272.006 
7.88425e-06 -4.06158e-06 2.69319e+25 -5.25813 -3.81839 271.822 
9.79558e-06 -4.06158e-06 2.69095e+25 -3.81794 -4.31472 272.256 
1.17069e-05 -4.06158e-06 2.68735e+25 -2.32426 -4.18725 272.416 
1.36182e-05 -4.06158e-06 2.68911e+25 -0.966565 -3.00958 272.218 
1.55296e-05 -4.06158e-06 2.69178e+25 0.0141503 -1.7275 271.959 
2.38917e-07 -3.58375e-06 2.6877e+25 -6.6861 0.0727611 272.076 
2.15025e-06 -3.58375e-06 2.68703e+25 -7.13087 -0.950915 272.18 
4.06158e-06 -3.58375e-06 2.69329e+25 -7.05015 -2.08387 271.88 
5.97292e-06 -3.58375e-06 2.69295e+25 -6.68565 -3.48753 271.691 
7.88425e-06 -3.58375e-06 2.69194e+25 -5.56439 -4.17115 271.944 
9.79558e-06 -3.58375e-06 2.69225e+25 -4.02891 -4.77938 272.043 
1.17069e-05 -3.58375e-06 2.6872e+25 -2.33085 -4.45017 272.499 
1.36182e-05 -3.58375e-06 2.68919e+25 -1.19555 -3.27631 272.315 
1.55296e-05 -3.58375e-06 2.69171e+25 -0.245483 -1.76965 272.018 
2.38917e-07 -3.10592e-06 2.68737e+25 -7.06081 0.231565 272.118 
2.15025e-06 -3.10592e-06 2.68856e+25 -7.58906 -0.777428 272.18 
4.06158e-06 -3.10592e-06 2.69153e+25 -7.58221 -2.22394 271.98 
5.97292e-06 -3.10592e-06 2.69241e+25 -7.01442 -3.61341 271.776 
7.88425e-06 -3.10592e-06 2.6902e+25 -6.10907 -4.54448 272.037 
9.79558e-06 -3.10592e-06 2.69145e+25 -4.30274 -5.07409 272.023 
1.17069e-05 -3.10592e-06 2.68355e+25 -2.66245 -4.83592 272.615 
1.36182e-05 -3.10592e-06 2.68876e+25 -1.0437 -3.53509 272.235 
1.55296e-05 -3.10592e-06 2.69123e+25 -0.232905 -1.86943 272.047 
2.38917e-07 -2.62808e-06 2.68981e+25 -7.23306 0.451329 271.927 
2.15025e-06 -2.62808e-06 2.68886e+25 -7.80605 -0.55197 272.089 
4.06158e-06 -2.62808e-06 2.6871e+25 -7.77163 -2.23797 272.324 
5.97292e-06 -2.62808e-06 2.69007e+25 -7.39367 -3.65392 272.007 
7.88425e-06 -2.62808e-06 2.69092e+25 -6.44125 -4.97651 272.104 
9.79558e-06 -2.62808e-06 2.69188e+25 -4.67758 -5.51031 271.936 
1.17069e-05 -2.62808e-06 2.68764e+25 -3.03879 -5.30743 272.375 
1.36182e-05 -2.62808e-06 2.68781e+25 -1.20595 -3.90511 272.369 
1.55296e-05 -2.62808e-06 2.68897e+25 -0.090082 -2.02033 272.262 
2.38917e-07 -2.15025e-06 2.6884e+25 -7.33224 0.687458 271.977 
2.15025e-06 -2.15025e-06 2.68999e+25 -7.99718 -0.462228 271.938 
4.06158e-06 -2.15025e-06 2.68791e+25 -7.72457 -2.22149 272.394 
5.97292e-06 -2.15025e-06 2.69047e+25 -7.66092 -3.73008 271.99 
7.88425e-06 -2.15025e-06 2.69049e+25 -6.81292 -5.48091 272.125 
9.79558e-06 -2.15025e-06 2.69307e+25 -4.99752 -6.06873 271.97 
1.17069e-05 -2.15025e-06 2.68937e+25 -3.31053 -5.67134 272.309 
1.36182e-05 -2.15025e-06 2.68868e+25 -1.41652 -4.30253 272.378 
1.55296e-05 -2.15025e-06 2.68792e+25 -0.0754413 -2.10837 272.404 
2.38917e-07 -1.67242e-06 2.68864e+25 -7.45711 0.969466 271.922 
2.15025e-06 -1.67242e-06 2.69163e+25 -7.978 -0.491966 271.985 
4.06158e-06 -1.67242e-06 2.68811e+25 -7.71835 -2.25605 272.36 
5.97292e-06 -1.67242e-06 2.69238e+25 -7.87134 -3.80663 271.901 
7.88425e-06 -1.67242e-06 2.69055e+25 -6.8769 -5.89879 271.928 
9.79558e-06 -1.67242e-06 2.69326e+25 -5.29962 -6.49255 271.82 
1.17069e-05 -1.67242e-06 2.69019e+25 -3.49596 -6.10933 272.198 
1.36182e-05 -1.67242e-06 2.68849e+25 -1.70436 -4.77683 272.137 
1.55296e-05 -1.67242e-06 2.68779e+25 -0.136385 -2.17208 272.406 
2.38917e-07 -1.19458e-06 2.68857e+25 -7.59711 1.15639 271.902 
2.15025e-06 -1.19458e-06 2.69201e+25 -7.92931 -0.65904 271.882 
4.06158e-06 -1.19458e-06 2.68793e+25 -7.87027 -2.27615 272.224 
5.97292e-06 -1.19458e-06 2.69199e+25 -7.91897 -3.92492 271.857 
7.88425e-06 -1.19458e-06 2.69183e+25 -6.73894 -6.13099 272.012 
9.79558e-06 -1.19458e-06 2.69131e+25 -5.51527 -6.89442 272.012 
1.17069e-05 -1.19458e-06 2.68988e+25 -3.5828 -6.62721 272.195 
1.36182e-05 -1.19458e-06 2.69033e+25 -1.86722 -5.26556 272.08 
1.55296e-05 -1.19458e-06 2.68879e+25 -0.466896 -2.42369 272.218 
2.38917e-07 -7.1675e-07 2.68867e+25 -7.495 1.25089 271.952 
2.15025e-06 -7.1675e-07 2.69147e+25 -7.76477 -0.77537 271.758 
4.06158e-06 -7.1675e-07 2.68816e+25 -8.01676 -2.2529 272.221 
5.97292e-06 -7.1675e-07 2.69088e+25 -7.86304 -4.0371 272.049 
7.88425e-06 -7.1675e-07 2.69113e+25 -6.77545 -6.17571 272.035 
9.79558e-06 -7.1675e-07 2.69261e+25 -5.54425 -7.40642 272.027 
1.17069e-05 -7.1675e-07 2.69152e+25 -3.88666 -7.03904 272.111 
1.36182e-05 -7.1675e-07 2.69053e+25 -2.03672 -5.66336 272.102 
1.55296e-05 -7.1675e-07 2.68869e+25 -0.716182 -2.81448 272.223 
2.38917e-07 -2.38917e-07 2.68521e+25 -7.49328 1.49743 271.936 
2.15025e-06 -2.38917e-07 2.68921e+25 -7.92954 -0.687174 271.771 
4.06158e-06 -2.38917e-07 2.6874e+25 -8.02542 -2.29004 272.089 
5.97292e-06 -2.38917e-07 2.68674e+25 -7.55878 -4.03489 272.213 
7.88425e-06 -2.38917e-07 2.68848e+25 -7.02831 -6.3022 271.993 
9.79558e-06 -2.38917e-07 2.69222e+25 -5.69281 -7.84007 271.894 
1.17069e-05 -2.38917e-07 2.686e+25 -4.19664 -7.42431 272.294 
1.36182e-05 -2.38917e-07 2.68768e+25 -2.25825 -6.05454 272.048 
1.55296e-05 -2.38917e-07 2.68855e+25 -0.717811 -3.1655 272.074 
7.1675e-07 -1.69631e-05 2.68721e+25 -0.198157 -0.0173859 272.752 
2.62808e-06 -1.69631e-05 2.6834e+25 -0.276515 0.00377985 272.87 
4.53942e-06 -1.69631e-05 2.68257e+25 -0.141555 0.0495081 272.843 
6.45075e-06 -1.69631e-05 2.68474e+25 -0.234822 0.0302809 272.832 
8.36208e-06 -1.69631e-05 2.68335e+25 -0.284273 -0.00268212 272.834 
1.02734e-05 -1.69631e-05 2.68518e+25 -0.240559 0.0368818 272.831 
1.21847e-05 -1.69631e-05 2.68629e+25 0.00904702 0.0532512 272.71 
1.40961e-05 -1.69631e-05 2.68464e+25 0.0232066 0.0739794 272.817 
1.60074e-05 -1.69631e-05 2.6838e+25 -0.00731376 -0.000255726 272.96 
7.1675e-07 -1.64852e-05 2.68843e+25 -0.434087 -0.0601935 272.489 
2.62808e-06 -1.64852e-05 2.68616e+25 -0.263103 0.0905817 272.645 
4.53942e-06 -1.64852e-05 2.68271e+25 -0.364569 0.000941091 272.882 
6.45075e-06 -1.64852e-05 2.68555e+25 -0.659213 -0.175404 272.692 
8.36208e-06 -1.64852e-05 2.68642e+25 -0.344346 -0.0410477 272.57 
1.02734e-05 -1.64852e-05 2.68929e+25 -0.355692 0.0463138 272.277 
1.21847e-05 -1.64852e-05 2.68617e+25 -0.212563 0.0951701 272.605 
1.40961e-05 -1.64852e-05 2.68481e+25 -0.298442 0.100961 272.764 
1.60074e-05 -1.64852e-05 2.6874e+25 -0.0558856 0.0158579 272.606 
7.1675e-07 -1.60074e-05 2.6898e+25 -0.714105 0.00253773 272.19 
2.62808e-06 -1.60074e-05 2.6885e+25 -0.519251 0.155022 272.489 
4.53942e-06 -1.60074e-05 2.68653e+25 -0.890439 0.0607582 272.504 
6.45075e-06 -1.60074e-05 2.6882e+25 -0.922226 -0.254071 272.641 
8.36208e-06 -1.60074e-05 2.68726e+25 -0.620197 -0.0419799 272.618 
1.02734e-05 -1.60074e-05 2.69007e+25 -0.436359 -0.0505568 272.121 
1.21847e-05 -1.60074e-05 2.68897e+25 -0.270008 -0.00900072 272.402 
1.40961e-05 -1.60074e-05 2.68707e+25 -0.284616 -0.0169357 272.405 
1.60074e-05 -1.60074e-05 2.69055e+25 0.0618292 -0.024028 272.225 
7.1675e-07 -1.55296e-05 2.6898e+25 -0.981442 0.0685683 272.174 
2.62808e-06 -1.55296e-05 2.68996e+25 -0.957038 0.0214745 272.18 
4.53942e-06 -1.55296e-05 2.68965e+25 -0.889953 0.155979 272.263 
6.45075e-06 -1.55296e-05 2.68862e+25 -0.857795 -0.2961 272.491 
8.36208e-06 -1.55296e-05 2.68489e+25 -0.814497 -0.175604 272.708 
1.02734e-05 -1.55296e-05 2.68907e+25 -0.307908 -0.0531033 272.327 
1.21847e-05 -1.55296e-05 2.69045e+25 -0.436212 -0.0909798 272.181 
1.40961e-05 -1.55296e-05 2.68847e+25 -0.322105 -0.135554 272.377 
1.60074e-05 -1.55296e-05 2.6906e+25 -0.00516819 -0.138801 272.213 
7.1675e-07 -1.50517e-05 2.6913e+25 -1.24467 0.107435 272.123 
2.62808e-06 -1.50517e-05 2.69203e+25 -1.18016 -0.138972 271.999 
4.53942e-06 -1.50517e-05 2.69011e+25 -0.996055 0.209936 272.127 
6.45075e-06 -1.50517e-05 2.68982e+25 -0.889059 -0.281317 272.383 
8.36208e-06 -1.50517e-05 2.68617e+25 -0.704726 -0.171107 272.587 
1.02734e-05 -1.50517e-05 2.68639e+25 -0.264398 -0.0762891 272.637 
1.21847e-05 -1.50517e-05 2.68929e+25 -0.351856 -0.115092 272.22 
1.40961e-05 -1.50517e-05 2.68996e+25 -0.120466 -0.201502 272.251 
1.60074e-05 -1.50517e-05 2.6906e+25 0.0811971 -0.175311 272.19 
7.1675e-07 -1.45739e-05 2.69326e+25 -1.33247 0.125112 271.964 
2.62808e-06 -1.45739e-05 2.69058e+25 -1.38886 -0.165132 272.058 
4.53942e-06 -1.45739e-05 2.69098e+25 -1.27868 0.161689 272.15 
6.45075e-06 -1.45739e-05 2.68974e+25 -0.985071 -0.195749 272.222 
8.36208e-06 -1.45739e-05 2.68615e+25 -0.753647 -0.212035 272.628 
1.02734e-05 -1.45739e-05 2.68634e+25 -0.483654 -0.144954 272.491 
1.21847e-05 -1.45739e-05 2.69072e+25 -0.164489 -0.02948 272.167 
1.40961e-05 -1.45739e-05 2.68997e+25 0.0130809 -0.231916 272.316 
1.60074e-05 -1.45739e-05 2.68896e+25 0.0212443 -0.140131 272.38 
7.1675e-07 -1.40961e-05 2.69248e+25 -1.60115 0.0677596 271.935 
2.62808e-06 -1.40961e-05 2.69216e+25 -1.54716 -0.162602 271.898 
4.53942e-06 -1.40961e-05 2.69194e+25 -1.31235 0.0198755 271.966 
6.45075e-06 -1.40961e-05 2.68855e+25 -1.36848 -0.232234 272.342 
8.36208e-06 -1.40961e-05 2.68593e+25 -0.977758 -0.332077 272.7 
1.02734e-05 -1.40961e-05 2.687e+25 -0.606403 -0.398239 272.482 
1.21847e-05 -1.40961e-05 2.69223e+25 -0.27588 -0.127608 272.112 
1.40961e-05 -1.40961e-05 2.68881e+25 0.0992218 -0.217759 272.384 
1.60074e-05 -1.40961e-05 2.68852e+25 -0.00776089 -0.161613 272.434 
7.1675e-07 -1.36182e-05 2.69436e+25 -1.75897 0.011789 271.818 
2.62808e-06 -1.36182e-05 2.69522e+25 -1.98944 -0.0664235 271.7 
4.53942e-06 -1.36182e-05 2.69252e+25 -1.33169 -0.09352 272.06 
6.45075e-06 -1.36182e-05 2.68937e+25 -1.37318 -0.213688 272.2 
8.36208e-06 -1.36182e-05 2.68758e+25 -1.16119 -0.48313 272.502 
1.02734e-05 -1.36182e-05 2.68737e+25 -0.530061 -0.627781 272.514 
1.21847e-05 -1.36182e-05 2.69104e+25 -0.592711 -0.17368 272.221 
1.40961e-05 -1.36182e-05 2.68591e+25 0.226418 -0.309636 272.482 
1.60074e-05 -1.36182e-05 2.68709e+25 -0.0394642 -0.0997278 272.496 
7.1675e-07 -1.31404e-05 2.6924e+25 -1.82656 0.0165405 271.885 
2.62808e-06 -1.31404e-05 2.69431e+25 -1.93196 -0.110421 271.83 
4.53942e-06 -1.31404e-05 2.69195e+25 -1.71381 -0.276222 272.188 
6.45075e-06 -1.31404e-05 2.68903e+25 -1.34998 -0.0898518 272.294 
8.36208e-06 -1.31404e-05 2.687e+25 -1.15769 -0.683074 272.456 
1.02734e-05 -1.31404e-05 2.68609e+25 -0.451628 -0.694839 272.61 
1.21847e-05 -1.31404e-05 2.68992e+25 -0.475646 -0.283071 272.219 
1.40961e-05 -1.31404e-05 2.68659e+25 -0.123997 -0.344827 272.477 
1.60074e-05 -1.31404e-05 2.68726e+25 -0.122134 -0.0569151 272.459 
7.1675e-07 -1.26626e-05 2.69061e+25 -2.0907 0.111207 272.028 
2.62808e-06 -1.26626e-05 2.692e+25 -1.89126 -0.200166 271.999 
4.53942e-06 -1.26626e-05 2.69132e+25 -1.87728 -0.325782 272.22 
6.45075e-06 -1.26626e-05 2.68829e+25 -1.47479 0.0346151 272.219 
8.36208e-06 -1.26626e-05 2.69006e+25 -1.11257 -0.905139 272.378 
1.02734e-05 -1.26626e-05 2.68733e+25 -0.578446 -0.687951 272.611 
1.21847e-05 -1.26626e-05 2.69187e+25 -0.374991 -0.310297 272.188 
1.40961e-05 -1.26626e-05 2.68583e+25 -0.259748 -0.358453 272.576 
1.60074e-05 -1.26626e-05 2.68785e+25 -0.26683 -0.0925872 272.346 
7.1675e-07 -1.21847e-05 2.68956e+25 -2.49017 0.0905199 272.033 
2.62808e-06 -1.21847e-05 2.6899e+25 -2.16148 -0.22235 272.12 
4.53942e-06 -1.21847e-05 2.68893e+25 -1.94236 -0.432453 272.173 
6.45075e-06 -1.21847e-05 2.68952e+25 -1.47309 -0.063814 272.259 
8.36208e-06 -1.21847e-05 2.68726e+25 -1.16073 -1.02842 272.427 
1.02734e-05 -1.21847e-05 2.68739e+25 -0.915843 -0.822258 272.59 
1.21847e-05 -1.21847e-05 2.69144e+25 -0.408892 -0.441568 272.131 
1.40961e-05 -1.21847e-05 2.68748e+25 -0.332579 -0.135081 272.489 
1.60074e-05 -1.21847e-05 2.68811e+25 -0.22392 -0.222018 272.35 
7.1675e-07 -1.17069e-05 2.69239e+25 -2.63988 0.114088 271.902 
2.62808e-06 -1.17069e-05 2.69141e+25 -2.59663 -0.39156 271.971 
4.53942e-06 -1.17069e-05 2.69224e+25 -2.06563 -0.487209 271.991 
6.45075e-06 -1.17069e-05 2.68901e+25 -1.56192 -0.186062 272.195 
8.36208e-06 -1.17069e-05 2.69013e+25 -1.1731 -1.05471 272.277 
1.02734e-05 -1.17069e-05 2.68629e+25 -1.27253 -0.808495 272.362 
1.21847e-05 -1.17069e-05 2.68966e+25 -0.859674 -0.561952 272.095 
1.40961e-05 -1.17069e-05 2.68722e+25 -0.516233 -0.0996081 272.379 
1.60074e-05 -1.17069e-05 2.69099e+25 -0.226992 -0.372999 272.281 
7.1675e-07 -1.12291e-05 2.69233e+25 -3.01302 0.0930866 272.008 
2.62808e-06 -1.12291e-05 2.69012e+25 -2.88346 -0.559268 272.063 
4.53942e-06 -1.12291e-05 2.6912e+25 -2.50542 -0.624358 272.036 
6.45075e-06 -1.12291e-05 2.68876e+25 -1.84026 -0.355388 272.269 
8.36208e-06 -1.12291e-05 2.69101e+25 -1.36132 -1.0569 272.148 
1.02734e-05 -1.12291e-05 2.689e+25 -1.45636 -0.875205 272.256 
1.21847e-05 -1.12291e-05 2.68986e+25 -0.773586 -0.680866 272.1 
1.40961e-05 -1.12291e-05 2.68751e+25 -0.483681 -0.0972339 272.383 
1.60074e-05 -1.12291e-05 2.68858e+25 -0.111281 -0.510909 272.315 
7.1675e-07 -1.07512e-05 2.69327e+25 -3.50104 0.0190926 271.882 
2.62808e-06 -1.07512e-05 2.69038e+25 -3.0428 -0.613657 272 
4.53942e-06 -1.07512e-05 2.69064e+25 -2.97879 -0.545525 272.102 
6.45075e-06 -1.07512e-05 2.68874e+25 -2.20611 -0.646472 272.232 
8.36208e-06 -1.07512e-05 2.69057e+25 -1.67199 -1.07933 272.183 
1.02734e-05 -1.07512e-05 2.68929e+25 -1.7813 -0.894023 272.128 
1.21847e-05 -1.07512e-05 2.69156e+25 -0.66068 -0.878143 272.026 
1.40961e-05 -1.07512e-05 2.68854e+25 -0.125194 -0.156253 272.391 
1.60074e-05 -1.07512e-05 2.68932e+25 0.00356376 -0.568475 272.36 
7.1675e-07 -1.02734e-05 2.69272e+25 -3.71394 -0.0357365 271.787 
2.62808e-06 -1.02734e-05 2.69079e+25 -3.35041 -0.795923 272.084 
4.53942e-06 -1.02734e-05 2.6894e+25 -3.08253 -0.576588 272.245 
6.45075e-06 -1.02734e-05 2.68994e+25 -2.34983 -1.05448 272.321 
8.36208e-06 -1.02734e-05 2.68858e+25 -1.88958 -0.994177 272.338 
1.02734e-05 -1.02734e-05 2.69101e+25 -1.75765 -1.07186 272.125 
1.21847e-05 -1.02734e-05 2.69308e+25 -0.580788 -1.16745 271.971 
1.40961e-05 -1.02734e-05 2.69076e+25 -0.473227 -0.433739 272.044 
1.60074e-05 -1.02734e-05 2.68742e+25 0.193838 -0.511766 272.395 
7.1675e-07 -9.79558e-06 2.6932e+25 -3.65556 -0.0443224 271.911 
2.62808e-06 -9.79558e-06 2.68994e+25 -3.88064 -0.884117 272.068 
4.53942e-06 -9.79558e-06 2.69229e+25 -3.36224 -0.597982 272.151 
6.45075e-06 -9.79558e-06 2.69326e+25 -2.6886 -1.37424 272.078 
8.36208e-06 -9.79558e-06 2.68956e+25 -1.9343 -1.07091 272.189 
1.02734e-05 -9.79558e-06 2.69037e+25 -1.42335 -1.20696 272.083 
1.21847e-05 -9.79558e-06 2.69126e+25 -0.57357 -1.43885 272.026 
1.40961e-05 -9.79558e-06 2.69198e+25 -0.235026 -0.563255 271.988 
1.60074e-05 -9.79558e-06 2.68783e+25 0.203115 -0.51285 272.425 
7.1675e-07 -9.31775e-06 2.68872e+25 -4.07299 -0.0743819 272.07 
2.62808e-06 -9.31775e-06 2.69086e+25 -4.16377 -0.925146 272.16 
4.53942e-06 -9.31775e-06 2.69327e+25 -3.51997 -0.758675 271.895 
6.45075e-06 -9.31775e-06 2.69184e+25 -2.76744 -1.48367 272.079 
8.36208e-06 -9.31775e-06 2.69068e+25 -2.13762 -1.22719 272.165 
1.02734e-05 -9.31775e-06 2.69017e+25 -1.2381 -1.41837 272.165 
1.21847e-05 -9.31775e-06 2.69071e+25 -0.867696 -1.55033 272.056 
1.40961e-05 -9.31775e-06 2.691e+25 -0.081119 -0.690379 271.891 
1.60074e-05 -9.31775e-06 2.68975e+25 0.103881 -0.511239 272.307 
7.1675e-07 -8.83992e-06 2.69036e+25 -4.52627 -0.200969 272.18 
2.62808e-06 -8.83992e-06 2.69052e+25 -4.35303 -0.948008 272.023 
4.53942e-06 -8.83992e-06 2.69383e+25 -3.61747 -0.958574 272.004 
6.45075e-06 -8.83992e-06 2.68854e+25 -2.86114 -1.61472 272.212 
8.36208e-06 -8.83992e-06 2.69301e+25 -2.13608 -1.42368 272.04 
1.02734e-05 -8.83992e-06 2.69157e+25 -1.47472 -1.57684 272.253 
1.21847e-05 -8.83992e-06 2.69107e+25 -1.01223 -1.70191 271.895 
1.40961e-05 -8.83992e-06 2.69149e+25 -0.374203 -0.703066 271.962 
1.60074e-05 -8.83992e-06 2.69027e+25 0.1747 -0.528329 272.095 
7.1675e-07 -8.36208e-06 2.69014e+25 -4.79228 -0.167953 272.169 
2.62808e-06 -8.36208e-06 2.69013e+25 -4.39802 -1.05733 272.105 
4.53942e-06 -8.36208e-06 2.6917e+25 -4.00592 -1.14705 272.011 
6.45075e-06 -8.36208e-06 2.68942e+25 -2.99046 -1.83207 272.281 
8.36208e-06 -8.36208e-06 2.68989e+25 -2.39491 -1.59576 272.18 
1.02734e-05 -8.36208e-06 2.69235e+25 -1.78928 -1.85453 272.04 
1.21847e-05 -8.36208e-06 2.68893e+25 -1.04674 -1.78568 272.109 
1.40961e-05 -8.36208e-06 2.69138e+25 -0.334796 -0.955418 272.049 
1.60074e-05 -8.36208e-06 2.69151e+25 -0.0106773 -0.484705 272.192 
7.1675e-07 -7.88425e-06 2.69023e+25 -5.02765 0.0137934 272.101 
2.62808e-06 -7.88425e-06 2.69203e+25 -4.63091 -1.20411 271.916 
4.53942e-06 -7.88425e-06 2.69244e+25 -4.07481 -1.28609 271.976 
6.45075e-06 -7.88425e-06 2.69213e+25 -3.45158 -2.10293 272.052 
8.36208e-06 -7.88425e-06 2.69233e+25 -2.8173 -1.74522 272.069 
1.02734e-05 -7.88425e-06 2.69165e+25 -1.87241 -2.12613 272.034 
1.21847e-05 -7.88425e-06 2.69207e+25 -1.13813 -1.77786 272.073 
1.40961e-05 -7.88425e-06 2.69138e+25 -0.366304 -1.27536 272.245 
1.60074e-05 -7.88425e-06 2.68724e+25 -0.0973192 -0.436978 272.301 
7.1675e-07 -7.40642e-06 2.69019e+25 -5.09797 0.00855667 272.172 
2.62808e-06 -7.40642e-06 2.69132e+25 -4.87087 -1.50509 272.136 
4.53942e-06 -7.40642e-06 2.69092e+25 -4.20088 -1.48581 271.953 
6.45075e-06 -7.40642e-06 2.69316e+25 -3.89409 -2.1439 272.072 
8.36208e-06 -7.40642e-06 2.69089e+25 -3.07009 -1.95647 272.081 
1.02734e-05 -7.40642e-06 2.69192e+25 -2.10941 -2.38543 272.029 
1.21847e-05 -7.40642e-06 2.69339e+25 -1.02965 -1.89162 271.938 
1.40961e-05 -7.40642e-06 2.6889e+25 -0.523072 -1.45222 272.359 
1.60074e-05 -7.40642e-06 2.68841e+25 -0.0590671 -0.433606 272.28 
7.1675e-07 -6.92858e-06 2.68904e+25 -5.47824 -0.0465319 272.108 
2.62808e-06 -6.92858e-06 2.69017e+25 -5.16392 -1.57277 272.097 
4.53942e-06 -6.92858e-06 2.69271e+25 -4.50708 -1.69658 271.942 
6.45075e-06 -6.92858e-06 2.69114e+25 -3.96565 -2.14438 272.092 
8.36208e-06 -6.92858e-06 2.69079e+25 -3.48567 -2.07498 272.052 
1.02734e-05 -6.92858e-06 2.69012e+25 -2.19706 -2.62146 272.242 
1.21847e-05 -6.92858e-06 2.69242e+25 -1.13078 -2.19649 271.885 
1.40961e-05 -6.92858e-06 2.68749e+25 -0.563348 -1.70262 272.398 
1.60074e-05 -6.92858e-06 2.68913e+25 -0.130635 -0.541195 272.223 
7.1675e-07 -6.45075e-06 2.69101e+25 -5.4476 -0.0856634 272.113 
2.62808e-06 -6.45075e-06 2.69229e+25 -5.15411 -1.5389 271.909 
4.53942e-06 -6.45075e-06 2.69294e+25 -5.06169 -1.86968 271.983 
6.45075e-06 -6.45075e-06 2.69094e+25 -4.62565 -2.26762 271.991 
8.36208e-06 -6.45075e-06 2.68969e+25 -3.75902 -2.33857 272.097 
1.02734e-05 -6.45075e-06 2.69105e+25 -2.24095 -2.92667 272.117 
1.21847e-05 -6.45075e-06 2.69241e+25 -1.42336 -2.49814 271.895 
1.40961e-05 -6.45075e-06 2.68906e+25 -0.585424 -1.89402 272.218 
1.60074e-05 -6.45075e-06 2.68623e+25 -0.215673 -0.666253 272.56 
7.1675e-07 -5.97292e-06 2.68841e+25 -5.53491 -0.0444292 272.267 
2.62808e-06 -5.97292e-06 2.69515e+25 -5.34189 -1.41558 271.841 
4.53942e-06 -5.97292e-06 2.69034e+25 -5.54096 -1.99668 272.192 
6.45075e-06 -5.97292e-06 2.69163e+25 -4.94432 -2.33778 271.91 
8.36208e-06 -5.97292e-06 2.68708e+25 -4.09834 -2.63716 272.183 
1.02734e-05 -5.97292e-06 2.69106e+25 -2.69301 -3.18385 272.071 
1.21847e-05 -5.97292e-06 2.69145e+25 -1.43863 -2.65487 272.197 
1.40961e-05 -5.97292e-06 2.68889e+25 -0.704997 -2.04921 272.303 
1.60074e-05 -5.97292e-06 2.68521e+25 -0.190433 -0.820231 272.586 
7.1675e-07 -5.49508e-06 2.68975e+25 -5.85536 -0.172667 272.273 
2.62808e-06 -5.49508e-06 2.69189e+25 -5.63966 -1.2992 272.031 
4.53942e-06 -5.49508e-06 2.68923e+25 -5.76233 -2.07109 272.225 
6.45075e-06 -5.49508e-06 2.69188e+25 -5.14409 -2.40126 272.006 
8.36208e-06 -5.49508e-06 2.69277e+25 -4.21847 -2.89557 272.002 
1.02734e-05 -5.49508e-06 2.69069e+25 -2.8438 -3.43397 272.062 
1.21847e-05 -5.49508e-06 2.6885e+25 -1.78021 -2.9675 272.303 
1.40961e-05 -5.49508e-06 2.68948e+25 -0.897214 -2.17418 272.303 
1.60074e-05 -5.49508e-06 2.68857e+25 -0.24936 -0.952504 272.31 
7.1675e-07 -5.01725e-06 2.68919e+25 -6.16342 -0.290341 272.293 
2.62808e-06 -5.01725e-06 2.69198e+25 -6.14371 -1.29468 271.922 
4.53942e-06 -5.01725e-06 2.68846e+25 -5.95346 -2.16214 272.242 
6.45075e-06 -5.01725e-06 2.69077e+25 -5.363 -2.65004 272.118 
8.36208e-06 -5.01725e-06 2.69325e+25 -4.27394 -3.39744 271.933 
1.02734e-05 -5.01725e-06 2.69034e+25 -3.04967 -3.65265 272.01 
1.21847e-05 -5.01725e-06 2.68978e+25 -1.91369 -3.15774 272.275 
1.40961e-05 -5.01725e-06 2.69015e+25 -0.73849 -2.28558 272.259 
1.60074e-05 -5.01725e-06 2.68863e+25 -0.131782 -1.24116 272.218 
7.1675e-07 -4.53942e-06 2.69013e+25 -6.40592 -0.285167 272.202 
2.62808e-06 -4.53942e-06 2.69125e+25 -6.35509 -1.28865 271.911 
4.53942e-06 -4.53942e-06 2.68933e+25 -6.30859 -2.32685 272.161 
6.45075e-06 -4.53942e-06 2.68857e+25 -5.55777 -2.82241 272.263 
8.36208e-06 -4.53942e-06 2.69353e+25 -4.42102 -3.67625 272.008 
1.02734e-05 -4.53942e-06 2.6875e+25 -3.41408 -3.97197 272.228 
1.21847e-05 -4.53942e-06 2.68912e+25 -1.96348 -3.5843 272.284 
1.40961e-05 -4.53942e-06 2.69001e+25 -0.81731 -2.56715 272.256 
1.60074e-05 -4.53942e-06 2.68932e+25 -0.00861041 -1.34645 272.192 
7.1675e-07 -4.06158e-06 2.68716e+25 -6.66781 -0.350743 272.347 
2.62808e-06 -4.06158e-06 2.69099e+25 -6.88594 -1.31229 272.037 
4.53942e-06 -4.06158e-06 2.69037e+25 -6.84943 -2.47048 272.093 
6.45075e-06 -4.06158e-06 2.69318e+25 -6.08052 -3.1006 272.002 
8.36208e-06 -4.06158e-06 2.69124e+25 -4.93644 -4.00723 271.983 
1.02734e-05 -4.06158e-06 2.68886e+25 -3.40114 -4.34037 272.343 
1.21847e-05 -4.06158e-06 2.68552e+25 -2.01059 -3.86264 272.612 
1.40961e-05 -4.06158e-06 2.69017e+25 -0.716306 -2.84606 272.215 
1.60074e-05 -4.06158e-06 2.6906e+25 -0.0491794 -1.28012 272.088 
7.1675e-07 -3.58375e-06 2.68821e+25 -6.83661 -0.284647 272.176 
2.62808e-06 -3.58375e-06 2.68896e+25 -7.25649 -1.23592 272.141 
4.53942e-06 -3.58375e-06 2.69184e+25 -6.94757 -2.46558 271.942 
6.45075e-06 -3.58375e-06 2.69337e+25 -6.33606 -3.43846 271.908 
8.36208e-06 -3.58375e-06 2.6909e+25 -5.21153 -4.29552 271.946 
1.02734e-05 -3.58375e-06 2.68982e+25 -3.58279 -4.83172 272.242 
1.21847e-05 -3.58375e-06 2.68534e+25 -2.02483 -4.17116 272.754 
1.40961e-05 -3.58375e-06 2.6881e+25 -0.930057 -3.09866 272.352 
1.60074e-05 -3.58375e-06 2.69079e+25 -0.17897 -1.28065 272.064 
7.1675e-07 -3.10592e-06 2.68866e+25 -7.16698 -0.161376 272.151 
2.62808e-06 -3.10592e-06 2.6884e+25 -7.71254 -1.18581 272.175 
4.53942e-06 -3.10592e-06 2.68907e+25 -7.51677 -2.51365 272.053 
6.45075e-06 -3.10592e-06 2.69202e+25 -6.97472 -3.72178 272.072 
8.36208e-06 -3.10592e-06 2.69184e+25 -5.62578 -4.75116 271.923 
1.02734e-05 -3.10592e-06 2.69101e+25 -3.85191 -5.34066 272.096 
1.21847e-05 -3.10592e-06 2.68556e+25 -2.24884 -4.49911 272.562 
1.40961e-05 -3.10592e-06 2.68792e+25 -0.758931 -3.40582 272.39 
1.60074e-05 -3.10592e-06 2.68995e+25 -0.205109 -1.28292 272.115 
7.1675e-07 -2.62808e-06 2.69115e+25 -7.42678 -0.0314961 272.04 
2.62808e-06 -2.62808e-06 2.69079e+25 -7.92934 -1.1048 272.135 
4.53942e-06 -2.62808e-06 2.68985e+25 -7.71461 -2.6182 272.19 
6.45075e-06 -2.62808e-06 2.69239e+25 -7.38343 -3.75836 271.962 
8.36208e-06 -2.62808e-06 2.69261e+25 -5.91984 -5.3237 272.041 
1.02734e-05 -2.62808e-06 2.68998e+25 -4.25593 -5.70925 272.098 
1.21847e-05 -2.62808e-06 2.68627e+25 -2.51048 -5.01493 272.414 
1.40961e-05 -2.62808e-06 2.68695e+25 -0.923118 -3.60866 272.378 
1.60074e-05 -2.62808e-06 2.69339e+25 -0.000630773 -1.30981 272.065 
7.1675e-07 -2.15025e-06 2.69112e+25 -7.5836 0.184423 271.959 
2.62808e-06 -2.15025e-06 2.69244e+25 -7.97352 -1.20849 271.975 
4.53942e-06 -2.15025e-06 2.68992e+25 -7.78054 -2.69865 272.16 
6.45075e-06 -2.15025e-06 2.69389e+25 -7.51374 -3.81904 271.829 
8.36208e-06 -2.15025e-06 2.6932e+25 -6.3803 -5.75639 271.909 
1.02734e-05 -2.15025e-06 2.69117e+25 -4.56004 -6.04396 272.046 
1.21847e-05 -2.15025e-06 2.68939e+25 -2.81401 -5.58236 272.331 
1.40961e-05 -2.15025e-06 2.68812e+25 -1.05201 -3.84901 272.29 
1.60074e-05 -2.15025e-06 2.689e+25 -0.141777 -1.26814 272.221 
7.1675e-07 -1.67242e-06 2.69109e+25 -7.71878 0.424675 272.021 
2.62808e-06 -1.67242e-06 2.68926e+25 -7.93478 -1.24348 272.104 
4.53942e-06 -1.67242e-06 2.69002e+25 -7.75104 -2.60821 272.063 
6.45075e-06 -1.67242e-06 2.6912e+25 -7.80647 -4.02097 271.911 
8.36208e-06 -1.67242e-06 2.69215e+25 -6.54896 -6.13454 272.022 
1.02734e-05 -1.67242e-06 2.69408e+25 -4.97609 -6.37106 271.966 
1.21847e-05 -1.67242e-06 2.68899e+25 -3.03852 -6.10696 272.233 
1.40961e-05 -1.67242e-06 2.6911e+25 -1.15877 -4.24214 272.064 
1.60074e-05 -1.67242e-06 2.69e+25 0.0511101 -1.31775 272.334 
7.1675e-07 -1.19458e-06 2.68879e+25 -7.69296 0.606925 272.097 
2.62808e-06 -1.19458e-06 2.69229e+25 -7.81098 -1.23762 271.898 
4.53942e-06 -1.19458e-06 2.69014e+25 -7.89234 -2.53414 272.017 
6.45075e-06 -1.19458e-06 2.69005e+25 -7.6507 -4.29008 271.926 
8.36208e-06 -1.19458e-06 2.69242e+25 -6.62246 -6.4228 271.921 
1.02734e-05 -1.19458e-06 2.69044e+25 -5.05272 -6.78099 272.011 
1.21847e-05 -1.19458e-06 2.68904e+25 -3.17192 -6.39887 272.267 
1.40961e-05 -1.19458e-06 2.68983e+25 -1.33823 -4.80086 272.062 
1.60074e-05 -1.19458e-06 2.68745e+25 -0.160426 -1.4759 272.417 
7.1675e-07 -7.1675e-07 2.69177e+25 -7.69209 0.78902 271.918 
2.62808e-06 -7.1675e-07 2.68945e+25 -7.86671 -1.13949 271.981 
4.53942e-06 -7.1675e-07 2.68889e+25 -8.01268 -2.55149 272.092 
6.45075e-06 -7.1675e-07 2.69238e+25 -7.7443 -4.50472 271.93 
8.36208e-06 -7.1675e-07 2.69217e+25 -6.66165 -6.62783 271.928 
1.02734e-05 -7.1675e-07 2.69153e+25 -5.04869 -7.27771 271.981 
1.21847e-05 -7.1675e-07 2.68913e+25 -3.44087 -6.89025 272.375 
1.40961e-05 -7.1675e-07 2.69041e+25 -1.69869 -5.23319 272.134 
1.60074e-05 -7.1675e-07 2.68725e+25 -0.284824 -1.82516 272.342 
7.1675e-07 -2.38917e-07 2.68994e+25 -7.69519 0.942122 271.744 
2.62808e-06 -2.38917e-07 2.68674e+25 -8.04137 -0.967812 271.958 
4.53942e-06 -2.38917e-07 2.68597e+25 -7.86219 -2.64708 272.131 
6.45075e-06 -2.38917e-07 2.68894e+25 -7.35111 -4.80724 272.179 
8.36208e-06 -2.38917e-07 2.69012e+25 -6.74121 -6.87343 271.953 
1.02734e-05 -2.38917e-07 2.69148e+25 -5.21771 -7.72442 271.89 
1.21847e-05 -2.38917e-07 2.68607e+25 -3.78494 -7.32468 272.306 
1.40961e-05 -2.38917e-07 2.68825e+25 -1.91574 -5.57433 272.166 
1.60074e-05 -2.38917e-07 2.6879e+25 -0.41938 -2.21953 272.279 
1.67242e-06 -1.69631e-05 2.68348e+25 -0.174181 0.0280763 272.951 
3.58375e-06 -1.69631e-05 2.6842e+25 -0.0866409 -0.002533 272.809 
5.49508e-06 -1.69631e-05 2.68589e+25 -0.353834 0.0152659 272.833 
7.40642e-06 -1.69631e-05 2.68351e+25 -0.266166 0.0664914 272.802 
9.31775e-06 -1.69631e-05 2.6852e+25 -0.23896 -0.0212659 272.726 
1.12291e-05 -1.69631e-05 2.68504e+25 0.0505384 -0.112839 272.723 
1.31404e-05 -1.69631e-05 2.6832e+25 -0.0595243 -0.0708024 272.921 
1.50518e-05 -1.69631e-05 2.68505e+25 -0.0227926 -0.029386 272.747 
1.69631e-05 -1.69631e-05 2.68294e+25 0.0201928 -0.0144406 272.964 
1.67242e-06 -1.64852e-05 2.68509e+25 -0.364955 0.004232 272.756 
3.58375e-06 -1.64852e-05 2.68446e+25 -0.461082 -0.0806583 272.627 
5.49508e-06 -1.64852e-05 2.68429e+25 -0.580327 0.143494 272.777 
7.40642e-06 -1.64852e-05 2.68674e+25 -0.505232 0.0720803 272.61 
9.31775e-06 -1.64852e-05 2.68828e+25 -0.316667 -0.0846835 272.403 
1.12291e-05 -1.64852e-05 2.68732e+25 -0.232507 -0.221301 272.305 
1.31404e-05 -1.64852e-05 2.68543e+25 -0.158844 -0.0727254 272.653 
1.50518e-05 -1.64852e-05 2.68639e+25 -0.204032 -0.0458011 272.499 
1.69631e-05 -1.64852e-05 2.68197e+25 -0.0442759 0.000182157 272.932 
1.67242e-06 -1.60074e-05 2.6894e+25 -0.61927 -0.042816 272.322 
3.58375e-06 -1.60074e-05 2.68875e+25 -0.712034 -0.019791 272.422 
5.49508e-06 -1.60074e-05 2.68649e+25 -0.886856 0.30735 272.621 
7.40642e-06 -1.60074e-05 2.68497e+25 -0.663084 0.00896994 272.678 
9.31775e-06 -1.60074e-05 2.68929e+25 -0.398302 -0.0986419 272.38 
1.12291e-05 -1.60074e-05 2.68981e+25 -0.462638 -0.238944 272.118 
1.31404e-05 -1.60074e-05 2.68805e+25 -0.309552 -0.00818018 272.52 
1.50518e-05 -1.60074e-05 2.69005e+25 -0.0692936 -0.0790284 272.178 
1.69631e-05 -1.60074e-05 2.68493e+25 -0.0412483 -0.00868767 272.887 
1.67242e-06 -1.55296e-05 2.68884e+25 -0.998978 -0.0902933 272.311 
3.58375e-06 -1.55296e-05 2.68762e+25 -0.898478 0.0852169 272.448 
5.49508e-06 -1.55296e-05 2.68687e+25 -0.860001 0.250538 272.475 
7.40642e-06 -1.55296e-05 2.68332e+25 -0.883914 -0.0806617 272.658 
9.31775e-06 -1.55296e-05 2.69074e+25 -0.536701 -0.190896 272.368 
1.12291e-05 -1.55296e-05 2.69274e+25 -0.442489 -0.114946 272.044 
1.31404e-05 -1.55296e-05 2.69065e+25 -0.421849 0.0680186 272.239 
1.50518e-05 -1.55296e-05 2.69212e+25 -0.132637 -0.156615 272.048 
1.69631e-05 -1.55296e-05 2.68644e+25 0.0440876 -0.0577286 272.775 
1.67242e-06 -1.50517e-05 2.68994e+25 -1.37927 -0.0982099 272.087 
3.58375e-06 -1.50517e-05 2.68819e+25 -0.887475 0.11026 272.34 
5.49508e-06 -1.50517e-05 2.69079e+25 -1.00982 0.220208 272.244 
7.40642e-06 -1.50517e-05 2.68625e+25 -0.894237 -0.0898203 272.577 
9.31775e-06 -1.50517e-05 2.68664e+25 -0.48733 -0.31755 272.496 
1.12291e-05 -1.50517e-05 2.69013e+25 -0.360419 -0.0507171 272.274 
1.31404e-05 -1.50517e-05 2.69017e+25 -0.247105 0.0209026 272.31 
1.50518e-05 -1.50517e-05 2.68912e+25 -0.0651114 -0.274066 272.166 
1.69631e-05 -1.50517e-05 2.68317e+25 0.0252156 0.00980562 272.96 
1.67242e-06 -1.45739e-05 2.69585e+25 -1.43141 -0.151797 271.703 
3.58375e-06 -1.45739e-05 2.68932e+25 -1.32799 0.0851547 272.22 
5.49508e-06 -1.45739e-05 2.69217e+25 -0.966675 0.169854 271.945 
7.40642e-06 -1.45739e-05 2.68675e+25 -1.04099 -0.213655 272.507 
9.31775e-06 -1.45739e-05 2.68636e+25 -0.829999 -0.50827 272.5 
1.12291e-05 -1.45739e-05 2.68968e+25 -0.147372 -0.113829 272.359 
1.31404e-05 -1.45739e-05 2.69272e+25 -0.0237165 -0.083529 272.099 
1.50518e-05 -1.45739e-05 2.68959e+25 0.0545395 -0.312081 272.3 
1.69631e-05 -1.45739e-05 2.68498e+25 0.0302446 0.0552986 272.805 
1.67242e-06 -1.40961e-05 2.69412e+25 -1.43131 -0.101284 271.736 
3.58375e-06 -1.40961e-05 2.6902e+25 -1.64171 0.0372557 272.184 
5.49508e-06 -1.40961e-05 2.68776e+25 -1.34094 0.201803 272.269 
7.40642e-06 -1.40961e-05 2.68642e+25 -1.10918 -0.270557 272.523 
9.31775e-06 -1.40961e-05 2.68983e+25 -0.922147 -0.550812 272.267 
1.12291e-05 -1.40961e-05 2.68983e+25 -0.391692 -0.22218 272.196 
1.31404e-05 -1.40961e-05 2.68869e+25 -0.172186 -0.135768 272.209 
1.50518e-05 -1.40961e-05 2.68766e+25 0.16098 -0.339273 272.319 
1.69631e-05 -1.40961e-05 2.68417e+25 -0.0685017 0.0296128 272.841 
1.67242e-06 -1.36182e-05 2.69395e+25 -1.86291 -0.0841637 271.822 
3.58375e-06 -1.36182e-05 2.69049e+25 -1.81776 -0.172179 272.17 
5.49508e-06 -1.36182e-05 2.68891e+25 -1.40791 0.238043 272.295 
7.40642e-06 -1.36182e-05 2.68506e+25 -1.41036 -0.450378 272.459 
9.31775e-06 -1.36182e-05 2.688e+25 -0.80854 -0.541434 272.4 
1.12291e-05 -1.36182e-05 2.68942e+25 -0.390116 -0.149813 272.31 
1.31404e-05 -1.36182e-05 2.6864e+25 -0.274922 -0.301495 272.49 
1.50518e-05 -1.36182e-05 2.68733e+25 0.10132 -0.225222 272.427 
1.69631e-05 -1.36182e-05 2.68538e+25 -0.0491263 -0.0878715 272.731 
1.67242e-06 -1.31404e-05 2.69225e+25 -1.97148 -0.0250356 271.875 
3.58375e-06 -1.31404e-05 2.69196e+25 -1.73818 -0.376132 272.005 
5.49508e-06 -1.31404e-05 2.68713e+25 -1.30698 0.0880862 272.439 
7.40642e-06 -1.31404e-05 2.6879e+25 -1.52008 -0.507662 272.475 
9.31775e-06 -1.31404e-05 2.68771e+25 -0.650674 -0.697937 272.412 
1.12291e-05 -1.31404e-05 2.68953e+25 -0.534788 -0.0998099 272.334 
1.31404e-05 -1.31404e-05 2.68646e+25 -0.133519 -0.407317 272.521 
1.50518e-05 -1.31404e-05 2.68626e+25 -0.0187905 -0.152678 272.526 
1.69631e-05 -1.31404e-05 2.68241e+25 0.0117473 -0.106709 272.798 
1.67242e-06 -1.26626e-05 2.69267e+25 -2.15793 0.00648452 271.874 
3.58375e-06 -1.26626e-05 2.69197e+25 -1.90841 -0.369711 271.937 
5.49508e-06 -1.26626e-05 2.68839e+25 -1.55234 -0.0415027 272.182 
7.40642e-06 -1.26626e-05 2.68925e+25 -1.19377 -0.579123 272.323 
9.31775e-06 -1.26626e-05 2.68805e+25 -0.737516 -0.870154 272.359 
1.12291e-05 -1.26626e-05 2.69217e+25 -0.445199 -0.152045 272.279 
1.31404e-05 -1.26626e-05 2.68764e+25 -0.231699 -0.608986 272.306 
1.50518e-05 -1.26626e-05 2.68557e+25 -0.381391 -0.241433 272.505 
1.69631e-05 -1.26626e-05 2.68358e+25 0.0136269 -0.119572 272.94 
1.67242e-06 -1.21847e-05 2.6901e+25 -2.28999 -0.0601624 272.071 
3.58375e-06 -1.21847e-05 2.69105e+25 -2.11654 -0.331207 271.955 
5.49508e-06 -1.21847e-05 2.69039e+25 -1.64751 -0.238892 272.048 
7.40642e-06 -1.21847e-05 2.68879e+25 -1.26138 -0.605037 272.216 
9.31775e-06 -1.21847e-05 2.69016e+25 -0.977805 -1.0364 272.24 
1.12291e-05 -1.21847e-05 2.69014e+25 -0.670206 -0.235927 272.147 
1.31404e-05 -1.21847e-05 2.68749e+25 -0.287396 -0.691632 272.431 
1.50518e-05 -1.21847e-05 2.68819e+25 -0.501766 -0.183157 272.352 
1.69631e-05 -1.21847e-05 2.68501e+25 -0.00613769 -0.107675 272.843 
1.67242e-06 -1.17069e-05 2.69126e+25 -2.69482 0.0287273 272.112 
3.58375e-06 -1.17069e-05 2.68996e+25 -2.36469 -0.478272 272.045 
5.49508e-06 -1.17069e-05 2.6925e+25 -1.82835 -0.399051 271.946 
7.40642e-06 -1.17069e-05 2.69104e+25 -1.36836 -0.567306 272.158 
9.31775e-06 -1.17069e-05 2.68616e+25 -1.27767 -0.97348 272.561 
1.12291e-05 -1.17069e-05 2.6899e+25 -0.992122 -0.327917 272.1 
1.31404e-05 -1.17069e-05 2.68796e+25 -0.480308 -0.805071 272.389 
1.50518e-05 -1.17069e-05 2.68711e+25 -0.393214 -0.176819 272.394 
1.69631e-05 -1.17069e-05 2.68536e+25 0.0119808 -0.140151 272.774 
1.67242e-06 -1.12291e-05 2.69052e+25 -2.92058 -0.0603449 272.035 
3.58375e-06 -1.12291e-05 2.69292e+25 -2.58815 -0.659989 271.918 
5.49508e-06 -1.12291e-05 2.69203e+25 -2.27456 -0.53484 272.119 
7.40642e-06 -1.12291e-05 2.69033e+25 -1.52679 -0.744475 272.223 
9.31775e-06 -1.12291e-05 2.68712e+25 -1.41241 -0.900739 272.47 
1.12291e-05 -1.12291e-05 2.689e+25 -1.22267 -0.457261 272.266 
1.31404e-05 -1.12291e-05 2.69228e+25 -0.501526 -0.78962 272.087 
1.50518e-05 -1.12291e-05 2.68813e+25 -0.313602 -0.295981 272.209 
1.69631e-05 -1.12291e-05 2.68454e+25 -0.0568165 -0.201939 272.735 
1.67242e-06 -1.07512e-05 2.69229e+25 -3.24681 -0.177381 271.896 
3.58375e-06 -1.07512e-05 2.69417e+25 -2.90674 -0.595245 271.898 
5.49508e-06 -1.07512e-05 2.68934e+25 -2.82401 -0.71424 272.197 
7.40642e-06 -1.07512e-05 2.6905e+25 -1.65857 -0.922066 272.121 
9.31775e-06 -1.07512e-05 2.68702e+25 -1.82378 -0.827383 272.275 
1.12291e-05 -1.07512e-05 2.69051e+25 -1.39027 -0.809033 272.035 
1.31404e-05 -1.07512e-05 2.69077e+25 -0.426644 -0.914875 272.136 
1.50518e-05 -1.07512e-05 2.69241e+25 -0.0413726 -0.389835 272.119 
1.69631e-05 -1.07512e-05 2.68545e+25 0.0180123 -0.235515 272.795 
1.67242e-06 -1.02734e-05 2.69316e+25 -3.5896 -0.295498 271.866 
3.58375e-06 -1.02734e-05 2.69009e+25 -3.09861 -0.61849 272.135 
5.49508e-06 -1.02734e-05 2.69064e+25 -2.97453 -0.945476 272.138 
7.40642e-06 -1.02734e-05 2.69295e+25 -1.81737 -1.04393 272.138 
9.31775e-06 -1.02734e-05 2.68844e+25 -1.89541 -0.829781 272.253 
1.12291e-05 -1.02734e-05 2.69478e+25 -1.25087 -1.17378 271.722 
1.31404e-05 -1.02734e-05 2.69185e+25 -0.451679 -0.913338 272.162 
1.50518e-05 -1.02734e-05 2.69154e+25 0.0248959 -0.419656 272.086 
1.69631e-05 -1.02734e-05 2.6875e+25 0.0431716 -0.123985 272.626 
1.67242e-06 -9.79558e-06 2.69211e+25 -3.84158 -0.242874 272.007 
3.58375e-06 -9.79558e-06 2.69186e+25 -3.58355 -0.73281 272.007 
5.49508e-06 -9.79558e-06 2.69164e+25 -3.10911 -1.14515 272.085 
7.40642e-06 -9.79558e-06 2.69112e+25 -2.09902 -1.14839 272.147 
9.31775e-06 -9.79558e-06 2.68822e+25 -1.59573 -0.839959 272.39 
1.12291e-05 -9.79558e-06 2.6969e+25 -1.05901 -1.42475 271.642 
1.31404e-05 -9.79558e-06 2.69041e+25 -0.313718 -0.8612 272.102 
1.50518e-05 -9.79558e-06 2.69223e+25 0.0209864 -0.599589 272.039 
1.69631e-05 -9.79558e-06 2.68386e+25 0.0132087 -0.0569476 272.725 
1.67242e-06 -9.31775e-06 2.69224e+25 -4.01703 -0.143634 271.953 
3.58375e-06 -9.31775e-06 2.69325e+25 -3.85841 -0.919984 271.876 
5.49508e-06 -9.31775e-06 2.69061e+25 -3.01663 -1.30576 272.025 
7.40642e-06 -9.31775e-06 2.69248e+25 -2.60752 -1.4016 272.103 
9.31775e-06 -9.31775e-06 2.69041e+25 -1.61037 -0.986792 272.237 
1.12291e-05 -9.31775e-06 2.69281e+25 -1.0447 -1.47607 271.774 
1.31404e-05 -9.31775e-06 2.69169e+25 -0.416072 -1.0132 272.048 
1.50518e-05 -9.31775e-06 2.69242e+25 -0.015296 -0.685139 271.921 
1.69631e-05 -9.31775e-06 2.68451e+25 0.035966 0.0460015 272.764 
1.67242e-06 -8.83992e-06 2.68989e+25 -4.46972 -0.0890771 272.111 
3.58375e-06 -8.83992e-06 2.69369e+25 -3.97127 -1.07857 271.898 
5.49508e-06 -8.83992e-06 2.6905e+25 -3.41387 -1.53743 272.122 
7.40642e-06 -8.83992e-06 2.69114e+25 -2.69298 -1.59858 272.102 
9.31775e-06 -8.83992e-06 2.69118e+25 -1.88024 -1.20563 272.179 
1.12291e-05 -8.83992e-06 2.69353e+25 -1.25586 -1.5153 271.816 
1.31404e-05 -8.83992e-06 2.6906e+25 -0.636548 -1.19194 272.079 
1.50518e-05 -8.83992e-06 2.69152e+25 -0.0275552 -0.767061 272.007 
1.69631e-05 -8.83992e-06 2.68398e+25 0.0152377 0.154811 272.929 
1.67242e-06 -8.36208e-06 2.69114e+25 -4.81436 -0.158486 271.995 
3.58375e-06 -8.36208e-06 2.69205e+25 -4.3123 -1.21591 272.008 
5.49508e-06 -8.36208e-06 2.68871e+25 -3.56937 -1.71415 272.272 
7.40642e-06 -8.36208e-06 2.69129e+25 -2.66004 -1.66107 272.016 
9.31775e-06 -8.36208e-06 2.69049e+25 -2.13541 -1.32762 272.056 
1.12291e-05 -8.36208e-06 2.69267e+25 -1.17164 -1.64746 271.97 
1.31404e-05 -8.36208e-06 2.69215e+25 -0.891846 -1.42355 271.982 
1.50518e-05 -8.36208e-06 2.69085e+25 0.016641 -0.934113 272.06 
1.69631e-05 -8.36208e-06 2.68584e+25 -0.0346419 0.136999 272.688 
1.67242e-06 -7.88425e-06 2.69185e+25 -5.03729 -0.309665 272.059 
3.58375e-06 -7.88425e-06 2.68964e+25 -4.31465 -1.34502 272.168 
5.49508e-06 -7.88425e-06 2.6907e+25 -3.66941 -1.92276 272.125 
7.40642e-06 -7.88425e-06 2.69166e+25 -3.11223 -1.79183 271.969 
9.31775e-06 -7.88425e-06 2.69186e+25 -2.37112 -1.56871 272.04 
1.12291e-05 -7.88425e-06 2.69239e+25 -1.41323 -1.95791 271.996 
1.31404e-05 -7.88425e-06 2.69358e+25 -1.00235 -1.60666 272.022 
1.50518e-05 -7.88425e-06 2.69222e+25 -0.0679931 -1.02488 272.005 
1.69631e-05 -7.88425e-06 2.68704e+25 -0.0819274 -0.0341225 272.746 
1.67242e-06 -7.40642e-06 2.68894e+25 -4.98282 -0.334377 272.151 
3.58375e-06 -7.40642e-06 2.68714e+25 -4.53751 -1.51207 272.355 
5.49508e-06 -7.40642e-06 2.692e+25 -3.85278 -2.12716 271.958 
7.40642e-06 -7.40642e-06 2.69315e+25 -3.54444 -1.96981 271.985 
9.31775e-06 -7.40642e-06 2.69357e+25 -2.73263 -1.89079 271.873 
1.12291e-05 -7.40642e-06 2.69203e+25 -1.4747 -2.22666 271.981 
1.31404e-05 -7.40642e-06 2.69261e+25 -0.880492 -1.7087 271.989 
1.50518e-05 -7.40642e-06 2.68979e+25 -0.211667 -1.11856 272.021 
1.69631e-05 -7.40642e-06 2.68428e+25 0.0405355 -0.10882 272.657 
1.67242e-06 -6.92858e-06 2.69061e+25 -5.21949 -0.397361 272.046 
3.58375e-06 -6.92858e-06 2.69095e+25 -4.92017 -1.63881 272.197 
5.49508e-06 -6.92858e-06 2.6918e+25 -4.13156 -2.1457 272 
7.40642e-06 -6.92858e-06 2.69115e+25 -3.89262 -2.19453 272.044 
9.31775e-06 -6.92858e-06 2.69229e+25 -3.04469 -2.19034 271.972 
1.12291e-05 -6.92858e-06 2.69352e+25 -1.61648 -2.51469 271.886 
1.31404e-05 -6.92858e-06 2.6921e+25 -0.847819 -1.70493 271.925 
1.50518e-05 -6.92858e-06 2.68931e+25 -0.218298 -1.1502 272.198 
1.69631e-05 -6.92858e-06 2.68486e+25 0.0689676 0.0622441 272.667 
1.67242e-06 -6.45075e-06 2.69217e+25 -5.31753 -0.567049 272.105 
3.58375e-06 -6.45075e-06 2.6915e+25 -5.32006 -1.73785 271.924 
5.49508e-06 -6.45075e-06 2.69359e+25 -4.86495 -2.25079 271.915 
7.40642e-06 -6.45075e-06 2.69066e+25 -4.2039 -2.41266 272.072 
9.31775e-06 -6.45075e-06 2.69264e+25 -2.98773 -2.56381 272.018 
1.12291e-05 -6.45075e-06 2.69425e+25 -1.92516 -2.77729 271.758 
1.31404e-05 -6.45075e-06 2.69107e+25 -1.02835 -1.90006 272.124 
1.50518e-05 -6.45075e-06 2.68896e+25 -0.403081 -1.1703 272.22 
1.69631e-05 -6.45075e-06 2.68456e+25 -0.0525743 0.031996 272.809 
1.67242e-06 -5.97292e-06 2.69324e+25 -5.42655 -0.744853 272.041 
3.58375e-06 -5.97292e-06 2.6907e+25 -5.60606 -1.69982 272.169 
5.49508e-06 -5.97292e-06 2.69431e+25 -5.14619 -2.50322 271.94 
7.40642e-06 -5.97292e-06 2.68961e+25 -4.59135 -2.67248 272.087 
9.31775e-06 -5.97292e-06 2.69216e+25 -3.20166 -2.84674 271.898 
1.12291e-05 -5.97292e-06 2.69313e+25 -2.05813 -2.93863 271.84 
1.31404e-05 -5.97292e-06 2.69143e+25 -1.02686 -2.17808 272.094 
1.50518e-05 -5.97292e-06 2.68905e+25 -0.683854 -1.32359 272.204 
1.69631e-05 -5.97292e-06 2.68214e+25 -0.0714249 -0.123483 272.987 
1.67242e-06 -5.49508e-06 2.69287e+25 -5.64669 -0.824167 271.98 
3.58375e-06 -5.49508e-06 2.69163e+25 -5.71107 -1.74653 272.059 
5.49508e-06 -5.49508e-06 2.6923e+25 -5.46878 -2.66195 272.071 
7.40642e-06 -5.49508e-06 2.68986e+25 -4.89327 -2.91446 272.04 
9.31775e-06 -5.49508e-06 2.6928e+25 -3.41294 -3.32096 271.881 
1.12291e-05 -5.49508e-06 2.69123e+25 -2.32402 -3.254 271.995 
1.31404e-05 -5.49508e-06 2.6905e+25 -1.16227 -2.37538 272.208 
1.50518e-05 -5.49508e-06 2.69106e+25 -0.617945 -1.38231 272.151 
1.69631e-05 -5.49508e-06 2.6853e+25 0.010601 -0.17398 272.809 
1.67242e-06 -5.01725e-06 2.68989e+25 -6.04375 -0.859119 272.084 
3.58375e-06 -5.01725e-06 2.69226e+25 -6.14097 -1.70333 271.9 
5.49508e-06 -5.01725e-06 2.69035e+25 -5.68545 -2.79491 272.078 
7.40642e-06 -5.01725e-06 2.68857e+25 -4.88014 -3.12053 272.286 
9.31775e-06 -5.01725e-06 2.69195e+25 -3.6888 -3.8003 272.068 
1.12291e-05 -5.01725e-06 2.69059e+25 -2.61058 -3.54736 272.25 
1.31404e-05 -5.01725e-06 2.68987e+25 -1.24876 -2.62479 272.208 
1.50518e-05 -5.01725e-06 2.68938e+25 -0.407013 -1.49086 272.17 
1.69631e-05 -5.01725e-06 2.68613e+25 0.000868864 -0.170084 272.665 
1.67242e-06 -4.53942e-06 2.69089e+25 -6.36976 -0.874212 272.269 
3.58375e-06 -4.53942e-06 2.69161e+25 -6.44105 -1.61032 271.861 
5.49508e-06 -4.53942e-06 2.6886e+25 -6.17165 -2.88283 272.191 
7.40642e-06 -4.53942e-06 2.68732e+25 -4.98899 -3.38349 272.241 
9.31775e-06 -4.53942e-06 2.69289e+25 -4.00606 -4.0133 271.916 
1.12291e-05 -4.53942e-06 2.68984e+25 -2.74663 -3.88644 272.199 
1.31404e-05 -4.53942e-06 2.68978e+25 -1.19259 -2.90576 272.231 
1.50518e-05 -4.53942e-06 2.69153e+25 -0.259588 -1.70469 272.079 
1.69631e-05 -4.53942e-06 2.68397e+25 -0.006417 -0.158563 272.756 
1.67242e-06 -4.06158e-06 2.68896e+25 -6.67396 -0.717584 272.387 
3.58375e-06 -4.06158e-06 2.69144e+25 -6.8662 -1.56256 271.97 
5.49508e-06 -4.06158e-06 2.69195e+25 -6.53006 -3.00689 272.007 
7.40642e-06 -4.06158e-06 2.69204e+25 -5.59876 -3.63179 271.969 
9.31775e-06 -4.06158e-06 2.69149e+25 -4.28404 -4.36402 272.111 
1.12291e-05 -4.06158e-06 2.68888e+25 -2.60278 -4.2893 272.3 
1.31404e-05 -4.06158e-06 2.68949e+25 -1.36468 -3.21994 272.342 
1.50518e-05 -4.06158e-06 2.68939e+25 -0.141471 -1.93562 272.144 
1.69631e-05 -4.06158e-06 2.68488e+25 -0.00900116 -0.161027 272.643 
1.67242e-06 -3.58375e-06 2.6894e+25 -6.95725 -0.584863 272.065 
3.58375e-06 -3.58375e-06 2.69004e+25 -7.24951 -1.67059 271.941 
5.49508e-06 -3.58375e-06 2.69543e+25 -6.83114 -3.10092 271.72 
7.40642e-06 -3.58375e-06 2.69362e+25 -5.89804 -3.96887 271.79 
9.31775e-06 -3.58375e-06 2.6928e+25 -4.36387 -4.75451 272.005 
1.12291e-05 -3.58375e-06 2.68843e+25 -2.70369 -4.60185 272.456 
1.31404e-05 -3.58375e-06 2.68705e+25 -1.46982 -3.61652 272.558 
1.50518e-05 -3.58375e-06 2.6893e+25 -0.340152 -2.08537 272.218 
1.69631e-05 -3.58375e-06 2.6852e+25 -0.0617642 -0.263747 272.65 
1.67242e-06 -3.10592e-06 2.68987e+25 -7.42991 -0.451022 272.139 
3.58375e-06 -3.10592e-06 2.68992e+25 -7.62289 -1.83036 272.053 
5.49508e-06 -3.10592e-06 2.69374e+25 -7.16935 -3.35504 271.785 
7.40642e-06 -3.10592e-06 2.68974e+25 -6.41535 -4.20548 272.032 
9.31775e-06 -3.10592e-06 2.69272e+25 -4.62925 -5.19108 271.909 
1.12291e-05 -3.10592e-06 2.68643e+25 -3.00305 -4.97374 272.584 
1.31404e-05 -3.10592e-06 2.68727e+25 -1.39828 -3.93544 272.444 
1.50518e-05 -3.10592e-06 2.69066e+25 -0.388879 -2.26189 272.147 
1.69631e-05 -3.10592e-06 2.68276e+25 -0.059127 -0.38572 272.778 
1.67242e-06 -2.62808e-06 2.69024e+25 -7.70904 -0.408731 272.036 
3.58375e-06 -2.62808e-06 2.68795e+25 -7.86713 -1.96497 272.296 
5.49508e-06 -2.62808e-06 2.69277e+25 -7.4722 -3.56436 271.859 
7.40642e-06 -2.62808e-06 2.69156e+25 -6.88149 -4.54137 272.069 
9.31775e-06 -2.62808e-06 2.69379e+25 -5.09111 -5.45132 271.726 
1.12291e-05 -2.62808e-06 2.68687e+25 -3.50726 -5.34862 272.449 
1.31404e-05 -2.62808e-06 2.69119e+25 -1.6352 -4.35592 272.188 
1.50518e-05 -2.62808e-06 2.68949e+25 -0.316455 -2.46743 272.171 
1.69631e-05 -2.62808e-06 2.68207e+25 -0.0326396 -0.459306 272.931 
1.67242e-06 -2.15025e-06 2.69054e+25 -7.97316 -0.324737 271.828 
3.58375e-06 -2.15025e-06 2.68803e+25 -7.73439 -1.99851 272.289 
5.49508e-06 -2.15025e-06 2.69311e+25 -7.7387 -3.54461 271.96 
7.40642e-06 -2.15025e-06 2.68959e+25 -7.18452 -4.84552 272.188 
9.31775e-06 -2.15025e-06 2.69654e+25 -5.45437 -5.81558 271.786 
1.12291e-05 -2.15025e-06 2.68886e+25 -3.70415 -5.83969 272.375 
1.31404e-05 -2.15025e-06 2.69074e+25 -1.77306 -4.76023 272.134 
1.50518e-05 -2.15025e-06 2.6873e+25 -0.268352 -2.84282 272.402 
1.69631e-05 -2.15025e-06 2.68204e+25 0.0474127 -0.440677 272.91 
1.67242e-06 -1.67242e-06 2.6925e+25 -8.01839 -0.272264 271.805 
3.58375e-06 -1.67242e-06 2.68478e+25 -7.84675 -2.10465 272.525 
5.49508e-06 -1.67242e-06 2.69112e+25 -7.87902 -3.61486 271.87 
7.40642e-06 -1.67242e-06 2.68813e+25 -7.25028 -5.08272 272.229 
9.31775e-06 -1.67242e-06 2.69304e+25 -5.68755 -6.25168 271.809 
1.12291e-05 -1.67242e-06 2.6885e+25 -3.9948 -6.36096 272.39 
1.31404e-05 -1.67242e-06 2.69029e+25 -2.15761 -5.10773 272.07 
1.50518e-05 -1.67242e-06 2.69135e+25 -0.417599 -3.22605 272.121 
1.69631e-05 -1.67242e-06 2.6852e+25 -0.00133736 -0.422414 272.688 
1.67242e-06 -1.19458e-06 2.69203e+25 -7.95615 -0.18729 271.738 
3.58375e-06 -1.19458e-06 2.68797e+25 -7.80395 -2.12658 272.372 
5.49508e-06 -1.19458e-06 2.69142e+25 -8.00996 -3.56449 271.916 
7.40642e-06 -1.19458e-06 2.69097e+25 -6.9685 -5.43507 271.926 
9.31775e-06 -1.19458e-06 2.69304e+25 -5.98259 -6.66087 271.966 
1.12291e-05 -1.19458e-06 2.69019e+25 -4.05039 -6.82399 272.104 
1.31404e-05 -1.19458e-06 2.69202e+25 -2.27214 -5.54318 272.044 
1.50518e-05 -1.19458e-06 2.68899e+25 -0.772997 -3.56072 272.134 
1.69631e-05 -1.19458e-06 2.68375e+25 0.0754779 -0.368187 272.756 
1.67242e-06 -7.1675e-07 2.69277e+25 -7.79587 -0.126887 271.621 
3.58375e-06 -7.1675e-07 2.69034e+25 -7.99386 -2.08257 272.106 
5.49508e-06 -7.1675e-07 2.69023e+25 -7.80073 -3.56525 272.087 
7.40642e-06 -7.1675e-07 2.69049e+25 -7.00756 -5.88687 271.931 
9.31775e-06 -7.1675e-07 2.69407e+25 -6.09196 -7.1683 271.845 
1.12291e-05 -7.1675e-07 2.69177e+25 -4.23462 -7.24759 272.068 
1.31404e-05 -7.1675e-07 2.69133e+25 -2.4971 -6.04072 272.088 
1.50518e-05 -7.1675e-07 2.68967e+25 -1.05072 -3.81859 272.138 
1.69631e-05 -7.1675e-07 2.68566e+25 -0.0107417 -0.270396 272.79 
1.67242e-06 -2.38917e-07 2.6899e+25 -7.8232 -0.0265228 271.635 
3.58375e-06 -2.38917e-07 2.68846e+25 -8.08074 -2.08463 272.073 
5.49508e-06 -2.38917e-07 2.68712e+25 -7.66858 -3.61344 272.098 
7.40642e-06 -2.38917e-07 2.68923e+25 -7.12826 -6.05991 271.859 
9.31775e-06 -2.38917e-07 2.69013e+25 -6.05637 -7.66796 271.973 
1.12291e-05 -2.38917e-07 2.69016e+25 -4.55003 -7.60233 272.169 
1.31404e-05 -2.38917e-07 2.68815e+25 -2.76123 -6.57395 272.215 
1.50518e-05 -2.38917e-07 2.69126e+25 -1.10169 -4.16617 272.02 
1.69631e-05 -2.38917e-07 2.6832e+25 -0.00472754 -0.32406 272.706 
1.67242e-06 2.38917e-07 2.68854e+25 -8.07912 -0.0634739 271.826 
3.58375e-06 2.38917e-07 2.68974e+25 -8.33626 -2.22322 271.802 
5.49508e-06 2.38917e-07 2.68678e+25 -7.6124 -3.69278 272.067 
7.40642e-06 2.38917e-07 2.69089e+25 -7.19088 -6.05608 271.928 
9.31775e-06 2.38917e-07 2.68902e+25 -6.19125 -8.01874 272.061 
1.12291e-05 2.38917e-07 2.68895e+25 -4.66048 -7.88287 272.098 
1.31404e-05 2.38917e-07 2.68514e+25 -2.90578 -7.22462 272.397 
1.50518e-05 2.38917e-07 2.68969e+25 -0.940523 -4.54166 272.11 
1.69631e-05 2.38917e-07 2.68112e+25 -0.104194 -0.441871 272.791 
1.67242e-06 7.1675e-07 2.69259e+25 -7.88673 -0.0894858 271.731 
3.58375e-06 7.1675e-07 2.69032e+25 -8.2364 -2.17894 271.818 
5.49508e-06 7.1675e-07 2.68985e+25 -7.72217 -3.82261 271.967 
7.40642e-06 7.1675e-07 2.68967e+25 -7.26774 -6.03888 272.079 
9.31775e-06 7.1675e-07 2.69321e+25 -6.41507 -8.35219 271.974 
1.12291e-05 7.1675e-07 2.6899e+25 -4.85072 -8.35494 272.227 
1.31404e-05 7.1675e-07 2.68804e+25 -3.10232 -7.71888 272.35 
1.50518e-05 7.1675e-07 2.68821e+25 -1.0577 -4.85425 272.345 
1.69631e-05 7.1675e-07 2.6822e+25 -0.10388 -0.577092 272.842 
1.67242e-06 1.19458e-06 2.69072e+25 -7.69363 0.112627 271.76 
3.58375e-06 1.19458e-06 2.69251e+25 -8.13651 -2.07002 271.824 
5.49508e-06 1.19458e-06 2.68983e+25 -7.96562 -3.99414 272.1 
7.40642e-06 1.19458e-06 2.69078e+25 -7.29361 -6.22363 272.047 
9.31775e-06 1.19458e-06 2.69036e+25 -6.46968 -8.75697 272.125 
1.12291e-05 1.19458e-06 2.69167e+25 -5.07407 -8.74232 272.127 
1.31404e-05 1.19458e-06 2.68822e+25 -2.88852 -8.1727 272.348 
1.50518e-05 1.19458e-06 2.68889e+25 -1.03323 -5.13756 272.256 
1.69631e-05 1.19458e-06 2.68348e+25 -0.0157652 -0.706567 272.856 
1.67242e-06 1.67242e-06 2.68862e+25 -7.42751 0.285221 271.943 
3.58375e-06 1.67242e-06 2.69283e+25 -8.0441 -2.07921 271.789 
5.49508e-06 1.67242e-06 2.69068e+25 -8.02663 -4.22668 271.915 
7.40642e-06 1.67242e-06 2.68737e+25 -7.44375 -6.42567 272.126 
9.31775e-06 1.67242e-06 2.68943e+25 -6.62893 -8.99031 272.119 
1.12291e-05 1.67242e-06 2.68891e+25 -5.22838 -9.28745 272.223 
1.31404e-05 1.67242e-06 2.68631e+25 -3.03134 -8.66944 272.392 
1.50518e-05 1.67242e-06 2.68745e+25 -1.13647 -5.61234 272.381 
1.69631e-05 1.67242e-06 2.68311e+25 0.0401607 -0.736526 272.967 
1.67242e-06 2.15025e-06 2.69047e+25 -7.17486 0.626107 271.811 
3.58375e-06 2.15025e-06 2.69148e+25 -8.0497 -1.90091 271.809 
5.49508e-06 2.15025e-06 2.68963e+25 -8.09948 -4.31014 271.864 
7.40642e-06 2.15025e-06 2.68804e+25 -7.50974 -6.58037 272.101 
9.31775e-06 2.15025e-06 2.68721e+25 -6.64512 -9.07749 272.286 
1.12291e-05 2.15025e-06 2.69055e+25 -5.22857 -9.9204 272.047 
1.31404e-05 2.15025e-06 2.68941e+25 -3.17912 -9.13582 272.204 
1.50518e-05 2.15025e-06 2.69054e+25 -1.16725 -6.21897 272.271 
1.69631e-05 2.15025e-06 2.68397e+25 -0.0525742 -0.766227 272.824 
1.67242e-06 2.62808e-06 2.69032e+25 -6.87813 0.97349 271.828 
3.58375e-06 2.62808e-06 2.69251e+25 -7.75955 -1.73701 271.642 
5.49508e-06 2.62808e-06 2.69136e+25 -7.97956 -4.4019 271.855 
7.40642e-06 2.62808e-06 2.68859e+25 -7.57917 -6.73676 271.914 
9.31775e-06 2.62808e-06 2.68551e+25 -6.75864 -9.19477 272.392 
1.12291e-05 2.62808e-06 2.69033e+25 -5.60676 -10.3662 272.122 
1.31404e-05 2.62808e-06 2.69012e+25 -3.4763 -9.63711 272.05 
1.50518e-05 2.62808e-06 2.68999e+25 -1.34167 -6.73206 272.233 
1.69631e-05 2.62808e-06 2.68314e+25 0.0093576 -0.822316 272.819 
1.67242e-06 3.10592e-06 2.68962e+25 -6.41523 1.19262 271.728 
3.58375e-06 3.10592e-06 2.68895e+25 -7.46731 -1.58689 271.864 
5.49508e-06 3.10592e-06 2.69199e+25 -8.02044 -4.51959 271.708 
7.40642e-06 3.10592e-06 2.69072e+25 -7.61502 -6.86341 271.91 
9.31775e-06 3.10592e-06 2.68882e+25 -6.96492 -9.21144 272.184 
1.12291e-05 3.10592e-06 2.68888e+25 -5.7703 -10.8289 272.078 
1.31404e-05 3.10592e-06 2.69128e+25 -3.76597 -10.2172 272.001 
1.50518e-05 3.10592e-06 2.69048e+25 -1.26783 -7.16796 272.171 
1.69631e-05 3.10592e-06 2.68317e+25 -0.0474974 -0.885467 272.891 
1.67242e-06 3.58375e-06 2.69186e+25 -6.0769 1.41988 271.72 
3.58375e-06 3.58375e-06 2.68897e+25 -7.01117 -1.35135 271.949 
5.49508e-06 3.58375e-06 2.68912e+25 -7.91061 -4.53706 271.98 
7.40642e-06 3.58375e-06 2.68532e+25 -7.56964 -7.12899 272.27 
9.31775e-06 3.58375e-06 2.69019e+25 -7.29118 -9.27211 272.117 
1.12291e-05 3.58375e-06 2.69093e+25 -5.91504 -11.4046 272.199 
1.31404e-05 3.58375e-06 2.69179e+25 -3.79083 -10.9439 272.024 
1.50518e-05 3.58375e-06 2.69022e+25 -1.42069 -7.74285 272.159 
1.69631e-05 3.58375e-06 2.68372e+25 -0.0154808 -0.923928 272.915 
1.67242e-06 4.06158e-06 2.68982e+25 -5.56447 1.58661 271.877 
3.58375e-06 4.06158e-06 2.68906e+25 -6.43715 -1.04687 272.021 
5.49508e-06 4.06158e-06 2.68783e+25 -7.31496 -4.46131 271.963 
7.40642e-06 4.06158e-06 2.6861e+25 -7.33375 -7.09929 272.299 
9.31775e-06 4.06158e-06 2.68977e+25 -7.31618 -9.49124 272.086 
1.12291e-05 4.06158e-06 2.69242e+25 -6.12893 -11.81 271.925 
1.31404e-05 4.06158e-06 2.68964e+25 -3.85509 -11.5496 272.144 
1.50518e-05 4.06158e-06 2.68924e+25 -1.51313 -8.24759 272.195 
1.69631e-05 4.06158e-06 2.68598e+25 -0.0503646 -1.01828 272.934 
1.67242e-06 4.53942e-06 2.68834e+25 -5.30152 1.59377 271.902 
3.58375e-06 4.53942e-06 2.68588e+25 -5.91944 -0.699046 272.197 
5.49508e-06 4.53942e-06 2.68473e+25 -6.67386 -4.26823 272.234 
7.40642e-06 4.53942e-06 2.68886e+25 -7.0996 -7.04591 272.125 
9.31775e-06 4.53942e-06 2.68685e+25 -7.22805 -9.82518 272.177 
1.12291e-05 4.53942e-06 2.69166e+25 -6.12346 -12.1301 271.944 
1.31404e-05 4.53942e-06 2.69314e+25 -3.89792 -12.2371 271.885 
1.50518e-05 4.53942e-06 2.68992e+25 -1.39344 -8.7312 272.181 
1.69631e-05 4.53942e-06 2.68431e+25 -0.0616439 -1.14405 272.816 
1.67242e-06 5.01725e-06 2.68759e+25 -4.93656 1.72104 272.105 
3.58375e-06 5.01725e-06 2.68673e+25 -5.43726 -0.537524 272.118 
5.49508e-06 5.01725e-06 2.68827e+25 -6.17596 -4.06963 272.18 
7.40642e-06 5.01725e-06 2.68769e+25 -6.7961 -6.94923 272.168 
9.31775e-06 5.01725e-06 2.68603e+25 -6.8898 -10.058 272.274 
1.12291e-05 5.01725e-06 2.68904e+25 -6.09117 -12.4017 272.104 
1.31404e-05 5.01725e-06 2.69357e+25 -3.89872 -12.9514 271.867 
1.50518e-05 5.01725e-06 2.69016e+25 -1.38511 -9.21639 272.374 
1.69631e-05 5.01725e-06 2.68537e+25 -0.0921552 -1.30988 272.786 
1.67242e-06 5.49508e-06 2.68923e+25 -4.44183 1.91118 271.933 
3.58375e-06 5.49508e-06 2.68719e+25 -4.82759 -0.562408 272.052 
5.49508e-06 5.49508e-06 2.6864e+25 -5.71153 -3.9252 272.226 
7.40642e-06 5.49508e-06 2.6882e+25 -6.55219 -6.86403 272.114 
9.31775e-06 5.49508e-06 2.688e+25 -6.74251 -10.2824 272.266 
1.12291e-05 5.49508e-06 2.68876e+25 -5.6582 -12.8107 272.03 
1.31404e-05 5.49508e-06 2.69101e+25 -3.88265 -13.465 271.996 
1.50518e-05 5.49508e-06 2.68992e+25 -1.4125 -9.71356 272.313 
1.69631e-05 5.49508e-06 2.68586e+25 -0.0250345 -1.4155 272.653 
1.67242e-06 5.97292e-06 2.6899e+25 -3.63824 2.06448 271.825 
3.58375e-06 5.97292e-06 2.68577e+25 -4.2186 -0.439811 272.048 
5.49508e-06 5.97292e-06 2.68594e+25 -5.04472 -3.52855 272.081 
7.40642e-06 5.97292e-06 2.68819e+25 -6.01908 -6.83476 272.026 
9.31775e-06 5.97292e-06 2.68825e+25 -6.2204 -10.3708 272.229 
1.12291e-05 5.97292e-06 2.6898e+25 -5.5507 -13.2879 272.092 
1.31404e-05 5.97292e-06 2.6908e+25 -3.59275 -14.0535 272.168 
1.50518e-05 5.97292e-06 2.68831e+25 -1.50652 -10.2961 272.225 
1.69631e-05 5.97292e-06 2.68595e+25 -0.0449819 -1.508 272.621 
1.67242e-06 6.45075e-06 2.6859e+25 -3.0284 2.14677 272.017 
3.58375e-06 6.45075e-06 2.68621e+25 -3.51083 -0.200463 272.138 
5.49508e-06 6.45075e-06 2.68646e+25 -4.27751 -3.09465 272.02 
7.40642e-06 6.45075e-06 2.68727e+25 -5.483 -6.74291 272.007 
9.31775e-06 6.45075e-06 2.68957e+25 -5.89231 -10.3667 271.952 
1.12291e-05 6.45075e-06 2.68958e+25 -5.50574 -13.5205 272.133 
1.31404e-05 6.45075e-06 2.6893e+25 -3.96759 -14.5622 272.296 
1.50518e-05 6.45075e-06 2.69106e+25 -1.48811 -10.8201 272.282 
1.69631e-05 6.45075e-06 2.68296e+25 0.00581758 -1.61957 272.838 
1.67242e-06 6.92858e-06 2.68939e+25 -2.18854 2.20486 271.995 
3.58375e-06 6.92858e-06 2.68448e+25 -2.82102 0.0532948 272.176 
5.49508e-06 6.92858e-06 2.68719e+25 -3.53557 -2.75534 271.996 
7.40642e-06 6.92858e-06 2.6871e+25 -4.84675 -6.54126 271.986 
9.31775e-06 6.92858e-06 2.68758e+25 -5.51935 -10.2493 272.169 
1.12291e-05 6.92858e-06 2.6869e+25 -5.27519 -13.6312 272.411 
1.31404e-05 6.92858e-06 2.69074e+25 -4.19032 -15.0269 272.229 
1.50518e-05 6.92858e-06 2.69337e+25 -1.48909 -11.2963 271.987 
1.69631e-05 6.92858e-06 2.68363e+25 -0.101642 -1.70794 272.829 
1.67242e-06 7.40642e-06 2.6882e+25 -1.38914 2.14754 272.104 
3.58375e-06 7.40642e-06 2.68492e+25 -2.00726 0.260556 272.145 
5.49508e-06 7.40642e-06 2.68842e+25 -2.61501 -2.57204 272.013 
7.40642e-06 7.40642e-06 2.68774e+25 -3.95345 -6.2886 272.077 
9.31775e-06 7.40642e-06 2.68682e+25 -4.69353 -10.0793 272.281 
1.12291e-05 7.40642e-06 2.68755e+25 -5.152 -13.6455 272.492 
1.31404e-05 7.40642e-06 2.69022e+25 -4.14414 -15.6739 272.252 
1.50518e-05 7.40642e-06 2.69089e+25 -1.71222 -11.9479 272.213 
1.69631e-05 7.40642e-06 2.68538e+25 -0.088608 -1.92812 272.81 
1.67242e-06 7.88425e-06 2.68549e+25 -0.762716 2.09674 272.138 
3.58375e-06 7.88425e-06 2.6859e+25 -0.923699 0.380947 272.063 
5.49508e-06 7.88425e-06 2.68563e+25 -1.69327 -2.45143 272.252 
7.40642e-06 7.88425e-06 2.68301e+25 -2.91582 -5.97159 272.353 
9.31775e-06 7.88425e-06 2.68481e+25 -3.86025 -9.71012 272.449 
1.12291e-05 7.88425e-06 2.68758e+25 -4.90548 -13.6907 272.228 
1.31404e-05 7.88425e-06 2.69046e+25 -4.18452 -16.2177 272.263 
1.50518e-05 7.88425e-06 2.69245e+25 -1.76366 -12.5907 272.369 
1.69631e-05 7.88425e-06 2.68684e+25 -0.0251703 -2.07925 272.746 
1.67242e-06 8.36208e-06 2.68937e+25 -0.121768 2.07408 271.77 
3.58375e-06 8.36208e-06 2.68541e+25 -0.0729604 0.396467 272.173 
5.49508e-06 8.36208e-06 2.68469e+25 -0.886403 -2.33261 272.403 
7.40642e-06 8.36208e-06 2.68624e+25 -1.99939 -5.53841 272.189 
9.31775e-06 8.36208e-06 2.68567e+25 -3.31229 -9.33989 272.346 
1.12291e-05 8.36208e-06 2.69085e+25 -4.43879 -13.512 272.182 
1.31404e-05 8.36208e-06 2.69052e+25 -4.22112 -16.6416 272.322 
1.50518e-05 8.36208e-06 2.68966e+25 -1.9765 -13.1626 272.379 
1.69631e-05 8.36208e-06 2.68473e+25 -0.0236963 -2.17197 272.855 
1.67242e-06 8.83992e-06 2.69015e+25 0.59653 2.03845 271.644 
3.58375e-06 8.83992e-06 2.68727e+25 0.868649 0.450619 272.071 
5.49508e-06 8.83992e-06 2.68651e+25 0.11663 -2.12915 272.267 
7.40642e-06 8.83992e-06 2.68564e+25 -0.9903 -5.17295 272.291 
9.31775e-06 8.83992e-06 2.68826e+25 -2.54664 -8.94642 272.252 
1.12291e-05 8.83992e-06 2.68825e+25 -3.81811 -13.2208 272.3 
1.31404e-05 8.83992e-06 2.69202e+25 -4.09341 -16.9466 272.389 
1.50518e-05 8.83992e-06 2.69149e+25 -2.16185 -13.825 272.428 
1.69631e-05 8.83992e-06 2.6871e+25 -0.0586838 -2.24025 272.732 
1.67242e-06 9.31775e-06 2.68823e+25 1.44063 2.13263 271.834 
3.58375e-06 9.31775e-06 2.68486e+25 1.63197 0.412666 272.194 
5.49508e-06 9.31775e-06 2.68422e+25 1.28284 -1.88727 272.257 
7.40642e-06 9.31775e-06 2.68293e+25 -0.0584175 -4.88963 272.404 
9.31775e-06 9.31775e-06 2.68663e+25 -1.61316 -8.6328 272.291 
1.12291e-05 9.31775e-06 2.69037e+25 -3.13526 -12.9458 272.217 
1.31404e-05 9.31775e-06 2.69057e+25 -3.94914 -16.9857 272.385 
1.50518e-05 9.31775e-06 2.69439e+25 -2.23342 -14.5218 272.324 
1.69631e-05 9.31775e-06 2.68647e+25 -0.0965837 -2.45811 272.92 
1.67242e-06 9.79558e-06 2.68656e+25 2.78643 2.0723 271.931 
3.58375e-06 9.79558e-06 2.68387e+25 2.83771 0.423616 272.245 
5.49508e-06 9.79558e-06 2.68304e+25 2.35466 -1.58018 272.321 
7.40642e-06 9.79558e-06 2.68518e+25 1.46593 -4.51968 272.2 
9.31775e-06 9.79558e-06 2.68969e+25 -0.325914 -8.33806 272.111 
1.12291e-05 9.79558e-06 2.69136e+25 -2.36752 -12.3919 271.986 
1.31404e-05 9.79558e-06 2.68894e+25 -3.56136 -16.8752 272.555 
1.50518e-05 9.79558e-06 2.69182e+25 -2.23972 -15.172 272.514 
1.69631e-05 9.79558e-06 2.68768e+25 -0.0931633 -2.68093 272.813 
1.67242e-06 1.02734e-05 2.68781e+25 3.8475 1.93777 271.891 
3.58375e-06 1.02734e-05 2.68365e+25 4.00758 0.475496 272.276 
5.49508e-06 1.02734e-05 2.68278e+25 3.62314 -1.33477 272.354 
7.40642e-06 1.02734e-05 2.685e+25 2.73696 -4.2083 272.274 
9.31775e-06 1.02734e-05 2.68715e+25 0.993912 -7.82815 272.307 
1.12291e-05 1.02734e-05 2.69049e+25 -1.4446 -11.8585 272.125 
1.31404e-05 1.02734e-05 2.68976e+25 -3.07918 -16.8169 272.684 
1.50518e-05 1.02734e-05 2.69232e+25 -1.97094 -15.9067 272.485 
1.69631e-05 1.02734e-05 2.68888e+25 -0.0548231 -2.84392 272.854 
1.67242e-06 1.07512e-05 2.68746e+25 5.00457 1.85858 271.86 
3.58375e-06 1.07512e-05 2.68727e+25 5.34484 0.458622 272.158 
5.49508e-06 1.07512e-05 2.68348e+25 4.83441 -1.09845 272.397 
7.40642e-06 1.07512e-05 2.68735e+25 4.05465 -3.85199 272.062 
9.31775e-06 1.07512e-05 2.68767e+25 2.02328 -7.23408 272.243 
1.12291e-05 1.07512e-05 2.69036e+25 -0.512788 -11.2665 272.241 
1.31404e-05 1.07512e-05 2.68965e+25 -2.53305 -16.5356 272.559 
1.50518e-05 1.07512e-05 2.69672e+25 -2.00591 -16.4781 272.165 
1.69631e-05 1.07512e-05 2.68947e+25 -0.0927985 -3.00461 272.823 
1.67242e-06 1.12291e-05 2.68683e+25 6.19906 1.63988 272.01 
3.58375e-06 1.12291e-05 2.6875e+25 6.68721 0.57846 272.054 
5.49508e-06 1.12291e-05 2.68444e+25 6.37423 -1.01934 272.271 
7.40642e-06 1.12291e-05 2.68467e+25 5.53762 -3.42463 272.211 
9.31775e-06 1.12291e-05 2.68576e+25 3.53373 -6.67534 272.516 
1.12291e-05 1.12291e-05 2.69048e+25 0.522046 -10.6921 272.223 
1.31404e-05 1.12291e-05 2.69211e+25 -1.83108 -16.0598 272.457 
1.50518e-05 1.12291e-05 2.69548e+25 -2.17057 -17.0447 272.381 
1.69631e-05 1.12291e-05 2.69206e+25 -0.0672565 -3.19086 272.772 
1.67242e-06 1.17069e-05 2.68765e+25 7.46526 1.51002 271.991 
3.58375e-06 1.17069e-05 2.68687e+25 8.23653 0.575716 272.151 
5.49508e-06 1.17069e-05 2.68713e+25 7.81362 -1.06333 272.071 
7.40642e-06 1.17069e-05 2.69028e+25 6.68169 -3.08855 271.924 
9.31775e-06 1.17069e-05 2.68499e+25 4.75578 -6.04658 272.555 
1.12291e-05 1.17069e-05 2.69136e+25 1.55548 -9.95712 272.233 
1.31404e-05 1.17069e-05 2.69198e+25 -1.46509 -15.5112 272.385 
1.50518e-05 1.17069e-05 2.69503e+25 -2.22571 -17.4373 272.504 
1.69631e-05 1.17069e-05 2.69038e+25 -0.0701196 -3.39604 273.022 
1.67242e-06 1.21847e-05 2.68801e+25 9.02968 1.37908 271.875 
3.58375e-06 1.21847e-05 2.68645e+25 9.48308 0.532272 271.92 
5.49508e-06 1.21847e-05 2.68662e+25 9.36317 -0.991971 272.008 
7.40642e-06 1.21847e-05 2.68797e+25 8.04234 -2.56391 272.089 
9.31775e-06 1.21847e-05 2.68683e+25 6.47376 -5.30002 272.328 
1.12291e-05 1.21847e-05 2.69292e+25 3.13144 -9.13395 272.187 
1.31404e-05 1.21847e-05 2.693e+25 -0.58346 -14.9593 272.447 
1.50518e-05 1.21847e-05 2.6978e+25 -2.236 -17.6512 272.437 
1.69631e-05 1.21847e-05 2.69322e+25 -0.10355 -3.6217 272.974 
1.67242e-06 1.26626e-05 2.68642e+25 10.8334 1.21233 271.983 
3.58375e-06 1.26626e-05 2.68822e+25 11.0389 0.535161 271.97 
5.49508e-06 1.26626e-05 2.68633e+25 11.1073 -0.764835 272.085 
7.40642e-06 1.26626e-05 2.685e+25 10.0468 -2.18759 272.182 
9.31775e-06 1.26626e-05 2.69071e+25 8.31271 -4.58349 272.196 
1.12291e-05 1.26626e-05 2.69186e+25 4.90708 -8.13715 272.324 
1.31404e-05 1.26626e-05 2.6936e+25 0.543216 -14.0905 272.391 
1.50518e-05 1.26626e-05 2.70053e+25 -2.09136 -17.7992 272.407 
1.69631e-05 1.26626e-05 2.69733e+25 -0.174553 -3.94344 272.854 
1.67242e-06 1.31404e-05 2.68703e+25 12.5724 1.18791 272.076 
3.58375e-06 1.31404e-05 2.6845e+25 13.0183 0.517878 272.174 
5.49508e-06 1.31404e-05 2.68651e+25 13.0509 -0.590991 272.128 
7.40642e-06 1.31404e-05 2.68706e+25 12.1131 -1.89843 272.189 
9.31775e-06 1.31404e-05 2.6892e+25 10.1762 -3.97472 272.141 
1.12291e-05 1.31404e-05 2.69192e+25 6.9673 -7.07247 272.296 
1.31404e-05 1.31404e-05 2.69595e+25 1.90036 -12.8117 272.419 
1.50518e-05 1.31404e-05 2.70013e+25 -2.09751 -17.7429 272.615 
1.69631e-05 1.31404e-05 2.69939e+25 -0.17989 -4.33883 272.873 
1.67242e-06 1.36182e-05 2.68746e+25 14.573 1.09451 272.019 
3.58375e-06 1.36182e-05 2.68592e+25 15.0309 0.367116 272.133 
5.49508e-06 1.36182e-05 2.68698e+25 15.0837 -0.350181 272.288 
7.40642e-06 1.36182e-05 2.68619e+25 14.2002 -1.5795 272.193 
9.31775e-06 1.36182e-05 2.69001e+25 12.2693 -3.37449 272.205 
1.12291e-05 1.36182e-05 2.69193e+25 9.06725 -6.09807 272.388 
1.31404e-05 1.36182e-05 2.69453e+25 3.34386 -11.3105 272.692 
1.50518e-05 1.36182e-05 2.70287e+25 -1.90958 -17.3867 272.476 
1.69631e-05 1.36182e-05 2.7006e+25 -0.223002 -4.77682 272.82 
1.67242e-06 1.40961e-05 2.68721e+25 16.6083 0.939037 272.186 
3.58375e-06 1.40961e-05 2.6844e+25 17.1409 0.0967606 272.271 
5.49508e-06 1.40961e-05 2.68444e+25 16.9639 -0.090742 272.372 
7.40642e-06 1.40961e-05 2.6881e+25 16.4416 -1.38837 272.246 
9.31775e-06 1.40961e-05 2.68948e+25 14.5252 -2.75973 272.344 
1.12291e-05 1.40961e-05 2.69072e+25 11.3503 -4.96918 272.486 
1.31404e-05 1.40961e-05 2.69628e+25 5.38619 -9.55798 272.668 
1.50518e-05 1.40961e-05 2.70462e+25 -1.26699 -16.6182 272.533 
1.69631e-05 1.40961e-05 2.70576e+25 -0.204133 -5.29238 272.814 
1.67242e-06 1.45739e-05 2.68438e+25 18.9327 0.830174 272.254 
3.58375e-06 1.45739e-05 2.68515e+25 19.3977 0.0464699 272.201 
5.49508e-06 1.45739e-05 2.68686e+25 19.4674 0.104255 272.191 
7.40642e-06 1.45739e-05 2.68599e+25 18.8029 -1.17149 272.329 
9.31775e-06 1.45739e-05 2.68782e+25 16.9408 -2.21079 272.333 
1.12291e-05 1.45739e-05 2.69099e+25 13.5791 -3.73092 272.635 
1.31404e-05 1.45739e-05 2.69657e+25 7.85889 -7.68124 272.587 
1.50518e-05 1.45739e-05 2.70629e+25 -0.282061 -15.3767 272.685 
1.69631e-05 1.45739e-05 2.71106e+25 -0.321751 -5.89265 272.83 
1.67242e-06 1.50518e-05 2.68395e+25 21.6048 0.68759 272.364 
3.58375e-06 1.50518e-05 2.68521e+25 21.9934 0.00946548 272.319 
5.49508e-06 1.50518e-05 2.68608e+25 21.8063 0.207607 272.292 
7.40642e-06 1.50518e-05 2.68772e+25 21.3401 -0.979414 272.313 
9.31775e-06 1.50518e-05 2.68888e+25 19.7042 -1.68375 272.41 
1.12291e-05 1.50518e-05 2.69e+25 16.409 -2.64862 272.741 
1.31404e-05 1.50518e-05 2.69499e+25 10.8343 -5.70248 272.87 
1.50518e-05 1.50518e-05 2.70769e+25 1.492 -13.4442 272.698 
1.69631e-05 1.50518e-05 2.71585e+25 -0.470929 -6.73217 272.998 
1.67242e-06 1.55296e-05 2.68241e+25 24.4598 0.602941 272.536 
3.58375e-06 1.55296e-05 2.68616e+25 24.6216 -0.0523735 272.21 
5.49508e-06 1.55296e-05 2.68688e+25 24.5572 0.198737 272.307 
7.40642e-06 1.55296e-05 2.68718e+25 24.069 -0.719787 272.265 
9.31775e-06 1.55296e-05 2.68799e+25 22.5425 -1.14516 272.345 
1.12291e-05 1.55296e-05 2.69135e+25 19.7689 -1.67911 272.601 
1.31404e-05 1.55296e-05 2.69668e+25 14.5997 -3.77785 272.985 
1.50518e-05 1.55296e-05 2.7115e+25 4.48488 -10.6416 272.728 
1.69631e-05 1.55296e-05 2.72807e+25 -0.561893 -7.78533 273.001 
1.67242e-06 1.60074e-05 2.68158e+25 27.1973 0.443388 272.628 
3.58375e-06 1.60074e-05 2.68694e+25 27.4959 -0.0280965 272.212 
5.49508e-06 1.60074e-05 2.68476e+25 27.5555 0.122413 272.48 
7.40642e-06 1.60074e-05 2.68563e+25 26.9776 -0.316245 272.494 
9.31775e-06 1.60074e-05 2.68622e+25 25.7467 -0.577287 272.56 
1.12291e-05 1.60074e-05 2.69082e+25 23.6646 -0.89798 272.653 
1.31404e-05 1.60074e-05 2.69421e+25 19.136 -2.13448 273.094 
1.50518e-05 1.60074e-05 2.71074e+25 9.44046 -7.13654 273.219 
1.69631e-05 1.60074e-05 2.74549e+25 -0.625972 -8.92358 272.969 
1.67242e-06 1.64852e-05 2.67963e+25 30.1382 0.279655 272.787 
3.58375e-06 1.64852e-05 2.68351e+25 30.2369 -0.021199 272.431 
5.49508e-06 1.64852e-05 2.68204e+25 30.4128 0.0492223 272.652 
7.40642e-06 1.64852e-05 2.68386e+25 29.9888 -0.173435 272.552 
9.31775e-06 1.64852e-05 2.68532e+25 29.1796 -0.244725 272.577 
1.12291e-05 1.64852e-05 2.69018e+25 27.7904 -0.450002 272.715 
1.31404e-05 1.64852e-05 2.69179e+25 24.7052 -0.843499 273.282 
1.50518e-05 1.64852e-05 2.70879e+25 16.8498 -3.54283 273.394 
1.69631e-05 1.64852e-05 2.77091e+25 -0.030011 -9.56795 273.24 
1.67242e-06 1.69631e-05 2.67841e+25 33.0108 0.13867 272.954 
3.58375e-06 1.69631e-05 2.68111e+25 32.9025 -0.0229737 272.777 
5.49508e-06 1.69631e-05 2.68021e+25 33.0713 0.015482 272.818 
7.40642e-06 1.69631e-05 2.68204e+25 32.9263 -0.0750625 272.845 
9.31775e-06 1.69631e-05 2.68368e+25 32.361 -0.0396283 272.929 
1.12291e-05 1.69631e-05 2.68904e+25 31.7546 -0.107997 272.849 
1.31404e-05 1.69631e-05 2.69224e+25 30.77 -0.1448 273.25 
1.50518e-05 1.69631e-05 2.70791e+25 26.7461 -0.810747 273.214 
1.69631e-05 1.69631e-05 2.85177e+25 4.08825 -6.15932 273.915 
2.38917e-07 2.38917e-07 2.68792e+25 -7.58747 1.73557 271.873 
2.15025e-06 2.38917e-07 2.69046e+25 -8.19187 -0.545265 271.676 
4.06158e-06 2.38917e-07 2.68827e+25 -8.14781 -2.45502 272.001 
5.97292e-06 2.38917e-07 2.68742e+25 -7.45332 -4.21226 272.139 
7.88425e-06 2.38917e-07 2.6892e+25 -7.20761 -6.49859 272.016 
9.79558e-06 2.38917e-07 2.68999e+25 -5.79118 -8.24312 271.969 
1.17069e-05 2.38917e-07 2.68678e+25 -4.33464 -7.91064 272.276 
1.36182e-05 2.38917e-07 2.68785e+25 -2.25286 -6.57262 272.087 
1.55296e-05 2.38917e-07 2.68688e+25 -0.696673 -3.4528 272.304 
2.38917e-07 7.1675e-07 2.68881e+25 -7.39792 1.80242 271.973 
2.15025e-06 7.1675e-07 2.69113e+25 -8.00079 -0.360984 271.85 
4.06158e-06 7.1675e-07 2.69163e+25 -8.25359 -2.66709 271.868 
5.97292e-06 7.1675e-07 2.68965e+25 -7.51422 -4.4123 272.118 
7.88425e-06 7.1675e-07 2.68986e+25 -7.12157 -6.62624 272.123 
9.79558e-06 7.1675e-07 2.69203e+25 -6.04782 -8.62222 271.908 
1.17069e-05 7.1675e-07 2.68875e+25 -4.34295 -8.22301 272.237 
1.36182e-05 7.1675e-07 2.68944e+25 -2.65612 -7.12362 272.316 
1.55296e-05 7.1675e-07 2.68818e+25 -0.648229 -3.78251 272.424 
2.38917e-07 1.19458e-06 2.68737e+25 -7.15806 2.02143 272.081 
2.15025e-06 1.19458e-06 2.69245e+25 -7.7152 -0.30921 271.671 
4.06158e-06 1.19458e-06 2.69094e+25 -8.0748 -2.73982 271.868 
5.97292e-06 1.19458e-06 2.68949e+25 -7.73183 -4.656 272.208 
7.88425e-06 1.19458e-06 2.69046e+25 -7.1409 -6.6803 272.064 
9.79558e-06 1.19458e-06 2.68942e+25 -6.23414 -8.92632 272.097 
1.17069e-05 1.19458e-06 2.69092e+25 -4.57301 -8.78141 272.061 
1.36182e-05 1.19458e-06 2.68878e+25 -2.34149 -7.70923 272.359 
1.55296e-05 1.19458e-06 2.68908e+25 -0.711852 -4.24258 272.257 
2.38917e-07 1.67242e-06 2.68642e+25 -6.66037 2.19215 271.95 
2.15025e-06 1.67242e-06 2.69035e+25 -7.71689 -0.212771 271.844 
4.06158e-06 1.67242e-06 2.69336e+25 -8.07007 -2.75221 271.62 
5.97292e-06 1.67242e-06 2.69105e+25 -7.83635 -4.90041 271.987 
7.88425e-06 1.67242e-06 2.68875e+25 -7.17382 -6.91722 272.27 
9.79558e-06 1.67242e-06 2.68866e+25 -6.44094 -9.13097 272.193 
1.17069e-05 1.67242e-06 2.69072e+25 -4.65098 -9.31885 272.138 
1.36182e-05 1.67242e-06 2.68792e+25 -2.52245 -8.22002 272.343 
1.55296e-05 1.67242e-06 2.6877e+25 -0.633925 -4.50889 272.308 
2.38917e-07 2.15025e-06 2.68824e+25 -6.62747 2.3612 271.854 
2.15025e-06 2.15025e-06 2.69068e+25 -7.48534 0.0601964 271.91 
4.06158e-06 2.15025e-06 2.69153e+25 -8.22045 -2.64622 271.753 
5.97292e-06 2.15025e-06 2.68987e+25 -7.9649 -5.06253 272.005 
7.88425e-06 2.15025e-06 2.68888e+25 -7.32676 -7.16277 272.274 
9.79558e-06 2.15025e-06 2.68817e+25 -6.45733 -9.41375 272.282 
1.17069e-05 2.15025e-06 2.69142e+25 -4.71445 -9.80767 272.009 
1.36182e-05 2.15025e-06 2.69011e+25 -2.75497 -8.62477 272.285 
1.55296e-05 2.15025e-06 2.69004e+25 -0.68033 -4.89513 272.216 
2.38917e-07 2.62808e-06 2.68992e+25 -6.33535 2.5566 271.748 
2.15025e-06 2.62808e-06 2.69154e+25 -7.14518 0.322105 271.833 
4.06158e-06 2.62808e-06 2.69292e+25 -7.92482 -2.52539 271.72 
5.97292e-06 2.62808e-06 2.6897e+25 -7.97297 -5.13134 271.915 
7.88425e-06 2.62808e-06 2.68976e+25 -7.41491 -7.43272 272.008 
9.79558e-06 2.62808e-06 2.6877e+25 -6.68547 -9.67269 272.194 
1.17069e-05 2.62808e-06 2.69171e+25 -5.14442 -10.2378 271.988 
1.36182e-05 2.62808e-06 2.6921e+25 -2.97316 -9.08459 271.953 
1.55296e-05 2.62808e-06 2.69018e+25 -0.889276 -5.34719 272.277 
2.38917e-07 3.10592e-06 2.68637e+25 -5.96733 2.72363 271.957 
2.15025e-06 3.10592e-06 2.69079e+25 -6.76246 0.670153 271.761 
4.06158e-06 3.10592e-06 2.69179e+25 -7.62356 -2.41286 271.785 
5.97292e-06 3.10592e-06 2.68897e+25 -7.9834 -5.09882 271.892 
7.88425e-06 3.10592e-06 2.68855e+25 -7.32938 -7.66681 272.16 
9.79558e-06 3.10592e-06 2.68917e+25 -6.96955 -9.70956 272.138 
1.17069e-05 3.10592e-06 2.6908e+25 -5.22973 -10.8797 272.018 
1.36182e-05 3.10592e-06 2.69197e+25 -3.10268 -9.70672 272.039 
1.55296e-05 3.10592e-06 2.68732e+25 -0.860221 -5.79473 272.408 
2.38917e-07 3.58375e-06 2.686e+25 -5.55417 2.931 272.026 
2.15025e-06 3.58375e-06 2.69056e+25 -6.23449 0.884583 271.893 
4.06158e-06 3.58375e-06 2.68887e+25 -7.26947 -2.16271 272.051 
5.97292e-06 3.58375e-06 2.68659e+25 -7.90986 -5.09857 272.279 
7.88425e-06 3.58375e-06 2.6875e+25 -7.45643 -7.88879 272.264 
9.79558e-06 3.58375e-06 2.69048e+25 -7.03159 -9.78451 272.186 
1.17069e-05 3.58375e-06 2.69179e+25 -5.42279 -11.3443 272.051 
1.36182e-05 3.58375e-06 2.68982e+25 -3.14502 -10.2693 272.153 
1.55296e-05 3.58375e-06 2.68993e+25 -0.957158 -6.1311 272.276 
2.38917e-07 4.06158e-06 2.6827e+25 -5.23128 3.22624 272.116 
2.15025e-06 4.06158e-06 2.68857e+25 -5.66593 0.985625 272.037 
4.06158e-06 4.06158e-06 2.6875e+25 -6.8763 -1.79682 272.003 
5.97292e-06 4.06158e-06 2.68678e+25 -7.40348 -5.07374 272.176 
7.88425e-06 4.06158e-06 2.68741e+25 -7.37645 -7.92821 272.251 
9.79558e-06 4.06158e-06 2.68732e+25 -7.04614 -10.1447 272.248 
1.17069e-05 4.06158e-06 2.69294e+25 -5.60547 -11.8838 271.846 
1.36182e-05 4.06158e-06 2.69243e+25 -3.13589 -10.9459 271.991 
1.55296e-05 4.06158e-06 2.68835e+25 -1.01487 -6.64778 272.316 
2.38917e-07 4.53942e-06 2.68114e+25 -4.69838 3.42685 272.325 
2.15025e-06 4.53942e-06 2.68975e+25 -5.40492 1.17521 271.879 
4.06158e-06 4.53942e-06 2.68692e+25 -6.18596 -1.45785 272.082 
5.97292e-06 4.53942e-06 2.68519e+25 -6.82442 -5.20273 272.345 
7.88425e-06 4.53942e-06 2.68924e+25 -7.10802 -7.87985 272.11 
9.79558e-06 4.53942e-06 2.68631e+25 -6.86349 -10.4976 272.366 
1.17069e-05 4.53942e-06 2.69375e+25 -5.77455 -12.3737 271.939 
1.36182e-05 4.53942e-06 2.6919e+25 -3.30947 -11.5683 271.934 
1.55296e-05 4.53942e-06 2.68929e+25 -0.863824 -7.11806 272.277 
2.38917e-07 5.01725e-06 2.68228e+25 -4.50659 3.4799 272.308 
2.15025e-06 5.01725e-06 2.68724e+25 -5.00176 1.25155 271.968 
4.06158e-06 5.01725e-06 2.68947e+25 -5.52301 -1.22705 271.967 
5.97292e-06 5.01725e-06 2.68602e+25 -6.32535 -5.05439 272.28 
7.88425e-06 5.01725e-06 2.68827e+25 -6.93452 -7.73644 272.056 
9.79558e-06 5.01725e-06 2.6853e+25 -6.66077 -10.8396 272.37 
1.17069e-05 5.01725e-06 2.6913e+25 -5.66374 -12.8816 272.034 
1.36182e-05 5.01725e-06 2.69191e+25 -3.13113 -12.2333 271.946 
1.55296e-05 5.01725e-06 2.69028e+25 -0.904037 -7.59738 272.208 
2.38917e-07 5.49508e-06 2.68272e+25 -3.98324 3.57188 272.285 
2.15025e-06 5.49508e-06 2.6881e+25 -4.67293 1.42005 271.895 
4.06158e-06 5.49508e-06 2.68808e+25 -4.87057 -1.1609 271.895 
5.97292e-06 5.49508e-06 2.68612e+25 -5.91251 -4.78746 272.165 
7.88425e-06 5.49508e-06 2.68699e+25 -6.62389 -7.61768 272.034 
9.79558e-06 5.49508e-06 2.68916e+25 -6.47577 -11.0944 272.154 
1.17069e-05 5.49508e-06 2.69059e+25 -5.19633 -13.3883 272.134 
1.36182e-05 5.49508e-06 2.69259e+25 -3.23504 -13.0208 271.968 
1.55296e-05 5.49508e-06 2.68998e+25 -0.899691 -8.10246 272.344 
2.38917e-07 5.97292e-06 2.68342e+25 -3.63571 3.62735 272.215 
2.15025e-06 5.97292e-06 2.68751e+25 -3.7836 1.56856 271.866 
4.06158e-06 5.97292e-06 2.68688e+25 -4.3806 -1.0509 272.037 
5.97292e-06 5.97292e-06 2.68858e+25 -5.52668 -4.48997 271.995 
7.88425e-06 5.97292e-06 2.68834e+25 -6.07847 -7.54973 272.047 
9.79558e-06 5.97292e-06 2.68839e+25 -6.18209 -11.3016 272.172 
1.17069e-05 5.97292e-06 2.68855e+25 -5.1265 -13.8215 272.118 
1.36182e-05 5.97292e-06 2.68933e+25 -3.11031 -13.5306 272.205 
1.55296e-05 5.97292e-06 2.68927e+25 -1.02344 -8.56457 272.388 
2.38917e-07 6.45075e-06 2.68677e+25 -2.97315 3.55001 271.829 
2.15025e-06 6.45075e-06 2.68933e+25 -3.02435 1.61853 271.7 
4.06158e-06 6.45075e-06 2.68589e+25 -3.76951 -0.891748 272.165 
5.97292e-06 6.45075e-06 2.68581e+25 -4.69822 -4.11821 272.023 
7.88425e-06 6.45075e-06 2.68772e+25 -5.69417 -7.38869 272.06 
9.79558e-06 6.45075e-06 2.68714e+25 -5.9618 -11.2887 272.212 
1.17069e-05 6.45075e-06 2.68996e+25 -5.30979 -14.1895 272.096 
1.36182e-05 6.45075e-06 2.69008e+25 -3.3908 -14.1029 272.248 
1.55296e-05 6.45075e-06 2.6922e+25 -0.956472 -8.95876 272.167 
2.38917e-07 6.92858e-06 2.68924e+25 -2.44373 3.40498 271.677 
2.15025e-06 6.92858e-06 2.68763e+25 -2.15487 1.60272 271.993 
4.06158e-06 6.92858e-06 2.68631e+25 -2.97746 -0.724516 272.203 
5.97292e-06 6.92858e-06 2.68712e+25 -3.8084 -3.73707 271.873 
7.88425e-06 6.92858e-06 2.68465e+25 -5.06046 -7.25369 272.224 
9.79558e-06 6.92858e-06 2.68749e+25 -5.49426 -11.3807 272.346 
1.17069e-05 6.92858e-06 2.68582e+25 -5.2998 -14.3286 272.468 
1.36182e-05 6.92858e-06 2.69108e+25 -3.52533 -14.8827 272.109 
1.55296e-05 6.92858e-06 2.69026e+25 -0.984535 -9.42012 272.105 
2.38917e-07 7.40642e-06 2.68554e+25 -1.75375 3.3168 271.935 
2.15025e-06 7.40642e-06 2.68754e+25 -1.44645 1.64083 271.935 
4.06158e-06 7.40642e-06 2.68522e+25 -2.20664 -0.560946 272.193 
5.97292e-06 7.40642e-06 2.68757e+25 -2.86371 -3.45263 271.963 
7.88425e-06 7.40642e-06 2.688e+25 -4.14432 -7.06911 272.082 
9.79558e-06 7.40642e-06 2.68519e+25 -4.99396 -11.2957 272.454 
1.17069e-05 7.40642e-06 2.69007e+25 -5.06109 -14.3515 272.406 
1.36182e-05 7.40642e-06 2.68757e+25 -3.55958 -15.5226 272.404 
1.55296e-05 7.40642e-06 2.69235e+25 -1.05064 -9.96213 272.033 
2.38917e-07 7.88425e-06 2.68289e+25 -1.14618 3.29633 272.031 
2.15025e-06 7.88425e-06 2.68727e+25 -0.804826 1.87147 271.952 
4.06158e-06 7.88425e-06 2.68518e+25 -1.09791 -0.334853 272.28 
5.97292e-06 7.88425e-06 2.68391e+25 -1.89546 -3.10968 272.209 
7.88425e-06 7.88425e-06 2.68705e+25 -3.29474 -6.89213 272.173 
9.79558e-06 7.88425e-06 2.68492e+25 -4.39823 -10.8666 272.396 
1.17069e-05 7.88425e-06 2.68594e+25 -4.8864 -14.4039 272.586 
1.36182e-05 7.88425e-06 2.69285e+25 -3.67867 -16.0007 272.166 
1.55296e-05 7.88425e-06 2.6899e+25 -1.24562 -10.4961 272.204 
2.38917e-07 8.36208e-06 2.68396e+25 -0.251844 3.27445 272.001 
2.15025e-06 8.36208e-06 2.68526e+25 -0.173416 1.97739 272.013 
4.06158e-06 8.36208e-06 2.68584e+25 -0.197447 -0.0742152 272.2 
5.97292e-06 8.36208e-06 2.68406e+25 -1.05727 -2.84205 272.294 
7.88425e-06 8.36208e-06 2.68644e+25 -2.41855 -6.51673 272.159 
9.79558e-06 8.36208e-06 2.68707e+25 -3.65118 -10.3908 272.208 
1.17069e-05 8.36208e-06 2.68801e+25 -4.62372 -14.4031 272.369 
1.36182e-05 8.36208e-06 2.69049e+25 -3.82396 -16.484 272.373 
1.55296e-05 8.36208e-06 2.69017e+25 -1.32048 -11.0951 272.397 
2.38917e-07 8.83992e-06 2.68516e+25 0.775701 3.16171 271.938 
2.15025e-06 8.83992e-06 2.6878e+25 0.703107 1.87808 271.851 
4.06158e-06 8.83992e-06 2.68404e+25 0.84624 0.0598366 272.149 
5.97292e-06 8.83992e-06 2.68461e+25 -0.0830527 -2.68191 272.206 
7.88425e-06 8.83992e-06 2.68889e+25 -1.38615 -6.06358 272.067 
9.79558e-06 8.83992e-06 2.68698e+25 -2.84406 -10.1577 272.173 
1.17069e-05 8.83992e-06 2.68893e+25 -4.08255 -14.3339 272.418 
1.36182e-05 8.83992e-06 2.68781e+25 -3.81902 -16.9048 272.546 
1.55296e-05 8.83992e-06 2.69196e+25 -1.47303 -11.6898 272.358 
2.38917e-07 9.31775e-06 2.68927e+25 1.75904 3.04117 271.665 
2.15025e-06 9.31775e-06 2.68737e+25 1.41346 1.75439 271.939 
4.06158e-06 9.31775e-06 2.68444e+25 1.68109 -0.0102501 272.257 
5.97292e-06 9.31775e-06 2.68536e+25 0.949397 -2.39873 272.13 
7.88425e-06 9.31775e-06 2.6876e+25 -0.321471 -5.72356 272.167 
9.79558e-06 9.31775e-06 2.68713e+25 -1.94638 -9.80706 272.275 
1.17069e-05 9.31775e-06 2.68983e+25 -3.54265 -14.0088 272.232 
1.36182e-05 9.31775e-06 2.68904e+25 -3.87105 -17.2038 272.56 
1.55296e-05 9.31775e-06 2.69592e+25 -1.57437 -12.2899 272.08 
2.38917e-07 9.79558e-06 2.687e+25 2.52284 2.90421 271.842 
2.15025e-06 9.79558e-06 2.6859e+25 2.91214 1.79459 272.027 
4.06158e-06 9.79558e-06 2.68494e+25 2.82685 -0.0367898 272.292 
5.97292e-06 9.79558e-06 2.68467e+25 2.08367 -2.07042 272.241 
7.88425e-06 9.79558e-06 2.68851e+25 1.10801 -5.42173 272.063 
9.79558e-06 9.79558e-06 2.68746e+25 -0.802689 -9.36614 272.325 
1.17069e-05 9.79558e-06 2.692e+25 -2.86433 -13.6496 272.259 
1.36182e-05 9.79558e-06 2.68919e+25 -3.4866 -17.483 272.524 
1.55296e-05 9.79558e-06 2.69389e+25 -1.48395 -13.0565 272.332 
2.38917e-07 1.02734e-05 2.68624e+25 3.45344 2.92724 271.831 
2.15025e-06 1.02734e-05 2.68766e+25 4.0453 1.68399 271.919 
4.06158e-06 1.02734e-05 2.68144e+25 3.93306 -0.0173193 272.377 
5.97292e-06 1.02734e-05 2.68366e+25 3.32128 -1.76302 272.357 
7.88425e-06 1.02734e-05 2.68747e+25 2.35779 -5.05727 272.086 
9.79558e-06 1.02734e-05 2.68517e+25 0.449594 -8.79934 272.332 
1.17069e-05 1.02734e-05 2.68929e+25 -1.96791 -13.1752 272.431 
1.36182e-05 1.02734e-05 2.69021e+25 -3.13044 -17.6127 272.656 
1.55296e-05 1.02734e-05 2.69371e+25 -1.2807 -13.7266 272.377 
2.38917e-07 1.07512e-05 2.68652e+25 4.51929 2.98786 271.852 
2.15025e-06 1.07512e-05 2.68655e+25 5.0974 1.50283 271.943 
4.06158e-06 1.07512e-05 2.68342e+25 5.27646 0.138467 272.319 
5.97292e-06 1.07512e-05 2.68302e+25 4.74125 -1.58908 272.415 
7.88425e-06 1.07512e-05 2.68927e+25 3.64344 -4.59288 271.942 
9.79558e-06 1.07512e-05 2.68529e+25 1.44076 -8.30681 272.487 
1.17069e-05 1.07512e-05 2.69081e+25 -1.11631 -12.6423 272.4 
1.36182e-05 1.07512e-05 2.69105e+25 -2.7976 -17.5779 272.569 
1.55296e-05 1.07512e-05 2.69434e+25 -1.4116 -14.343 272.507 
2.38917e-07 1.12291e-05 2.68665e+25 5.52228 2.85258 271.817 
2.15025e-06 1.12291e-05 2.68752e+25 6.30412 1.39496 271.975 
4.06158e-06 1.12291e-05 2.68667e+25 6.62722 0.195197 272.138 
5.97292e-06 1.12291e-05 2.68402e+25 6.26044 -1.50721 272.262 
7.88425e-06 1.12291e-05 2.68644e+25 4.96611 -4.06654 272.025 
9.79558e-06 1.12291e-05 2.68567e+25 2.75125 -7.49119 272.537 
1.17069e-05 1.12291e-05 2.69104e+25 -0.0857622 -12.0651 272.281 
1.36182e-05 1.12291e-05 2.69381e+25 -2.32393 -17.227 272.314 
1.55296e-05 1.12291e-05 2.69513e+25 -1.60829 -14.9907 272.459 
2.38917e-07 1.17069e-05 2.68316e+25 7.0658 2.68059 272.212 
2.15025e-06 1.17069e-05 2.68751e+25 7.61782 1.22554 271.894 
4.06158e-06 1.17069e-05 2.68709e+25 8.09905 0.366806 272.004 
5.97292e-06 1.17069e-05 2.68749e+25 7.80767 -1.35319 272.174 
7.88425e-06 1.17069e-05 2.68819e+25 6.29994 -3.50773 272.001 
9.79558e-06 1.17069e-05 2.68721e+25 4.16043 -6.72914 272.471 
1.17069e-05 1.17069e-05 2.69189e+25 0.917124 -11.4614 272.274 
1.36182e-05 1.17069e-05 2.69412e+25 -1.88177 -16.8423 272.33 
1.55296e-05 1.17069e-05 2.69527e+25 -1.71675 -15.5797 272.478 
2.38917e-07 1.21847e-05 2.68509e+25 8.70631 2.40924 271.997 
2.15025e-06 1.21847e-05 2.68907e+25 9.21833 1.04763 271.87 
4.06158e-06 1.21847e-05 2.68762e+25 9.51259 0.506732 271.858 
5.97292e-06 1.21847e-05 2.68743e+25 9.13811 -1.18361 271.943 
7.88425e-06 1.21847e-05 2.68738e+25 7.79831 -3.25719 272.086 
9.79558e-06 1.21847e-05 2.68861e+25 5.63486 -6.06894 272.229 
1.17069e-05 1.21847e-05 2.6937e+25 2.13166 -10.6411 272.183 
1.36182e-05 1.21847e-05 2.6943e+25 -1.23485 -16.3588 272.314 
1.55296e-05 1.21847e-05 2.69932e+25 -1.9004 -16.1548 272.458 
2.38917e-07 1.26626e-05 2.68332e+25 10.3502 2.18685 272.084 
2.15025e-06 1.26626e-05 2.68937e+25 10.8959 0.89507 271.819 
4.06158e-06 1.26626e-05 2.68757e+25 11.155 0.453362 271.973 
5.97292e-06 1.26626e-05 2.68903e+25 10.9341 -0.983717 272.032 
7.88425e-06 1.26626e-05 2.6862e+25 9.66593 -3.03108 272.248 
9.79558e-06 1.26626e-05 2.68963e+25 7.53925 -5.19302 272.302 
1.17069e-05 1.26626e-05 2.694e+25 3.8187 -9.54584 272.139 
1.36182e-05 1.26626e-05 2.69847e+25 -0.525233 -15.4998 272.254 
1.55296e-05 1.26626e-05 2.70158e+25 -1.89117 -16.5379 272.479 
2.38917e-07 1.31404e-05 2.68174e+25 11.9961 1.99241 272.271 
2.15025e-06 1.31404e-05 2.68709e+25 12.6484 0.799461 271.933 
4.06158e-06 1.31404e-05 2.68614e+25 13.1295 0.227433 272.07 
5.97292e-06 1.31404e-05 2.68644e+25 12.9222 -0.860514 272.251 
7.88425e-06 1.31404e-05 2.68898e+25 11.6897 -2.59169 272.149 
9.79558e-06 1.31404e-05 2.68926e+25 9.5841 -4.48913 272.215 
1.17069e-05 1.31404e-05 2.69104e+25 5.85813 -8.42506 272.479 
1.36182e-05 1.31404e-05 2.69912e+25 0.511139 -14.3077 272.208 
1.55296e-05 1.31404e-05 2.70141e+25 -2.07906 -16.8698 272.613 
2.38917e-07 1.36182e-05 2.68289e+25 13.7541 1.62636 272.302 
2.15025e-06 1.36182e-05 2.68639e+25 14.6117 0.799516 272.019 
4.06158e-06 1.36182e-05 2.68427e+25 15.2031 0.146525 272.256 
5.97292e-06 1.36182e-05 2.68561e+25 14.7468 -0.682018 272.368 
7.88425e-06 1.36182e-05 2.69017e+25 13.8569 -2.19804 271.946 
9.79558e-06 1.36182e-05 2.69024e+25 11.5352 -3.76296 272.14 
1.17069e-05 1.36182e-05 2.69141e+25 7.85063 -7.06404 272.567 
1.36182e-05 1.36182e-05 2.69968e+25 1.692 -12.8266 272.275 
1.55296e-05 1.36182e-05 2.70403e+25 -2.06361 -17.0515 272.604 
2.38917e-07 1.40961e-05 2.68092e+25 15.9001 1.11888 272.319 
2.15025e-06 1.40961e-05 2.68817e+25 16.6901 0.768898 272.014 
4.06158e-06 1.40961e-05 2.6842e+25 17.2649 0.117017 272.282 
5.97292e-06 1.40961e-05 2.68532e+25 16.8072 -0.539041 272.237 
7.88425e-06 1.40961e-05 2.68828e+25 16.1032 -1.75092 272.134 
9.79558e-06 1.40961e-05 2.69019e+25 13.9097 -3.06826 272.288 
1.17069e-05 1.40961e-05 2.69122e+25 10.0213 -5.65965 272.731 
1.36182e-05 1.40961e-05 2.69885e+25 3.50104 -10.9986 272.514 
1.55296e-05 1.40961e-05 2.70711e+25 -1.83926 -16.9916 272.453 
2.38917e-07 1.45739e-05 2.68178e+25 18.0915 0.673354 272.297 
2.15025e-06 1.45739e-05 2.68547e+25 19.1613 0.586801 272.089 
4.06158e-06 1.45739e-05 2.68415e+25 19.4839 0.008398 272.301 
5.97292e-06 1.45739e-05 2.68371e+25 19.2116 -0.322403 272.427 
7.88425e-06 1.45739e-05 2.6871e+25 18.5439 -1.28324 272.229 
9.79558e-06 1.45739e-05 2.69154e+25 16.3116 -2.34161 272.318 
1.17069e-05 1.45739e-05 2.69194e+25 12.4019 -4.38062 272.699 
1.36182e-05 1.45739e-05 2.70042e+25 5.85533 -9.00408 272.657 
1.55296e-05 1.45739e-05 2.70891e+25 -1.49618 -16.5501 272.603 
2.38917e-07 1.50518e-05 2.68094e+25 20.9163 0.319278 272.455 
2.15025e-06 1.50518e-05 2.68613e+25 21.6871 0.432905 272.226 
4.06158e-06 1.50518e-05 2.6844e+25 21.9748 -0.0495446 272.235 
5.97292e-06 1.50518e-05 2.68181e+25 21.7978 -0.151698 272.5 
7.88425e-06 1.50518e-05 2.68872e+25 21.0445 -0.963798 272.373 
9.79558e-06 1.50518e-05 2.68933e+25 19.0861 -1.71745 272.453 
1.17069e-05 1.50518e-05 2.69259e+25 15.428 -3.27173 272.692 
1.36182e-05 1.50518e-05 2.69813e+25 8.8073 -6.96169 272.885 
1.55296e-05 1.50518e-05 2.71303e+25 -0.521677 -15.3558 272.592 
2.38917e-07 1.55296e-05 2.67953e+25 23.7941 0.100964 272.412 
2.15025e-06 1.55296e-05 2.68233e+25 24.5714 0.264525 272.506 
4.06158e-06 1.55296e-05 2.68545e+25 24.6209 -0.0102543 272.233 
5.97292e-06 1.55296e-05 2.68384e+25 24.7025 -0.19377 272.473 
7.88425e-06 1.55296e-05 2.68782e+25 23.7845 -0.672682 272.286 
9.79558e-06 1.55296e-05 2.68759e+25 22.0427 -1.12525 272.535 
1.17069e-05 1.55296e-05 2.69354e+25 18.8461 -2.27691 272.707 
1.36182e-05 1.55296e-05 2.6968e+25 12.6276 -4.81495 273.149 
1.55296e-05 1.55296e-05 2.71648e+25 1.43043 -13.1936 272.796 
2.38917e-07 1.60074e-05 2.68061e+25 26.7512 -0.0360646 272.561 
2.15025e-06 1.60074e-05 2.68055e+25 27.2474 0.207879 272.595 
4.06158e-06 1.60074e-05 2.68604e+25 27.3988 0.143657 272.262 
5.97292e-06 1.60074e-05 2.68496e+25 27.5758 -0.247839 272.412 
7.88425e-06 1.60074e-05 2.68655e+25 26.698 -0.501428 272.335 
9.79558e-06 1.60074e-05 2.68738e+25 25.2444 -0.684036 272.738 
1.17069e-05 1.60074e-05 2.69323e+25 22.893 -1.35735 272.622 
1.36182e-05 1.60074e-05 2.69742e+25 17.4229 -2.85448 273.019 
1.55296e-05 1.60074e-05 2.71885e+25 5.53828 -9.79562 273.12 
2.38917e-07 1.64852e-05 2.67869e+25 29.9532 -0.105655 272.637 
2.15025e-06 1.64852e-05 2.68163e+25 30.3186 0.0909447 272.577 
4.06158e-06 1.64852e-05 2.68303e+25 30.339 0.107401 272.414 
5.97292e-06 1.64852e-05 2.68256e+25 30.4116 -0.173895 272.524 
7.88425e-06 1.64852e-05 2.68557e+25 29.8825 -0.268489 272.447 
9.79558e-06 1.64852e-05 2.68516e+25 28.8816 -0.284824 272.748 
1.17069e-05 1.64852e-05 2.69091e+25 27.2137 -0.506086 272.696 
1.36182e-05 1.64852e-05 2.6945e+25 23.5857 -1.26605 273.32 
1.55296e-05 1.64852e-05 2.71796e+25 12.827 -5.34226 273.436 
2.38917e-07 1.69631e-05 2.67777e+25 32.9177 -0.0440099 272.815 
2.15025e-06 1.69631e-05 2.67973e+25 33.1516 -0.0568903 272.792 
4.06158e-06 1.69631e-05 2.68254e+25 32.9058 0.029806 272.69 
5.97292e-06 1.69631e-05 2.68193e+25 32.9955 -0.0337699 272.842 
7.88425e-06 1.69631e-05 2.68353e+25 32.7073 -0.0237037 272.781 
9.79558e-06 1.69631e-05 2.68506e+25 32.2295 -0.0521553 272.826 
1.17069e-05 1.69631e-05 2.69053e+25 31.4991 -0.0745639 272.905 
1.36182e-05 1.69631e-05 2.69132e+25 30.2305 -0.23968 273.426 
1.55296e-05 1.69631e-05 2.71555e+25 24.2308 -1.26339 273.48 
7.1675e-07 2.38917e-07 2.68989e+25 -7.77069 1.14299 271.883 
2.62808e-06 2.38917e-07 2.68786e+25 -8.26632 -0.948759 272.001 
4.53942e-06 2.38917e-07 2.68673e+25 -7.91871 -2.91007 272.059 
6.45075e-06 2.38917e-07 2.68563e+25 -7.33902 -5.05438 272.151 
8.36208e-06 2.38917e-07 2.68874e+25 -6.96856 -7.19732 271.953 
1.02734e-05 2.38917e-07 2.68836e+25 -5.41117 -8.20332 271.94 
1.21847e-05 2.38917e-07 2.68766e+25 -3.87383 -7.72575 272.192 
1.40961e-05 2.38917e-07 2.68853e+25 -1.7507 -5.95395 272.049 
1.60074e-05 2.38917e-07 2.68546e+25 -0.450705 -2.54595 272.229 
7.1675e-07 7.1675e-07 2.68892e+25 -7.53696 1.41093 271.926 
2.62808e-06 7.1675e-07 2.6889e+25 -8.07142 -1.02736 271.966 
4.53942e-06 7.1675e-07 2.68989e+25 -8.065 -3.07927 271.99 
6.45075e-06 7.1675e-07 2.69002e+25 -7.31935 -5.10731 271.972 
8.36208e-06 7.1675e-07 2.68926e+25 -7.03576 -7.35794 272.084 
1.02734e-05 7.1675e-07 2.6922e+25 -5.67527 -8.51899 271.881 
1.21847e-05 7.1675e-07 2.68908e+25 -4.00665 -8.14188 272.298 
1.40961e-05 7.1675e-07 2.68991e+25 -1.98002 -6.51485 272.138 
1.60074e-05 7.1675e-07 2.68869e+25 -0.299066 -2.76276 272.282 
7.1675e-07 1.19458e-06 2.68795e+25 -7.28817 1.53793 272.011 
2.62808e-06 1.19458e-06 2.69159e+25 -7.90505 -0.852521 271.726 
4.53942e-06 1.19458e-06 2.69096e+25 -8.1365 -3.16473 271.861 
6.45075e-06 1.19458e-06 2.69046e+25 -7.49271 -5.24373 271.992 
8.36208e-06 1.19458e-06 2.69114e+25 -6.98745 -7.54751 272.052 
1.02734e-05 1.19458e-06 2.69227e+25 -5.9424 -8.8839 272.007 
1.21847e-05 1.19458e-06 2.68852e+25 -3.97054 -8.58827 272.312 
1.40961e-05 1.19458e-06 2.68865e+25 -1.94411 -6.98322 272.305 
1.60074e-05 1.19458e-06 2.68789e+25 -0.424458 -2.97101 272.424 
7.1675e-07 1.67242e-06 2.68831e+25 -6.93377 1.73815 272.023 
2.62808e-06 1.67242e-06 2.69352e+25 -7.85565 -0.659914 271.829 
4.53942e-06 1.67242e-06 2.69182e+25 -8.10195 -3.07929 271.732 
6.45075e-06 1.67242e-06 2.68987e+25 -7.72245 -5.31177 272.044 
8.36208e-06 1.67242e-06 2.68976e+25 -6.94218 -7.72951 272.204 
1.02734e-05 1.67242e-06 2.69113e+25 -6.1234 -9.26286 272.036 
1.21847e-05 1.67242e-06 2.68853e+25 -4.01092 -9.23651 272.332 
1.40961e-05 1.67242e-06 2.68558e+25 -2.08841 -7.41697 272.367 
1.60074e-05 1.67242e-06 2.68709e+25 -0.371762 -3.1754 272.548 
7.1675e-07 2.15025e-06 2.69073e+25 -6.6861 1.95199 271.844 
2.62808e-06 2.15025e-06 2.6918e+25 -7.63942 -0.582515 271.851 
4.53942e-06 2.15025e-06 2.69087e+25 -8.30932 -3.18574 271.772 
6.45075e-06 2.15025e-06 2.68856e+25 -7.85439 -5.3785 272.044 
8.36208e-06 2.15025e-06 2.68957e+25 -7.04474 -8.03994 272.191 
1.02734e-05 2.15025e-06 2.68731e+25 -6.18372 -9.61146 272.369 
1.21847e-05 2.15025e-06 2.68886e+25 -4.36062 -9.79096 272.25 
1.40961e-05 2.15025e-06 2.68891e+25 -2.29125 -7.85453 272.09 
1.60074e-05 2.15025e-06 2.68653e+25 -0.391081 -3.46636 272.598 
7.1675e-07 2.62808e-06 2.68885e+25 -6.49832 2.08695 271.855 
2.62808e-06 2.62808e-06 2.69256e+25 -7.45646 -0.40925 271.67 
4.53942e-06 2.62808e-06 2.69199e+25 -7.93468 -3.14104 271.764 
6.45075e-06 2.62808e-06 2.68933e+25 -7.91276 -5.50168 271.907 
8.36208e-06 2.62808e-06 2.68821e+25 -7.1452 -8.3163 272.21 
1.02734e-05 2.62808e-06 2.68946e+25 -6.34641 -9.88326 272.161 
1.21847e-05 2.62808e-06 2.69149e+25 -4.54797 -10.3244 272.028 
1.40961e-05 2.62808e-06 2.6906e+25 -2.36733 -8.43343 272.117 
1.60074e-05 2.62808e-06 2.68704e+25 -0.452773 -3.77001 272.398 
7.1675e-07 3.10592e-06 2.68903e+25 -6.13808 2.25112 271.911 
2.62808e-06 3.10592e-06 2.69164e+25 -7.08253 -0.0969366 271.793 
4.53942e-06 3.10592e-06 2.68979e+25 -7.80193 -3.03248 271.769 
6.45075e-06 3.10592e-06 2.68975e+25 -7.96663 -5.62489 272.02 
8.36208e-06 3.10592e-06 2.68992e+25 -7.14576 -8.55144 272.136 
1.02734e-05 3.10592e-06 2.69093e+25 -6.75425 -10.414 272.12 
1.21847e-05 3.10592e-06 2.69099e+25 -4.72791 -10.792 272.038 
1.40961e-05 3.10592e-06 2.69073e+25 -2.46795 -9.07856 272.167 
1.60074e-05 3.10592e-06 2.68946e+25 -0.394308 -4.17087 272.438 
7.1675e-07 3.58375e-06 2.68981e+25 -5.81955 2.46863 271.994 
2.62808e-06 3.58375e-06 2.68725e+25 -6.30306 0.131902 271.943 
4.53942e-06 3.58375e-06 2.68751e+25 -7.58555 -2.83781 272.032 
6.45075e-06 3.58375e-06 2.68799e+25 -7.83025 -5.77775 272.252 
8.36208e-06 3.58375e-06 2.68949e+25 -7.37124 -8.60209 272.171 
1.02734e-05 3.58375e-06 2.69007e+25 -6.79152 -10.7537 272.166 
1.21847e-05 3.58375e-06 2.68942e+25 -4.94751 -11.2317 272.234 
1.40961e-05 3.58375e-06 2.69161e+25 -2.5322 -9.74062 272.19 
1.60074e-05 3.58375e-06 2.68817e+25 -0.566745 -4.59004 272.356 
7.1675e-07 4.06158e-06 2.68714e+25 -5.36615 2.64186 272.082 
2.62808e-06 4.06158e-06 2.68815e+25 -5.88059 0.26771 271.957 
4.53942e-06 4.06158e-06 2.68793e+25 -7.12069 -2.57232 272.065 
6.45075e-06 4.06158e-06 2.68647e+25 -7.32498 -5.91357 272.152 
8.36208e-06 4.06158e-06 2.68765e+25 -7.3537 -8.62928 272.25 
1.02734e-05 4.06158e-06 2.6889e+25 -6.66332 -11.0646 272.354 
1.21847e-05 4.06158e-06 2.69037e+25 -5.04657 -11.7796 272.107 
1.40961e-05 4.06158e-06 2.69089e+25 -2.49935 -10.3369 272.185 
1.60074e-05 4.06158e-06 2.68652e+25 -0.566725 -4.92141 272.551 
7.1675e-07 4.53942e-06 2.68766e+25 -4.83734 2.78901 272.017 
2.62808e-06 4.53942e-06 2.68828e+25 -5.59815 0.514673 271.994 
4.53942e-06 4.53942e-06 2.68778e+25 -6.45575 -2.41151 272.061 
6.45075e-06 4.53942e-06 2.68657e+25 -6.83218 -5.8832 272.249 
8.36208e-06 4.53942e-06 2.6882e+25 -7.27866 -8.55646 272.131 
1.02734e-05 4.53942e-06 2.68828e+25 -6.59344 -11.3103 272.211 
1.21847e-05 4.53942e-06 2.69277e+25 -5.22255 -12.4093 272.051 
1.40961e-05 4.53942e-06 2.69098e+25 -2.66907 -10.9282 272.038 
1.60074e-05 4.53942e-06 2.68969e+25 -0.505391 -5.30988 272.21 
7.1675e-07 5.01725e-06 2.68711e+25 -4.55445 2.92969 272.098 
2.62808e-06 5.01725e-06 2.68679e+25 -5.10927 0.743072 272.075 
4.53942e-06 5.01725e-06 2.68954e+25 -5.70903 -2.26297 271.96 
6.45075e-06 5.01725e-06 2.68529e+25 -6.53875 -5.79128 272.299 
8.36208e-06 5.01725e-06 2.68908e+25 -7.0789 -8.40498 272.044 
1.02734e-05 5.01725e-06 2.68683e+25 -6.4525 -11.4337 272.377 
1.21847e-05 5.01725e-06 2.68918e+25 -5.05625 -13.0389 272.195 
1.40961e-05 5.01725e-06 2.69223e+25 -2.43727 -11.5951 272.044 
1.60074e-05 5.01725e-06 2.68921e+25 -0.47325 -5.65696 272.343 
7.1675e-07 5.49508e-06 2.68689e+25 -4.08814 3.04147 272.141 
2.62808e-06 5.49508e-06 2.68944e+25 -4.79364 0.758632 271.976 
4.53942e-06 5.49508e-06 2.68864e+25 -5.03319 -1.97653 271.967 
6.45075e-06 5.49508e-06 2.68547e+25 -6.27738 -5.48802 272.176 
8.36208e-06 5.49508e-06 2.6855e+25 -6.73286 -8.33912 272.267 
1.02734e-05 5.49508e-06 2.68804e+25 -6.23074 -11.5853 272.325 
1.21847e-05 5.49508e-06 2.68851e+25 -4.81899 -13.5548 272.283 
1.40961e-05 5.49508e-06 2.69062e+25 -2.61203 -12.1863 272.139 
1.60074e-05 5.49508e-06 2.69092e+25 -0.449451 -5.96682 272.11 
7.1675e-07 5.97292e-06 2.68576e+25 -3.61332 3.19676 272.116 
2.62808e-06 5.97292e-06 2.68821e+25 -3.90527 0.870162 271.938 
4.53942e-06 5.97292e-06 2.68722e+25 -4.56343 -1.70144 272.043 
6.45075e-06 5.97292e-06 2.68824e+25 -5.76257 -5.26691 271.979 
8.36208e-06 5.97292e-06 2.68676e+25 -6.13322 -8.2513 272.157 
1.02734e-05 5.97292e-06 2.68552e+25 -6.06651 -11.7529 272.379 
1.21847e-05 5.97292e-06 2.68957e+25 -4.59109 -14.0355 272.167 
1.40961e-05 5.97292e-06 2.69113e+25 -2.67451 -12.767 272.173 
1.60074e-05 5.97292e-06 2.69002e+25 -0.616532 -6.35014 272.161 
7.1675e-07 6.45075e-06 2.68776e+25 -2.86112 3.16488 271.91 
2.62808e-06 6.45075e-06 2.68734e+25 -3.0944 1.02841 271.947 
4.53942e-06 6.45075e-06 2.68726e+25 -3.7818 -1.60339 271.972 
6.45075e-06 6.45075e-06 2.6874e+25 -5.02813 -5.06483 271.937 
8.36208e-06 6.45075e-06 2.68842e+25 -5.81029 -8.13411 272.029 
1.02734e-05 6.45075e-06 2.68664e+25 -5.82608 -11.9983 272.384 
1.21847e-05 6.45075e-06 2.68928e+25 -4.98958 -14.5443 272.142 
1.40961e-05 6.45075e-06 2.69079e+25 -2.55791 -13.4241 272.219 
1.60074e-05 6.45075e-06 2.69271e+25 -0.667549 -6.68899 272.021 
7.1675e-07 6.92858e-06 2.68921e+25 -2.25185 3.04233 271.845 
2.62808e-06 6.92858e-06 2.68537e+25 -2.22054 1.23158 272.019 
4.53942e-06 6.92858e-06 2.68619e+25 -3.25114 -1.49104 272.149 
6.45075e-06 6.92858e-06 2.68826e+25 -4.17118 -4.72951 271.913 
8.36208e-06 6.92858e-06 2.6867e+25 -5.28952 -7.90225 272.196 
1.02734e-05 6.92858e-06 2.68471e+25 -5.44857 -12.104 272.507 
1.21847e-05 6.92858e-06 2.68654e+25 -5.11434 -14.9132 272.315 
1.40961e-05 6.92858e-06 2.69153e+25 -2.78246 -14.1816 272.219 
1.60074e-05 6.92858e-06 2.69225e+25 -0.556893 -6.95689 272.17 
7.1675e-07 7.40642e-06 2.68689e+25 -1.69444 2.92226 271.984 
2.62808e-06 7.40642e-06 2.68665e+25 -1.69594 1.48767 272.001 
4.53942e-06 7.40642e-06 2.68434e+25 -2.28591 -1.26864 272.259 
6.45075e-06 7.40642e-06 2.68649e+25 -3.24885 -4.29921 272.016 
8.36208e-06 7.40642e-06 2.68794e+25 -4.26612 -7.73465 272.107 
1.02734e-05 7.40642e-06 2.68774e+25 -5.19577 -12.1093 272.367 
1.21847e-05 7.40642e-06 2.6883e+25 -5.05423 -15.0802 272.368 
1.40961e-05 7.40642e-06 2.69033e+25 -3.0311 -14.894 272.295 
1.60074e-05 7.40642e-06 2.69124e+25 -0.597371 -7.33003 272.273 
7.1675e-07 7.88425e-06 2.68613e+25 -1.08705 2.79329 272.02 
2.62808e-06 7.88425e-06 2.68434e+25 -0.956777 1.65741 272.128 
4.53942e-06 7.88425e-06 2.68247e+25 -1.34778 -1.16938 272.455 
6.45075e-06 7.88425e-06 2.68396e+25 -2.23544 -3.95002 272.269 
8.36208e-06 7.88425e-06 2.68844e+25 -3.45414 -7.62313 271.894 
1.02734e-05 7.88425e-06 2.68863e+25 -4.70197 -11.9534 272.305 
1.21847e-05 7.88425e-06 2.6883e+25 -4.79535 -15.1303 272.44 
1.40961e-05 7.88425e-06 2.69098e+25 -3.15024 -15.3538 272.266 
1.60074e-05 7.88425e-06 2.69267e+25 -0.681816 -7.81048 272.247 
7.1675e-07 8.36208e-06 2.68736e+25 -0.208108 2.66796 271.799 
2.62808e-06 8.36208e-06 2.68324e+25 -0.0833664 1.56936 272.116 
4.53942e-06 8.36208e-06 2.68347e+25 -0.425133 -0.941584 272.435 
6.45075e-06 8.36208e-06 2.68631e+25 -1.31736 -3.62786 272.152 
8.36208e-06 8.36208e-06 2.6878e+25 -2.70697 -7.54317 272.015 
1.02734e-05 8.36208e-06 2.68761e+25 -3.93748 -11.7715 272.181 
1.21847e-05 8.36208e-06 2.68957e+25 -4.52191 -15.2976 272.261 
1.40961e-05 8.36208e-06 2.69163e+25 -3.29725 -15.9665 272.457 
1.60074e-05 8.36208e-06 2.68956e+25 -0.790922 -8.35949 272.448 
7.1675e-07 8.83992e-06 2.68731e+25 0.786143 2.78401 271.839 
2.62808e-06 8.83992e-06 2.68608e+25 0.795187 1.47728 272.081 
4.53942e-06 8.83992e-06 2.68559e+25 0.653865 -0.698092 272.17 
6.45075e-06 8.83992e-06 2.68507e+25 -0.291251 -3.3181 272.155 
8.36208e-06 8.83992e-06 2.68793e+25 -1.78892 -7.32836 272.07 
1.02734e-05 8.83992e-06 2.68764e+25 -3.25071 -11.3112 272.197 
1.21847e-05 8.83992e-06 2.68939e+25 -4.21103 -15.3495 272.371 
1.40961e-05 8.83992e-06 2.68866e+25 -3.44275 -16.4961 272.543 
1.60074e-05 8.83992e-06 2.68986e+25 -0.805245 -8.94456 272.543 
7.1675e-07 9.31775e-06 2.69056e+25 1.73157 2.96859 271.598 
2.62808e-06 9.31775e-06 2.6853e+25 1.51335 1.40974 272.081 
4.53942e-06 9.31775e-06 2.68369e+25 1.77789 -0.519208 272.28 
6.45075e-06 9.31775e-06 2.68504e+25 0.583519 -2.92158 272.269 
8.36208e-06 9.31775e-06 2.68647e+25 -0.728128 -6.7967 272.161 
1.02734e-05 9.31775e-06 2.68932e+25 -2.28575 -10.9743 272.212 
1.21847e-05 9.31775e-06 2.68834e+25 -3.71198 -15.2493 272.362 
1.40961e-05 9.31775e-06 2.68894e+25 -3.4416 -17.0058 272.693 
1.60074e-05 9.31775e-06 2.69095e+25 -0.911346 -9.6144 272.404 
7.1675e-07 9.79558e-06 2.68908e+25 2.66948 3.01348 271.822 
2.62808e-06 9.79558e-06 2.6865e+25 2.86105 1.33589 272.04 
4.53942e-06 9.79558e-06 2.68672e+25 2.75309 -0.47104 272.127 
6.45075e-06 9.79558e-06 2.68237e+25 1.82208 -2.67157 272.364 
8.36208e-06 9.79558e-06 2.68681e+25 0.705775 -6.36069 272.14 
1.02734e-05 9.79558e-06 2.68631e+25 -1.30037 -10.515 272.325 
1.21847e-05 9.79558e-06 2.68882e+25 -3.25754 -15.0519 272.407 
1.40961e-05 9.79558e-06 2.68976e+25 -3.18106 -17.4326 272.597 
1.60074e-05 9.79558e-06 2.69415e+25 -0.806919 -10.2341 272.248 
7.1675e-07 1.02734e-05 2.68788e+25 3.52123 2.81483 271.889 
2.62808e-06 1.02734e-05 2.68473e+25 4.08838 1.40108 272.073 
4.53942e-06 1.02734e-05 2.68481e+25 3.8186 -0.396612 272.268 
6.45075e-06 1.02734e-05 2.68215e+25 3.1255 -2.49127 272.417 
8.36208e-06 1.02734e-05 2.68747e+25 1.88802 -5.80902 272.091 
1.02734e-05 1.02734e-05 2.68684e+25 -0.180495 -9.94493 272.328 
1.21847e-05 1.02734e-05 2.68989e+25 -2.38249 -14.6647 272.403 
1.40961e-05 1.02734e-05 2.69337e+25 -2.9408 -17.8006 272.462 
1.60074e-05 1.02734e-05 2.69554e+25 -0.703961 -10.7582 272.298 
7.1675e-07 1.07512e-05 2.68862e+25 4.5514 2.6025 271.919 
2.62808e-06 1.07512e-05 2.68447e+25 5.29687 1.3729 272.047 
4.53942e-06 1.07512e-05 2.6844e+25 5.12856 -0.263589 272.198 
6.45075e-06 1.07512e-05 2.68411e+25 4.68252 -2.43768 272.366 
8.36208e-06 1.07512e-05 2.68808e+25 3.13575 -5.32734 272.161 
1.02734e-05 1.07512e-05 2.68892e+25 0.761499 -9.21215 272.436 
1.21847e-05 1.07512e-05 2.69089e+25 -1.69486 -14.1807 272.451 
1.40961e-05 1.07512e-05 2.69157e+25 -2.79053 -18.0109 272.417 
1.60074e-05 1.07512e-05 2.69391e+25 -0.879972 -11.2632 272.516 
7.1675e-07 1.12291e-05 2.68878e+25 5.67479 2.51909 271.838 
2.62808e-06 1.12291e-05 2.68482e+25 6.47394 1.15849 272.119 
4.53942e-06 1.12291e-05 2.68584e+25 6.47708 -0.114879 272.166 
6.45075e-06 1.12291e-05 2.68294e+25 6.10248 -2.28501 272.479 
8.36208e-06 1.12291e-05 2.68592e+25 4.4621 -4.86655 272.355 
1.02734e-05 1.12291e-05 2.68787e+25 1.90812 -8.47773 272.439 
1.21847e-05 1.12291e-05 2.69065e+25 -0.700125 -13.5959 272.358 
1.40961e-05 1.12291e-05 2.69305e+25 -2.57943 -18.0892 272.534 
1.60074e-05 1.12291e-05 2.69382e+25 -0.996342 -11.7608 272.615 
7.1675e-07 1.17069e-05 2.68668e+25 7.35055 2.24615 272.032 
2.62808e-06 1.17069e-05 2.68689e+25 7.89822 0.927798 271.943 
4.53942e-06 1.17069e-05 2.68798e+25 7.89079 0.0939424 272.026 
6.45075e-06 1.17069e-05 2.68813e+25 7.53655 -1.98034 272.148 
8.36208e-06 1.17069e-05 2.68867e+25 5.88517 -4.41141 272.178 
1.02734e-05 1.17069e-05 2.69042e+25 3.36685 -7.66526 272.184 
1.21847e-05 1.17069e-05 2.6916e+25 0.187284 -12.8479 272.31 
1.40961e-05 1.17069e-05 2.69369e+25 -2.24546 -17.8227 272.497 
1.60074e-05 1.17069e-05 2.6935e+25 -1.06802 -12.3856 272.61 
7.1675e-07 1.21847e-05 2.68828e+25 8.83865 2.05005 271.985 
2.62808e-06 1.21847e-05 2.68676e+25 9.35592 0.726022 271.912 
4.53942e-06 1.21847e-05 2.6862e+25 9.46016 0.178209 272.039 
6.45075e-06 1.21847e-05 2.68547e+25 8.86389 -1.64892 272.073 
8.36208e-06 1.21847e-05 2.68944e+25 7.49077 -4.00815 272.087 
1.02734e-05 1.21847e-05 2.68911e+25 4.92273 -6.81586 272.272 
1.21847e-05 1.21847e-05 2.69206e+25 1.10893 -11.8926 272.276 
1.40961e-05 1.21847e-05 2.69802e+25 -1.81541 -17.3717 272.392 
1.60074e-05 1.21847e-05 2.69771e+25 -1.21846 -13.1543 272.506 
7.1675e-07 1.26626e-05 2.68503e+25 10.5325 1.97455 272.143 
2.62808e-06 1.26626e-05 2.6865e+25 11.0594 0.64808 271.996 
4.53942e-06 1.26626e-05 2.68862e+25 11.302 0.176138 271.978 
6.45075e-06 1.26626e-05 2.68716e+25 10.738 -1.30058 271.973 
8.36208e-06 1.26626e-05 2.68852e+25 9.40405 -3.70084 272.181 
1.02734e-05 1.26626e-05 2.69059e+25 6.71345 -6.09465 272.28 
1.21847e-05 1.26626e-05 2.69376e+25 2.7435 -10.8811 272.305 
1.40961e-05 1.26626e-05 2.6969e+25 -1.48002 -16.7624 272.514 
1.60074e-05 1.26626e-05 2.69951e+25 -1.32901 -13.9094 272.625 
7.1675e-07 1.31404e-05 2.68472e+25 12.2695 1.71658 272.209 
2.62808e-06 1.31404e-05 2.68747e+25 12.6477 0.533362 272.017 
4.53942e-06 1.31404e-05 2.68817e+25 13.19 0.0662644 272.057 
6.45075e-06 1.31404e-05 2.68534e+25 12.7356 -1.0302 272.269 
8.36208e-06 1.31404e-05 2.68808e+25 11.2516 -3.32683 272.249 
1.02734e-05 1.31404e-05 2.6924e+25 8.79837 -5.14999 272.05 
1.21847e-05 1.31404e-05 2.6941e+25 4.55513 -9.65429 272.53 
1.40961e-05 1.31404e-05 2.69934e+25 -0.669544 -15.8108 272.431 
1.60074e-05 1.31404e-05 2.69915e+25 -1.54317 -14.56 272.792 
7.1675e-07 1.36182e-05 2.68405e+25 14.1693 1.41127 272.363 
2.62808e-06 1.36182e-05 2.68729e+25 14.6855 0.435913 272.07 
4.53942e-06 1.36182e-05 2.68434e+25 15.2314 0.0590887 272.298 
6.45075e-06 1.36182e-05 2.68501e+25 14.6294 -0.882961 272.287 
8.36208e-06 1.36182e-05 2.68712e+25 13.3351 -2.79515 272.07 
1.02734e-05 1.36182e-05 2.69386e+25 10.8064 -4.32686 271.95 
1.21847e-05 1.36182e-05 2.69377e+25 6.43874 -8.3414 272.576 
1.40961e-05 1.36182e-05 2.70199e+25 0.0635389 -14.5192 272.441 
1.60074e-05 1.36182e-05 2.70364e+25 -1.75387 -15.1991 272.638 
7.1675e-07 1.40961e-05 2.68418e+25 16.2192 1.18039 272.318 
2.62808e-06 1.40961e-05 2.68703e+25 16.8618 0.259507 271.988 
4.53942e-06 1.40961e-05 2.68502e+25 17.3318 0.0723228 272.293 
6.45075e-06 1.40961e-05 2.68507e+25 16.7582 -0.807155 272.322 
8.36208e-06 1.40961e-05 2.68877e+25 15.5674 -2.1748 272.163 
1.02734e-05 1.40961e-05 2.69396e+25 13.1213 -3.569 272.026 
1.21847e-05 1.40961e-05 2.69325e+25 8.57814 -6.91022 272.771 
1.40961e-05 1.40961e-05 2.69836e+25 1.62094 -12.9183 272.661 
1.60074e-05 1.40961e-05 2.70762e+25 -1.71255 -15.6937 272.507 
7.1675e-07 1.45739e-05 2.68276e+25 18.4921 0.853301 272.48 
2.62808e-06 1.45739e-05 2.68766e+25 19.252 0.132041 271.987 
4.53942e-06 1.45739e-05 2.68675e+25 19.5205 -0.00735874 272.143 
6.45075e-06 1.45739e-05 2.68493e+25 19.0003 -0.743496 272.417 
8.36208e-06 1.45739e-05 2.68815e+25 18.0832 -1.69988 272.26 
1.02734e-05 1.45739e-05 2.68957e+25 15.665 -2.83754 272.438 
1.21847e-05 1.45739e-05 2.69012e+25 11.184 -5.47085 272.866 
1.40961e-05 1.45739e-05 2.70186e+25 3.68449 -10.8855 272.629 
1.60074e-05 1.45739e-05 2.71286e+25 -1.64146 -16.1311 272.527 
7.1675e-07 1.50518e-05 2.68413e+25 21.1179 0.546447 272.488 
2.62808e-06 1.50518e-05 2.68472e+25 21.7967 0.0719244 272.157 
4.53942e-06 1.50518e-05 2.68527e+25 21.9525 0.104521 272.213 
6.45075e-06 1.50518e-05 2.68648e+25 21.6952 -0.590372 272.316 
8.36208e-06 1.50518e-05 2.68882e+25 20.611 -1.1836 272.296 
1.02734e-05 1.50518e-05 2.68953e+25 18.453 -2.14414 272.528 
1.21847e-05 1.50518e-05 2.69197e+25 14.2206 -4.08656 272.811 
1.40961e-05 1.50518e-05 2.70182e+25 6.49267 -8.50968 272.901 
1.60074e-05 1.50518e-05 2.71903e+25 -1.63393 -15.9743 272.507 
7.1675e-07 1.55296e-05 2.68435e+25 24.0163 0.262273 272.366 
2.62808e-06 1.55296e-05 2.68284e+25 24.6407 0.0423227 272.436 
4.53942e-06 1.55296e-05 2.68768e+25 24.4799 0.137503 272.169 
6.45075e-06 1.55296e-05 2.68643e+25 24.6068 -0.475129 272.33 
8.36208e-06 1.55296e-05 2.68784e+25 23.4767 -0.698936 272.267 
1.02734e-05 1.55296e-05 2.68625e+25 21.3378 -1.32138 272.694 
1.21847e-05 1.55296e-05 2.69143e+25 17.7634 -2.81493 272.802 
1.40961e-05 1.55296e-05 2.70069e+25 10.3774 -6.08831 272.987 
1.60074e-05 1.55296e-05 2.72224e+25 -0.757823 -14.9713 272.732 
7.1675e-07 1.60074e-05 2.68336e+25 26.8054 0.0434599 272.54 
2.62808e-06 1.60074e-05 2.68425e+25 27.305 -0.0579178 272.448 
4.53942e-06 1.60074e-05 2.68445e+25 27.3711 0.0993693 272.293 
6.45075e-06 1.60074e-05 2.68632e+25 27.4283 -0.148483 272.528 
8.36208e-06 1.60074e-05 2.68827e+25 26.4716 -0.363381 272.355 
1.02734e-05 1.60074e-05 2.68646e+25 24.8365 -0.718239 272.659 
1.21847e-05 1.60074e-05 2.69524e+25 21.8151 -1.60626 272.685 
1.40961e-05 1.60074e-05 2.70171e+25 15.4192 -3.78689 273.036 
1.60074e-05 1.60074e-05 2.72606e+25 1.66717 -12.5133 273.127 
7.1675e-07 1.64852e-05 2.68058e+25 29.9911 -0.00990189 272.792 
2.62808e-06 1.64852e-05 2.68318e+25 30.3912 -0.0944281 272.54 
4.53942e-06 1.64852e-05 2.6838e+25 30.4307 0.129432 272.385 
6.45075e-06 1.64852e-05 2.6847e+25 30.277 0.0207388 272.609 
8.36208e-06 1.64852e-05 2.68674e+25 29.5919 -0.122737 272.533 
1.02734e-05 1.64852e-05 2.68711e+25 28.6114 -0.378537 272.789 
1.21847e-05 1.64852e-05 2.69238e+25 26.4082 -0.508833 272.757 
1.40961e-05 1.64852e-05 2.7008e+25 21.9495 -1.6934 273.189 
1.60074e-05 1.64852e-05 2.72954e+25 7.68861 -7.98323 273.566 
7.1675e-07 1.69631e-05 2.67948e+25 32.8609 0.0147905 272.886 
2.62808e-06 1.69631e-05 2.67982e+25 33.0705 -0.0155026 272.724 
4.53942e-06 1.69631e-05 2.68186e+25 32.9593 0.0209639 272.673 
6.45075e-06 1.69631e-05 2.6842e+25 32.8998 -0.0150518 272.872 
8.36208e-06 1.69631e-05 2.68299e+25 32.6864 -0.020849 272.898 
1.02734e-05 1.69631e-05 2.68594e+25 32.0024 -0.152921 272.904 
1.21847e-05 1.69631e-05 2.69382e+25 31.3073 -0.0580686 272.842 
1.40961e-05 1.69631e-05 2.69682e+25 29.4481 -0.328624 273.328 
1.60074e-05 1.69631e-05 2.73306e+25 20.0598 -2.40308 273.622 
1.19458e-06 2.38917e-07 2.68992e+25 -8.05255 0.37222 271.739 
3.10592e-06 2.38917e-07 2.68853e+25 -8.2885 -1.69083 271.982 
5.01725e-06 2.38917e-07 2.68799e+25 -7.7147 -3.34106 272.117 
6.92858e-06 2.38917e-07 2.69023e+25 -7.26169 -5.63054 271.877 
8.83992e-06 2.38917e-07 2.68849e+25 -6.57339 -7.64544 272.112 
1.07512e-05 2.38917e-07 2.68834e+25 -5.01294 -8.09593 271.981 
1.26626e-05 2.38917e-07 2.68704e+25 -3.44882 -7.58889 272.282 
1.45739e-05 2.38917e-07 2.68965e+25 -1.30611 -5.26333 272.064 
1.64852e-05 2.38917e-07 2.68397e+25 -0.200053 -1.39605 272.515 
1.19458e-06 7.1675e-07 2.69217e+25 -7.76756 0.645684 271.773 
3.10592e-06 7.1675e-07 2.68946e+25 -8.10231 -1.53942 271.987 
5.01725e-06 7.1675e-07 2.69039e+25 -7.91157 -3.5222 272.015 
6.92858e-06 7.1675e-07 2.69179e+25 -7.27239 -5.66799 271.931 
8.83992e-06 7.1675e-07 2.69124e+25 -6.80069 -8.07982 272.186 
1.07512e-05 7.1675e-07 2.6928e+25 -5.34535 -8.51959 272.021 
1.26626e-05 7.1675e-07 2.68917e+25 -3.55043 -8.06707 272.295 
1.45739e-05 7.1675e-07 2.68931e+25 -1.48117 -5.71279 272.243 
1.64852e-05 7.1675e-07 2.68541e+25 -0.176492 -1.50074 272.629 
1.19458e-06 1.19458e-06 2.68974e+25 -7.44824 0.868582 271.945 
3.10592e-06 1.19458e-06 2.69097e+25 -8.10789 -1.43478 271.857 
5.01725e-06 1.19458e-06 2.69117e+25 -8.08265 -3.65922 271.954 
6.92858e-06 1.19458e-06 2.69178e+25 -7.39965 -5.68754 271.926 
8.83992e-06 1.19458e-06 2.69045e+25 -6.76522 -8.2724 272.082 
1.07512e-05 1.19458e-06 2.69237e+25 -5.4976 -8.95125 272.045 
1.26626e-05 1.19458e-06 2.68836e+25 -3.45091 -8.58032 272.367 
1.45739e-05 1.19458e-06 2.68933e+25 -1.45422 -6.26044 272.231 
1.64852e-05 1.19458e-06 2.68457e+25 -0.206533 -1.61856 272.698 
1.19458e-06 1.67242e-06 2.68935e+25 -7.18236 1.12595 271.959 
3.10592e-06 1.67242e-06 2.69308e+25 -7.91565 -1.33899 271.783 
5.01725e-06 1.67242e-06 2.69046e+25 -8.1464 -3.67549 271.914 
6.92858e-06 1.67242e-06 2.68858e+25 -7.69837 -5.78942 272.171 
8.83992e-06 1.67242e-06 2.68876e+25 -6.74003 -8.5054 272.105 
1.07512e-05 1.67242e-06 2.68979e+25 -5.73053 -9.38401 272.103 
1.26626e-05 1.67242e-06 2.69035e+25 -3.43541 -9.08029 272.268 
1.45739e-05 1.67242e-06 2.6869e+25 -1.66753 -6.72598 272.305 
1.64852e-05 1.67242e-06 2.68509e+25 -0.082118 -1.9207 272.72 
1.19458e-06 2.15025e-06 2.69054e+25 -6.87551 1.34669 272.016 
3.10592e-06 2.15025e-06 2.69018e+25 -7.83538 -1.19872 271.881 
5.01725e-06 2.15025e-06 2.69151e+25 -8.14224 -3.74936 271.779 
6.92858e-06 2.15025e-06 2.68743e+25 -7.6532 -6.02592 272.251 
8.83992e-06 2.15025e-06 2.68995e+25 -6.79032 -8.66318 272.262 
1.07512e-05 2.15025e-06 2.68965e+25 -5.8087 -9.82629 272.101 
1.26626e-05 2.15025e-06 2.68955e+25 -3.78297 -9.62708 272.226 
1.45739e-05 2.15025e-06 2.69067e+25 -1.7498 -7.23135 272.097 
1.64852e-05 2.15025e-06 2.68444e+25 -0.149838 -2.10381 272.632 
1.19458e-06 2.62808e-06 2.6904e+25 -6.62009 1.54512 271.779 
3.10592e-06 2.62808e-06 2.69056e+25 -7.63513 -0.98057 271.824 
5.01725e-06 2.62808e-06 2.69123e+25 -8.03585 -3.81548 271.925 
6.92858e-06 2.62808e-06 2.6866e+25 -7.78181 -6.21863 272.149 
8.83992e-06 2.62808e-06 2.68959e+25 -6.85839 -8.87506 272.197 
1.07512e-05 2.62808e-06 2.69053e+25 -5.95404 -10.257 272.112 
1.26626e-05 2.62808e-06 2.69e+25 -4.02666 -10.2564 272.158 
1.45739e-05 2.62808e-06 2.69085e+25 -1.78601 -7.72021 272.141 
1.64852e-05 2.62808e-06 2.68563e+25 -0.15515 -2.31003 272.493 
1.19458e-06 3.10592e-06 2.68945e+25 -6.31539 1.69578 271.864 
3.10592e-06 3.10592e-06 2.68961e+25 -7.33411 -0.898999 271.858 
5.01725e-06 3.10592e-06 2.69142e+25 -7.99252 -3.69566 271.792 
6.92858e-06 3.10592e-06 2.68903e+25 -7.7779 -6.39114 271.988 
8.83992e-06 3.10592e-06 2.68857e+25 -7.04838 -9.02481 272.138 
1.07512e-05 3.10592e-06 2.68987e+25 -6.33096 -10.6091 272.167 
1.26626e-05 3.10592e-06 2.69192e+25 -4.29859 -10.6856 272.072 
1.45739e-05 3.10592e-06 2.69006e+25 -1.84207 -8.275 272.082 
1.64852e-05 3.10592e-06 2.68652e+25 -0.105554 -2.50242 272.576 
1.19458e-06 3.58375e-06 2.68847e+25 -5.92634 1.79336 271.947 
3.10592e-06 3.58375e-06 2.69051e+25 -6.5785 -0.571202 271.775 
5.01725e-06 3.58375e-06 2.69012e+25 -7.76863 -3.49601 271.909 
6.92858e-06 3.58375e-06 2.68747e+25 -7.66801 -6.50114 272.149 
8.83992e-06 3.58375e-06 2.68804e+25 -7.35805 -9.15154 272.323 
1.07512e-05 3.58375e-06 2.68906e+25 -6.39412 -11.0966 272.181 
1.26626e-05 3.58375e-06 2.68963e+25 -4.42215 -11.2016 272.233 
1.45739e-05 3.58375e-06 2.69045e+25 -1.98888 -8.83178 272.132 
1.64852e-05 3.58375e-06 2.68572e+25 -0.19487 -2.73954 272.776 
1.19458e-06 4.06158e-06 2.68665e+25 -5.48447 1.81874 272.02 
3.10592e-06 4.06158e-06 2.68965e+25 -6.12545 -0.154571 271.829 
5.01725e-06 4.06158e-06 2.6896e+25 -7.25663 -3.41441 271.956 
6.92858e-06 4.06158e-06 2.68567e+25 -7.32656 -6.61801 272.162 
8.83992e-06 4.06158e-06 2.68906e+25 -7.41775 -9.06 272.205 
1.07512e-05 4.06158e-06 2.68953e+25 -6.3919 -11.457 272.224 
1.26626e-05 4.06158e-06 2.69055e+25 -4.44689 -11.8264 272.091 
1.45739e-05 4.06158e-06 2.69004e+25 -1.96895 -9.29577 272.165 
1.64852e-05 4.06158e-06 2.68649e+25 -0.281157 -3.09015 272.797 
1.19458e-06 4.53942e-06 2.68524e+25 -5.1561 2.08874 272.146 
3.10592e-06 4.53942e-06 2.68826e+25 -5.74833 -0.0296645 272.076 
5.01725e-06 4.53942e-06 2.68623e+25 -6.53531 -3.36387 272.115 
6.92858e-06 4.53942e-06 2.68642e+25 -6.9766 -6.48581 272.3 
8.83992e-06 4.53942e-06 2.68615e+25 -7.37117 -9.01979 272.15 
1.07512e-05 4.53942e-06 2.69011e+25 -6.39888 -11.7092 272.146 
1.26626e-05 4.53942e-06 2.69284e+25 -4.59268 -12.3925 271.991 
1.45739e-05 4.53942e-06 2.68997e+25 -1.9918 -9.91459 272.211 
1.64852e-05 4.53942e-06 2.68456e+25 -0.186098 -3.28671 272.672 
1.19458e-06 5.01725e-06 2.68759e+25 -4.64761 2.3794 272.041 
3.10592e-06 5.01725e-06 2.68887e+25 -5.31399 0.0982352 272.025 
5.01725e-06 5.01725e-06 2.69026e+25 -5.94768 -3.17394 271.948 
6.92858e-06 5.01725e-06 2.68579e+25 -6.71708 -6.33137 272.288 
8.83992e-06 5.01725e-06 2.68702e+25 -7.10607 -9.11236 272.343 
1.07512e-05 5.01725e-06 2.68752e+25 -6.32262 -11.9516 272.212 
1.26626e-05 5.01725e-06 2.68945e+25 -4.45159 -13.0038 272.01 
1.45739e-05 5.01725e-06 2.69006e+25 -1.86092 -10.5342 272.321 
1.64852e-05 5.01725e-06 2.68647e+25 -0.209767 -3.43873 272.588 
1.19458e-06 5.49508e-06 2.68888e+25 -4.31485 2.58433 272.023 
3.10592e-06 5.49508e-06 2.68822e+25 -4.81236 0.307881 271.982 
5.01725e-06 5.49508e-06 2.68848e+25 -5.39566 -2.84405 272.094 
6.92858e-06 5.49508e-06 2.68684e+25 -6.44626 -6.23914 272.223 
8.83992e-06 5.49508e-06 2.6849e+25 -6.78939 -9.13884 272.374 
1.07512e-05 5.49508e-06 2.68815e+25 -6.0486 -12.1304 272.268 
1.26626e-05 5.49508e-06 2.69125e+25 -4.34545 -13.5527 272.177 
1.45739e-05 5.49508e-06 2.69137e+25 -1.99861 -11.1286 272.161 
1.64852e-05 5.49508e-06 2.68769e+25 -0.188045 -3.60948 272.376 
1.19458e-06 5.97292e-06 2.68539e+25 -3.61919 2.61549 272.143 
3.10592e-06 5.97292e-06 2.68833e+25 -4.04079 0.325244 271.965 
5.01725e-06 5.97292e-06 2.68774e+25 -4.72938 -2.57699 271.927 
6.92858e-06 5.97292e-06 2.68885e+25 -5.95125 -6.09213 272.136 
8.83992e-06 5.97292e-06 2.68902e+25 -6.20353 -9.08869 272.101 
1.07512e-05 5.97292e-06 2.68838e+25 -5.81314 -12.3618 272.248 
1.26626e-05 5.97292e-06 2.68892e+25 -4.12319 -13.9872 272.177 
1.45739e-05 5.97292e-06 2.69305e+25 -2.07901 -11.6681 272.063 
1.64852e-05 5.97292e-06 2.68788e+25 -0.269049 -3.88223 272.406 
1.19458e-06 6.45075e-06 2.68715e+25 -2.91823 2.69197 271.996 
3.10592e-06 6.45075e-06 2.68631e+25 -3.29701 0.507342 272.102 
5.01725e-06 6.45075e-06 2.68721e+25 -3.97072 -2.35595 271.99 
6.92858e-06 6.45075e-06 2.68668e+25 -5.27291 -5.85522 271.99 
8.83992e-06 6.45075e-06 2.68794e+25 -5.90836 -9.04863 272.029 
1.07512e-05 6.45075e-06 2.68711e+25 -5.69796 -12.5594 272.354 
1.26626e-05 6.45075e-06 2.69158e+25 -4.50705 -14.4653 272.077 
1.45739e-05 6.45075e-06 2.69297e+25 -1.97522 -12.2241 272.05 
1.64852e-05 6.45075e-06 2.68888e+25 -0.293865 -4.30403 272.467 
1.19458e-06 6.92858e-06 2.6876e+25 -2.14286 2.74438 272.007 
3.10592e-06 6.92858e-06 2.68536e+25 -2.52858 0.744513 272.081 
5.01725e-06 6.92858e-06 2.68718e+25 -3.40023 -2.19081 272.156 
6.92858e-06 6.92858e-06 2.68828e+25 -4.54474 -5.57253 272.02 
8.83992e-06 6.92858e-06 2.68709e+25 -5.38106 -9.08127 272.186 
1.07512e-05 6.92858e-06 2.6866e+25 -5.33588 -12.6746 272.272 
1.26626e-05 6.92858e-06 2.69127e+25 -4.67956 -15.0441 272.148 
1.45739e-05 6.92858e-06 2.69107e+25 -2.0311 -12.7902 272.249 
1.64852e-05 6.92858e-06 2.68839e+25 -0.251555 -4.64725 272.431 
1.19458e-06 7.40642e-06 2.68735e+25 -1.52062 2.63864 271.936 
3.10592e-06 7.40642e-06 2.68557e+25 -1.87892 1.01017 272.032 
5.01725e-06 7.40642e-06 2.68599e+25 -2.42446 -2.06639 272.128 
6.92858e-06 7.40642e-06 2.6877e+25 -3.62703 -5.18423 272.072 
8.83992e-06 7.40642e-06 2.68683e+25 -4.44421 -8.9358 272.287 
1.07512e-05 7.40642e-06 2.68797e+25 -5.23698 -12.754 272.464 
1.26626e-05 7.40642e-06 2.69037e+25 -4.79085 -15.5491 272.192 
1.45739e-05 7.40642e-06 2.68978e+25 -2.46523 -13.432 272.294 
1.64852e-05 7.40642e-06 2.68762e+25 -0.326736 -4.80413 272.537 
1.19458e-06 7.88425e-06 2.68729e+25 -0.920671 2.4271 271.981 
3.10592e-06 7.88425e-06 2.68486e+25 -0.928383 0.999158 272.177 
5.01725e-06 7.88425e-06 2.68558e+25 -1.56175 -1.87799 272.143 
6.92858e-06 7.88425e-06 2.68271e+25 -2.5274 -4.84574 272.354 
8.83992e-06 7.88425e-06 2.6889e+25 -3.60112 -8.7209 272.026 
1.07512e-05 7.88425e-06 2.68904e+25 -4.79347 -12.7387 272.214 
1.26626e-05 7.88425e-06 2.68795e+25 -4.58995 -16.0156 272.544 
1.45739e-05 7.88425e-06 2.6917e+25 -2.44171 -14.2227 272.276 
1.64852e-05 7.88425e-06 2.68934e+25 -0.248502 -5.07252 272.446 
1.19458e-06 8.36208e-06 2.689e+25 -0.121927 2.32541 271.722 
3.10592e-06 8.36208e-06 2.68674e+25 -0.0388829 1.01 272.086 
5.01725e-06 8.36208e-06 2.68459e+25 -0.60417 -1.62051 272.308 
6.92858e-06 8.36208e-06 2.68505e+25 -1.63185 -4.53442 272.198 
8.83992e-06 8.36208e-06 2.68674e+25 -2.85872 -8.41667 272.093 
1.07512e-05 8.36208e-06 2.68976e+25 -4.2476 -12.572 272.104 
1.26626e-05 8.36208e-06 2.68861e+25 -4.43576 -16.2044 272.389 
1.45739e-05 8.36208e-06 2.69073e+25 -2.6792 -14.9633 272.41 
1.64852e-05 8.36208e-06 2.68512e+25 -0.217341 -5.46978 272.726 
1.19458e-06 8.83992e-06 2.68813e+25 0.611869 2.3376 271.774 
3.10592e-06 8.83992e-06 2.68513e+25 0.841771 1.01584 272.088 
5.01725e-06 8.83992e-06 2.68579e+25 0.374568 -1.32302 272.23 
6.92858e-06 8.83992e-06 2.68414e+25 -0.71389 -4.1916 272.255 
8.83992e-06 8.83992e-06 2.68883e+25 -2.22861 -8.04889 272.069 
1.07512e-05 8.83992e-06 2.68893e+25 -3.55451 -12.3986 272.247 
1.26626e-05 8.83992e-06 2.68939e+25 -4.22501 -16.2188 272.32 
1.45739e-05 8.83992e-06 2.69076e+25 -2.77805 -15.6982 272.456 
1.64852e-05 8.83992e-06 2.68958e+25 -0.294947 -5.86789 272.527 
1.19458e-06 9.31775e-06 2.68973e+25 1.53452 2.42195 271.767 
3.10592e-06 9.31775e-06 2.68447e+25 1.59117 0.977006 272.183 
5.01725e-06 9.31775e-06 2.68644e+25 1.58166 -1.05244 272.185 
6.92858e-06 9.31775e-06 2.68292e+25 0.262843 -3.85972 272.385 
8.83992e-06 9.31775e-06 2.68656e+25 -1.23422 -7.67215 272.087 
1.07512e-05 9.31775e-06 2.69015e+25 -2.74666 -11.9579 272.222 
1.26626e-05 9.31775e-06 2.6905e+25 -3.84298 -16.1926 272.337 
1.45739e-05 9.31775e-06 2.69036e+25 -2.90818 -16.3251 272.469 
1.64852e-05 9.31775e-06 2.68713e+25 -0.420123 -6.25355 272.725 
1.19458e-06 9.79558e-06 2.68907e+25 2.73061 2.49312 271.75 
3.10592e-06 9.79558e-06 2.68442e+25 2.88701 0.906137 272.188 
5.01725e-06 9.79558e-06 2.68686e+25 2.56414 -0.766187 272.075 
6.92858e-06 9.79558e-06 2.68495e+25 1.63715 -3.67482 272.159 
8.83992e-06 9.79558e-06 2.68689e+25 0.184016 -7.08892 272.217 
1.07512e-05 9.79558e-06 2.69123e+25 -1.82173 -11.5264 272.127 
1.26626e-05 9.79558e-06 2.68913e+25 -3.48757 -16.0844 272.465 
1.45739e-05 9.79558e-06 2.6899e+25 -2.81862 -16.8508 272.586 
1.64852e-05 9.79558e-06 2.69106e+25 -0.344908 -6.55353 272.551 
1.19458e-06 1.02734e-05 2.68696e+25 3.74624 2.40719 271.953 
3.10592e-06 1.02734e-05 2.68481e+25 4.0159 0.992776 272.073 
5.01725e-06 1.02734e-05 2.68498e+25 3.82224 -0.638869 272.164 
6.92858e-06 1.02734e-05 2.68595e+25 3.04383 -3.56058 272.241 
8.83992e-06 1.02734e-05 2.68525e+25 1.4231 -6.64196 272.267 
1.07512e-05 1.02734e-05 2.68843e+25 -0.799691 -10.8979 272.252 
1.26626e-05 1.02734e-05 2.69024e+25 -2.80071 -15.8238 272.48 
1.45739e-05 1.02734e-05 2.69222e+25 -2.54142 -17.2251 272.504 
1.64852e-05 1.02734e-05 2.69156e+25 -0.290597 -6.89129 272.638 
1.19458e-06 1.07512e-05 2.68844e+25 4.82155 2.20078 271.855 
3.10592e-06 1.07512e-05 2.68653e+25 5.30766 1.007 271.969 
5.01725e-06 1.07512e-05 2.68403e+25 4.99183 -0.544713 272.163 
6.92858e-06 1.07512e-05 2.68563e+25 4.46833 -3.25648 272.232 
8.83992e-06 1.07512e-05 2.68556e+25 2.61826 -6.14699 272.268 
1.07512e-05 1.07512e-05 2.68934e+25 0.0243817 -10.3102 272.381 
1.26626e-05 1.07512e-05 2.6883e+25 -2.13661 -15.4696 272.47 
1.45739e-05 1.07512e-05 2.69337e+25 -2.52185 -17.6962 272.401 
1.64852e-05 1.07512e-05 2.69222e+25 -0.376482 -7.27452 272.563 
1.19458e-06 1.12291e-05 2.6875e+25 5.88539 1.89426 271.917 
3.10592e-06 1.12291e-05 2.68685e+25 6.71205 0.906136 271.895 
5.01725e-06 1.12291e-05 2.68401e+25 6.33447 -0.457582 272.253 
6.92858e-06 1.12291e-05 2.68452e+25 5.80637 -2.95153 272.342 
8.83992e-06 1.12291e-05 2.68402e+25 4.03092 -5.66864 272.503 
1.07512e-05 1.12291e-05 2.68906e+25 1.21186 -9.62456 272.427 
1.26626e-05 1.12291e-05 2.69079e+25 -1.29534 -14.9939 272.545 
1.45739e-05 1.12291e-05 2.69342e+25 -2.51828 -17.9773 272.562 
1.64852e-05 1.12291e-05 2.69392e+25 -0.412987 -7.76839 272.704 
1.19458e-06 1.17069e-05 2.68726e+25 7.44032 1.78328 271.939 
3.10592e-06 1.17069e-05 2.68657e+25 8.08505 0.773945 271.971 
5.01725e-06 1.17069e-05 2.68825e+25 7.85908 -0.428116 272.079 
6.92858e-06 1.17069e-05 2.68882e+25 7.14226 -2.55035 272.087 
8.83992e-06 1.17069e-05 2.68662e+25 5.39758 -5.11863 272.449 
1.07512e-05 1.17069e-05 2.69003e+25 2.4305 -8.78971 272.31 
1.26626e-05 1.17069e-05 2.6916e+25 -0.698358 -14.2716 272.443 
1.45739e-05 1.17069e-05 2.69503e+25 -2.41884 -18.0998 272.498 
1.64852e-05 1.17069e-05 2.69246e+25 -0.499325 -8.31101 272.91 
1.19458e-06 1.21847e-05 2.68687e+25 8.94206 1.81221 272.042 
3.10592e-06 1.21847e-05 2.68527e+25 9.46788 0.612553 272.009 
5.01725e-06 1.21847e-05 2.68504e+25 9.39473 -0.391807 272.145 
6.92858e-06 1.21847e-05 2.68821e+25 8.50795 -2.18559 272.044 
8.83992e-06 1.21847e-05 2.68683e+25 7.06046 -4.63314 272.346 
1.07512e-05 1.21847e-05 2.6916e+25 4.07186 -7.82925 272.27 
1.26626e-05 1.21847e-05 2.6907e+25 0.17301 -13.3845 272.497 
1.45739e-05 1.21847e-05 2.69696e+25 -2.20467 -18.0057 272.381 
1.64852e-05 1.21847e-05 2.69384e+25 -0.458515 -8.8036 272.811 
1.19458e-06 1.26626e-05 2.68814e+25 10.6707 1.68869 271.963 
3.10592e-06 1.26626e-05 2.68718e+25 11.0889 0.583973 272.124 
5.01725e-06 1.26626e-05 2.68738e+25 11.3199 -0.370571 271.992 
6.92858e-06 1.26626e-05 2.68727e+25 10.4108 -1.81351 272.134 
8.83992e-06 1.26626e-05 2.68801e+25 8.97822 -4.04823 272.218 
1.07512e-05 1.26626e-05 2.69307e+25 5.89716 -6.93237 272.182 
1.26626e-05 1.26626e-05 2.69322e+25 1.59171 -12.3888 272.44 
1.45739e-05 1.26626e-05 2.69776e+25 -1.98538 -17.6822 272.472 
1.64852e-05 1.26626e-05 2.69917e+25 -0.734369 -9.34365 272.518 
1.19458e-06 1.31404e-05 2.68565e+25 12.5162 1.5001 272.164 
3.10592e-06 1.31404e-05 2.68666e+25 12.8232 0.529744 272.059 
5.01725e-06 1.31404e-05 2.68521e+25 13.2026 -0.25293 272.167 
6.92858e-06 1.31404e-05 2.68625e+25 12.4457 -1.4154 272.201 
8.83992e-06 1.31404e-05 2.68902e+25 10.7459 -3.51104 272.273 
1.07512e-05 1.31404e-05 2.69442e+25 7.81475 -6.07868 272.073 
1.26626e-05 1.31404e-05 2.69193e+25 3.25381 -11.1801 272.702 
1.45739e-05 1.31404e-05 2.69969e+25 -1.62654 -17.1839 272.457 
1.64852e-05 1.31404e-05 2.69929e+25 -0.743846 -10.0417 272.737 
1.19458e-06 1.36182e-05 2.68508e+25 14.4164 1.35266 272.171 
3.10592e-06 1.36182e-05 2.68644e+25 14.8779 0.291398 272.047 
5.01725e-06 1.36182e-05 2.68439e+25 15.2229 -0.220567 272.371 
6.92858e-06 1.36182e-05 2.68518e+25 14.4573 -1.1066 272.28 
8.83992e-06 1.36182e-05 2.68778e+25 12.7961 -2.96276 272.272 
1.07512e-05 1.36182e-05 2.69454e+25 10.0252 -5.21791 271.948 
1.26626e-05 1.36182e-05 2.69226e+25 4.97789 -9.67994 272.818 
1.45739e-05 1.36182e-05 2.70155e+25 -1.16073 -16.3249 272.535 
1.64852e-05 1.36182e-05 2.70054e+25 -1.00684 -10.9032 272.831 
1.19458e-06 1.40961e-05 2.6846e+25 16.4214 1.11797 272.286 
3.10592e-06 1.40961e-05 2.68917e+25 16.9516 0.182799 271.866 
5.01725e-06 1.40961e-05 2.68517e+25 17.2407 -0.0668091 272.314 
6.92858e-06 1.40961e-05 2.68543e+25 16.6002 -0.89976 272.343 
8.83992e-06 1.40961e-05 2.68819e+25 15.085 -2.53217 272.262 
1.07512e-05 1.40961e-05 2.69271e+25 12.3986 -4.36415 272.17 
1.26626e-05 1.40961e-05 2.69381e+25 7.08181 -8.14296 272.648 
1.45739e-05 1.40961e-05 2.70307e+25 -0.00716965 -15.1231 272.587 
1.64852e-05 1.40961e-05 2.70897e+25 -0.926417 -11.8018 272.522 
1.19458e-06 1.45739e-05 2.68144e+25 18.8292 0.884482 272.392 
3.10592e-06 1.45739e-05 2.68621e+25 19.4161 0.0983315 272.052 
5.01725e-06 1.45739e-05 2.68383e+25 19.534 0.0513629 272.301 
6.92858e-06 1.45739e-05 2.68589e+25 18.9416 -0.799755 272.192 
8.83992e-06 1.45739e-05 2.68918e+25 17.4908 -1.98974 272.345 
1.07512e-05 1.45739e-05 2.69141e+25 14.7241 -3.42689 272.409 
1.26626e-05 1.45739e-05 2.69129e+25 9.63788 -6.58771 272.836 
1.45739e-05 1.45739e-05 2.70432e+25 1.51778 -13.3418 272.509 
1.64852e-05 1.45739e-05 2.71372e+25 -1.1036 -12.539 272.644 
1.19458e-06 1.50518e-05 2.68286e+25 21.4292 0.643531 272.446 
3.10592e-06 1.50518e-05 2.68658e+25 21.8285 -0.0335333 272.171 
5.01725e-06 1.50518e-05 2.68377e+25 21.834 0.0708686 272.332 
6.92858e-06 1.50518e-05 2.68734e+25 21.5397 -0.673333 272.21 
8.83992e-06 1.50518e-05 2.68671e+25 20.1935 -1.40024 272.46 
1.07512e-05 1.50518e-05 2.6888e+25 17.4812 -2.29194 272.538 
1.26626e-05 1.50518e-05 2.69384e+25 12.67 -4.90225 272.912 
1.45739e-05 1.50518e-05 2.70816e+25 3.99043 -11.0302 272.606 
1.64852e-05 1.50518e-05 2.72061e+25 -1.46824 -13.2967 272.51 
1.19458e-06 1.55296e-05 2.68177e+25 24.2859 0.42054 272.468 
3.10592e-06 1.55296e-05 2.68467e+25 24.6127 -0.0398886 272.389 
5.01725e-06 1.55296e-05 2.68582e+25 24.5774 0.0905739 272.28 
6.92858e-06 1.55296e-05 2.68755e+25 24.304 -0.443687 272.291 
8.83992e-06 1.55296e-05 2.68908e+25 23.0106 -1.02409 272.327 
1.07512e-05 1.55296e-05 2.6889e+25 20.6241 -1.40412 272.671 
1.26626e-05 1.55296e-05 2.6957e+25 16.3624 -3.23997 272.761 
1.45739e-05 1.55296e-05 2.70432e+25 7.63932 -8.24507 272.945 
1.64852e-05 1.55296e-05 2.72781e+25 -1.38969 -13.8152 272.727 
1.19458e-06 1.60074e-05 2.6821e+25 27.0018 0.224635 272.625 
3.10592e-06 1.60074e-05 2.68541e+25 27.467 -0.100688 272.279 
5.01725e-06 1.60074e-05 2.68439e+25 27.427 0.0382813 272.444 
6.92858e-06 1.60074e-05 2.68481e+25 27.2656 -0.318546 272.495 
8.83992e-06 1.60074e-05 2.68805e+25 26.157 -0.606502 272.351 
1.07512e-05 1.60074e-05 2.68826e+25 24.3223 -0.765646 272.737 
1.26626e-05 1.60074e-05 2.69496e+25 20.507 -1.68065 272.787 
1.45739e-05 1.60074e-05 2.70458e+25 12.8027 -5.18494 273.146 
1.64852e-05 1.60074e-05 2.7347e+25 -0.761579 -13.4294 273.025 
1.19458e-06 1.64852e-05 2.67816e+25 30.0445 0.0910231 272.865 
3.10592e-06 1.64852e-05 2.68381e+25 30.2977 -0.158016 272.388 
5.01725e-06 1.64852e-05 2.68307e+25 30.4388 -0.0307794 272.618 
6.92858e-06 1.64852e-05 2.68239e+25 30.1361 -0.0952302 272.694 
8.83992e-06 1.64852e-05 2.68687e+25 29.3183 -0.273689 272.524 
1.07512e-05 1.64852e-05 2.68774e+25 28.1921 -0.177535 272.858 
1.26626e-05 1.64852e-05 2.69286e+25 25.6344 -0.65848 272.946 
1.45739e-05 1.64852e-05 2.70313e+25 19.8482 -2.43328 273.329 
1.64852e-05 1.64852e-05 2.74702e+25 2.32001 -10.6353 273.476 
1.19458e-06 1.69631e-05 2.68012e+25 32.8529 -0.00572651 272.969 
3.10592e-06 1.69631e-05 2.68113e+25 32.9622 -0.0499643 272.612 
5.01725e-06 1.69631e-05 2.68042e+25 33.0484 -0.0113828 272.922 
6.92858e-06 1.69631e-05 2.68248e+25 32.9897 0.0394983 272.719 
8.83992e-06 1.69631e-05 2.68452e+25 32.5662 -0.12527 272.811 
1.07512e-05 1.69631e-05 2.6857e+25 31.8739 0.0793234 272.899 
1.26626e-05 1.69631e-05 2.69299e+25 31.057 -0.130275 272.905 
1.45739e-05 1.69631e-05 2.7029e+25 28.3092 -0.559617 273.224 
1.64852e-05 1.69631e-05 2.76657e+25 13.3607 -3.62932 273.914 
