ITEM: TIMESTEP
100000
ITEM: NUMBER OF CELLS
5184
ITEM: BOX BOUNDS ss ss pp
-1.7202e-05 1.7202e-05
-1.7202e-05 1.7202e-05
-0.5 0.5
ITEM: CELLS xc yc f_1[1] f_1[2] f_1[3] f_1[4] 
-1.69631e-05 -1.69631e-05 2.6812e+25 0.0231731 -0.0183185 273.264 
-1.50517e-05 -1.69631e-05 2.68254e+25 0.0308765 0.0321562 272.977 
-1.31404e-05 -1.69631e-05 2.67983e+25 -0.10261 0.0258889 272.962 
-1.12291e-05 -1.69631e-05 2.68417e+25 -0.0791653 -0.00424157 272.646 
-9.31775e-06 -1.69631e-05 2.68675e+25 -0.0734212 -0.0312205 272.618 
-7.40642e-06 -1.69631e-05 2.68538e+25 0.040632 -0.0375429 272.731 
-5.49508e-06 -1.69631e-05 2.68119e+25 -0.40571 -0.00618081 273.147 
-3.58375e-06 -1.69631e-05 2.6871e+25 0.180837 -0.00123073 272.707 
-1.67242e-06 -1.69631e-05 2.68314e+25 -0.285406 -0.0034415 272.954 
-1.69631e-05 -1.64852e-05 2.68542e+25 -0.00609869 0.0417284 272.793 
-1.50517e-05 -1.64852e-05 2.69127e+25 -0.11876 0.0903496 272.282 
-1.31404e-05 -1.64852e-05 2.68323e+25 -0.340698 0.166748 272.684 
-1.12291e-05 -1.64852e-05 2.6867e+25 -0.0782554 -0.0918621 272.52 
-9.31775e-06 -1.64852e-05 2.68849e+25 -0.405445 -0.0887879 272.438 
-7.40642e-06 -1.64852e-05 2.69209e+25 0.214047 -0.0655775 272.203 
-5.49508e-06 -1.64852e-05 2.68265e+25 -0.345143 0.124874 272.668 
-3.58375e-06 -1.64852e-05 2.69019e+25 -0.0338399 0.0914882 272.335 
-1.67242e-06 -1.64852e-05 2.68336e+25 -0.456769 0.0900179 272.944 
-1.69631e-05 -1.60074e-05 2.69081e+25 0.0088409 0.00543893 272.486 
-1.50517e-05 -1.60074e-05 2.69276e+25 -0.14031 0.179726 272.088 
-1.31404e-05 -1.60074e-05 2.68991e+25 -0.304793 0.132377 272.42 
-1.12291e-05 -1.60074e-05 2.69067e+25 -0.324291 -0.224242 272.198 
-9.31775e-06 -1.60074e-05 2.68405e+25 -0.417619 -0.0416675 272.629 
-7.40642e-06 -1.60074e-05 2.69437e+25 -0.280348 -0.118821 271.801 
-5.49508e-06 -1.60074e-05 2.68813e+25 -0.447516 -0.125031 272.417 
-3.58375e-06 -1.60074e-05 2.69106e+25 -0.267889 0.0681049 272.231 
-1.67242e-06 -1.60074e-05 2.68075e+25 -0.895619 0.12464 273.16 
-1.69631e-05 -1.55296e-05 2.6873e+25 0.0132064 -0.0670286 272.692 
-1.50517e-05 -1.55296e-05 2.69581e+25 -0.217391 0.301812 271.916 
-1.31404e-05 -1.55296e-05 2.69101e+25 -0.347574 0.0353806 272.153 
-1.12291e-05 -1.55296e-05 2.68867e+25 -0.261607 -0.297371 272.231 
-9.31775e-06 -1.55296e-05 2.69058e+25 -0.384611 0.14198 272.333 
-7.40642e-06 -1.55296e-05 2.69186e+25 -0.679349 -0.104819 272.093 
-5.49508e-06 -1.55296e-05 2.6882e+25 -0.6728 -0.131627 272.15 
-3.58375e-06 -1.55296e-05 2.69281e+25 -0.545826 0.112822 272.139 
-1.67242e-06 -1.55296e-05 2.68092e+25 -1.03393 0.584605 273.128 
-1.69631e-05 -1.50517e-05 2.68617e+25 -0.0674882 0.0592664 272.777 
-1.50517e-05 -1.50517e-05 2.69422e+25 0.0661363 0.5272 271.923 
-1.31404e-05 -1.50517e-05 2.69161e+25 0.00683492 0.106158 272.148 
-1.12291e-05 -1.50517e-05 2.68895e+25 -0.52586 -0.527154 272.147 
-9.31775e-06 -1.50517e-05 2.68875e+25 -0.388438 0.216982 272.238 
-7.40642e-06 -1.50517e-05 2.68972e+25 -0.969361 0.127218 272.053 
-5.49508e-06 -1.50517e-05 2.68875e+25 -0.418974 -0.122542 272.066 
-3.58375e-06 -1.50517e-05 2.69404e+25 -0.899309 0.280486 271.823 
-1.67242e-06 -1.50517e-05 2.68338e+25 -1.54498 1.00722 272.958 
-1.69631e-05 -1.45739e-05 2.68779e+25 0.0205133 0.0944483 272.507 
-1.50517e-05 -1.45739e-05 2.69817e+25 0.156538 0.564276 271.615 
-1.31404e-05 -1.45739e-05 2.69029e+25 0.0205448 0.120785 272.105 
-1.12291e-05 -1.45739e-05 2.68642e+25 -0.405334 -0.507293 272.418 
-9.31775e-06 -1.45739e-05 2.69067e+25 -0.64075 0.487793 272.037 
-7.40642e-06 -1.45739e-05 2.68938e+25 -1.21991 -0.0914177 272.384 
-5.49508e-06 -1.45739e-05 2.6895e+25 -0.734958 0.105653 272.355 
-3.58375e-06 -1.45739e-05 2.69082e+25 -1.38768 0.368001 271.917 
-1.67242e-06 -1.45739e-05 2.68291e+25 -1.71956 1.20775 272.959 
-1.69631e-05 -1.40961e-05 2.68803e+25 0.040486 0.0343216 272.575 
-1.50517e-05 -1.40961e-05 2.69231e+25 0.144437 0.38232 271.861 
-1.31404e-05 -1.40961e-05 2.69052e+25 -0.437087 0.304363 271.983 
-1.12291e-05 -1.40961e-05 2.68703e+25 -0.715824 -0.491876 272.534 
-9.31775e-06 -1.40961e-05 2.69138e+25 -0.968149 0.699574 271.795 
-7.40642e-06 -1.40961e-05 2.68966e+25 -1.45414 -0.458799 272.498 
-5.49508e-06 -1.40961e-05 2.68739e+25 -1.41577 0.490006 272.397 
-3.58375e-06 -1.40961e-05 2.68863e+25 -1.94169 0.180158 272.327 
-1.67242e-06 -1.40961e-05 2.6865e+25 -1.31435 1.06047 272.614 
-1.69631e-05 -1.36182e-05 2.68127e+25 -0.00340159 -0.00692887 272.668 
-1.50517e-05 -1.36182e-05 2.69283e+25 -0.0555474 0.205354 271.835 
-1.31404e-05 -1.36182e-05 2.6888e+25 -0.574222 0.399308 272.162 
-1.12291e-05 -1.36182e-05 2.68927e+25 -0.761062 -0.411735 272.155 
-9.31775e-06 -1.36182e-05 2.69249e+25 -1.0379 0.631337 271.9 
-7.40642e-06 -1.36182e-05 2.69233e+25 -1.7315 -0.457006 272.064 
-5.49508e-06 -1.36182e-05 2.69225e+25 -1.96653 0.517667 272.128 
-3.58375e-06 -1.36182e-05 2.68724e+25 -2.43959 0.0671101 272.417 
-1.67242e-06 -1.36182e-05 2.69035e+25 -1.79144 0.828293 272.317 
-1.69631e-05 -1.31404e-05 2.6858e+25 0.0486986 -0.0962014 272.437 
-1.50517e-05 -1.31404e-05 2.69133e+25 -0.0141844 0.390008 271.857 
-1.31404e-05 -1.31404e-05 2.68869e+25 -0.297944 0.535323 272.143 
-1.12291e-05 -1.31404e-05 2.68872e+25 -0.857651 -0.30108 272.065 
-9.31775e-06 -1.31404e-05 2.69694e+25 -1.26439 0.594294 271.697 
-7.40642e-06 -1.31404e-05 2.69418e+25 -1.69915 -0.335866 271.862 
-5.49508e-06 -1.31404e-05 2.69075e+25 -2.24111 0.491914 272.082 
-3.58375e-06 -1.31404e-05 2.69337e+25 -2.59637 -0.0462456 272.009 
-1.67242e-06 -1.31404e-05 2.69415e+25 -2.09996 0.781384 271.748 
-1.69631e-05 -1.26626e-05 2.68621e+25 0.0387074 -0.214554 272.467 
-1.50517e-05 -1.26626e-05 2.69214e+25 -0.068687 0.476154 271.836 
-1.31404e-05 -1.26626e-05 2.68974e+25 -0.309893 0.764836 272.282 
-1.12291e-05 -1.26626e-05 2.68926e+25 -0.650072 -0.0435642 272.296 
-9.31775e-06 -1.26626e-05 2.693e+25 -1.32623 0.678478 271.756 
-7.40642e-06 -1.26626e-05 2.68938e+25 -1.75696 -0.124022 272.212 
-5.49508e-06 -1.26626e-05 2.68981e+25 -2.34632 0.511933 272.351 
-3.58375e-06 -1.26626e-05 2.68999e+25 -2.83315 0.104863 272.028 
-1.67242e-06 -1.26626e-05 2.69484e+25 -2.17553 0.626663 271.928 
-1.69631e-05 -1.21847e-05 2.68747e+25 -0.0701799 -0.142123 272.59 
-1.50517e-05 -1.21847e-05 2.69981e+25 -0.0273329 0.402926 271.363 
-1.31404e-05 -1.21847e-05 2.69042e+25 -0.270869 1.04279 272.077 
-1.12291e-05 -1.21847e-05 2.6885e+25 -0.860315 0.309454 272.238 
-9.31775e-06 -1.21847e-05 2.69358e+25 -1.75283 0.861584 272.034 
-7.40642e-06 -1.21847e-05 2.68952e+25 -1.80603 0.197276 272.207 
-5.49508e-06 -1.21847e-05 2.69033e+25 -2.64266 0.67109 272.244 
-3.58375e-06 -1.21847e-05 2.69163e+25 -2.84617 0.198605 272.268 
-1.67242e-06 -1.21847e-05 2.69124e+25 -2.44976 0.298042 271.976 
-1.69631e-05 -1.17069e-05 2.68516e+25 0.042718 -0.150352 272.811 
-1.50517e-05 -1.17069e-05 2.69797e+25 -0.198903 0.644046 271.465 
-1.31404e-05 -1.17069e-05 2.6927e+25 -0.413884 1.14464 272.121 
-1.12291e-05 -1.17069e-05 2.68597e+25 -1.25929 0.471258 272.533 
-9.31775e-06 -1.17069e-05 2.6913e+25 -1.67819 1.14153 272.046 
-7.40642e-06 -1.17069e-05 2.68675e+25 -2.33071 0.30866 272.303 
-5.49508e-06 -1.17069e-05 2.68652e+25 -2.78266 0.704784 272.423 
-3.58375e-06 -1.17069e-05 2.69204e+25 -2.78706 0.261597 272.008 
-1.67242e-06 -1.17069e-05 2.69061e+25 -2.55114 0.235874 272.174 
-1.69631e-05 -1.12291e-05 2.68316e+25 0.0718737 -0.214363 272.761 
-1.50517e-05 -1.12291e-05 2.69412e+25 -0.272558 0.628015 271.829 
-1.31404e-05 -1.12291e-05 2.68957e+25 -0.432157 1.10536 272.227 
-1.12291e-05 -1.12291e-05 2.68377e+25 -1.30507 0.647577 272.554 
-9.31775e-06 -1.12291e-05 2.69129e+25 -1.76071 1.23884 272.204 
-7.40642e-06 -1.12291e-05 2.69057e+25 -2.57182 0.474633 272.432 
-5.49508e-06 -1.12291e-05 2.6898e+25 -2.50793 0.784269 272.225 
-3.58375e-06 -1.12291e-05 2.69222e+25 -2.89044 0.220894 272.058 
-1.67242e-06 -1.12291e-05 2.6905e+25 -2.62534 0.172909 272.237 
-1.69631e-05 -1.07512e-05 2.68285e+25 0.0393739 -0.324917 272.602 
-1.50517e-05 -1.07512e-05 2.69905e+25 -0.210807 0.627752 271.279 
-1.31404e-05 -1.07512e-05 2.69053e+25 -0.594522 1.1589 272.065 
-1.12291e-05 -1.07512e-05 2.68509e+25 -1.27963 0.846116 272.425 
-9.31775e-06 -1.07512e-05 2.69077e+25 -2.18548 1.24073 272.181 
-7.40642e-06 -1.07512e-05 2.68463e+25 -2.30205 0.424348 272.577 
-5.49508e-06 -1.07512e-05 2.69091e+25 -2.68994 1.06023 272.027 
-3.58375e-06 -1.07512e-05 2.6918e+25 -2.95398 0.278974 272.288 
-1.67242e-06 -1.07512e-05 2.68787e+25 -3.16252 -0.0793169 272.198 
-1.69631e-05 -1.02734e-05 2.68552e+25 -0.110869 -0.245604 272.475 
-1.50517e-05 -1.02734e-05 2.69518e+25 -0.0629873 0.657179 271.594 
-1.31404e-05 -1.02734e-05 2.69151e+25 -0.821248 1.09119 272.148 
-1.12291e-05 -1.02734e-05 2.68912e+25 -1.50791 1.25306 272.387 
-9.31775e-06 -1.02734e-05 2.69041e+25 -2.08783 1.16238 271.978 
-7.40642e-06 -1.02734e-05 2.68298e+25 -2.15345 0.454544 272.709 
-5.49508e-06 -1.02734e-05 2.69152e+25 -2.86552 1.21333 271.903 
-3.58375e-06 -1.02734e-05 2.6904e+25 -2.80572 0.388427 272.141 
-1.67242e-06 -1.02734e-05 2.68865e+25 -3.92813 -0.0155493 272.16 
-1.69631e-05 -9.79558e-06 2.68649e+25 0.0205151 -0.116468 272.658 
-1.50517e-05 -9.79558e-06 2.69677e+25 -0.325249 0.864104 271.722 
-1.31404e-05 -9.79558e-06 2.69228e+25 -0.657442 1.20206 272.075 
-1.12291e-05 -9.79558e-06 2.69538e+25 -1.52681 1.414 271.904 
-9.31775e-06 -9.79558e-06 2.69054e+25 -2.3474 1.39428 272.153 
-7.40642e-06 -9.79558e-06 2.6882e+25 -2.49129 0.67283 272.427 
-5.49508e-06 -9.79558e-06 2.69209e+25 -2.89774 1.14456 271.781 
-3.58375e-06 -9.79558e-06 2.69024e+25 -2.89994 0.630216 272.065 
-1.67242e-06 -9.79558e-06 2.69352e+25 -4.19321 0.154118 271.925 
-1.69631e-05 -9.31775e-06 2.68451e+25 0.0473628 -0.177906 272.816 
-1.50517e-05 -9.31775e-06 2.69425e+25 -0.213261 0.987963 271.846 
-1.31404e-05 -9.31775e-06 2.69508e+25 -0.852872 1.39671 271.785 
-1.12291e-05 -9.31775e-06 2.69649e+25 -1.5457 1.45557 271.462 
-9.31775e-06 -9.31775e-06 2.69146e+25 -2.18381 1.53766 271.993 
-7.40642e-06 -9.31775e-06 2.68581e+25 -2.59771 0.809921 272.453 
-5.49508e-06 -9.31775e-06 2.6963e+25 -2.84013 1.03379 271.69 
-3.58375e-06 -9.31775e-06 2.69063e+25 -3.26403 0.876098 272.013 
-1.67242e-06 -9.31775e-06 2.69e+25 -4.41031 0.343057 272.132 
-1.69631e-05 -8.83992e-06 2.68363e+25 -0.126016 -0.0894332 273.046 
-1.50517e-05 -8.83992e-06 2.69324e+25 -0.0650344 0.995574 271.855 
-1.31404e-05 -8.83992e-06 2.6928e+25 -0.815301 1.59653 271.783 
-1.12291e-05 -8.83992e-06 2.69677e+25 -1.49877 1.86988 271.647 
-9.31775e-06 -8.83992e-06 2.69167e+25 -1.87078 1.72807 272.107 
-7.40642e-06 -8.83992e-06 2.68821e+25 -2.79288 1.09574 272.014 
-5.49508e-06 -8.83992e-06 2.6993e+25 -3.11301 0.8945 271.275 
-3.58375e-06 -8.83992e-06 2.69698e+25 -3.59534 1.12797 271.674 
-1.67242e-06 -8.83992e-06 2.68854e+25 -4.23008 0.321081 272.506 
-1.69631e-05 -8.36208e-06 2.6841e+25 0.0209098 0.0309865 272.932 
-1.50517e-05 -8.36208e-06 2.69164e+25 -0.31942 1.12062 272.116 
-1.31404e-05 -8.36208e-06 2.69283e+25 -1.11057 1.5988 271.897 
-1.12291e-05 -8.36208e-06 2.69401e+25 -1.32671 2.05358 271.837 
-9.31775e-06 -8.36208e-06 2.69278e+25 -1.59435 1.67683 271.994 
-7.40642e-06 -8.36208e-06 2.69492e+25 -2.70325 1.51435 271.814 
-5.49508e-06 -8.36208e-06 2.69953e+25 -3.31362 0.872802 271.316 
-3.58375e-06 -8.36208e-06 2.69648e+25 -3.94259 1.1993 271.71 
-1.67242e-06 -8.36208e-06 2.68957e+25 -4.47104 0.42758 272.423 
-1.69631e-05 -7.88425e-06 2.68414e+25 -0.0240448 0.0489149 273.009 
-1.50517e-05 -7.88425e-06 2.69185e+25 -0.33068 1.29413 272.142 
-1.31404e-05 -7.88425e-06 2.69245e+25 -1.1453 1.8023 271.808 
-1.12291e-05 -7.88425e-06 2.69437e+25 -1.18985 2.01893 271.853 
-9.31775e-06 -7.88425e-06 2.69262e+25 -1.80012 1.74629 271.957 
-7.40642e-06 -7.88425e-06 2.69747e+25 -2.79326 1.96487 271.504 
-5.49508e-06 -7.88425e-06 2.69902e+25 -3.74018 1.02219 271.28 
-3.58375e-06 -7.88425e-06 2.69559e+25 -4.01701 1.23455 271.647 
-1.67242e-06 -7.88425e-06 2.69174e+25 -4.32726 0.579032 272.23 
-1.69631e-05 -7.40642e-06 2.68462e+25 0.00807002 0.0825941 272.763 
-1.50517e-05 -7.40642e-06 2.69285e+25 -0.296966 1.56092 271.868 
-1.31404e-05 -7.40642e-06 2.69145e+25 -0.972931 1.84567 272.062 
-1.12291e-05 -7.40642e-06 2.68874e+25 -1.37711 2.08102 272.164 
-9.31775e-06 -7.40642e-06 2.69397e+25 -1.75477 2.07846 271.541 
-7.40642e-06 -7.40642e-06 2.70026e+25 -3.06291 2.48468 271.355 
-5.49508e-06 -7.40642e-06 2.69901e+25 -3.89931 1.0481 271.414 
-3.58375e-06 -7.40642e-06 2.69792e+25 -4.10608 1.38559 271.472 
-1.67242e-06 -7.40642e-06 2.68896e+25 -4.30786 0.827474 272.272 
-1.69631e-05 -6.92858e-06 2.68773e+25 0.0488367 0.0868875 272.723 
-1.50517e-05 -6.92858e-06 2.69236e+25 -0.400965 1.83856 271.964 
-1.31404e-05 -6.92858e-06 2.69508e+25 -0.701504 1.8638 271.705 
-1.12291e-05 -6.92858e-06 2.69312e+25 -1.19766 2.22003 271.98 
-9.31775e-06 -6.92858e-06 2.69439e+25 -2.0322 2.31644 271.613 
-7.40642e-06 -6.92858e-06 2.69716e+25 -3.10548 2.6179 271.636 
-5.49508e-06 -6.92858e-06 2.6963e+25 -3.67649 1.25417 271.574 
-3.58375e-06 -6.92858e-06 2.69493e+25 -4.25059 1.41475 271.693 
-1.67242e-06 -6.92858e-06 2.68826e+25 -4.67119 1.1248 272.229 
-1.69631e-05 -6.45075e-06 2.68664e+25 -0.106907 0.189045 272.734 
-1.50517e-05 -6.45075e-06 2.69193e+25 -0.282693 1.85806 271.971 
-1.31404e-05 -6.45075e-06 2.69533e+25 -0.300368 1.97768 271.622 
-1.12291e-05 -6.45075e-06 2.69168e+25 -1.13276 2.28279 271.788 
-9.31775e-06 -6.45075e-06 2.69273e+25 -2.28238 2.46964 271.866 
-7.40642e-06 -6.45075e-06 2.69646e+25 -3.12193 2.69448 271.704 
-5.49508e-06 -6.45075e-06 2.69727e+25 -3.70316 1.56743 271.481 
-3.58375e-06 -6.45075e-06 2.69704e+25 -4.49665 1.40728 271.495 
-1.67242e-06 -6.45075e-06 2.69102e+25 -4.83978 1.26857 271.981 
-1.69631e-05 -5.97292e-06 2.68886e+25 0.0266258 0.225752 272.729 
-1.50517e-05 -5.97292e-06 2.69464e+25 -0.283912 1.93934 271.608 
-1.31404e-05 -5.97292e-06 2.69375e+25 -0.259839 2.17014 271.774 
-1.12291e-05 -5.97292e-06 2.69136e+25 -1.4599 2.54085 272.015 
-9.31775e-06 -5.97292e-06 2.69327e+25 -2.23897 2.84186 271.767 
-7.40642e-06 -5.97292e-06 2.69475e+25 -3.03794 2.71749 271.491 
-5.49508e-06 -5.97292e-06 2.69578e+25 -3.82826 1.89304 271.563 
-3.58375e-06 -5.97292e-06 2.69728e+25 -4.61179 1.66623 271.619 
-1.67242e-06 -5.97292e-06 2.69008e+25 -5.14057 1.33789 271.972 
-1.69631e-05 -5.49508e-06 2.68392e+25 0.0430223 0.245225 272.678 
-1.50517e-05 -5.49508e-06 2.69288e+25 -0.447395 1.96815 271.749 
-1.31404e-05 -5.49508e-06 2.69029e+25 -0.684709 2.33154 272.008 
-1.12291e-05 -5.49508e-06 2.69302e+25 -1.95165 2.87389 271.879 
-9.31775e-06 -5.49508e-06 2.69168e+25 -2.24007 3.09446 271.954 
-7.40642e-06 -5.49508e-06 2.69867e+25 -3.2316 2.89643 271.461 
-5.49508e-06 -5.49508e-06 2.69614e+25 -3.86437 2.06664 271.648 
-3.58375e-06 -5.49508e-06 2.69492e+25 -4.9817 1.80055 271.681 
-1.67242e-06 -5.49508e-06 2.69013e+25 -5.12798 1.34635 272.077 
-1.69631e-05 -5.01725e-06 2.68517e+25 -0.061643 0.237844 272.861 
-1.50517e-05 -5.01725e-06 2.69667e+25 -0.733648 1.93174 271.592 
-1.31404e-05 -5.01725e-06 2.69151e+25 -1.03111 2.56919 271.893 
-1.12291e-05 -5.01725e-06 2.68949e+25 -1.81232 3.16528 272.155 
-9.31775e-06 -5.01725e-06 2.69282e+25 -2.4715 3.24503 271.872 
-7.40642e-06 -5.01725e-06 2.69596e+25 -3.28381 3.05242 271.62 
-5.49508e-06 -5.01725e-06 2.69154e+25 -4.07473 2.25173 271.866 
-3.58375e-06 -5.01725e-06 2.69301e+25 -5.14315 1.92209 271.513 
-1.67242e-06 -5.01725e-06 2.68944e+25 -5.22716 1.37736 272.198 
-1.69631e-05 -4.53942e-06 2.68583e+25 0.0163712 0.277227 272.716 
-1.50517e-05 -4.53942e-06 2.69866e+25 -0.553336 1.81316 271.586 
-1.31404e-05 -4.53942e-06 2.68983e+25 -1.10285 2.83001 272.203 
-1.12291e-05 -4.53942e-06 2.68978e+25 -1.71795 3.59306 271.996 
-9.31775e-06 -4.53942e-06 2.69415e+25 -2.9107 3.37709 271.785 
-7.40642e-06 -4.53942e-06 2.69488e+25 -3.36891 3.25604 271.885 
-5.49508e-06 -4.53942e-06 2.69359e+25 -4.26641 2.55295 271.591 
-3.58375e-06 -4.53942e-06 2.69557e+25 -5.33884 2.19202 271.582 
-1.67242e-06 -4.53942e-06 2.68605e+25 -5.30893 1.30314 272.179 
-1.69631e-05 -4.06158e-06 2.68342e+25 -0.0124089 0.31532 272.717 
-1.50517e-05 -4.06158e-06 2.69456e+25 -0.541564 1.89883 271.745 
-1.31404e-05 -4.06158e-06 2.68998e+25 -1.05752 3.1224 272.168 
-1.12291e-05 -4.06158e-06 2.69358e+25 -1.70182 3.90553 271.66 
-9.31775e-06 -4.06158e-06 2.69594e+25 -3.21245 3.62006 271.469 
-7.40642e-06 -4.06158e-06 2.69044e+25 -3.37617 3.27646 272.099 
-5.49508e-06 -4.06158e-06 2.69141e+25 -4.05548 3.12792 271.966 
-3.58375e-06 -4.06158e-06 2.69416e+25 -4.99576 2.37912 271.699 
-1.67242e-06 -4.06158e-06 2.69193e+25 -5.62542 1.27818 271.977 
-1.69631e-05 -3.58375e-06 2.68402e+25 -0.0971362 0.545756 272.938 
-1.50517e-05 -3.58375e-06 2.68961e+25 -0.350593 2.06702 272.089 
-1.31404e-05 -3.58375e-06 2.69111e+25 -0.834942 3.51384 272.036 
-1.12291e-05 -3.58375e-06 2.69179e+25 -1.85587 4.08643 271.816 
-9.31775e-06 -3.58375e-06 2.69365e+25 -3.18905 4.00511 271.625 
-7.40642e-06 -3.58375e-06 2.69135e+25 -3.45212 3.18626 271.871 
-5.49508e-06 -3.58375e-06 2.69172e+25 -4.66549 3.37703 272.066 
-3.58375e-06 -3.58375e-06 2.6965e+25 -5.20266 2.36759 271.371 
-1.67242e-06 -3.58375e-06 2.69391e+25 -5.98975 1.47373 271.95 
-1.69631e-05 -3.10592e-06 2.68315e+25 -0.0658357 0.661162 272.932 
-1.50517e-05 -3.10592e-06 2.69091e+25 -0.595397 2.14493 272.18 
-1.31404e-05 -3.10592e-06 2.69187e+25 -1.37374 3.73187 272.183 
-1.12291e-05 -3.10592e-06 2.69051e+25 -2.009 4.20045 272.071 
-9.31775e-06 -3.10592e-06 2.69391e+25 -2.97764 4.12265 271.558 
-7.40642e-06 -3.10592e-06 2.6925e+25 -3.48358 3.3008 272.01 
-5.49508e-06 -3.10592e-06 2.68905e+25 -4.69781 3.36083 271.945 
-3.58375e-06 -3.10592e-06 2.69246e+25 -5.63511 2.48685 271.651 
-1.67242e-06 -3.10592e-06 2.69407e+25 -6.16849 1.53762 271.805 
-1.69631e-05 -2.62808e-06 2.68378e+25 0.210856 0.567353 272.897 
-1.50517e-05 -2.62808e-06 2.68882e+25 -0.707195 2.45518 272.227 
-1.31404e-05 -2.62808e-06 2.69063e+25 -1.50191 3.75012 272.074 
-1.12291e-05 -2.62808e-06 2.69127e+25 -1.7983 4.25832 271.927 
-9.31775e-06 -2.62808e-06 2.69172e+25 -2.59969 4.38855 271.872 
-7.40642e-06 -2.62808e-06 2.69118e+25 -3.93447 3.41478 272.048 
-5.49508e-06 -2.62808e-06 2.68901e+25 -4.69096 3.49458 272.132 
-3.58375e-06 -2.62808e-06 2.69253e+25 -5.79886 2.83518 271.853 
-1.67242e-06 -2.62808e-06 2.69348e+25 -6.48516 1.52649 271.664 
-1.69631e-05 -2.15025e-06 2.68142e+25 0.0620029 0.423829 272.876 
-1.50517e-05 -2.15025e-06 2.689e+25 -0.370096 2.81245 272.223 
-1.31404e-05 -2.15025e-06 2.69205e+25 -1.28368 3.65505 271.803 
-1.12291e-05 -2.15025e-06 2.69561e+25 -1.8307 4.26781 271.653 
-9.31775e-06 -2.15025e-06 2.69473e+25 -2.22315 4.62837 271.594 
-7.40642e-06 -2.15025e-06 2.69233e+25 -3.86925 3.70191 271.9 
-5.49508e-06 -2.15025e-06 2.68994e+25 -4.66386 3.64521 271.925 
-3.58375e-06 -2.15025e-06 2.69022e+25 -5.72869 3.08469 271.87 
-1.67242e-06 -2.15025e-06 2.69829e+25 -6.33116 1.35011 271.11 
-1.69631e-05 -1.67242e-06 2.68387e+25 -0.102859 0.423483 272.931 
-1.50517e-05 -1.67242e-06 2.68847e+25 -0.0288855 2.89796 272.309 
-1.31404e-05 -1.67242e-06 2.69666e+25 -1.11168 3.73797 271.73 
-1.12291e-05 -1.67242e-06 2.69475e+25 -1.70102 4.28836 271.436 
-9.31775e-06 -1.67242e-06 2.69517e+25 -2.24032 4.73081 271.557 
-7.40642e-06 -1.67242e-06 2.68887e+25 -3.55032 4.09046 272.164 
-5.49508e-06 -1.67242e-06 2.69615e+25 -4.72575 3.88318 271.732 
-3.58375e-06 -1.67242e-06 2.69027e+25 -5.55282 3.51183 272.129 
-1.67242e-06 -1.67242e-06 2.69672e+25 -6.12407 1.44367 271.414 
-1.69631e-05 -1.19458e-06 2.68101e+25 0.0341056 0.488147 273.009 
-1.50517e-05 -1.19458e-06 2.68934e+25 -0.233901 3.05408 272.357 
-1.31404e-05 -1.19458e-06 2.69382e+25 -0.724891 3.86836 271.824 
-1.12291e-05 -1.19458e-06 2.69698e+25 -1.35745 4.66659 271.45 
-9.31775e-06 -1.19458e-06 2.69354e+25 -2.27866 5.00882 271.634 
-7.40642e-06 -1.19458e-06 2.69428e+25 -3.30226 4.65284 271.57 
-5.49508e-06 -1.19458e-06 2.69154e+25 -5.09393 4.23867 271.743 
-3.58375e-06 -1.19458e-06 2.69085e+25 -5.19285 3.57261 271.947 
-1.67242e-06 -1.19458e-06 2.69463e+25 -6.12431 1.91773 271.566 
-1.69631e-05 -7.1675e-07 2.68124e+25 -0.0368352 0.497703 273.145 
-1.50517e-05 -7.1675e-07 2.68906e+25 -0.162624 3.18398 272.316 
-1.31404e-05 -7.1675e-07 2.69344e+25 -0.48698 3.98798 271.849 
-1.12291e-05 -7.1675e-07 2.69509e+25 -1.26882 4.95962 271.646 
-9.31775e-06 -7.1675e-07 2.69673e+25 -2.40358 5.20708 271.531 
-7.40642e-06 -7.1675e-07 2.69491e+25 -3.37479 5.08599 271.421 
-5.49508e-06 -7.1675e-07 2.69135e+25 -4.9753 4.68039 272.006 
-3.58375e-06 -7.1675e-07 2.69313e+25 -5.43826 3.48751 271.819 
-1.67242e-06 -7.1675e-07 2.69713e+25 -6.38835 2.55845 271.544 
-1.69631e-05 -2.38917e-07 2.67918e+25 0.0627218 0.482712 272.937 
-1.50517e-05 -2.38917e-07 2.6897e+25 0.0715917 3.31404 272.074 
-1.31404e-05 -2.38917e-07 2.69321e+25 -0.416824 4.22309 271.647 
-1.12291e-05 -2.38917e-07 2.69489e+25 -1.53147 5.2126 271.372 
-9.31775e-06 -2.38917e-07 2.69035e+25 -2.58941 5.57029 271.702 
-7.40642e-06 -2.38917e-07 2.69687e+25 -3.53336 5.3819 271.246 
-5.49508e-06 -2.38917e-07 2.68874e+25 -4.25524 4.99404 271.818 
-3.58375e-06 -2.38917e-07 2.69138e+25 -5.57534 3.55499 271.916 
-1.67242e-06 -2.38917e-07 2.69086e+25 -6.63221 3.10153 271.783 
-1.64852e-05 -1.69631e-05 2.68734e+25 -0.0988963 0.0413249 272.874 
-1.45739e-05 -1.69631e-05 2.68501e+25 0.0251285 0.0549945 272.467 
-1.26626e-05 -1.69631e-05 2.68641e+25 -0.229879 0.0321262 272.868 
-1.07512e-05 -1.69631e-05 2.68495e+25 -0.0528186 0.0237662 272.714 
-8.83992e-06 -1.69631e-05 2.68557e+25 -0.0544194 0.0798897 272.871 
-6.92858e-06 -1.69631e-05 2.68377e+25 0.0739685 -0.0247013 272.677 
-5.01725e-06 -1.69631e-05 2.68358e+25 -0.333947 -0.0947455 273.115 
-3.10592e-06 -1.69631e-05 2.68377e+25 0.00372719 0.123507 272.834 
-1.19458e-06 -1.69631e-05 2.68656e+25 -0.221421 -0.0135045 272.752 
-1.64852e-05 -1.64852e-05 2.68833e+25 0.0244854 0.0569709 272.579 
-1.45739e-05 -1.64852e-05 2.6906e+25 -0.278042 0.0611407 272.207 
-1.26626e-05 -1.64852e-05 2.68716e+25 -0.394907 0.0705369 272.625 
-1.07512e-05 -1.64852e-05 2.68628e+25 -0.142863 0.0245107 272.584 
-8.83992e-06 -1.64852e-05 2.68848e+25 -0.389224 -0.00881483 272.735 
-6.92858e-06 -1.64852e-05 2.68702e+25 0.0368965 0.202142 272.385 
-5.01725e-06 -1.64852e-05 2.68344e+25 -0.277632 -0.273914 272.964 
-3.10592e-06 -1.64852e-05 2.68719e+25 -0.233446 0.353188 272.487 
-1.19458e-06 -1.64852e-05 2.6852e+25 -0.469644 -0.0866542 272.679 
-1.64852e-05 -1.60074e-05 2.69238e+25 0.101415 0.00238679 272.258 
-1.45739e-05 -1.60074e-05 2.69384e+25 -0.167295 0.0900851 271.936 
-1.26626e-05 -1.60074e-05 2.68968e+25 -0.270277 0.130584 272.209 
-1.07512e-05 -1.60074e-05 2.68987e+25 -0.141212 0.0497676 272.352 
-8.83992e-06 -1.60074e-05 2.68875e+25 -0.266499 -0.267383 272.491 
-6.92858e-06 -1.60074e-05 2.69169e+25 -0.26512 0.476775 271.971 
-5.01725e-06 -1.60074e-05 2.68912e+25 -0.337674 -0.158105 272.429 
-3.10592e-06 -1.60074e-05 2.68891e+25 -0.150242 0.439692 272.388 
-1.19458e-06 -1.60074e-05 2.68403e+25 -0.974006 -0.135873 272.814 
-1.64852e-05 -1.55296e-05 2.69391e+25 0.0828944 0.00603186 272.156 
-1.45739e-05 -1.55296e-05 2.69246e+25 -0.434577 0.170085 271.835 
-1.26626e-05 -1.55296e-05 2.68757e+25 -0.385668 0.263316 272.147 
-1.07512e-05 -1.55296e-05 2.69331e+25 -0.0241926 -0.0346639 271.781 
-8.83992e-06 -1.55296e-05 2.68875e+25 -0.437056 -0.520038 272.361 
-6.92858e-06 -1.55296e-05 2.69347e+25 -0.672962 0.38621 271.89 
-5.01725e-06 -1.55296e-05 2.69055e+25 -0.64837 -0.259737 272.309 
-3.10592e-06 -1.55296e-05 2.68597e+25 -0.621878 0.343282 272.395 
-1.19458e-06 -1.55296e-05 2.68044e+25 -1.56845 0.179924 273.134 
-1.64852e-05 -1.50517e-05 2.69428e+25 -0.248346 -0.158814 272.093 
-1.45739e-05 -1.50517e-05 2.69259e+25 -0.0291459 0.337103 271.89 
-1.26626e-05 -1.50517e-05 2.68911e+25 -0.162109 0.352093 272.446 
-1.07512e-05 -1.50517e-05 2.69144e+25 -0.376781 -0.281195 272.014 
-8.83992e-06 -1.50517e-05 2.6912e+25 -0.753212 -0.268473 272.129 
-6.92858e-06 -1.50517e-05 2.69103e+25 -0.920894 0.150845 272.073 
-5.01725e-06 -1.50517e-05 2.68821e+25 -0.585402 -0.269607 272.35 
-3.10592e-06 -1.50517e-05 2.68579e+25 -0.976925 0.320128 272.579 
-1.19458e-06 -1.50517e-05 2.68162e+25 -1.80677 0.402323 272.893 
-1.64852e-05 -1.45739e-05 2.68993e+25 -0.0326277 0.0123445 272.229 
-1.45739e-05 -1.45739e-05 2.69268e+25 0.250972 0.302079 271.806 
-1.26626e-05 -1.45739e-05 2.68555e+25 -0.046222 0.497378 272.479 
-1.07512e-05 -1.45739e-05 2.69049e+25 -0.540189 -0.393366 272.155 
-8.83992e-06 -1.45739e-05 2.69206e+25 -0.951926 0.195067 271.962 
-6.92858e-06 -1.45739e-05 2.6884e+25 -0.912631 -0.0336368 272.179 
-5.01725e-06 -1.45739e-05 2.69122e+25 -1.00162 -0.0746251 272.123 
-3.10592e-06 -1.45739e-05 2.68835e+25 -1.41895 0.375606 272.263 
-1.19458e-06 -1.45739e-05 2.68281e+25 -1.80084 0.540716 273.005 
-1.64852e-05 -1.40961e-05 2.69383e+25 0.0491409 0.126103 272.018 
-1.45739e-05 -1.40961e-05 2.69435e+25 0.236028 0.394854 271.777 
-1.26626e-05 -1.40961e-05 2.6864e+25 -0.504661 0.549492 272.528 
-1.07512e-05 -1.40961e-05 2.68493e+25 -0.809857 -0.20499 272.477 
-8.83992e-06 -1.40961e-05 2.69326e+25 -1.1084 0.45518 271.837 
-6.92858e-06 -1.40961e-05 2.68914e+25 -1.31111 -0.209963 272.393 
-5.01725e-06 -1.40961e-05 2.69051e+25 -1.67459 0.10371 272.209 
-3.10592e-06 -1.40961e-05 2.68718e+25 -1.80043 0.463432 272.475 
-1.19458e-06 -1.40961e-05 2.68852e+25 -1.30112 0.741731 272.494 
-1.64852e-05 -1.36182e-05 2.68935e+25 0.108683 0.127653 272.408 
-1.45739e-05 -1.36182e-05 2.69307e+25 -0.221156 0.465402 271.807 
-1.26626e-05 -1.36182e-05 2.68801e+25 -0.849579 0.77683 272.461 
-1.07512e-05 -1.36182e-05 2.68841e+25 -1.05293 0.0682255 272.488 
-8.83992e-06 -1.36182e-05 2.69019e+25 -1.13176 0.648448 271.956 
-6.92858e-06 -1.36182e-05 2.68884e+25 -1.73936 -0.255424 272.142 
-5.01725e-06 -1.36182e-05 2.69257e+25 -1.99795 0.392147 272.049 
-3.10592e-06 -1.36182e-05 2.68903e+25 -2.21434 0.205205 272.258 
-1.19458e-06 -1.36182e-05 2.68794e+25 -1.63649 0.778175 272.575 
-1.64852e-05 -1.31404e-05 2.69044e+25 0.278828 -0.102858 272.148 
-1.45739e-05 -1.31404e-05 2.69553e+25 -0.173485 0.595333 271.746 
-1.26626e-05 -1.31404e-05 2.68596e+25 -0.294101 0.855965 272.392 
-1.07512e-05 -1.31404e-05 2.68679e+25 -0.853326 0.120607 272.292 
-8.83992e-06 -1.31404e-05 2.69214e+25 -1.33153 0.876914 271.93 
-6.92858e-06 -1.31404e-05 2.69312e+25 -1.95329 -0.166082 271.992 
-5.01725e-06 -1.31404e-05 2.69597e+25 -2.30667 0.530092 271.746 
-3.10592e-06 -1.31404e-05 2.69023e+25 -2.67967 0.160022 272.086 
-1.19458e-06 -1.31404e-05 2.69147e+25 -2.07047 0.585255 272.226 
-1.64852e-05 -1.26626e-05 2.69403e+25 0.113405 -0.246995 272.079 
-1.45739e-05 -1.26626e-05 2.69308e+25 0.181334 0.513078 271.73 
-1.26626e-05 -1.26626e-05 2.68927e+25 -0.55708 0.805652 272.371 
-1.07512e-05 -1.26626e-05 2.69252e+25 -0.969536 0.225189 272.069 
-8.83992e-06 -1.26626e-05 2.69053e+25 -1.40856 0.93525 272.07 
-6.92858e-06 -1.26626e-05 2.68762e+25 -2.11049 0.27308 272.249 
-5.01725e-06 -1.26626e-05 2.68975e+25 -2.32281 0.459247 272.299 
-3.10592e-06 -1.26626e-05 2.68896e+25 -2.72754 0.0113694 272.056 
-1.19458e-06 -1.26626e-05 2.692e+25 -1.97666 0.458082 272.021 
-1.64852e-05 -1.21847e-05 2.6927e+25 -0.0681909 -0.331393 272.207 
-1.45739e-05 -1.21847e-05 2.69568e+25 -0.0496243 0.457794 271.608 
-1.26626e-05 -1.21847e-05 2.69037e+25 -0.31984 0.851848 272.081 
-1.07512e-05 -1.21847e-05 2.68965e+25 -1.03941 0.332033 272.456 
-8.83992e-06 -1.21847e-05 2.68757e+25 -2.00893 1.02177 272.306 
-6.92858e-06 -1.21847e-05 2.68765e+25 -2.02808 0.588836 272.252 
-5.01725e-06 -1.21847e-05 2.68749e+25 -2.634 0.431508 272.476 
-3.10592e-06 -1.21847e-05 2.68798e+25 -2.99456 -0.0804014 272.224 
-1.19458e-06 -1.21847e-05 2.69184e+25 -2.17774 0.377783 271.891 
-1.64852e-05 -1.17069e-05 2.68725e+25 -0.039808 -0.223837 272.432 
-1.45739e-05 -1.17069e-05 2.69614e+25 -0.366396 0.450975 271.663 
-1.26626e-05 -1.17069e-05 2.69112e+25 -0.522789 1.08244 272.191 
-1.07512e-05 -1.17069e-05 2.68503e+25 -1.49259 0.632179 272.567 
-8.83992e-06 -1.17069e-05 2.69052e+25 -1.84042 1.0909 272.321 
-6.92858e-06 -1.17069e-05 2.68745e+25 -2.32177 0.603571 272.475 
-5.01725e-06 -1.17069e-05 2.68674e+25 -2.90749 0.4414 272.431 
-3.10592e-06 -1.17069e-05 2.68816e+25 -2.76215 0.0393554 272.275 
-1.19458e-06 -1.17069e-05 2.69145e+25 -2.5321 0.142391 272.079 
-1.64852e-05 -1.12291e-05 2.6867e+25 0.0749794 -0.169585 272.683 
-1.45739e-05 -1.12291e-05 2.69476e+25 -0.327905 0.609069 271.682 
-1.26626e-05 -1.12291e-05 2.69006e+25 -0.496321 1.18212 272.133 
-1.07512e-05 -1.12291e-05 2.68846e+25 -1.29843 0.728458 272.285 
-8.83992e-06 -1.12291e-05 2.68936e+25 -1.88299 1.26086 272.262 
-6.92858e-06 -1.12291e-05 2.68672e+25 -2.43611 0.417709 272.491 
-5.01725e-06 -1.12291e-05 2.68871e+25 -2.70763 0.672786 272.168 
-3.10592e-06 -1.12291e-05 2.68662e+25 -2.86766 0.022162 272.286 
-1.19458e-06 -1.12291e-05 2.68807e+25 -2.53267 0.00218293 272.284 
-1.64852e-05 -1.07512e-05 2.68842e+25 0.0642282 -0.0920717 272.369 
-1.45739e-05 -1.07512e-05 2.69769e+25 -0.211657 0.709634 271.593 
-1.26626e-05 -1.07512e-05 2.68802e+25 -0.684582 1.3012 272.111 
-1.07512e-05 -1.07512e-05 2.68846e+25 -1.73606 0.936704 272.372 
-8.83992e-06 -1.07512e-05 2.69123e+25 -1.97793 1.24048 272.125 
-6.92858e-06 -1.07512e-05 2.68674e+25 -2.2496 0.304629 272.504 
-5.01725e-06 -1.07512e-05 2.69391e+25 -2.75346 0.71719 271.862 
-3.10592e-06 -1.07512e-05 2.68963e+25 -2.89323 -0.00711101 272.113 
-1.19458e-06 -1.07512e-05 2.68813e+25 -3.25602 0.24269 272.162 
-1.64852e-05 -1.02734e-05 2.68899e+25 -0.210892 -0.10526 272.154 
-1.45739e-05 -1.02734e-05 2.6934e+25 -0.293065 0.888476 271.847 
-1.26626e-05 -1.02734e-05 2.69098e+25 -0.869073 1.53728 272.034 
-1.07512e-05 -1.02734e-05 2.68577e+25 -1.9169 1.28132 272.369 
-8.83992e-06 -1.02734e-05 2.69231e+25 -2.31315 1.30595 272.223 
-6.92858e-06 -1.02734e-05 2.68598e+25 -2.49171 0.491358 272.473 
-5.01725e-06 -1.02734e-05 2.69621e+25 -2.90752 0.65584 271.578 
-3.10592e-06 -1.02734e-05 2.69051e+25 -3.06889 0.0735245 272.066 
-1.19458e-06 -1.02734e-05 2.69385e+25 -3.84716 0.195976 271.891 
-1.64852e-05 -9.79558e-06 2.68944e+25 0.0569457 -0.134953 272.297 
-1.45739e-05 -9.79558e-06 2.69775e+25 -0.534588 1.23614 271.507 
-1.26626e-05 -9.79558e-06 2.69218e+25 -0.879708 1.64585 271.736 
-1.07512e-05 -9.79558e-06 2.69081e+25 -1.63451 1.71487 272.054 
-8.83992e-06 -9.79558e-06 2.69216e+25 -2.36226 1.30714 272.179 
-6.92858e-06 -9.79558e-06 2.68534e+25 -2.72438 0.730006 272.476 
-5.01725e-06 -9.79558e-06 2.69103e+25 -2.65934 0.521838 271.84 
-3.10592e-06 -9.79558e-06 2.69213e+25 -3.29235 0.490446 272.047 
-1.19458e-06 -9.79558e-06 2.69357e+25 -4.36126 0.204003 271.883 
-1.64852e-05 -9.31775e-06 2.68545e+25 0.0351419 -0.212532 272.718 
-1.45739e-05 -9.31775e-06 2.69421e+25 -0.244422 1.20798 271.723 
-1.26626e-05 -9.31775e-06 2.69528e+25 -0.950267 1.77563 271.742 
-1.07512e-05 -9.31775e-06 2.69554e+25 -1.6413 1.897 271.815 
-8.83992e-06 -9.31775e-06 2.68838e+25 -2.26849 1.31222 272.153 
-6.92858e-06 -9.31775e-06 2.68929e+25 -2.71384 1.00712 272.213 
-5.01725e-06 -9.31775e-06 2.69541e+25 -2.92446 0.572051 271.633 
-3.10592e-06 -9.31775e-06 2.69173e+25 -3.53949 0.895136 271.981 
-1.19458e-06 -9.31775e-06 2.69178e+25 -4.37324 0.104475 272.014 
-1.64852e-05 -8.83992e-06 2.68477e+25 -0.254382 -0.162706 272.768 
-1.45739e-05 -8.83992e-06 2.69411e+25 -0.137642 1.31713 271.992 
-1.26626e-05 -8.83992e-06 2.69459e+25 -0.843179 1.76855 271.681 
-1.07512e-05 -8.83992e-06 2.69377e+25 -1.79377 1.86422 271.782 
-8.83992e-06 -8.83992e-06 2.69185e+25 -1.86015 1.24574 272.152 
-6.92858e-06 -8.83992e-06 2.68993e+25 -3.11411 1.15194 272.118 
-5.01725e-06 -8.83992e-06 2.69633e+25 -2.93307 0.54121 271.508 
-3.10592e-06 -8.83992e-06 2.69274e+25 -3.76016 1.04905 271.985 
-1.19458e-06 -8.83992e-06 2.68962e+25 -4.20635 0.148257 272.395 
-1.64852e-05 -8.36208e-06 2.68693e+25 -0.124152 -0.0122737 272.454 
-1.45739e-05 -8.36208e-06 2.69142e+25 -0.450403 1.47953 272.23 
-1.26626e-05 -8.36208e-06 2.69639e+25 -1.24915 1.78998 271.555 
-1.07512e-05 -8.36208e-06 2.69436e+25 -1.36887 1.98622 271.84 
-8.83992e-06 -8.36208e-06 2.69282e+25 -1.77718 1.42957 271.966 
-6.92858e-06 -8.36208e-06 2.69301e+25 -3.04824 1.50343 271.994 
-5.01725e-06 -8.36208e-06 2.69526e+25 -3.66282 0.681433 271.504 
-3.10592e-06 -8.36208e-06 2.69355e+25 -4.06724 1.25962 271.962 
-1.19458e-06 -8.36208e-06 2.69097e+25 -4.32115 -0.0719159 272.158 
-1.64852e-05 -7.88425e-06 2.69117e+25 -0.115203 0.192912 272.323 
-1.45739e-05 -7.88425e-06 2.6896e+25 -0.628502 1.73478 272.289 
-1.26626e-05 -7.88425e-06 2.68989e+25 -1.32625 1.85105 271.703 
-1.07512e-05 -7.88425e-06 2.69019e+25 -1.26146 2.11515 272.097 
-8.83992e-06 -7.88425e-06 2.69545e+25 -1.95385 1.63852 271.901 
-6.92858e-06 -7.88425e-06 2.69623e+25 -3.25135 1.83546 271.64 
-5.01725e-06 -7.88425e-06 2.69596e+25 -3.81358 0.892699 271.49 
-3.10592e-06 -7.88425e-06 2.6943e+25 -4.06943 1.39126 271.808 
-1.19458e-06 -7.88425e-06 2.68969e+25 -4.66618 0.0616516 272.271 
-1.64852e-05 -7.40642e-06 2.69095e+25 0.11302 0.212756 272.167 
-1.45739e-05 -7.40642e-06 2.68692e+25 -0.660602 2.04097 272.308 
-1.26626e-05 -7.40642e-06 2.69066e+25 -0.994437 2.13457 271.817 
-1.07512e-05 -7.40642e-06 2.68804e+25 -1.34719 2.19086 272.165 
-8.83992e-06 -7.40642e-06 2.70056e+25 -2.11733 1.87609 271.32 
-6.92858e-06 -7.40642e-06 2.69292e+25 -3.27254 2.0988 271.716 
-5.01725e-06 -7.40642e-06 2.69684e+25 -3.94232 1.04 271.557 
-3.10592e-06 -7.40642e-06 2.69398e+25 -4.18882 1.26682 271.755 
-1.19458e-06 -7.40642e-06 2.69146e+25 -4.64312 0.396813 272.069 
-1.64852e-05 -6.92858e-06 2.69489e+25 -0.0192085 0.096127 271.997 
-1.45739e-05 -6.92858e-06 2.68896e+25 -0.459825 2.29529 272.07 
-1.26626e-05 -6.92858e-06 2.69314e+25 -0.870988 2.20907 271.68 
-1.07512e-05 -6.92858e-06 2.6898e+25 -1.43572 2.24329 272.05 
-8.83992e-06 -6.92858e-06 2.69931e+25 -2.26572 2.18802 271.136 
-6.92858e-06 -6.92858e-06 2.6933e+25 -3.28235 2.32546 271.65 
-5.01725e-06 -6.92858e-06 2.69674e+25 -3.89938 1.02879 271.474 
-3.10592e-06 -6.92858e-06 2.69566e+25 -4.24872 1.32871 271.526 
-1.19458e-06 -6.92858e-06 2.69176e+25 -4.79067 0.701553 272.017 
-1.64852e-05 -6.45075e-06 2.69139e+25 -0.24142 0.107078 272.224 
-1.45739e-05 -6.45075e-06 2.69322e+25 -0.20875 2.23137 271.92 
-1.26626e-05 -6.45075e-06 2.6979e+25 -0.525557 2.41634 271.602 
-1.07512e-05 -6.45075e-06 2.69389e+25 -1.3732 2.62825 271.927 
-8.83992e-06 -6.45075e-06 2.69569e+25 -2.51092 2.63713 271.614 
-6.92858e-06 -6.45075e-06 2.69505e+25 -3.14081 2.37094 271.705 
-5.01725e-06 -6.45075e-06 2.6994e+25 -3.94995 1.18435 271.37 
-3.10592e-06 -6.45075e-06 2.69253e+25 -4.62355 1.43927 271.763 
-1.19458e-06 -6.45075e-06 2.6875e+25 -4.98388 0.843741 272.119 
-1.64852e-05 -5.97292e-06 2.6896e+25 -0.0529432 0.328534 272.385 
-1.45739e-05 -5.97292e-06 2.69299e+25 -0.242055 1.96455 271.803 
-1.26626e-05 -5.97292e-06 2.69275e+25 -0.442903 2.79813 271.868 
-1.07512e-05 -5.97292e-06 2.69173e+25 -1.72635 2.88695 271.91 
-8.83992e-06 -5.97292e-06 2.69413e+25 -2.61915 2.92981 271.61 
-6.92858e-06 -5.97292e-06 2.6947e+25 -3.1318 2.44388 271.547 
-5.01725e-06 -5.97292e-06 2.69796e+25 -4.1347 1.48731 271.467 
-3.10592e-06 -5.97292e-06 2.69199e+25 -4.8029 1.48602 272.027 
-1.19458e-06 -5.97292e-06 2.68928e+25 -5.25962 0.897849 272.204 
-1.64852e-05 -5.49508e-06 2.68736e+25 -0.00360227 0.366767 272.554 
-1.45739e-05 -5.49508e-06 2.69365e+25 -0.409283 1.97719 271.644 
-1.26626e-05 -5.49508e-06 2.68944e+25 -0.838845 2.96897 272.113 
-1.07512e-05 -5.49508e-06 2.69312e+25 -2.07224 3.02806 271.889 
-8.83992e-06 -5.49508e-06 2.69372e+25 -2.40867 3.14399 271.724 
-6.92858e-06 -5.49508e-06 2.69236e+25 -3.32767 2.53545 271.666 
-5.01725e-06 -5.49508e-06 2.7008e+25 -4.03578 1.7222 271.249 
-3.10592e-06 -5.49508e-06 2.69583e+25 -5.02792 1.60023 271.718 
-1.19458e-06 -5.49508e-06 2.69085e+25 -5.06418 0.839544 272.099 
-1.64852e-05 -5.01725e-06 2.68952e+25 -0.161118 0.537986 272.198 
-1.45739e-05 -5.01725e-06 2.69747e+25 -0.612824 1.88587 271.469 
-1.26626e-05 -5.01725e-06 2.68572e+25 -1.2992 3.17162 272.362 
-1.07512e-05 -5.01725e-06 2.69573e+25 -2.1209 3.02816 271.769 
-8.83992e-06 -5.01725e-06 2.6912e+25 -2.58017 3.34151 271.923 
-6.92858e-06 -5.01725e-06 2.69254e+25 -3.47736 2.62881 271.702 
-5.01725e-06 -5.01725e-06 2.69876e+25 -4.29479 2.01194 271.393 
-3.10592e-06 -5.01725e-06 2.69544e+25 -5.26961 1.60987 271.594 
-1.19458e-06 -5.01725e-06 2.68821e+25 -5.22887 0.77595 272.266 
-1.64852e-05 -4.53942e-06 2.68821e+25 -0.101201 0.613709 272.285 
-1.45739e-05 -4.53942e-06 2.69581e+25 -0.456717 1.89013 271.553 
-1.26626e-05 -4.53942e-06 2.68906e+25 -1.13036 3.08132 272.323 
-1.07512e-05 -4.53942e-06 2.69327e+25 -1.99408 3.31458 271.848 
-8.83992e-06 -4.53942e-06 2.69184e+25 -3.09208 3.41691 271.881 
-6.92858e-06 -4.53942e-06 2.6906e+25 -3.50351 2.78844 272.039 
-5.01725e-06 -4.53942e-06 2.69587e+25 -4.6278 2.26094 271.667 
-3.10592e-06 -4.53942e-06 2.69229e+25 -5.48654 1.71147 271.848 
-1.19458e-06 -4.53942e-06 2.68653e+25 -5.39258 0.940822 272.367 
-1.64852e-05 -4.06158e-06 2.68652e+25 -0.115674 0.840554 272.424 
-1.45739e-05 -4.06158e-06 2.69526e+25 -0.727651 1.94802 271.794 
-1.26626e-05 -4.06158e-06 2.69021e+25 -1.33457 3.1657 272.234 
-1.07512e-05 -4.06158e-06 2.69276e+25 -2.10679 3.65945 271.746 
-8.83992e-06 -4.06158e-06 2.69501e+25 -3.60815 3.57422 271.688 
-6.92858e-06 -4.06158e-06 2.69044e+25 -3.41046 2.95711 272.243 
-5.01725e-06 -4.06158e-06 2.69101e+25 -4.59308 2.57527 271.714 
-3.10592e-06 -4.06158e-06 2.69173e+25 -5.12781 1.81979 271.955 
-1.19458e-06 -4.06158e-06 2.68957e+25 -5.77417 1.17434 272.142 
-1.64852e-05 -3.58375e-06 2.6865e+25 -0.442781 1.02723 272.473 
-1.45739e-05 -3.58375e-06 2.68979e+25 -0.389649 2.02325 272.074 
-1.26626e-05 -3.58375e-06 2.6914e+25 -1.34439 3.46377 271.952 
-1.07512e-05 -3.58375e-06 2.68858e+25 -2.07826 4.0946 272.087 
-8.83992e-06 -3.58375e-06 2.69305e+25 -3.32836 3.85694 271.647 
-6.92858e-06 -3.58375e-06 2.6891e+25 -3.56766 3.226 272.133 
-5.01725e-06 -3.58375e-06 2.68966e+25 -4.704 2.86054 272.115 
-3.10592e-06 -3.58375e-06 2.69381e+25 -5.3637 2.01549 271.609 
-1.19458e-06 -3.58375e-06 2.6904e+25 -6.06323 1.24966 271.963 
-1.64852e-05 -3.10592e-06 2.68391e+25 -0.0734957 1.28435 272.615 
-1.45739e-05 -3.10592e-06 2.6887e+25 -0.834531 2.24637 272.136 
-1.26626e-05 -3.10592e-06 2.69585e+25 -1.52086 3.80368 271.661 
-1.07512e-05 -3.10592e-06 2.69201e+25 -2.04892 4.15784 271.927 
-8.83992e-06 -3.10592e-06 2.69379e+25 -3.14423 4.08603 271.747 
-6.92858e-06 -3.10592e-06 2.6888e+25 -3.72039 3.49847 272.018 
-5.01725e-06 -3.10592e-06 2.69086e+25 -4.76358 3.01136 271.984 
-3.10592e-06 -3.10592e-06 2.69328e+25 -5.86678 2.25059 271.84 
-1.19458e-06 -3.10592e-06 2.69091e+25 -6.14485 1.21114 271.957 
-1.64852e-05 -2.62808e-06 2.68524e+25 0.0691282 1.39243 272.61 
-1.45739e-05 -2.62808e-06 2.6925e+25 -1.1527 2.5057 271.835 
-1.26626e-05 -2.62808e-06 2.69304e+25 -1.4684 4.07562 271.954 
-1.07512e-05 -2.62808e-06 2.69247e+25 -2.13036 4.40828 271.694 
-8.83992e-06 -2.62808e-06 2.69641e+25 -2.82078 4.20342 271.6 
-6.92858e-06 -2.62808e-06 2.68664e+25 -4.06537 3.68744 272.507 
-5.01725e-06 -2.62808e-06 2.69177e+25 -4.86326 3.14955 271.965 
-3.10592e-06 -2.62808e-06 2.69047e+25 -6.13938 2.4735 271.946 
-1.19458e-06 -2.62808e-06 2.69315e+25 -6.3854 1.03532 271.73 
-1.64852e-05 -2.15025e-06 2.68292e+25 0.133229 1.59818 272.634 
-1.45739e-05 -2.15025e-06 2.69106e+25 -0.691081 2.96346 271.895 
-1.26626e-05 -2.15025e-06 2.69423e+25 -1.33392 4.04867 271.745 
-1.07512e-05 -2.15025e-06 2.69641e+25 -1.85049 4.7534 271.554 
-8.83992e-06 -2.15025e-06 2.69614e+25 -2.41714 4.4087 271.428 
-6.92858e-06 -2.15025e-06 2.69336e+25 -4.09215 3.74571 272.099 
-5.01725e-06 -2.15025e-06 2.693e+25 -4.91503 3.3615 271.896 
-3.10592e-06 -2.15025e-06 2.69095e+25 -6.00901 2.78966 272.025 
-1.19458e-06 -2.15025e-06 2.69423e+25 -6.26567 1.04977 271.506 
-1.64852e-05 -1.67242e-06 2.68963e+25 0.040482 1.38381 272.49 
-1.45739e-05 -1.67242e-06 2.69092e+25 -0.371144 3.53409 271.951 
-1.26626e-05 -1.67242e-06 2.69798e+25 -1.20833 4.07582 271.594 
-1.07512e-05 -1.67242e-06 2.69505e+25 -1.7656 4.83555 271.584 
-8.83992e-06 -1.67242e-06 2.6941e+25 -2.55453 4.78437 271.541 
-6.92858e-06 -1.67242e-06 2.68979e+25 -4.10413 4.20991 272.121 
-5.01725e-06 -1.67242e-06 2.69337e+25 -5.07303 3.76541 271.667 
-3.10592e-06 -1.67242e-06 2.69268e+25 -5.74073 2.88111 271.868 
-1.19458e-06 -1.67242e-06 2.69465e+25 -6.56008 1.272 271.477 
-1.64852e-05 -1.19458e-06 2.68686e+25 -0.00491485 1.14246 272.636 
-1.45739e-05 -1.19458e-06 2.69075e+25 -0.286308 3.69992 272.043 
-1.26626e-05 -1.19458e-06 2.69657e+25 -0.732465 4.09519 271.67 
-1.07512e-05 -1.19458e-06 2.69548e+25 -1.68408 4.77472 271.468 
-8.83992e-06 -1.19458e-06 2.69594e+25 -2.47624 4.96641 271.677 
-6.92858e-06 -1.19458e-06 2.69395e+25 -3.84296 4.68612 271.777 
-5.01725e-06 -1.19458e-06 2.69241e+25 -5.40323 4.01501 271.852 
-3.10592e-06 -1.19458e-06 2.69246e+25 -5.23581 3.048 271.566 
-1.19458e-06 -1.19458e-06 2.69223e+25 -6.61486 1.63649 271.839 
-1.64852e-05 -7.1675e-07 2.6829e+25 -0.0490497 1.2649 272.785 
-1.45739e-05 -7.1675e-07 2.68647e+25 -0.217899 3.61698 272.467 
-1.26626e-05 -7.1675e-07 2.69557e+25 -0.759764 4.28131 271.722 
-1.07512e-05 -7.1675e-07 2.69628e+25 -1.59315 5.06486 271.395 
-8.83992e-06 -7.1675e-07 2.69389e+25 -2.74334 5.2327 271.684 
-6.92858e-06 -7.1675e-07 2.69433e+25 -3.77374 5.23981 271.505 
-5.01725e-06 -7.1675e-07 2.68876e+25 -5.17286 4.15373 271.972 
-3.10592e-06 -7.1675e-07 2.69683e+25 -5.40462 3.03632 271.494 
-1.19458e-06 -7.1675e-07 2.68989e+25 -6.93949 2.08744 271.839 
-1.64852e-05 -2.38917e-07 2.68082e+25 0.0957081 1.23903 272.834 
-1.45739e-05 -2.38917e-07 2.68926e+25 0.0568318 3.59948 272.157 
-1.26626e-05 -2.38917e-07 2.69072e+25 -0.669356 4.60607 271.885 
-1.07512e-05 -2.38917e-07 2.69361e+25 -1.71951 5.42085 271.454 
-8.83992e-06 -2.38917e-07 2.69367e+25 -2.87848 5.56814 271.376 
-6.92858e-06 -2.38917e-07 2.69479e+25 -3.59479 5.44143 271.288 
-5.01725e-06 -2.38917e-07 2.69123e+25 -4.58268 4.41772 271.641 
-3.10592e-06 -2.38917e-07 2.69351e+25 -5.85054 3.23643 271.467 
-1.19458e-06 -2.38917e-07 2.69049e+25 -6.99467 2.44825 271.928 
-1.60074e-05 -1.69631e-05 2.68518e+25 0.0439789 -0.0649876 272.963 
-1.40961e-05 -1.69631e-05 2.68221e+25 -0.0413549 0.0163777 272.874 
-1.21847e-05 -1.69631e-05 2.68329e+25 -0.26144 -0.0442174 272.79 
-1.02734e-05 -1.69631e-05 2.68357e+25 -0.0584129 0.0689233 272.683 
-8.36208e-06 -1.69631e-05 2.68406e+25 -0.145064 0.0375102 272.811 
-6.45075e-06 -1.69631e-05 2.68679e+25 -0.00979122 0.0971567 272.751 
-4.53942e-06 -1.69631e-05 2.68255e+25 -0.10157 -0.0622695 273.01 
-2.62808e-06 -1.69631e-05 2.67911e+25 -0.235054 0.0396054 272.994 
-7.1675e-07 -1.69631e-05 2.68509e+25 -0.252168 -0.00417489 272.81 
-1.60074e-05 -1.64852e-05 2.69017e+25 -0.0604218 -0.203395 272.252 
-1.40961e-05 -1.64852e-05 2.68636e+25 -0.222346 0.0306987 272.681 
-1.21847e-05 -1.64852e-05 2.68789e+25 -0.364169 -0.137946 272.371 
-1.02734e-05 -1.64852e-05 2.68768e+25 -0.266509 0.186578 272.597 
-8.36208e-06 -1.64852e-05 2.69134e+25 -0.136074 -0.113157 272.247 
-6.45075e-06 -1.64852e-05 2.68962e+25 -0.332742 0.351354 272.365 
-4.53942e-06 -1.64852e-05 2.68668e+25 -0.298574 -0.256935 272.639 
-2.62808e-06 -1.64852e-05 2.68396e+25 -0.310977 0.190078 272.645 
-7.1675e-07 -1.64852e-05 2.68778e+25 -0.367678 -0.0488201 272.609 
-1.60074e-05 -1.60074e-05 2.69806e+25 0.0397001 -0.0419675 271.814 
-1.40961e-05 -1.60074e-05 2.69083e+25 -0.228021 0.0454229 272.276 
-1.21847e-05 -1.60074e-05 2.69116e+25 -0.32846 -0.0840492 272.062 
-1.02734e-05 -1.60074e-05 2.68694e+25 -0.21698 0.331984 272.482 
-8.36208e-06 -1.60074e-05 2.69062e+25 0.00366702 -0.295427 272.334 
-6.45075e-06 -1.60074e-05 2.69231e+25 -0.323385 0.361724 271.867 
-4.53942e-06 -1.60074e-05 2.6902e+25 -0.347531 -0.357091 272.245 
-2.62808e-06 -1.60074e-05 2.68423e+25 -0.367217 0.357817 272.638 
-7.1675e-07 -1.60074e-05 2.68724e+25 -1.03688 0.0490157 272.768 
-1.60074e-05 -1.55296e-05 2.69552e+25 0.219862 -0.117086 271.656 
-1.40961e-05 -1.55296e-05 2.69246e+25 -0.454028 -0.0652036 271.929 
-1.21847e-05 -1.55296e-05 2.68878e+25 -0.492419 -0.081868 272.336 
-1.02734e-05 -1.55296e-05 2.68636e+25 -0.000285564 0.367084 272.511 
-8.36208e-06 -1.55296e-05 2.6905e+25 -0.497572 -0.326611 272.171 
-6.45075e-06 -1.55296e-05 2.69294e+25 -0.554684 0.453554 271.846 
-4.53942e-06 -1.55296e-05 2.69362e+25 -0.494021 -0.430547 272.099 
-2.62808e-06 -1.55296e-05 2.68702e+25 -0.542523 0.546384 272.487 
-7.1675e-07 -1.55296e-05 2.68513e+25 -1.85524 0.141672 272.65 
-1.60074e-05 -1.50517e-05 2.69785e+25 -0.221567 -0.102653 271.735 
-1.40961e-05 -1.50517e-05 2.69183e+25 -0.149155 -0.0301337 272.126 
-1.21847e-05 -1.50517e-05 2.68907e+25 -0.334645 0.00412584 272.317 
-1.02734e-05 -1.50517e-05 2.69022e+25 -0.155349 0.430291 272.259 
-8.36208e-06 -1.50517e-05 2.69174e+25 -0.996315 -0.21664 271.952 
-6.45075e-06 -1.50517e-05 2.69102e+25 -0.81866 0.329227 272.088 
-4.53942e-06 -1.50517e-05 2.68971e+25 -0.712914 -0.375741 272.367 
-2.62808e-06 -1.50517e-05 2.68551e+25 -0.984194 0.523357 272.602 
-7.1675e-07 -1.50517e-05 2.68439e+25 -1.89099 0.302429 272.806 
-1.60074e-05 -1.45739e-05 2.69641e+25 -0.0108377 -0.323092 271.617 
-1.40961e-05 -1.45739e-05 2.6922e+25 0.154135 0.139463 271.994 
-1.21847e-05 -1.45739e-05 2.68673e+25 -0.113359 0.219814 272.632 
-1.02734e-05 -1.45739e-05 2.69157e+25 -0.529507 0.366643 272.039 
-8.36208e-06 -1.45739e-05 2.69211e+25 -1.31502 0.0307742 271.881 
-6.45075e-06 -1.45739e-05 2.68693e+25 -0.56535 0.174875 272.244 
-4.53942e-06 -1.45739e-05 2.68592e+25 -1.20049 -0.26131 272.626 
-2.62808e-06 -1.45739e-05 2.68709e+25 -1.41032 0.552233 272.468 
-7.1675e-07 -1.45739e-05 2.68132e+25 -1.82648 0.296041 272.972 
-1.60074e-05 -1.40961e-05 2.69587e+25 -0.143153 -0.27327 271.857 
-1.40961e-05 -1.40961e-05 2.69172e+25 0.0958809 0.153554 272.113 
-1.21847e-05 -1.40961e-05 2.69206e+25 -0.630484 0.313544 272.385 
-1.02734e-05 -1.40961e-05 2.68962e+25 -0.867628 0.205708 272.201 
-8.36208e-06 -1.40961e-05 2.68787e+25 -1.2593 0.174063 272.219 
-6.45075e-06 -1.40961e-05 2.69154e+25 -1.12796 -0.0578413 272.192 
-4.53942e-06 -1.40961e-05 2.68927e+25 -1.88795 0.057816 272.333 
-2.62808e-06 -1.40961e-05 2.68607e+25 -1.78727 0.455939 272.435 
-7.1675e-07 -1.40961e-05 2.69158e+25 -1.44158 0.392444 272.11 
-1.60074e-05 -1.36182e-05 2.69089e+25 0.24251 -0.153307 272.04 
-1.40961e-05 -1.36182e-05 2.69054e+25 -0.311676 0.404135 271.959 
-1.21847e-05 -1.36182e-05 2.69507e+25 -0.876074 0.312153 272.046 
-1.02734e-05 -1.36182e-05 2.68949e+25 -1.20515 0.207657 272.3 
-8.36208e-06 -1.36182e-05 2.69125e+25 -1.4911 0.490121 272.025 
-6.45075e-06 -1.36182e-05 2.68891e+25 -1.77927 -0.182403 272.31 
-4.53942e-06 -1.36182e-05 2.68964e+25 -2.27398 0.18676 272.318 
-2.62808e-06 -1.36182e-05 2.68901e+25 -2.08557 0.428367 272.297 
-7.1675e-07 -1.36182e-05 2.68458e+25 -1.74162 0.462684 272.418 
-1.60074e-05 -1.31404e-05 2.69169e+25 0.315892 -0.110664 272.013 
-1.40961e-05 -1.31404e-05 2.6954e+25 -0.196097 0.433838 271.692 
-1.21847e-05 -1.31404e-05 2.68937e+25 -0.361333 0.378867 272.137 
-1.02734e-05 -1.31404e-05 2.6915e+25 -0.965696 0.440005 272.03 
-8.36208e-06 -1.31404e-05 2.69215e+25 -1.47704 0.701129 272.017 
-6.45075e-06 -1.31404e-05 2.68951e+25 -2.22764 0.133197 272.102 
-4.53942e-06 -1.31404e-05 2.69249e+25 -2.32162 0.284725 272.106 
-2.62808e-06 -1.31404e-05 2.69411e+25 -2.46139 0.230566 272.182 
-7.1675e-07 -1.31404e-05 2.68813e+25 -1.93246 0.54658 272.474 
-1.60074e-05 -1.26626e-05 2.69619e+25 0.120461 -0.0656362 271.707 
-1.40961e-05 -1.26626e-05 2.69609e+25 0.160612 0.534097 271.752 
-1.21847e-05 -1.26626e-05 2.69095e+25 -0.468729 0.399035 272.226 
-1.02734e-05 -1.26626e-05 2.69089e+25 -1.07721 0.529172 272.034 
-8.36208e-06 -1.26626e-05 2.68542e+25 -1.48357 0.818391 272.577 
-6.45075e-06 -1.26626e-05 2.68746e+25 -2.44272 0.306812 272.209 
-4.53942e-06 -1.26626e-05 2.68706e+25 -2.41215 0.529595 272.309 
-2.62808e-06 -1.26626e-05 2.69215e+25 -2.62519 0.076148 272.022 
-7.1675e-07 -1.26626e-05 2.69164e+25 -1.81149 0.592266 272.058 
-1.60074e-05 -1.21847e-05 2.6923e+25 -0.136632 0.0276207 271.971 
-1.40961e-05 -1.21847e-05 2.69361e+25 -0.138601 0.620026 271.928 
-1.21847e-05 -1.21847e-05 2.6909e+25 -0.599706 0.494538 272.191 
-1.02734e-05 -1.21847e-05 2.6906e+25 -1.27541 0.857543 272.202 
-8.36208e-06 -1.21847e-05 2.68644e+25 -1.8546 0.746932 272.445 
-6.45075e-06 -1.21847e-05 2.68829e+25 -2.29745 0.517746 272.452 
-4.53942e-06 -1.21847e-05 2.68519e+25 -2.79193 0.634746 272.604 
-2.62808e-06 -1.21847e-05 2.69153e+25 -2.91741 0.00853512 272.025 
-7.1675e-07 -1.21847e-05 2.69259e+25 -2.13651 0.368924 271.971 
-1.60074e-05 -1.17069e-05 2.69111e+25 -0.122005 0.035383 272.103 
-1.40961e-05 -1.17069e-05 2.69305e+25 -0.357787 0.638193 271.901 
-1.21847e-05 -1.17069e-05 2.68939e+25 -0.761418 0.779091 272.332 
-1.02734e-05 -1.17069e-05 2.69013e+25 -1.60656 0.881852 272.221 
-8.36208e-06 -1.17069e-05 2.68575e+25 -1.98694 0.644338 272.446 
-6.45075e-06 -1.17069e-05 2.68882e+25 -2.35087 0.848516 272.574 
-4.53942e-06 -1.17069e-05 2.68813e+25 -2.71562 0.679876 272.48 
-2.62808e-06 -1.17069e-05 2.69082e+25 -2.70709 -0.209182 272.245 
-7.1675e-07 -1.17069e-05 2.69421e+25 -2.30876 0.225692 271.883 
-1.60074e-05 -1.12291e-05 2.68773e+25 -0.121223 0.294326 272.386 
-1.40961e-05 -1.12291e-05 2.6918e+25 -0.471008 0.743894 271.851 
-1.21847e-05 -1.12291e-05 2.68636e+25 -0.703539 1.13685 272.464 
-1.02734e-05 -1.12291e-05 2.68956e+25 -1.32206 0.95516 272.341 
-8.36208e-06 -1.12291e-05 2.6869e+25 -1.95558 0.693339 272.324 
-6.45075e-06 -1.12291e-05 2.68801e+25 -2.26494 0.837264 272.334 
-4.53942e-06 -1.12291e-05 2.68982e+25 -2.81404 0.513572 272.053 
-2.62808e-06 -1.12291e-05 2.68991e+25 -2.94278 -0.252567 272.187 
-7.1675e-07 -1.12291e-05 2.69215e+25 -2.64991 0.302812 272.007 
-1.60074e-05 -1.07512e-05 2.69296e+25 0.036442 0.393047 272.252 
-1.40961e-05 -1.07512e-05 2.69234e+25 -0.338223 0.827712 271.958 
-1.21847e-05 -1.07512e-05 2.68924e+25 -0.840912 1.37145 272.258 
-1.02734e-05 -1.07512e-05 2.69026e+25 -2.0869 1.20322 272.291 
-8.36208e-06 -1.07512e-05 2.68494e+25 -2.18329 0.988044 272.463 
-6.45075e-06 -1.07512e-05 2.68611e+25 -2.31087 0.752391 272.544 
-4.53942e-06 -1.07512e-05 2.69247e+25 -2.78432 0.601198 271.988 
-2.62808e-06 -1.07512e-05 2.69044e+25 -2.98799 -0.115225 272.079 
-7.1675e-07 -1.07512e-05 2.68947e+25 -3.20732 0.259686 271.995 
-1.60074e-05 -1.02734e-05 2.69103e+25 -0.242354 0.478506 272.056 
-1.40961e-05 -1.02734e-05 2.69521e+25 -0.62612 1.05574 271.572 
-1.21847e-05 -1.02734e-05 2.6917e+25 -1.06713 1.44972 272.065 
-1.02734e-05 -1.02734e-05 2.68965e+25 -2.14395 1.44898 272.322 
-8.36208e-06 -1.02734e-05 2.68795e+25 -2.33155 1.17549 272.419 
-6.45075e-06 -1.02734e-05 2.68412e+25 -2.67175 0.832204 272.564 
-4.53942e-06 -1.02734e-05 2.69173e+25 -2.79291 0.565863 271.906 
-2.62808e-06 -1.02734e-05 2.68962e+25 -3.41338 0.234504 272.226 
-7.1675e-07 -1.02734e-05 2.69402e+25 -3.89148 0.318194 271.876 
-1.60074e-05 -9.79558e-06 2.69108e+25 0.0864724 0.495348 271.991 
-1.40961e-05 -9.79558e-06 2.69492e+25 -0.548703 1.03136 271.723 
-1.21847e-05 -9.79558e-06 2.69247e+25 -0.98496 1.699 271.728 
-1.02734e-05 -9.79558e-06 2.68938e+25 -1.99162 1.62362 272.451 
-8.36208e-06 -9.79558e-06 2.68819e+25 -2.47915 1.24871 272.143 
-6.45075e-06 -9.79558e-06 2.68874e+25 -2.96801 1.00483 272.107 
-4.53942e-06 -9.79558e-06 2.69074e+25 -2.83621 0.559506 271.891 
-2.62808e-06 -9.79558e-06 2.68793e+25 -3.74399 0.602707 272.201 
-7.1675e-07 -9.79558e-06 2.69033e+25 -4.27261 0.169649 271.894 
-1.60074e-05 -9.31775e-06 2.6879e+25 -0.0228975 0.60705 272.336 
-1.40961e-05 -9.31775e-06 2.69414e+25 -0.387606 1.13757 271.682 
-1.21847e-05 -9.31775e-06 2.69868e+25 -1.09471 1.90101 271.541 
-1.02734e-05 -9.31775e-06 2.69053e+25 -1.70122 1.76247 272.263 
-8.36208e-06 -9.31775e-06 2.69027e+25 -2.11873 1.24729 272.254 
-6.45075e-06 -9.31775e-06 2.69172e+25 -2.87477 1.06987 271.831 
-4.53942e-06 -9.31775e-06 2.69172e+25 -2.89151 0.650932 271.833 
-2.62808e-06 -9.31775e-06 2.69126e+25 -3.7655 0.937484 271.991 
-7.1675e-07 -9.31775e-06 2.69194e+25 -4.19217 -0.0780786 272.159 
-1.60074e-05 -8.83992e-06 2.68626e+25 -0.171629 0.605858 272.515 
-1.40961e-05 -8.83992e-06 2.69526e+25 -0.385438 1.46035 271.745 
-1.21847e-05 -8.83992e-06 2.69775e+25 -0.86404 2.12739 271.404 
-1.02734e-05 -8.83992e-06 2.6921e+25 -1.68227 1.82128 272.091 
-8.36208e-06 -8.83992e-06 2.69213e+25 -1.95526 1.34836 272.059 
-6.45075e-06 -8.83992e-06 2.69299e+25 -3.18509 1.11615 271.941 
-4.53942e-06 -8.83992e-06 2.69378e+25 -3.10182 0.793523 271.87 
-2.62808e-06 -8.83992e-06 2.69167e+25 -4.03318 1.20987 272.149 
-7.1675e-07 -8.83992e-06 2.69262e+25 -4.28498 -0.187289 272.18 
-1.60074e-05 -8.36208e-06 2.69137e+25 -0.213394 0.440714 272.198 
-1.40961e-05 -8.36208e-06 2.69043e+25 -0.681944 1.69933 272.237 
-1.21847e-05 -8.36208e-06 2.69602e+25 -1.19433 2.23722 271.517 
-1.02734e-05 -8.36208e-06 2.69252e+25 -1.53407 1.778 272.058 
-8.36208e-06 -8.36208e-06 2.69417e+25 -2.08223 1.5485 271.815 
-6.45075e-06 -8.36208e-06 2.69606e+25 -3.37093 1.21215 271.637 
-4.53942e-06 -8.36208e-06 2.69366e+25 -3.71085 1.02018 271.801 
-2.62808e-06 -8.36208e-06 2.69164e+25 -4.24072 1.31239 272.193 
-7.1675e-07 -8.36208e-06 2.69253e+25 -4.36204 -0.00577639 271.971 
-1.60074e-05 -7.88425e-06 2.69228e+25 -0.176587 0.335339 272.012 
-1.40961e-05 -7.88425e-06 2.68886e+25 -0.816556 1.97359 272.315 
-1.21847e-05 -7.88425e-06 2.69202e+25 -1.35035 2.12135 271.713 
-1.02734e-05 -7.88425e-06 2.69002e+25 -1.40994 1.98926 272.195 
-8.36208e-06 -7.88425e-06 2.69536e+25 -2.07992 1.83433 271.735 
-6.45075e-06 -7.88425e-06 2.69509e+25 -3.57412 1.47614 271.586 
-4.53942e-06 -7.88425e-06 2.69287e+25 -3.94914 1.01851 271.849 
-2.62808e-06 -7.88425e-06 2.693e+25 -3.991 1.34934 272.025 
-7.1675e-07 -7.88425e-06 2.69357e+25 -4.76206 0.0704836 271.907 
-1.60074e-05 -7.40642e-06 2.69301e+25 0.0344006 0.392631 271.716 
-1.40961e-05 -7.40642e-06 2.68802e+25 -0.949398 2.16045 272.337 
-1.21847e-05 -7.40642e-06 2.69022e+25 -1.16907 1.99489 271.916 
-1.02734e-05 -7.40642e-06 2.68591e+25 -1.37975 2.07824 272.325 
-8.36208e-06 -7.40642e-06 2.69786e+25 -2.41974 1.99656 271.328 
-6.45075e-06 -7.40642e-06 2.69547e+25 -3.49536 1.78762 271.542 
-4.53942e-06 -7.40642e-06 2.69174e+25 -4.00117 1.0639 271.722 
-2.62808e-06 -7.40642e-06 2.69362e+25 -4.16988 1.34749 271.83 
-7.1675e-07 -7.40642e-06 2.6898e+25 -5.11059 0.356942 271.972 
-1.60074e-05 -6.92858e-06 2.69647e+25 -0.0273896 0.524124 271.729 
-1.40961e-05 -6.92858e-06 2.69068e+25 -0.551956 2.26574 272.06 
-1.21847e-05 -6.92858e-06 2.69389e+25 -0.939349 2.16944 271.711 
-1.02734e-05 -6.92858e-06 2.69022e+25 -1.68332 2.24826 272.194 
-8.36208e-06 -6.92858e-06 2.69593e+25 -2.57182 2.42082 271.374 
-6.45075e-06 -6.92858e-06 2.69332e+25 -3.37852 1.841 271.686 
-4.53942e-06 -6.92858e-06 2.69809e+25 -4.04522 1.20147 271.345 
-2.62808e-06 -6.92858e-06 2.69262e+25 -4.28562 1.39919 271.883 
-7.1675e-07 -6.92858e-06 2.68597e+25 -5.00894 0.616869 272.304 
-1.60074e-05 -6.45075e-06 2.69722e+25 -0.341734 0.717236 271.6 
-1.40961e-05 -6.45075e-06 2.69103e+25 -0.0591156 2.32201 272.085 
-1.21847e-05 -6.45075e-06 2.69459e+25 -0.882544 2.37283 271.685 
-1.02734e-05 -6.45075e-06 2.69036e+25 -1.68942 2.42574 272.04 
-8.36208e-06 -6.45075e-06 2.69702e+25 -2.87915 2.56365 271.432 
-6.45075e-06 -6.45075e-06 2.69436e+25 -3.24418 1.90988 271.673 
-4.53942e-06 -6.45075e-06 2.69957e+25 -4.16608 1.47512 271.337 
-2.62808e-06 -6.45075e-06 2.69269e+25 -4.62205 1.35255 271.782 
-7.1675e-07 -6.45075e-06 2.68885e+25 -4.87794 0.611054 272.265 
-1.60074e-05 -5.97292e-06 2.69118e+25 -0.168906 0.667238 272.076 
-1.40961e-05 -5.97292e-06 2.69141e+25 -0.103134 2.25553 271.896 
-1.21847e-05 -5.97292e-06 2.6924e+25 -0.831058 2.63506 271.895 
-1.02734e-05 -5.97292e-06 2.69e+25 -1.9362 2.80108 272.028 
-8.36208e-06 -5.97292e-06 2.69555e+25 -2.72343 2.73255 271.482 
-6.45075e-06 -5.97292e-06 2.69605e+25 -3.25395 2.15054 271.509 
-4.53942e-06 -5.97292e-06 2.69661e+25 -4.36712 1.56564 271.451 
-2.62808e-06 -5.97292e-06 2.6922e+25 -4.98562 1.47288 271.883 
-7.1675e-07 -5.97292e-06 2.68858e+25 -5.03888 0.440165 272.163 
-1.60074e-05 -5.49508e-06 2.68929e+25 -0.118329 0.846693 272.278 
-1.40961e-05 -5.49508e-06 2.69471e+25 -0.504275 2.16886 271.655 
-1.21847e-05 -5.49508e-06 2.69254e+25 -1.14509 3.07134 272.056 
-1.02734e-05 -5.49508e-06 2.69332e+25 -1.93469 2.73951 271.728 
-8.36208e-06 -5.49508e-06 2.69843e+25 -2.669 3.05985 271.34 
-6.45075e-06 -5.49508e-06 2.69566e+25 -3.42432 2.37391 271.541 
-4.53942e-06 -5.49508e-06 2.70008e+25 -4.33882 1.81749 271.309 
-2.62808e-06 -5.49508e-06 2.69315e+25 -5.07049 1.67276 271.702 
-7.1675e-07 -5.49508e-06 2.68793e+25 -5.07675 0.291795 272.35 
-1.60074e-05 -5.01725e-06 2.6908e+25 -0.278578 1.02437 272.122 
-1.40961e-05 -5.01725e-06 2.69837e+25 -0.574998 2.1494 271.44 
-1.21847e-05 -5.01725e-06 2.68844e+25 -1.22981 3.30611 272.268 
-1.02734e-05 -5.01725e-06 2.69796e+25 -2.28747 2.73749 271.607 
-8.36208e-06 -5.01725e-06 2.69421e+25 -2.836 3.34093 271.662 
-6.45075e-06 -5.01725e-06 2.69442e+25 -3.58947 2.43298 271.668 
-4.53942e-06 -5.01725e-06 2.69894e+25 -4.57957 2.21295 271.37 
-2.62808e-06 -5.01725e-06 2.69202e+25 -5.30401 1.73925 271.914 
-7.1675e-07 -5.01725e-06 2.69073e+25 -5.41271 0.460802 272.292 
-1.60074e-05 -4.53942e-06 2.69229e+25 -0.25791 1.20591 272.135 
-1.40961e-05 -4.53942e-06 2.69673e+25 -0.592659 2.37576 271.667 
-1.21847e-05 -4.53942e-06 2.68817e+25 -1.13241 3.38522 272.134 
-1.02734e-05 -4.53942e-06 2.69586e+25 -2.48022 3.17445 271.557 
-8.36208e-06 -4.53942e-06 2.69216e+25 -3.20061 3.57072 271.99 
-6.45075e-06 -4.53942e-06 2.69352e+25 -3.65502 2.62865 271.719 
-4.53942e-06 -4.53942e-06 2.69957e+25 -4.79524 2.45397 271.346 
-2.62808e-06 -4.53942e-06 2.69077e+25 -5.50597 1.60994 271.938 
-7.1675e-07 -4.53942e-06 2.68735e+25 -5.53652 0.594454 272.368 
-1.60074e-05 -4.06158e-06 2.6867e+25 -0.449175 1.46073 272.415 
-1.40961e-05 -4.06158e-06 2.69289e+25 -0.735042 2.4599 271.878 
-1.21847e-05 -4.06158e-06 2.6911e+25 -1.56048 3.4424 271.943 
-1.02734e-05 -4.06158e-06 2.693e+25 -2.50685 3.72848 271.858 
-8.36208e-06 -4.06158e-06 2.69527e+25 -3.5757 3.52756 271.744 
-6.45075e-06 -4.06158e-06 2.68692e+25 -3.6523 2.77729 272.284 
-4.53942e-06 -4.06158e-06 2.69493e+25 -4.75271 2.65305 271.604 
-2.62808e-06 -4.06158e-06 2.69267e+25 -5.35205 1.76195 271.953 
-7.1675e-07 -4.06158e-06 2.68781e+25 -5.92694 0.687869 272.319 
-1.60074e-05 -3.58375e-06 2.68978e+25 -0.449074 1.55482 272.18 
-1.40961e-05 -3.58375e-06 2.69136e+25 -0.62662 2.50163 271.882 
-1.21847e-05 -3.58375e-06 2.692e+25 -1.48569 3.59843 271.585 
-1.02734e-05 -3.58375e-06 2.68875e+25 -2.32115 4.0408 272.266 
-8.36208e-06 -3.58375e-06 2.69576e+25 -3.61411 3.51559 271.524 
-6.45075e-06 -3.58375e-06 2.68959e+25 -3.90478 3.09195 272.163 
-4.53942e-06 -3.58375e-06 2.69739e+25 -4.89874 2.79487 271.624 
-2.62808e-06 -3.58375e-06 2.692e+25 -5.46534 1.93949 271.947 
-7.1675e-07 -3.58375e-06 2.69023e+25 -6.06904 0.813287 271.832 
-1.60074e-05 -3.10592e-06 2.68982e+25 -0.231077 1.43746 272.265 
-1.40961e-05 -3.10592e-06 2.69401e+25 -0.998859 2.70709 271.805 
-1.21847e-05 -3.10592e-06 2.69476e+25 -1.92011 3.88773 271.514 
-1.02734e-05 -3.10592e-06 2.6891e+25 -2.15649 4.28703 272.029 
-8.36208e-06 -3.10592e-06 2.6949e+25 -3.33525 3.70084 271.481 
-6.45075e-06 -3.10592e-06 2.69142e+25 -4.08822 3.46903 272.074 
-4.53942e-06 -3.10592e-06 2.69192e+25 -5.07641 3.13755 271.901 
-2.62808e-06 -3.10592e-06 2.69105e+25 -5.98418 2.0344 271.991 
-7.1675e-07 -3.10592e-06 2.69038e+25 -5.91036 0.739488 272.023 
-1.60074e-05 -2.62808e-06 2.68975e+25 -0.215712 1.75313 272.229 
-1.40961e-05 -2.62808e-06 2.69348e+25 -1.5096 2.9625 271.908 
-1.21847e-05 -2.62808e-06 2.69175e+25 -1.61913 4.05297 271.74 
-1.02734e-05 -2.62808e-06 2.69136e+25 -2.386 4.41545 272.022 
-8.36208e-06 -2.62808e-06 2.69014e+25 -3.02089 3.97005 271.849 
-6.45075e-06 -2.62808e-06 2.68887e+25 -4.12559 3.84518 272.194 
-4.53942e-06 -2.62808e-06 2.69384e+25 -5.04229 3.52612 271.951 
-2.62808e-06 -2.62808e-06 2.69313e+25 -6.46363 2.15128 271.866 
-7.1675e-07 -2.62808e-06 2.69518e+25 -6.4121 0.761153 271.744 
-1.60074e-05 -2.15025e-06 2.68423e+25 0.0794146 1.90321 272.529 
-1.40961e-05 -2.15025e-06 2.69095e+25 -1.13478 3.22464 272.141 
-1.21847e-05 -2.15025e-06 2.69267e+25 -1.41685 4.35944 271.672 
-1.02734e-05 -2.15025e-06 2.69302e+25 -2.04329 4.46587 271.858 
-8.36208e-06 -2.15025e-06 2.69555e+25 -2.79284 4.35302 271.624 
-6.45075e-06 -2.15025e-06 2.68918e+25 -4.49886 4.1247 272.238 
-4.53942e-06 -2.15025e-06 2.69338e+25 -5.12065 3.664 271.936 
-2.62808e-06 -2.15025e-06 2.69626e+25 -6.16963 2.39588 271.65 
-7.1675e-07 -2.15025e-06 2.69562e+25 -6.4584 0.906005 271.547 
-1.60074e-05 -1.67242e-06 2.68815e+25 0.171002 2.11623 272.243 
-1.40961e-05 -1.67242e-06 2.69342e+25 -0.591057 3.38136 271.783 
-1.21847e-05 -1.67242e-06 2.69309e+25 -1.30072 4.56145 271.713 
-1.02734e-05 -1.67242e-06 2.69294e+25 -1.86701 4.69202 271.735 
-8.36208e-06 -1.67242e-06 2.69464e+25 -2.86507 4.76026 271.727 
-6.45075e-06 -1.67242e-06 2.68625e+25 -4.37038 4.32213 272.165 
-4.53942e-06 -1.67242e-06 2.69353e+25 -5.40626 3.87055 271.898 
-2.62808e-06 -1.67242e-06 2.69482e+25 -5.836 2.4754 271.476 
-7.1675e-07 -1.67242e-06 2.69212e+25 -6.63688 1.00908 271.71 
-1.60074e-05 -1.19458e-06 2.68627e+25 0.00771604 2.20115 272.417 
-1.40961e-05 -1.19458e-06 2.69331e+25 -0.380394 3.58866 271.866 
-1.21847e-05 -1.19458e-06 2.69459e+25 -0.793952 4.59574 271.539 
-1.02734e-05 -1.19458e-06 2.6949e+25 -1.76557 5.02754 271.364 
-8.36208e-06 -1.19458e-06 2.69758e+25 -2.60477 4.92285 271.503 
-6.45075e-06 -1.19458e-06 2.69199e+25 -4.34477 4.57629 271.83 
-4.53942e-06 -1.19458e-06 2.69343e+25 -5.43628 3.82844 271.931 
-2.62808e-06 -1.19458e-06 2.69821e+25 -5.32981 2.61099 271.356 
-7.1675e-07 -1.19458e-06 2.69191e+25 -7.18426 1.35895 271.786 
-1.60074e-05 -7.1675e-07 2.68789e+25 -0.0405982 2.13356 272.308 
-1.40961e-05 -7.1675e-07 2.68996e+25 -0.157841 3.70487 272.166 
-1.21847e-05 -7.1675e-07 2.69285e+25 -1.04126 4.78421 271.744 
-1.02734e-05 -7.1675e-07 2.69953e+25 -1.96559 5.22221 271.262 
-8.36208e-06 -7.1675e-07 2.69263e+25 -2.9217 5.04608 271.687 
-6.45075e-06 -7.1675e-07 2.69183e+25 -4.10722 4.90228 271.928 
-4.53942e-06 -7.1675e-07 2.69043e+25 -5.31689 3.81503 271.911 
-2.62808e-06 -7.1675e-07 2.70156e+25 -5.48139 2.756 271.13 
-7.1675e-07 -7.1675e-07 2.6935e+25 -7.16611 1.75631 271.628 
-1.60074e-05 -2.38917e-07 2.68226e+25 0.211718 2.08728 272.48 
-1.40961e-05 -2.38917e-07 2.68852e+25 -0.159311 3.81782 272.041 
-1.21847e-05 -2.38917e-07 2.69421e+25 -0.870716 5.00489 271.655 
-1.02734e-05 -2.38917e-07 2.69245e+25 -1.84974 5.34504 271.56 
-8.36208e-06 -2.38917e-07 2.69493e+25 -3.22337 5.2351 271.365 
-6.45075e-06 -2.38917e-07 2.68856e+25 -3.70558 5.0921 271.816 
-4.53942e-06 -2.38917e-07 2.69226e+25 -4.94612 4.0554 271.85 
-2.62808e-06 -2.38917e-07 2.69271e+25 -6.15273 3.11844 271.358 
-7.1675e-07 -2.38917e-07 2.68877e+25 -7.30919 1.9631 272.006 
-1.55296e-05 -1.69631e-05 2.68378e+25 0.0976325 -0.00580513 272.707 
-1.36182e-05 -1.69631e-05 2.68459e+25 -0.0707098 0.0200359 272.806 
-1.17069e-05 -1.69631e-05 2.68572e+25 -0.114742 -0.0672351 272.71 
-9.79558e-06 -1.69631e-05 2.68426e+25 -0.176262 -0.0680107 272.796 
-7.88425e-06 -1.69631e-05 2.68146e+25 -0.0705551 -0.0473704 272.893 
-5.97292e-06 -1.69631e-05 2.68473e+25 -0.28215 0.166689 272.803 
-4.06158e-06 -1.69631e-05 2.68567e+25 0.044916 -0.0953792 272.741 
-2.15025e-06 -1.69631e-05 2.68153e+25 -0.204986 0.00269195 272.92 
-2.38917e-07 -1.69631e-05 2.67946e+25 -0.106318 -0.11654 272.854 
-1.55296e-05 -1.64852e-05 2.68849e+25 -0.0363877 0.0668281 272.446 
-1.36182e-05 -1.64852e-05 2.68744e+25 -0.203816 0.0610734 272.727 
-1.17069e-05 -1.64852e-05 2.68523e+25 -0.296827 -0.117547 272.372 
-9.79558e-06 -1.64852e-05 2.68805e+25 -0.35017 0.00834265 272.442 
-7.88425e-06 -1.64852e-05 2.68774e+25 0.142738 -0.274445 272.476 
-5.97292e-06 -1.64852e-05 2.68759e+25 -0.328295 0.146394 272.399 
-4.06158e-06 -1.64852e-05 2.68914e+25 -0.0939773 -0.272969 272.301 
-2.15025e-06 -1.64852e-05 2.68264e+25 -0.456147 -0.0191614 272.908 
-2.38917e-07 -1.64852e-05 2.67903e+25 -0.511397 -0.0406582 272.849 
-1.55296e-05 -1.60074e-05 2.69092e+25 -0.134005 0.157256 272.01 
-1.36182e-05 -1.60074e-05 2.68945e+25 -0.332563 0.133295 272.378 
-1.17069e-05 -1.60074e-05 2.69139e+25 -0.383005 -0.225884 272.11 
-9.79558e-06 -1.60074e-05 2.68821e+25 -0.357381 0.130982 272.521 
-7.88425e-06 -1.60074e-05 2.68984e+25 -0.212183 -0.158705 272.169 
-5.97292e-06 -1.60074e-05 2.6913e+25 -0.377608 0.324577 272.063 
-4.06158e-06 -1.60074e-05 2.68831e+25 -0.189043 -0.363461 272.338 
-2.15025e-06 -1.60074e-05 2.68302e+25 -0.537185 0.209573 272.96 
-2.38917e-07 -1.60074e-05 2.68109e+25 -1.21595 0.198429 272.841 
-1.55296e-05 -1.55296e-05 2.6943e+25 0.116831 0.357094 271.777 
-1.36182e-05 -1.55296e-05 2.68907e+25 -0.288778 0.267518 272.144 
-1.17069e-05 -1.55296e-05 2.68972e+25 -0.405845 -0.404908 272.218 
-9.79558e-06 -1.55296e-05 2.68461e+25 -0.173225 0.245712 272.752 
-7.88425e-06 -1.55296e-05 2.6887e+25 -0.574043 0.0858026 272.179 
-5.97292e-06 -1.55296e-05 2.69183e+25 -0.648917 0.369296 271.99 
-4.06158e-06 -1.55296e-05 2.69028e+25 -0.560351 -0.319626 272.231 
-2.15025e-06 -1.55296e-05 2.68361e+25 -0.688198 0.390994 272.779 
-2.38917e-07 -1.55296e-05 2.68383e+25 -1.86593 0.175059 272.471 
-1.55296e-05 -1.50517e-05 2.69631e+25 0.0311151 0.380002 271.806 
-1.36182e-05 -1.50517e-05 2.69229e+25 -0.1464 0.0602398 271.94 
-1.17069e-05 -1.50517e-05 2.68989e+25 -0.499021 -0.308268 272.343 
-9.79558e-06 -1.50517e-05 2.69055e+25 -0.264752 0.543185 272.134 
-7.88425e-06 -1.50517e-05 2.69027e+25 -1.04367 0.00743138 272.117 
-5.97292e-06 -1.50517e-05 2.69088e+25 -0.506233 0.328181 272.147 
-4.06158e-06 -1.50517e-05 2.69134e+25 -0.710045 -0.376916 272.138 
-2.15025e-06 -1.50517e-05 2.68485e+25 -1.20197 0.700625 272.709 
-2.38917e-07 -1.50517e-05 2.68397e+25 -1.91023 0.148213 272.684 
-1.55296e-05 -1.45739e-05 2.69358e+25 0.144472 0.267614 271.821 
-1.36182e-05 -1.45739e-05 2.69124e+25 0.146873 -0.00106144 272.07 
-1.17069e-05 -1.45739e-05 2.68654e+25 -0.354755 -0.171537 272.542 
-9.79558e-06 -1.45739e-05 2.69298e+25 -0.395154 0.548282 272.008 
-7.88425e-06 -1.45739e-05 2.68889e+25 -1.35439 -0.0936414 272.215 
-5.97292e-06 -1.45739e-05 2.6914e+25 -0.573253 0.112111 272.112 
-4.06158e-06 -1.45739e-05 2.68745e+25 -1.40201 -0.239225 272.369 
-2.15025e-06 -1.45739e-05 2.68298e+25 -1.56323 1.10967 272.857 
-2.38917e-07 -1.45739e-05 2.68101e+25 -1.86425 0.11736 272.799 
-1.55296e-05 -1.40961e-05 2.69606e+25 -0.181564 0.0519721 271.694 
-1.36182e-05 -1.40961e-05 2.68951e+25 -0.152442 0.217156 272.059 
-1.17069e-05 -1.40961e-05 2.68918e+25 -0.666238 -0.0335688 272.465 
-9.79558e-06 -1.40961e-05 2.6913e+25 -0.920105 0.67944 272.003 
-7.88425e-06 -1.40961e-05 2.68617e+25 -1.48275 0.0115119 272.256 
-5.97292e-06 -1.40961e-05 2.68688e+25 -1.15309 0.346654 272.317 
-4.06158e-06 -1.40961e-05 2.69046e+25 -2.04388 -0.197269 272.186 
-2.15025e-06 -1.40961e-05 2.68653e+25 -1.52858 1.11301 272.426 
-2.38917e-07 -1.40961e-05 2.68368e+25 -1.49589 0.156769 272.403 
-1.55296e-05 -1.36182e-05 2.69596e+25 -0.0108516 0.0660333 271.587 
-1.36182e-05 -1.36182e-05 2.69429e+25 -0.485063 0.514597 271.873 
-1.17069e-05 -1.36182e-05 2.69056e+25 -0.845154 -0.0736272 272.199 
-9.79558e-06 -1.36182e-05 2.69292e+25 -1.20054 0.675989 271.99 
-7.88425e-06 -1.36182e-05 2.6936e+25 -1.61368 0.123905 272.006 
-5.97292e-06 -1.36182e-05 2.69003e+25 -1.8394 0.540088 272.178 
-4.06158e-06 -1.36182e-05 2.69018e+25 -2.43371 -0.0936027 272.346 
-2.15025e-06 -1.36182e-05 2.68795e+25 -2.0048 0.848089 272.484 
-2.38917e-07 -1.36182e-05 2.68502e+25 -1.77282 0.271508 272.308 
-1.55296e-05 -1.31404e-05 2.69216e+25 0.221793 0.304762 271.97 
-1.36182e-05 -1.31404e-05 2.69282e+25 -0.222141 0.524679 271.967 
-1.17069e-05 -1.31404e-05 2.69276e+25 -0.591835 0.0473248 271.995 
-9.79558e-06 -1.31404e-05 2.69328e+25 -1.14679 0.626692 271.878 
-7.88425e-06 -1.31404e-05 2.69295e+25 -1.60898 0.215458 271.946 
-5.97292e-06 -1.31404e-05 2.69161e+25 -2.43323 0.548379 272.089 
-4.06158e-06 -1.31404e-05 2.69206e+25 -2.52672 0.0486023 272.18 
-2.15025e-06 -1.31404e-05 2.69232e+25 -2.25257 0.664235 272.014 
-2.38917e-07 -1.31404e-05 2.68614e+25 -1.97398 0.337876 272.47 
-1.55296e-05 -1.26626e-05 2.69189e+25 -0.0165412 0.515731 272.131 
-1.36182e-05 -1.26626e-05 2.69092e+25 -0.0585113 0.699294 272.038 
-1.17069e-05 -1.26626e-05 2.69014e+25 -0.405949 0.272782 272.091 
-9.79558e-06 -1.26626e-05 2.69134e+25 -1.26724 0.822349 271.917 
-7.88425e-06 -1.26626e-05 2.68997e+25 -1.53543 0.280883 272.213 
-5.97292e-06 -1.26626e-05 2.6919e+25 -2.34982 0.371452 272.129 
-4.06158e-06 -1.26626e-05 2.68835e+25 -2.53773 0.259808 272.285 
-2.15025e-06 -1.26626e-05 2.69396e+25 -2.48957 0.470178 272.015 
-2.38917e-07 -1.26626e-05 2.68678e+25 -1.78843 0.241208 272.382 
-1.55296e-05 -1.21847e-05 2.69427e+25 -0.0555126 0.42799 271.759 
-1.36182e-05 -1.21847e-05 2.69128e+25 -0.129429 0.822204 271.948 
-1.17069e-05 -1.21847e-05 2.68965e+25 -0.771544 0.235472 272.118 
-9.79558e-06 -1.21847e-05 2.69107e+25 -1.50525 0.944143 272.046 
-7.88425e-06 -1.21847e-05 2.68802e+25 -1.70173 0.274384 272.312 
-5.97292e-06 -1.21847e-05 2.68872e+25 -2.49476 0.31773 272.133 
-4.06158e-06 -1.21847e-05 2.68952e+25 -2.85814 0.391304 272.309 
-2.15025e-06 -1.21847e-05 2.69552e+25 -2.65715 0.114111 271.83 
-2.38917e-07 -1.21847e-05 2.68983e+25 -1.92533 0.267497 272.14 
-1.55296e-05 -1.17069e-05 2.69079e+25 -0.108312 0.368943 272.096 
-1.36182e-05 -1.17069e-05 2.68916e+25 -0.432978 0.808213 272.022 
-1.17069e-05 -1.17069e-05 2.68762e+25 -1.00118 0.386093 272.343 
-9.79558e-06 -1.17069e-05 2.69215e+25 -1.64498 1.03918 271.869 
-7.88425e-06 -1.17069e-05 2.68649e+25 -2.16686 0.393882 272.323 
-5.97292e-06 -1.17069e-05 2.68619e+25 -2.70116 0.590217 272.642 
-4.06158e-06 -1.17069e-05 2.69005e+25 -2.70352 0.380703 272.123 
-2.15025e-06 -1.17069e-05 2.69165e+25 -2.55025 0.0025208 271.965 
-2.38917e-07 -1.17069e-05 2.69057e+25 -2.2369 0.16681 271.866 
-1.55296e-05 -1.12291e-05 2.68761e+25 -0.267899 0.358963 272.2 
-1.36182e-05 -1.12291e-05 2.69076e+25 -0.495085 0.788997 272.243 
-1.17069e-05 -1.12291e-05 2.6885e+25 -1.09921 0.663221 272.239 
-9.79558e-06 -1.12291e-05 2.69215e+25 -1.59093 1.24674 272.263 
-7.88425e-06 -1.12291e-05 2.68832e+25 -2.19796 0.818967 272.457 
-5.97292e-06 -1.12291e-05 2.68815e+25 -2.16447 0.825864 272.417 
-4.06158e-06 -1.12291e-05 2.69014e+25 -2.89356 0.493156 272.206 
-2.15025e-06 -1.12291e-05 2.68966e+25 -2.915 -0.129686 272.16 
-2.38917e-07 -1.12291e-05 2.69431e+25 -2.77207 0.168653 271.504 
-1.55296e-05 -1.07512e-05 2.69568e+25 -0.133476 0.536981 271.841 
-1.36182e-05 -1.07512e-05 2.69147e+25 -0.544362 0.835476 272.102 
-1.17069e-05 -1.07512e-05 2.6866e+25 -0.979288 0.95761 272.325 
-9.79558e-06 -1.07512e-05 2.69035e+25 -2.24854 1.42159 272.043 
-7.88425e-06 -1.07512e-05 2.68604e+25 -2.42609 1.03476 272.533 
-5.97292e-06 -1.07512e-05 2.68855e+25 -2.45486 1.0301 272.384 
-4.06158e-06 -1.07512e-05 2.69099e+25 -2.76011 0.531209 272.022 
-2.15025e-06 -1.07512e-05 2.6897e+25 -3.14865 -0.231031 272.075 
-2.38917e-07 -1.07512e-05 2.69358e+25 -3.19902 0.334021 271.799 
-1.55296e-05 -1.02734e-05 2.69796e+25 -0.075192 0.464038 271.547 
-1.36182e-05 -1.02734e-05 2.69106e+25 -0.731776 1.06081 271.939 
-1.17069e-05 -1.02734e-05 2.69164e+25 -1.32924 1.15772 272.269 
-9.79558e-06 -1.02734e-05 2.68963e+25 -2.12121 1.28142 272.129 
-7.88425e-06 -1.02734e-05 2.68383e+25 -2.25462 0.869976 272.559 
-5.97292e-06 -1.02734e-05 2.69105e+25 -2.80498 1.20339 271.928 
-4.06158e-06 -1.02734e-05 2.6898e+25 -2.72884 0.62823 272.11 
-2.15025e-06 -1.02734e-05 2.69076e+25 -3.76491 -0.0875973 272.144 
-2.38917e-07 -1.02734e-05 2.6898e+25 -3.85056 0.217966 271.907 
-1.55296e-05 -9.79558e-06 2.69291e+25 -0.0928829 0.500215 271.707 
-1.36182e-05 -9.79558e-06 2.69192e+25 -0.540671 1.16187 272.097 
-1.17069e-05 -9.79558e-06 2.69382e+25 -1.25813 1.36772 271.723 
-9.79558e-06 -9.79558e-06 2.69052e+25 -2.1921 1.25322 272.364 
-7.88425e-06 -9.79558e-06 2.68846e+25 -2.43104 0.734061 272.32 
-5.97292e-06 -9.79558e-06 2.69423e+25 -2.95435 1.27933 271.98 
-4.06158e-06 -9.79558e-06 2.69228e+25 -2.78988 0.580538 271.966 
-2.15025e-06 -9.79558e-06 2.68656e+25 -3.95205 0.175012 272.33 
-2.38917e-07 -9.79558e-06 2.68479e+25 -3.89245 0.0207655 272.104 
-1.55296e-05 -9.31775e-06 2.6903e+25 -0.288111 0.827977 272.027 
-1.36182e-05 -9.31775e-06 2.69131e+25 -0.595319 1.26395 272.049 
-1.17069e-05 -9.31775e-06 2.69887e+25 -1.33419 1.75832 271.325 
-9.79558e-06 -9.31775e-06 2.68822e+25 -1.89793 1.49464 272.2 
-7.88425e-06 -9.31775e-06 2.69029e+25 -2.3368 0.786401 272.308 
-5.97292e-06 -9.31775e-06 2.69828e+25 -2.97856 1.24473 271.388 
-4.06158e-06 -9.31775e-06 2.6887e+25 -3.00715 0.640156 272.053 
-2.15025e-06 -9.31775e-06 2.68774e+25 -4.20053 0.454382 272.264 
-2.38917e-07 -9.31775e-06 2.68348e+25 -4.13149 -0.0726789 272.391 
-1.55296e-05 -8.83992e-06 2.68796e+25 0.0812342 0.713926 272.069 
-1.36182e-05 -8.83992e-06 2.69174e+25 -0.675562 1.46331 271.929 
-1.17069e-05 -8.83992e-06 2.70046e+25 -1.14424 1.96428 271.457 
-9.79558e-06 -8.83992e-06 2.68813e+25 -1.72688 1.7238 272.283 
-7.88425e-06 -8.83992e-06 2.69298e+25 -2.36793 1.26191 272.003 
-5.97292e-06 -8.83992e-06 2.69404e+25 -3.13631 1.25761 271.551 
-4.06158e-06 -8.83992e-06 2.69245e+25 -3.38644 0.894321 271.968 
-2.15025e-06 -8.83992e-06 2.6892e+25 -4.16937 0.75509 272.13 
-2.38917e-07 -8.83992e-06 2.69064e+25 -4.25167 -0.0953934 272.024 
-1.55296e-05 -8.36208e-06 2.68984e+25 -0.190082 0.717041 272.188 
-1.36182e-05 -8.36208e-06 2.69286e+25 -0.942065 1.75466 272.144 
-1.17069e-05 -8.36208e-06 2.69788e+25 -1.21716 2.20448 271.729 
-9.79558e-06 -8.36208e-06 2.69226e+25 -1.64707 1.84967 272.221 
-7.88425e-06 -8.36208e-06 2.69373e+25 -2.29558 1.59175 271.864 
-5.97292e-06 -8.36208e-06 2.6941e+25 -3.42134 1.15924 271.812 
-4.06158e-06 -8.36208e-06 2.6924e+25 -3.90644 1.11531 272.038 
-2.15025e-06 -8.36208e-06 2.68786e+25 -4.23062 0.888103 272.439 
-2.38917e-07 -8.36208e-06 2.68794e+25 -4.49078 -0.122734 272.054 
-1.55296e-05 -7.88425e-06 2.69023e+25 -0.224077 0.882008 272.091 
-1.36182e-05 -7.88425e-06 2.69048e+25 -1.02496 1.94963 272.019 
-1.17069e-05 -7.88425e-06 2.6949e+25 -1.27602 2.19063 271.719 
-9.79558e-06 -7.88425e-06 2.69108e+25 -1.58035 1.94845 272.231 
-7.88425e-06 -7.88425e-06 2.69511e+25 -2.38465 1.93691 271.604 
-5.97292e-06 -7.88425e-06 2.69524e+25 -3.74691 1.0299 271.42 
-4.06158e-06 -7.88425e-06 2.68927e+25 -3.95068 1.22864 271.866 
-2.15025e-06 -7.88425e-06 2.68956e+25 -4.14584 1.02777 272.369 
-2.38917e-07 -7.88425e-06 2.69213e+25 -4.92294 -0.030492 271.794 
-1.55296e-05 -7.40642e-06 2.69162e+25 -0.0190519 0.981688 271.832 
-1.36182e-05 -7.40642e-06 2.69132e+25 -1.00456 1.97245 272.14 
-1.17069e-05 -7.40642e-06 2.69141e+25 -1.24478 2.22053 271.935 
-9.79558e-06 -7.40642e-06 2.69027e+25 -1.50374 2.12223 272.025 
-7.88425e-06 -7.40642e-06 2.69774e+25 -2.70278 2.25446 271.424 
-5.97292e-06 -7.40642e-06 2.69586e+25 -3.68263 1.15971 271.511 
-4.06158e-06 -7.40642e-06 2.69476e+25 -4.07033 1.20051 271.697 
-2.15025e-06 -7.40642e-06 2.69165e+25 -4.14738 1.13976 272.031 
-2.38917e-07 -7.40642e-06 2.6867e+25 -5.31691 0.0838094 271.996 
-1.55296e-05 -6.92858e-06 2.6967e+25 -0.278783 1.1286 271.653 
-1.36182e-05 -6.92858e-06 2.69038e+25 -0.673844 1.98386 272.044 
-1.17069e-05 -6.92858e-06 2.6952e+25 -1.09003 2.34944 271.637 
-9.79558e-06 -6.92858e-06 2.68945e+25 -1.84047 2.2565 271.905 
-7.88425e-06 -6.92858e-06 2.69548e+25 -2.9175 2.52315 271.591 
-5.97292e-06 -6.92858e-06 2.69029e+25 -3.44473 1.34593 271.88 
-4.06158e-06 -6.92858e-06 2.69156e+25 -4.2265 1.29219 271.769 
-2.15025e-06 -6.92858e-06 2.69172e+25 -4.41765 1.24787 272.042 
-2.38917e-07 -6.92858e-06 2.68521e+25 -5.17148 0.262541 272.124 
-1.55296e-05 -6.45075e-06 2.69482e+25 -0.305101 1.16176 271.721 
-1.36182e-05 -6.45075e-06 2.69157e+25 -0.223598 2.17016 271.927 
-1.17069e-05 -6.45075e-06 2.69668e+25 -1.04403 2.41287 271.645 
-9.79558e-06 -6.45075e-06 2.69236e+25 -2.0452 2.60219 271.922 
-7.88425e-06 -6.45075e-06 2.69463e+25 -3.04179 2.83742 271.765 
-5.97292e-06 -6.45075e-06 2.69422e+25 -3.361 1.6055 271.63 
-4.06158e-06 -6.45075e-06 2.69651e+25 -4.33222 1.46588 271.522 
-2.15025e-06 -6.45075e-06 2.6923e+25 -4.65886 1.37834 272.012 
-2.38917e-07 -6.45075e-06 2.68721e+25 -4.76546 0.333143 272.205 
-1.55296e-05 -5.97292e-06 2.69093e+25 -0.186742 1.19764 272.154 
-1.36182e-05 -5.97292e-06 2.69283e+25 -0.0385824 2.21518 271.677 
-1.17069e-05 -5.97292e-06 2.69236e+25 -1.0814 2.6229 271.986 
-9.79558e-06 -5.97292e-06 2.69118e+25 -2.05832 2.70144 271.904 
-7.88425e-06 -5.97292e-06 2.69339e+25 -3 2.92973 271.701 
-5.97292e-06 -5.97292e-06 2.69597e+25 -3.61886 1.85162 271.613 
-4.06158e-06 -5.97292e-06 2.69716e+25 -4.43912 1.55377 271.528 
-2.15025e-06 -5.97292e-06 2.69211e+25 -5.15076 1.49479 271.957 
-2.38917e-07 -5.97292e-06 2.68599e+25 -4.94965 0.242075 272.188 
-1.55296e-05 -5.49508e-06 2.68915e+25 -0.408062 1.26949 272.252 
-1.36182e-05 -5.49508e-06 2.69351e+25 -0.492635 2.36986 271.878 
-1.17069e-05 -5.49508e-06 2.69073e+25 -1.603 2.96032 272.054 
-9.79558e-06 -5.49508e-06 2.69368e+25 -1.9638 2.78553 271.704 
-7.88425e-06 -5.49508e-06 2.69851e+25 -2.95548 3.0907 271.452 
-5.97292e-06 -5.49508e-06 2.69458e+25 -3.5958 2.08338 271.67 
-4.06158e-06 -5.49508e-06 2.69536e+25 -4.73812 1.78594 271.535 
-2.15025e-06 -5.49508e-06 2.69307e+25 -5.11873 1.50484 271.876 
-2.38917e-07 -5.49508e-06 2.68504e+25 -5.12458 0.343793 272.374 
-1.55296e-05 -5.01725e-06 2.69008e+25 -0.508017 1.60885 271.972 
-1.36182e-05 -5.01725e-06 2.69293e+25 -0.839524 2.61871 271.92 
-1.17069e-05 -5.01725e-06 2.6909e+25 -1.46012 3.36681 272.095 
-9.79558e-06 -5.01725e-06 2.69485e+25 -2.42379 3.01825 271.515 
-7.88425e-06 -5.01725e-06 2.69652e+25 -3.12881 3.41616 271.472 
-5.97292e-06 -5.01725e-06 2.69349e+25 -3.81094 2.42031 271.78 
-4.06158e-06 -5.01725e-06 2.69743e+25 -4.95255 2.12719 271.326 
-2.15025e-06 -5.01725e-06 2.69388e+25 -5.2579 1.4382 271.678 
-2.38917e-07 -5.01725e-06 2.68493e+25 -5.42589 0.348852 272.386 
-1.55296e-05 -4.53942e-06 2.69504e+25 -0.504152 1.8791 271.856 
-1.36182e-05 -4.53942e-06 2.6923e+25 -0.837325 2.83148 272.133 
-1.17069e-05 -4.53942e-06 2.69104e+25 -1.34211 3.63848 271.868 
-9.79558e-06 -4.53942e-06 2.69328e+25 -2.8059 3.02845 271.787 
-7.88425e-06 -4.53942e-06 2.69339e+25 -3.2089 3.5505 271.671 
-5.97292e-06 -4.53942e-06 2.69286e+25 -3.88697 2.63552 271.796 
-4.06158e-06 -4.53942e-06 2.69816e+25 -5.01684 2.43095 271.377 
-2.15025e-06 -4.53942e-06 2.68791e+25 -5.50109 1.39604 272.157 
-2.38917e-07 -4.53942e-06 2.68813e+25 -5.66488 0.330652 272.149 
-1.55296e-05 -4.06158e-06 2.69232e+25 -0.479406 1.95348 271.985 
-1.36182e-05 -4.06158e-06 2.69033e+25 -0.745818 3.03704 272.048 
-1.17069e-05 -4.06158e-06 2.69412e+25 -1.58696 3.82173 271.831 
-9.79558e-06 -4.06158e-06 2.69341e+25 -2.89744 3.22308 271.691 
-7.88425e-06 -4.06158e-06 2.69178e+25 -3.54301 3.51233 272.01 
-5.97292e-06 -4.06158e-06 2.69128e+25 -3.79202 2.8604 271.945 
-4.06158e-06 -4.06158e-06 2.69441e+25 -4.85798 2.49993 271.497 
-2.15025e-06 -4.06158e-06 2.69149e+25 -5.44796 1.38228 272.11 
-2.38917e-07 -4.06158e-06 2.68916e+25 -5.99392 0.492444 272.068 
-1.55296e-05 -3.58375e-06 2.6912e+25 -0.402814 1.80132 272.141 
-1.36182e-05 -3.58375e-06 2.69004e+25 -0.666323 3.0938 271.97 
-1.17069e-05 -3.58375e-06 2.69377e+25 -1.69969 3.91103 271.726 
-9.79558e-06 -3.58375e-06 2.69068e+25 -2.77051 3.61084 271.935 
-7.88425e-06 -3.58375e-06 2.6936e+25 -3.52355 3.30565 271.739 
-5.97292e-06 -3.58375e-06 2.69116e+25 -4.31473 3.18424 272.159 
-4.06158e-06 -3.58375e-06 2.69636e+25 -5.20884 2.68938 271.524 
-2.15025e-06 -3.58375e-06 2.69103e+25 -5.71957 1.57835 272.042 
-2.38917e-07 -3.58375e-06 2.69132e+25 -6.15956 0.42617 271.77 
-1.55296e-05 -3.10592e-06 2.68742e+25 -0.310406 1.8621 272.424 
-1.36182e-05 -3.10592e-06 2.69163e+25 -1.17857 3.22373 271.954 
-1.17069e-05 -3.10592e-06 2.6934e+25 -2.01583 3.9863 271.65 
-9.79558e-06 -3.10592e-06 2.6881e+25 -2.64004 4.36319 272.197 
-7.88425e-06 -3.10592e-06 2.69567e+25 -3.41871 3.24556 271.657 
-5.97292e-06 -3.10592e-06 2.69079e+25 -4.48217 3.63216 271.915 
-4.06158e-06 -3.10592e-06 2.69261e+25 -5.3952 2.92864 271.892 
-2.15025e-06 -3.10592e-06 2.69273e+25 -6.12843 1.8489 271.697 
-2.38917e-07 -3.10592e-06 2.69329e+25 -6.15201 0.753948 271.788 
-1.55296e-05 -2.62808e-06 2.68958e+25 -0.484825 2.11848 272.303 
-1.36182e-05 -2.62808e-06 2.69074e+25 -1.67192 3.29618 271.967 
-1.17069e-05 -2.62808e-06 2.69351e+25 -1.79091 4.0528 271.767 
-9.79558e-06 -2.62808e-06 2.69514e+25 -2.38302 4.58776 271.804 
-7.88425e-06 -2.62808e-06 2.69216e+25 -3.50422 3.52354 271.875 
-5.97292e-06 -2.62808e-06 2.69233e+25 -4.40227 3.96244 272.042 
-4.06158e-06 -2.62808e-06 2.69218e+25 -5.46418 3.24767 271.832 
-2.15025e-06 -2.62808e-06 2.69445e+25 -6.499 1.90543 271.629 
-2.38917e-07 -2.62808e-06 2.69171e+25 -6.38841 0.910031 271.577 
-1.55296e-05 -2.15025e-06 2.68523e+25 -0.0926094 2.34443 272.526 
-1.36182e-05 -2.15025e-06 2.69118e+25 -1.28373 3.32449 271.95 
-1.17069e-05 -2.15025e-06 2.69081e+25 -1.77777 4.10936 271.908 
-9.79558e-06 -2.15025e-06 2.69279e+25 -2.18572 4.62617 271.861 
-7.88425e-06 -2.15025e-06 2.6955e+25 -3.39529 4.23406 271.715 
-5.97292e-06 -2.15025e-06 2.68723e+25 -4.65274 4.10701 272.151 
-4.06158e-06 -2.15025e-06 2.69378e+25 -5.36612 3.71664 271.766 
-2.15025e-06 -2.15025e-06 2.69726e+25 -6.37485 1.89431 271.217 
-2.38917e-07 -2.15025e-06 2.69268e+25 -6.49062 1.00367 271.421 
-1.55296e-05 -1.67242e-06 2.69039e+25 -0.044079 2.48841 272.284 
-1.36182e-05 -1.67242e-06 2.6941e+25 -0.886312 3.5397 271.551 
-1.17069e-05 -1.67242e-06 2.69204e+25 -1.44195 4.41563 271.654 
-9.79558e-06 -1.67242e-06 2.69324e+25 -2.06135 4.76921 271.88 
-7.88425e-06 -1.67242e-06 2.69251e+25 -3.11685 4.62217 271.906 
-5.97292e-06 -1.67242e-06 2.68804e+25 -4.47848 4.1995 272.315 
-4.06158e-06 -1.67242e-06 2.69101e+25 -5.45231 3.8821 271.865 
-2.15025e-06 -1.67242e-06 2.69476e+25 -5.90313 2.0806 271.431 
-2.38917e-07 -1.67242e-06 2.69393e+25 -6.917 1.22378 271.658 
-1.55296e-05 -1.19458e-06 2.6877e+25 -0.0897461 2.61959 272.232 
-1.36182e-05 -1.19458e-06 2.69276e+25 -0.59908 3.74903 271.784 
-1.17069e-05 -1.19458e-06 2.69386e+25 -1.00802 4.67842 271.626 
-9.79558e-06 -1.19458e-06 2.69354e+25 -2.02577 4.87337 271.456 
-7.88425e-06 -1.19458e-06 2.69528e+25 -2.81175 5.05387 271.365 
-5.97292e-06 -1.19458e-06 2.69122e+25 -4.71111 4.47201 271.906 
-4.06158e-06 -1.19458e-06 2.69126e+25 -5.25059 3.72906 271.964 
-2.15025e-06 -1.19458e-06 2.70011e+25 -5.54212 2.30088 271.421 
-2.38917e-07 -1.19458e-06 2.69075e+25 -7.4863 1.40343 271.624 
-1.55296e-05 -7.1675e-07 2.69116e+25 -0.0513047 2.78152 271.978 
-1.36182e-05 -7.1675e-07 2.69318e+25 -0.290526 3.98784 271.893 
-1.17069e-05 -7.1675e-07 2.69217e+25 -1.13962 4.89857 271.849 
-9.79558e-06 -7.1675e-07 2.69797e+25 -2.15494 5.17762 271.442 
-7.88425e-06 -7.1675e-07 2.69843e+25 -3.09046 5.2829 271.43 
-5.97292e-06 -7.1675e-07 2.69259e+25 -4.49034 4.89402 271.915 
-4.06158e-06 -7.1675e-07 2.69263e+25 -5.4061 3.79423 271.763 
-2.15025e-06 -7.1675e-07 2.69557e+25 -5.92209 2.75531 271.488 
-2.38917e-07 -7.1675e-07 2.69045e+25 -7.4491 1.5909 271.643 
-1.55296e-05 -2.38917e-07 2.68755e+25 0.206886 2.86292 272.159 
-1.36182e-05 -2.38917e-07 2.69276e+25 -0.223236 4.13769 271.791 
-1.17069e-05 -2.38917e-07 2.6912e+25 -1.19979 5.12176 271.893 
-9.79558e-06 -2.38917e-07 2.69221e+25 -2.14865 5.52684 271.681 
-7.88425e-06 -2.38917e-07 2.69521e+25 -3.43428 5.44811 271.279 
-5.97292e-06 -2.38917e-07 2.68906e+25 -3.89914 5.41074 271.756 
-4.06158e-06 -2.38917e-07 2.6901e+25 -5.37175 3.99452 271.866 
-2.15025e-06 -2.38917e-07 2.69117e+25 -6.33052 3.01028 271.626 
-2.38917e-07 -2.38917e-07 2.68572e+25 -7.46724 1.79545 271.951 
-1.64852e-05 2.38917e-07 2.68681e+25 0.0203099 1.27674 272.325 
-1.45739e-05 2.38917e-07 2.68775e+25 -0.22365 3.73219 272.066 
-1.26626e-05 2.38917e-07 2.69261e+25 -0.90586 4.89228 271.67 
-1.07512e-05 2.38917e-07 2.69668e+25 -2.04417 5.55651 271.48 
-8.83992e-06 2.38917e-07 2.68984e+25 -3.02793 5.92641 271.637 
-6.92858e-06 2.38917e-07 2.69645e+25 -3.53204 5.48943 271.316 
-5.01725e-06 2.38917e-07 2.69391e+25 -4.57492 4.87478 271.389 
-3.10592e-06 2.38917e-07 2.69115e+25 -6.03977 3.52041 271.806 
-1.19458e-06 2.38917e-07 2.68951e+25 -7.00375 2.6179 271.966 
-1.64852e-05 7.1675e-07 2.68743e+25 0.0222042 1.36342 272.245 
-1.45739e-05 7.1675e-07 2.69398e+25 -0.286795 3.84377 271.601 
-1.26626e-05 7.1675e-07 2.69259e+25 -0.909633 5.11433 271.675 
-1.07512e-05 7.1675e-07 2.69634e+25 -2.31742 5.83878 271.377 
-8.83992e-06 7.1675e-07 2.694e+25 -2.69646 6.27952 271.496 
-6.92858e-06 7.1675e-07 2.6955e+25 -3.55478 5.72513 271.492 
-5.01725e-06 7.1675e-07 2.6969e+25 -4.01893 5.32247 271.227 
-3.10592e-06 7.1675e-07 2.69066e+25 -5.79449 4.15252 271.825 
-1.19458e-06 7.1675e-07 2.68797e+25 -6.97383 2.83706 272.193 
-1.64852e-05 1.19458e-06 2.69055e+25 -0.188453 1.50029 272.224 
-1.45739e-05 1.19458e-06 2.6958e+25 -0.31216 3.89834 271.768 
-1.26626e-05 1.19458e-06 2.6951e+25 -1.36079 5.45179 271.677 
-1.07512e-05 1.19458e-06 2.69654e+25 -2.20779 6.19271 271.313 
-8.83992e-06 1.19458e-06 2.69547e+25 -2.5734 6.19481 271.5 
-6.92858e-06 1.19458e-06 2.69589e+25 -3.08579 5.94689 271.349 
-5.01725e-06 1.19458e-06 2.69551e+25 -3.69817 5.61849 271.531 
-3.10592e-06 1.19458e-06 2.69075e+25 -5.48215 4.58967 271.808 
-1.19458e-06 1.19458e-06 2.68553e+25 -6.85886 3.02218 272.399 
-1.64852e-05 1.67242e-06 2.68446e+25 -0.0919944 1.43394 272.617 
-1.45739e-05 1.67242e-06 2.68727e+25 -0.278169 4.08228 272.226 
-1.26626e-05 1.67242e-06 2.69298e+25 -1.31789 5.83653 271.423 
-1.07512e-05 1.67242e-06 2.69703e+25 -2.32417 6.4607 271.383 
-8.83992e-06 1.67242e-06 2.69484e+25 -2.72877 6.01221 271.674 
-6.92858e-06 1.67242e-06 2.69696e+25 -3.21277 6.05973 271.469 
-5.01725e-06 1.67242e-06 2.69252e+25 -3.70877 5.75375 271.68 
-3.10592e-06 1.67242e-06 2.68729e+25 -4.94151 5.0774 271.998 
-1.19458e-06 1.67242e-06 2.68542e+25 -6.50754 3.3173 272.397 
-1.64852e-05 2.15025e-06 2.68733e+25 0.229392 1.32103 272.414 
-1.45739e-05 2.15025e-06 2.68638e+25 -0.489226 4.14203 272.213 
-1.26626e-05 2.15025e-06 2.69915e+25 -1.14541 5.97245 271.13 
-1.07512e-05 2.15025e-06 2.6927e+25 -2.29786 6.65582 271.681 
-8.83992e-06 2.15025e-06 2.69662e+25 -2.74115 5.97177 271.446 
-6.92858e-06 2.15025e-06 2.70009e+25 -3.30254 6.25444 271.187 
-5.01725e-06 2.15025e-06 2.69502e+25 -3.83369 5.88263 271.407 
-3.10592e-06 2.15025e-06 2.69114e+25 -4.94521 5.33697 271.973 
-1.19458e-06 2.15025e-06 2.68293e+25 -6.09174 3.64966 272.534 
-1.64852e-05 2.62808e-06 2.6862e+25 0.0395217 1.40142 272.28 
-1.45739e-05 2.62808e-06 2.69172e+25 -0.353934 4.34017 271.886 
-1.26626e-05 2.62808e-06 2.69951e+25 -1.32218 6.14037 271.046 
-1.07512e-05 2.62808e-06 2.69154e+25 -2.01447 6.81382 271.862 
-8.83992e-06 2.62808e-06 2.69391e+25 -2.91995 5.99412 271.385 
-6.92858e-06 2.62808e-06 2.6964e+25 -3.24213 6.42651 271.467 
-5.01725e-06 2.62808e-06 2.69438e+25 -3.87237 6.03675 271.61 
-3.10592e-06 2.62808e-06 2.68726e+25 -4.83164 5.64024 272.209 
-1.19458e-06 2.62808e-06 2.68101e+25 -5.69698 3.89826 272.73 
-1.64852e-05 3.10592e-06 2.68622e+25 -0.215655 1.37749 272.489 
-1.45739e-05 3.10592e-06 2.69147e+25 -0.282356 4.49911 271.901 
-1.26626e-05 3.10592e-06 2.69895e+25 -1.31361 6.58408 271.117 
-1.07512e-05 3.10592e-06 2.69444e+25 -1.86145 6.79745 271.496 
-8.83992e-06 3.10592e-06 2.69801e+25 -2.64813 5.96871 271.232 
-6.92858e-06 3.10592e-06 2.69145e+25 -3.08395 6.55161 271.694 
-5.01725e-06 3.10592e-06 2.69514e+25 -4.00172 6.20812 271.592 
-3.10592e-06 3.10592e-06 2.68369e+25 -4.7628 5.7079 272.522 
-1.19458e-06 3.10592e-06 2.68422e+25 -5.30057 3.97431 272.382 
-1.64852e-05 3.58375e-06 2.68873e+25 -0.0806877 1.27558 272.299 
-1.45739e-05 3.58375e-06 2.69517e+25 0.0388353 4.67676 271.735 
-1.26626e-05 3.58375e-06 2.69552e+25 -1.02571 6.82462 271.363 
-1.07512e-05 3.58375e-06 2.69254e+25 -1.27408 6.94009 271.895 
-8.83992e-06 3.58375e-06 2.69242e+25 -2.20304 6.25054 271.77 
-6.92858e-06 3.58375e-06 2.68945e+25 -3.17089 6.62089 271.821 
-5.01725e-06 3.58375e-06 2.68992e+25 -3.92264 6.39056 271.824 
-3.10592e-06 3.58375e-06 2.68129e+25 -4.64048 5.80882 272.782 
-1.19458e-06 3.58375e-06 2.68372e+25 -4.91732 4.03841 272.396 
-1.64852e-05 4.06158e-06 2.68584e+25 0.109173 1.21836 272.388 
-1.45739e-05 4.06158e-06 2.69105e+25 -0.0394127 4.99011 271.755 
-1.26626e-05 4.06158e-06 2.69459e+25 -1.02263 6.91117 271.477 
-1.07512e-05 4.06158e-06 2.69496e+25 -1.06447 6.95564 271.474 
-8.83992e-06 4.06158e-06 2.69373e+25 -1.86249 6.64044 271.487 
-6.92858e-06 4.06158e-06 2.69087e+25 -3.11868 6.72673 272.075 
-5.01725e-06 4.06158e-06 2.68852e+25 -3.6997 6.74202 271.854 
-3.10592e-06 4.06158e-06 2.68251e+25 -4.4131 5.87505 272.69 
-1.19458e-06 4.06158e-06 2.68503e+25 -4.46717 4.14371 272.569 
-1.64852e-05 4.53942e-06 2.68586e+25 0.0864048 1.33115 272.478 
-1.45739e-05 4.53942e-06 2.69068e+25 -0.556394 5.2312 272.079 
-1.26626e-05 4.53942e-06 2.69098e+25 -0.644878 6.94627 271.744 
-1.07512e-05 4.53942e-06 2.69274e+25 -0.994865 7.04891 271.742 
-8.83992e-06 4.53942e-06 2.69925e+25 -1.6689 7.11774 271.081 
-6.92858e-06 4.53942e-06 2.68917e+25 -2.91131 6.93128 271.946 
-5.01725e-06 4.53942e-06 2.68553e+25 -3.8573 6.98194 272.203 
-3.10592e-06 4.53942e-06 2.68058e+25 -3.99627 6.04757 272.624 
-1.19458e-06 4.53942e-06 2.68297e+25 -3.92714 4.28689 272.892 
-1.64852e-05 5.01725e-06 2.6862e+25 -0.0993061 1.4813 272.498 
-1.45739e-05 5.01725e-06 2.69128e+25 -0.621242 5.4847 271.973 
-1.26626e-05 5.01725e-06 2.68968e+25 -0.536579 6.92572 271.837 
-1.07512e-05 5.01725e-06 2.68996e+25 -1.12574 7.16807 271.772 
-8.83992e-06 5.01725e-06 2.69604e+25 -1.14183 7.3314 271.138 
-6.92858e-06 5.01725e-06 2.69195e+25 -2.58727 7.2985 271.796 
-5.01725e-06 5.01725e-06 2.69012e+25 -3.85359 6.99951 272.02 
-3.10592e-06 5.01725e-06 2.6844e+25 -3.72273 6.0306 272.345 
-1.19458e-06 5.01725e-06 2.68428e+25 -4.15404 4.61814 272.463 
-1.64852e-05 5.49508e-06 2.68751e+25 -0.106602 1.34303 272.316 
-1.45739e-05 5.49508e-06 2.68778e+25 -0.776861 5.39759 272.066 
-1.26626e-05 5.49508e-06 2.6934e+25 -0.324125 6.86853 271.741 
-1.07512e-05 5.49508e-06 2.68779e+25 -1.17394 7.35148 271.752 
-8.83992e-06 5.49508e-06 2.69783e+25 -1.34763 7.53857 271.268 
-6.92858e-06 5.49508e-06 2.69787e+25 -2.64509 7.59895 271.48 
-5.01725e-06 5.49508e-06 2.68955e+25 -3.55862 6.96188 271.776 
-3.10592e-06 5.49508e-06 2.68324e+25 -3.1521 6.06304 272.278 
-1.19458e-06 5.49508e-06 2.68567e+25 -3.68751 4.89317 272.187 
-1.64852e-05 5.97292e-06 2.68849e+25 -0.0431831 1.489 272.042 
-1.45739e-05 5.97292e-06 2.68936e+25 -0.314162 5.40773 272.019 
-1.26626e-05 5.97292e-06 2.69121e+25 -0.368594 6.79629 272.029 
-1.07512e-05 5.97292e-06 2.69258e+25 -1.54838 7.54673 271.691 
-8.83992e-06 5.97292e-06 2.69674e+25 -2.00823 7.75358 271.285 
-6.92858e-06 5.97292e-06 2.69591e+25 -2.92694 7.7468 271.366 
-5.01725e-06 5.97292e-06 2.68871e+25 -3.06845 7.08074 271.947 
-3.10592e-06 5.97292e-06 2.68771e+25 -2.84737 6.19428 272.093 
-1.19458e-06 5.97292e-06 2.68435e+25 -3.10294 5.10364 272.264 
-1.64852e-05 6.45075e-06 2.68661e+25 0.0883538 1.57699 272.349 
-1.45739e-05 6.45075e-06 2.69096e+25 -0.248272 5.75086 271.725 
-1.26626e-05 6.45075e-06 2.68857e+25 -0.708737 6.77151 272.057 
-1.07512e-05 6.45075e-06 2.68894e+25 -1.04459 7.76663 271.73 
-8.83992e-06 6.45075e-06 2.69312e+25 -2.36756 8.02552 271.657 
-6.92858e-06 6.45075e-06 2.69387e+25 -2.60556 7.72656 271.594 
-5.01725e-06 6.45075e-06 2.68526e+25 -2.82955 7.2336 272.059 
-3.10592e-06 6.45075e-06 2.68435e+25 -2.40295 6.35474 272.468 
-1.19458e-06 6.45075e-06 2.68748e+25 -2.84149 5.13422 272.032 
-1.64852e-05 6.92858e-06 2.68399e+25 0.0484008 1.52726 272.645 
-1.45739e-05 6.92858e-06 2.68841e+25 -0.108475 5.86234 272.034 
-1.26626e-05 6.92858e-06 2.68714e+25 -0.699685 6.83968 272.036 
-1.07512e-05 6.92858e-06 2.69152e+25 -1.07795 8.04478 271.621 
-8.83992e-06 6.92858e-06 2.68825e+25 -2.00785 8.08231 272.005 
-6.92858e-06 6.92858e-06 2.68821e+25 -2.46898 7.83514 271.698 
-5.01725e-06 6.92858e-06 2.68652e+25 -2.24496 7.10984 271.982 
-3.10592e-06 6.92858e-06 2.68797e+25 -2.23127 6.3341 272.228 
-1.19458e-06 6.92858e-06 2.68679e+25 -2.92153 5.03053 272.23 
-1.64852e-05 7.40642e-06 2.68656e+25 -0.109628 1.54215 272.627 
-1.45739e-05 7.40642e-06 2.69222e+25 -0.158502 5.88719 271.832 
-1.26626e-05 7.40642e-06 2.68855e+25 -0.577495 7.18865 272.043 
-1.07512e-05 7.40642e-06 2.69576e+25 -0.912455 8.07602 271.524 
-8.83992e-06 7.40642e-06 2.69069e+25 -1.66041 8.04882 271.817 
-6.92858e-06 7.40642e-06 2.69465e+25 -2.16153 7.97102 271.625 
-5.01725e-06 7.40642e-06 2.68706e+25 -2.15327 7.0543 271.941 
-3.10592e-06 7.40642e-06 2.68878e+25 -2.04066 6.28312 271.908 
-1.19458e-06 7.40642e-06 2.68854e+25 -2.56397 5.02925 272.006 
-1.64852e-05 7.88425e-06 2.68419e+25 -0.0933482 1.48715 272.467 
-1.45739e-05 7.88425e-06 2.69046e+25 -0.333424 5.85712 271.868 
-1.26626e-05 7.88425e-06 2.69124e+25 -1.15059 7.40304 271.939 
-1.07512e-05 7.88425e-06 2.69114e+25 -1.05716 7.97808 271.638 
-8.83992e-06 7.88425e-06 2.69048e+25 -1.78722 8.20486 271.911 
-6.92858e-06 7.88425e-06 2.68998e+25 -1.67736 8.06306 271.99 
-5.01725e-06 7.88425e-06 2.68749e+25 -1.63294 7.04901 271.98 
-3.10592e-06 7.88425e-06 2.6864e+25 -1.70206 6.16908 272.141 
-1.19458e-06 7.88425e-06 2.68613e+25 -1.58686 5.14467 272.054 
-1.64852e-05 8.36208e-06 2.68814e+25 -0.0841155 1.57136 272.291 
-1.45739e-05 8.36208e-06 2.68858e+25 -0.436428 5.87472 272.083 
-1.26626e-05 8.36208e-06 2.69097e+25 -1.52093 7.6908 271.798 
-1.07512e-05 8.36208e-06 2.68973e+25 -1.44572 8.12522 271.961 
-8.83992e-06 8.36208e-06 2.69115e+25 -1.65603 8.27427 271.843 
-6.92858e-06 8.36208e-06 2.68889e+25 -1.30367 8.24375 272.106 
-5.01725e-06 8.36208e-06 2.68964e+25 -1.11919 6.86305 271.925 
-3.10592e-06 8.36208e-06 2.68567e+25 -1.26018 6.16411 272.021 
-1.19458e-06 8.36208e-06 2.68628e+25 -0.688154 5.10328 272.147 
-1.64852e-05 8.83992e-06 2.68578e+25 -0.0818524 1.74489 272.264 
-1.45739e-05 8.83992e-06 2.6894e+25 -0.434339 5.90615 272.107 
-1.26626e-05 8.83992e-06 2.68892e+25 -1.73261 8.11026 271.8 
-1.07512e-05 8.83992e-06 2.69067e+25 -1.93461 8.31769 271.938 
-8.83992e-06 8.83992e-06 2.68817e+25 -2.06084 8.18776 271.955 
-6.92858e-06 8.83992e-06 2.68788e+25 -1.35893 8.2251 272.469 
-5.01725e-06 8.83992e-06 2.68633e+25 -0.768092 6.58406 272.176 
-3.10592e-06 8.83992e-06 2.68643e+25 -0.523098 6.14569 272.163 
-1.19458e-06 8.83992e-06 2.68662e+25 0.280491 4.86647 271.932 
-1.64852e-05 9.31775e-06 2.6827e+25 -0.295672 2.0621 272.404 
-1.45739e-05 9.31775e-06 2.68718e+25 -1.04219 6.00405 271.928 
-1.26626e-05 9.31775e-06 2.6891e+25 -2.07736 8.25334 271.797 
-1.07512e-05 9.31775e-06 2.69004e+25 -2.30303 8.5769 271.77 
-8.83992e-06 9.31775e-06 2.68942e+25 -1.86833 8.03374 272.124 
-6.92858e-06 9.31775e-06 2.68317e+25 -1.28607 8.1771 272.523 
-5.01725e-06 9.31775e-06 2.68712e+25 -0.583272 6.22727 272.077 
-3.10592e-06 9.31775e-06 2.68614e+25 0.409152 6.05374 272.212 
-1.19458e-06 9.31775e-06 2.6897e+25 0.937271 4.74264 271.874 
-1.64852e-05 9.79558e-06 2.67943e+25 -0.180145 2.19222 272.516 
-1.45739e-05 9.79558e-06 2.68766e+25 -1.11681 6.28171 271.969 
-1.26626e-05 9.79558e-06 2.68852e+25 -2.43798 8.22912 272.031 
-1.07512e-05 9.79558e-06 2.69215e+25 -2.83475 8.47254 271.749 
-8.83992e-06 9.79558e-06 2.68825e+25 -1.887 7.976 272.288 
-6.92858e-06 9.79558e-06 2.68497e+25 -1.52834 8.1163 272.454 
-5.01725e-06 9.79558e-06 2.6876e+25 -0.168503 5.96405 272.052 
-3.10592e-06 9.79558e-06 2.6868e+25 1.11169 5.78272 272.166 
-1.19458e-06 9.79558e-06 2.68571e+25 1.67731 4.68876 272.042 
-1.64852e-05 1.02734e-05 2.68138e+25 -0.28991 2.3531 272.542 
-1.45739e-05 1.02734e-05 2.68783e+25 -1.4232 6.84002 271.973 
-1.26626e-05 1.02734e-05 2.68954e+25 -2.46749 8.37863 271.864 
-1.07512e-05 1.02734e-05 2.6908e+25 -2.55058 8.28086 272.029 
-8.83992e-06 1.02734e-05 2.68495e+25 -1.62738 7.94446 272.441 
-6.92858e-06 1.02734e-05 2.68266e+25 -1.3452 7.84693 272.534 
-5.01725e-06 1.02734e-05 2.69142e+25 0.115572 5.53628 271.851 
-3.10592e-06 1.02734e-05 2.68619e+25 1.47951 5.53263 272.206 
-1.19458e-06 1.02734e-05 2.68438e+25 2.62342 4.52882 272.122 
-1.64852e-05 1.07512e-05 2.67947e+25 -0.122412 2.41858 272.762 
-1.45739e-05 1.07512e-05 2.69006e+25 -1.48507 7.31395 271.702 
-1.26626e-05 1.07512e-05 2.69121e+25 -2.40658 8.4443 271.738 
-1.07512e-05 1.07512e-05 2.6917e+25 -2.18941 8.05298 271.745 
-8.83992e-06 1.07512e-05 2.68878e+25 -1.46703 7.81859 272.136 
-6.92858e-06 1.07512e-05 2.68382e+25 -0.759451 7.28075 272.455 
-5.01725e-06 1.07512e-05 2.69093e+25 0.785331 5.00756 271.83 
-3.10592e-06 1.07512e-05 2.68647e+25 2.21029 5.18069 272.211 
-1.19458e-06 1.07512e-05 2.68715e+25 3.66685 4.20165 272.005 
-1.64852e-05 1.12291e-05 2.68342e+25 -0.210246 2.82688 272.374 
-1.45739e-05 1.12291e-05 2.68797e+25 -1.97226 7.56446 272.055 
-1.26626e-05 1.12291e-05 2.68897e+25 -2.49267 8.51554 271.569 
-1.07512e-05 1.12291e-05 2.69338e+25 -2.18185 7.67027 271.671 
-8.83992e-06 1.12291e-05 2.69036e+25 -1.0323 7.54548 271.837 
-6.92858e-06 1.12291e-05 2.68411e+25 0.199182 6.70963 272.435 
-5.01725e-06 1.12291e-05 2.68687e+25 1.42007 4.6726 271.919 
-3.10592e-06 1.12291e-05 2.68763e+25 2.84875 4.80013 272.146 
-1.19458e-06 1.12291e-05 2.68688e+25 4.64521 3.71826 272.092 
-1.64852e-05 1.17069e-05 2.68665e+25 -0.334525 3.17524 272.195 
-1.45739e-05 1.17069e-05 2.68585e+25 -2.02458 8.00424 272.149 
-1.26626e-05 1.17069e-05 2.68843e+25 -2.67614 8.51016 271.789 
-1.07512e-05 1.17069e-05 2.6945e+25 -2.38217 7.47554 271.504 
-8.83992e-06 1.17069e-05 2.6898e+25 -0.885839 7.19531 271.822 
-6.92858e-06 1.17069e-05 2.6855e+25 1.25929 6.22857 272.345 
-5.01725e-06 1.17069e-05 2.68433e+25 2.59973 4.32509 272.108 
-3.10592e-06 1.17069e-05 2.68843e+25 4.18583 4.40431 272.007 
-1.19458e-06 1.17069e-05 2.69021e+25 5.63341 3.45655 271.901 
-1.64852e-05 1.21847e-05 2.68083e+25 -0.371261 3.46494 272.531 
-1.45739e-05 1.21847e-05 2.68399e+25 -2.13934 8.35693 271.987 
-1.26626e-05 1.21847e-05 2.68602e+25 -2.56828 8.42673 271.962 
-1.07512e-05 1.21847e-05 2.69281e+25 -2.04426 7.30447 271.477 
-8.83992e-06 1.21847e-05 2.68919e+25 -0.556253 6.94349 272.125 
-6.92858e-06 1.21847e-05 2.68661e+25 1.92642 5.76462 272.129 
-5.01725e-06 1.21847e-05 2.68619e+25 3.9402 4.09047 271.962 
-3.10592e-06 1.21847e-05 2.68729e+25 5.42921 3.98718 272.014 
-1.19458e-06 1.21847e-05 2.6845e+25 6.98457 3.23212 272.034 
-1.64852e-05 1.26626e-05 2.68e+25 -0.314182 3.81869 272.758 
-1.45739e-05 1.26626e-05 2.68196e+25 -2.55506 8.55646 272.255 
-1.26626e-05 1.26626e-05 2.68485e+25 -2.69841 8.17937 272.097 
-1.07512e-05 1.26626e-05 2.69135e+25 -1.67411 7.13041 271.704 
-8.83992e-06 1.26626e-05 2.68777e+25 0.272181 6.4032 272.169 
-6.92858e-06 1.26626e-05 2.68995e+25 2.8952 5.18531 272.018 
-5.01725e-06 1.26626e-05 2.68403e+25 5.2748 3.99483 272.29 
-3.10592e-06 1.26626e-05 2.68779e+25 7.00817 3.51711 272.009 
-1.19458e-06 1.26626e-05 2.68809e+25 8.91018 2.91305 271.914 
-1.64852e-05 1.31404e-05 2.67782e+25 -0.387948 4.31251 272.764 
-1.45739e-05 1.31404e-05 2.67919e+25 -3.15212 8.82727 272.467 
-1.26626e-05 1.31404e-05 2.6879e+25 -2.73682 7.9094 271.828 
-1.07512e-05 1.31404e-05 2.69497e+25 -0.88156 6.50285 271.646 
-8.83992e-06 1.31404e-05 2.68775e+25 1.3569 5.78431 272.089 
-6.92858e-06 1.31404e-05 2.68854e+25 4.48405 4.45935 272.197 
-5.01725e-06 1.31404e-05 2.68573e+25 6.89122 3.62556 272.218 
-3.10592e-06 1.31404e-05 2.68906e+25 9.02898 2.98765 271.857 
-1.19458e-06 1.31404e-05 2.68666e+25 11.0123 2.63699 272.164 
-1.64852e-05 1.36182e-05 2.67575e+25 -0.874919 5.11852 272.743 
-1.45739e-05 1.36182e-05 2.68038e+25 -3.57051 8.97886 272.469 
-1.26626e-05 1.36182e-05 2.68594e+25 -2.38797 7.52761 272.021 
-1.07512e-05 1.36182e-05 2.68875e+25 0.184148 5.88179 271.791 
-8.83992e-06 1.36182e-05 2.69229e+25 3.18774 4.99326 271.87 
-6.92858e-06 1.36182e-05 2.69093e+25 6.17837 3.82779 271.87 
-5.01725e-06 1.36182e-05 2.68334e+25 8.91723 3.14647 272.673 
-3.10592e-06 1.36182e-05 2.68721e+25 11.0753 2.41281 272.029 
-1.19458e-06 1.36182e-05 2.68479e+25 12.8421 2.20616 272.436 
-1.64852e-05 1.40961e-05 2.67762e+25 -0.935097 5.88211 272.52 
-1.45739e-05 1.40961e-05 2.68112e+25 -3.4266 9.05356 272.235 
-1.26626e-05 1.40961e-05 2.69048e+25 -1.39394 7.01559 271.754 
-1.07512e-05 1.40961e-05 2.69117e+25 1.97523 5.06312 271.854 
-8.83992e-06 1.40961e-05 2.69427e+25 4.94189 4.109 271.913 
-6.92858e-06 1.40961e-05 2.69012e+25 8.42229 3.15111 271.916 
-5.01725e-06 1.40961e-05 2.68323e+25 11.1996 2.58887 272.619 
-3.10592e-06 1.40961e-05 2.687e+25 13.2117 2.07615 272.09 
-1.19458e-06 1.40961e-05 2.68439e+25 14.779 1.579 272.365 
-1.64852e-05 1.45739e-05 2.67314e+25 -1.36257 6.93844 272.708 
-1.45739e-05 1.45739e-05 2.67975e+25 -3.23417 8.71196 272.396 
-1.26626e-05 1.45739e-05 2.68984e+25 0.183506 6.22396 271.831 
-1.07512e-05 1.45739e-05 2.68918e+25 4.02351 3.99256 272.174 
-8.83992e-06 1.45739e-05 2.69468e+25 7.63144 3.18038 271.721 
-6.92858e-06 1.45739e-05 2.68871e+25 11.0647 2.40852 272.152 
-5.01725e-06 1.45739e-05 2.68576e+25 13.6101 1.87403 272.337 
-3.10592e-06 1.45739e-05 2.68516e+25 15.6215 1.54315 272.255 
-1.19458e-06 1.45739e-05 2.68542e+25 17.0086 1.18198 272.448 
-1.64852e-05 1.50518e-05 2.66747e+25 -1.85903 8.23562 272.781 
-1.45739e-05 1.50518e-05 2.67384e+25 -2.22167 8.19117 272.474 
-1.26626e-05 1.50518e-05 2.68544e+25 2.84865 4.94438 272.1 
-1.07512e-05 1.50518e-05 2.68495e+25 7.50149 3.06223 272.554 
-8.83992e-06 1.50518e-05 2.69216e+25 11.4426 2.19362 271.979 
-6.92858e-06 1.50518e-05 2.68775e+25 14.1873 1.87496 272.037 
-5.01725e-06 1.50518e-05 2.68517e+25 16.6111 1.32942 272.425 
-3.10592e-06 1.50518e-05 2.68556e+25 18.5072 1.28499 272.412 
-1.19458e-06 1.50518e-05 2.68583e+25 19.7401 0.842543 272.4 
-1.64852e-05 1.55296e-05 2.66405e+25 -2.25455 9.72028 272.657 
-1.45739e-05 1.55296e-05 2.67556e+25 0.522045 7.07277 272.429 
-1.26626e-05 1.55296e-05 2.68252e+25 7.05792 3.53252 272.386 
-1.07512e-05 1.55296e-05 2.67933e+25 12.2038 2.1543 272.97 
-8.83992e-06 1.55296e-05 2.68721e+25 15.5131 1.2058 272.201 
-6.92858e-06 1.55296e-05 2.68749e+25 18.1301 1.38765 272.158 
-5.01725e-06 1.55296e-05 2.68417e+25 19.9993 0.869135 272.57 
-3.10592e-06 1.55296e-05 2.68657e+25 21.6058 0.891057 272.31 
-1.19458e-06 1.55296e-05 2.68148e+25 22.9923 0.740152 272.79 
-1.64852e-05 1.60074e-05 2.65867e+25 -1.72951 10.6951 272.797 
-1.45739e-05 1.60074e-05 2.67743e+25 6.04894 5.28363 272.459 
-1.26626e-05 1.60074e-05 2.68135e+25 13.2852 2.19817 272.515 
-1.07512e-05 1.60074e-05 2.67815e+25 17.6884 1.26614 273.056 
-8.83992e-06 1.60074e-05 2.68672e+25 20.461 0.591453 272.358 
-6.92858e-06 1.60074e-05 2.68292e+25 22.7022 0.835913 272.763 
-5.01725e-06 1.60074e-05 2.68395e+25 24.1023 0.43553 272.583 
-3.10592e-06 1.60074e-05 2.68452e+25 25.4064 0.359548 272.44 
-1.19458e-06 1.60074e-05 2.6806e+25 26.4223 0.405195 272.836 
-1.64852e-05 1.64852e-05 2.64465e+25 0.781272 9.40808 273.088 
-1.45739e-05 1.64852e-05 2.67479e+25 14.7551 2.62737 272.759 
-1.26626e-05 1.64852e-05 2.68075e+25 21.0057 1.03806 272.83 
-1.07512e-05 1.64852e-05 2.68315e+25 23.9421 0.626296 272.951 
-8.83992e-06 1.64852e-05 2.68605e+25 26.1675 0.232248 272.568 
-6.92858e-06 1.64852e-05 2.68008e+25 27.6035 0.359052 273.126 
-5.01725e-06 1.64852e-05 2.68331e+25 28.4102 0.181361 272.634 
-3.10592e-06 1.64852e-05 2.68334e+25 28.962 0.165415 272.61 
-1.19458e-06 1.64852e-05 2.68357e+25 29.8805 0.255275 272.698 
-1.64852e-05 1.69631e-05 2.62009e+25 12.4681 3.56274 273.748 
-1.45739e-05 1.69631e-05 2.67332e+25 26.1493 0.636141 273.176 
-1.26626e-05 1.69631e-05 2.68284e+25 29.1295 0.175058 272.689 
-1.07512e-05 1.69631e-05 2.6813e+25 30.712 0.135121 272.957 
-8.83992e-06 1.69631e-05 2.68346e+25 31.3558 0.0505593 272.88 
-6.92858e-06 1.69631e-05 2.68393e+25 31.8535 0.0510792 273.035 
-5.01725e-06 1.69631e-05 2.68107e+25 32.2189 0.00541582 272.782 
-3.10592e-06 1.69631e-05 2.68202e+25 32.409 0.0436461 272.674 
-1.19458e-06 1.69631e-05 2.68198e+25 32.8807 0.0635698 272.864 
-1.69631e-05 2.38917e-07 2.68006e+25 0.0599256 0.33997 272.764 
-1.50517e-05 2.38917e-07 2.68945e+25 -0.057439 3.43198 271.938 
-1.31404e-05 2.38917e-07 2.69042e+25 -0.583583 4.42124 271.676 
-1.12291e-05 2.38917e-07 2.69558e+25 -1.83311 5.4188 271.353 
-9.31775e-06 2.38917e-07 2.68812e+25 -2.76318 5.89658 271.897 
-7.40642e-06 2.38917e-07 2.69491e+25 -3.56142 5.30042 271.351 
-5.49508e-06 2.38917e-07 2.69209e+25 -4.11112 5.32994 271.57 
-3.58375e-06 2.38917e-07 2.69198e+25 -5.56473 3.92363 271.554 
-1.67242e-06 2.38917e-07 2.68506e+25 -6.83992 3.35519 272.052 
-1.69631e-05 7.1675e-07 2.68042e+25 0.011947 0.267894 272.878 
-1.50517e-05 7.1675e-07 2.69159e+25 -0.314092 3.46119 271.856 
-1.31404e-05 7.1675e-07 2.69191e+25 -0.690599 4.82479 271.687 
-1.12291e-05 7.1675e-07 2.69751e+25 -1.97502 5.68251 271.406 
-9.31775e-06 7.1675e-07 2.69074e+25 -2.73504 5.85374 271.678 
-7.40642e-06 7.1675e-07 2.69795e+25 -3.28809 5.3 271.222 
-5.49508e-06 7.1675e-07 2.69296e+25 -3.88846 5.45238 271.433 
-3.58375e-06 7.1675e-07 2.69295e+25 -5.28202 4.36343 271.771 
-1.67242e-06 7.1675e-07 2.69032e+25 -6.9268 3.42791 272.125 
-1.69631e-05 1.19458e-06 2.68635e+25 -0.0476641 0.343047 272.648 
-1.50517e-05 1.19458e-06 2.69011e+25 -0.159969 3.5087 272.067 
-1.31404e-05 1.19458e-06 2.69549e+25 -1.00171 5.03831 271.711 
-1.12291e-05 1.19458e-06 2.69478e+25 -1.81909 6.07813 271.432 
-9.31775e-06 1.19458e-06 2.69296e+25 -2.6892 5.79775 271.712 
-7.40642e-06 1.19458e-06 2.6948e+25 -2.90263 5.51959 271.383 
-5.49508e-06 1.19458e-06 2.69361e+25 -3.61174 5.37872 271.45 
-3.58375e-06 1.19458e-06 2.69316e+25 -5.07299 4.77243 271.836 
-1.67242e-06 1.19458e-06 2.68913e+25 -6.68079 3.36576 272.138 
-1.69631e-05 1.67242e-06 2.68402e+25 -0.127561 0.524981 272.773 
-1.50517e-05 1.67242e-06 2.68615e+25 -0.202958 3.6191 272.246 
-1.31404e-05 1.67242e-06 2.69226e+25 -1.00982 5.33054 271.502 
-1.12291e-05 1.67242e-06 2.69487e+25 -2.01538 6.4577 271.462 
-9.31775e-06 1.67242e-06 2.69331e+25 -2.65577 5.86273 271.767 
-7.40642e-06 1.67242e-06 2.69556e+25 -2.78471 5.98588 271.187 
-5.49508e-06 1.67242e-06 2.69291e+25 -3.5627 5.64761 271.685 
-3.58375e-06 1.67242e-06 2.6877e+25 -4.60321 5.10794 272.191 
-1.67242e-06 1.67242e-06 2.68336e+25 -6.14305 3.75919 272.493 
-1.69631e-05 2.15025e-06 2.68496e+25 0.161431 0.491279 272.723 
-1.50517e-05 2.15025e-06 2.68791e+25 -0.256921 3.83867 272.258 
-1.31404e-05 2.15025e-06 2.69854e+25 -1.13203 5.64573 271.357 
-1.12291e-05 2.15025e-06 2.69234e+25 -2.06508 6.82342 271.627 
-9.31775e-06 2.15025e-06 2.69201e+25 -2.77444 5.9183 271.83 
-7.40642e-06 2.15025e-06 2.69696e+25 -3.23544 6.18855 271.225 
-5.49508e-06 2.15025e-06 2.69421e+25 -3.70441 5.69714 271.573 
-3.58375e-06 2.15025e-06 2.68633e+25 -4.53126 5.59427 272.237 
-1.67242e-06 2.15025e-06 2.68549e+25 -5.65516 4.04231 272.438 
-1.69631e-05 2.62808e-06 2.6841e+25 0.0131009 0.274391 272.56 
-1.50517e-05 2.62808e-06 2.69176e+25 -0.347516 3.73542 272.014 
-1.31404e-05 2.62808e-06 2.69887e+25 -0.926762 5.82132 271.123 
-1.12291e-05 2.62808e-06 2.69262e+25 -1.94366 6.99346 271.715 
-9.31775e-06 2.62808e-06 2.69436e+25 -2.87038 6.02028 271.569 
-7.40642e-06 2.62808e-06 2.69703e+25 -3.03435 6.40177 271.151 
-5.49508e-06 2.62808e-06 2.69355e+25 -3.76071 5.93875 271.565 
-3.58375e-06 2.62808e-06 2.68738e+25 -4.64446 5.84952 272.297 
-1.67242e-06 2.62808e-06 2.68348e+25 -5.43285 4.47041 272.301 
-1.69631e-05 3.10592e-06 2.68297e+25 -0.121323 0.39491 272.883 
-1.50517e-05 3.10592e-06 2.69119e+25 -0.136868 3.88845 271.96 
-1.31404e-05 3.10592e-06 2.70011e+25 -0.90583 6.10678 271.081 
-1.12291e-05 3.10592e-06 2.69266e+25 -1.85297 7.08879 271.625 
-9.31775e-06 3.10592e-06 2.69586e+25 -2.53173 6.2388 271.421 
-7.40642e-06 3.10592e-06 2.69722e+25 -2.99149 6.62 271.481 
-5.49508e-06 3.10592e-06 2.6928e+25 -3.79539 6.06617 271.655 
-3.58375e-06 3.10592e-06 2.68908e+25 -4.69124 6.02047 272.153 
-1.67242e-06 3.10592e-06 2.68777e+25 -5.36616 4.69852 272.228 
-1.69631e-05 3.58375e-06 2.68515e+25 -0.0625178 0.599879 272.709 
-1.50517e-05 3.58375e-06 2.69082e+25 0.283149 4.11091 271.89 
-1.31404e-05 3.58375e-06 2.69394e+25 -0.916873 6.36705 271.267 
-1.12291e-05 3.58375e-06 2.68849e+25 -1.06666 7.09892 271.994 
-9.31775e-06 3.58375e-06 2.69357e+25 -1.77663 6.54181 271.719 
-7.40642e-06 3.58375e-06 2.69422e+25 -2.98347 6.77912 271.78 
-5.49508e-06 3.58375e-06 2.68975e+25 -3.60891 6.39681 271.79 
-3.58375e-06 3.58375e-06 2.68481e+25 -4.53968 6.10186 272.253 
-1.67242e-06 3.58375e-06 2.68319e+25 -4.88916 4.65543 272.474 
-1.69631e-05 4.06158e-06 2.68453e+25 0.0859493 0.593762 272.496 
-1.50517e-05 4.06158e-06 2.69216e+25 0.126298 4.13251 271.788 
-1.31404e-05 4.06158e-06 2.69684e+25 -0.819488 6.65054 271.324 
-1.12291e-05 4.06158e-06 2.69015e+25 -1.10411 7.15501 271.903 
-9.31775e-06 4.06158e-06 2.69443e+25 -1.48662 6.9257 271.413 
-7.40642e-06 4.06158e-06 2.68879e+25 -3.04891 6.96438 272.036 
-5.49508e-06 4.06158e-06 2.69249e+25 -3.4392 6.64155 271.722 
-3.58375e-06 4.06158e-06 2.6883e+25 -4.19212 6.32208 272.328 
-1.67242e-06 4.06158e-06 2.68579e+25 -4.44262 4.55405 272.215 
-1.69631e-05 4.53942e-06 2.68135e+25 0.0463226 0.421628 272.894 
-1.50517e-05 4.53942e-06 2.68924e+25 -0.212068 4.32811 272.073 
-1.31404e-05 4.53942e-06 2.69553e+25 -0.783229 6.70134 271.278 
-1.12291e-05 4.53942e-06 2.69072e+25 -0.944438 7.13415 271.72 
-9.31775e-06 4.53942e-06 2.69739e+25 -1.20462 7.29064 271.278 
-7.40642e-06 4.53942e-06 2.68774e+25 -2.70617 7.08331 272.026 
-5.49508e-06 4.53942e-06 2.69099e+25 -3.69765 6.76472 271.787 
-3.58375e-06 4.53942e-06 2.6842e+25 -4.01161 6.38238 272.358 
-1.67242e-06 4.53942e-06 2.68278e+25 -3.88559 4.54098 272.377 
-1.69631e-05 5.01725e-06 2.67928e+25 -0.0603711 0.416637 272.844 
-1.50517e-05 5.01725e-06 2.69043e+25 -0.476425 4.56915 272.053 
-1.31404e-05 5.01725e-06 2.69208e+25 -0.548461 6.58094 271.86 
-1.12291e-05 5.01725e-06 2.69417e+25 -0.975944 7.25423 271.675 
-9.31775e-06 5.01725e-06 2.69383e+25 -1.27416 7.51457 271.577 
-7.40642e-06 5.01725e-06 2.69269e+25 -2.29384 7.30982 271.729 
-5.49508e-06 5.01725e-06 2.69071e+25 -3.77596 7.00786 271.869 
-3.58375e-06 5.01725e-06 2.68702e+25 -3.63195 6.39897 272.086 
-1.67242e-06 5.01725e-06 2.68264e+25 -3.71089 4.64211 272.483 
-1.69631e-05 5.49508e-06 2.68682e+25 0.00236247 0.528761 272.519 
-1.50517e-05 5.49508e-06 2.68902e+25 -0.693845 4.87786 272.033 
-1.31404e-05 5.49508e-06 2.68843e+25 -0.530882 6.38168 271.895 
-1.12291e-05 5.49508e-06 2.69269e+25 -0.972825 7.47047 271.743 
-9.31775e-06 5.49508e-06 2.6967e+25 -1.18936 7.32659 271.386 
-7.40642e-06 5.49508e-06 2.69589e+25 -2.39412 7.48415 271.456 
-5.49508e-06 5.49508e-06 2.68778e+25 -3.46572 7.28326 271.921 
-3.58375e-06 5.49508e-06 2.68775e+25 -3.22874 6.38207 272.098 
-1.67242e-06 5.49508e-06 2.68e+25 -3.41014 5.05646 272.517 
-1.69631e-05 5.97292e-06 2.68579e+25 0.0150102 0.561585 272.467 
-1.50517e-05 5.97292e-06 2.68762e+25 -0.198755 4.98857 272.046 
-1.31404e-05 5.97292e-06 2.69088e+25 -0.386669 6.20927 271.888 
-1.12291e-05 5.97292e-06 2.69106e+25 -1.16623 7.94521 271.763 
-9.31775e-06 5.97292e-06 2.69539e+25 -1.80117 7.54907 271.503 
-7.40642e-06 5.97292e-06 2.69581e+25 -2.61774 7.86047 271.203 
-5.49508e-06 5.97292e-06 2.68762e+25 -2.86095 7.36304 272.058 
-3.58375e-06 5.97292e-06 2.68882e+25 -2.731 6.32445 272.13 
-1.67242e-06 5.97292e-06 2.68502e+25 -3.04677 5.19033 272.276 
-1.69631e-05 6.45075e-06 2.68126e+25 0.0369304 0.504192 272.871 
-1.50517e-05 6.45075e-06 2.68633e+25 -0.034149 5.07022 272.264 
-1.31404e-05 6.45075e-06 2.68892e+25 -0.598065 6.30916 272.11 
-1.12291e-05 6.45075e-06 2.69283e+25 -0.830805 8.25822 271.74 
-9.31775e-06 6.45075e-06 2.69525e+25 -2.0527 7.87804 271.681 
-7.40642e-06 6.45075e-06 2.69453e+25 -2.66924 8.14965 271.427 
-5.49508e-06 6.45075e-06 2.68676e+25 -2.8075 7.42086 272.082 
-3.58375e-06 6.45075e-06 2.68657e+25 -2.44286 6.19489 272.208 
-1.67242e-06 6.45075e-06 2.68796e+25 -2.7708 5.26632 272.006 
-1.69631e-05 6.92858e-06 2.68232e+25 -0.0827401 0.439 272.938 
-1.50517e-05 6.92858e-06 2.68948e+25 -0.159839 5.06123 272.034 
-1.31404e-05 6.92858e-06 2.6841e+25 -0.545662 6.58576 272.35 
-1.12291e-05 6.92858e-06 2.69409e+25 -0.920596 8.32549 271.442 
-9.31775e-06 6.92858e-06 2.69164e+25 -1.93684 8.24032 271.778 
-7.40642e-06 6.92858e-06 2.69531e+25 -2.31405 8.15782 271.314 
-5.49508e-06 6.92858e-06 2.68944e+25 -2.37736 7.3717 272.031 
-3.58375e-06 6.92858e-06 2.6854e+25 -2.09625 6.31506 272.096 
-1.67242e-06 6.92858e-06 2.68822e+25 -2.93259 5.47826 271.85 
-1.69631e-05 7.40642e-06 2.68437e+25 0.00974094 0.535757 272.636 
-1.50517e-05 7.40642e-06 2.68835e+25 -0.109985 5.08504 272.282 
-1.31404e-05 7.40642e-06 2.69018e+25 -0.373361 6.6597 272.081 
-1.12291e-05 7.40642e-06 2.69746e+25 -1.13585 8.14254 271.12 
-9.31775e-06 7.40642e-06 2.69107e+25 -1.72152 8.24141 271.876 
-7.40642e-06 7.40642e-06 2.69453e+25 -1.85568 8.48875 271.442 
-5.49508e-06 7.40642e-06 2.68947e+25 -2.21268 7.39955 271.842 
-3.58375e-06 7.40642e-06 2.68789e+25 -2.23986 6.28032 272.096 
-1.67242e-06 7.40642e-06 2.69094e+25 -2.30626 5.59776 271.728 
-1.69631e-05 7.88425e-06 2.68207e+25 0.00703165 0.5957 272.657 
-1.50517e-05 7.88425e-06 2.68401e+25 -0.231615 5.2628 272.318 
-1.31404e-05 7.88425e-06 2.6891e+25 -0.788111 6.91036 272.059 
-1.12291e-05 7.88425e-06 2.69426e+25 -1.16124 7.91699 271.429 
-9.31775e-06 7.88425e-06 2.68944e+25 -1.63157 8.32313 271.956 
-7.40642e-06 7.88425e-06 2.69049e+25 -1.70887 8.55692 271.748 
-5.49508e-06 7.88425e-06 2.68915e+25 -1.80651 7.18372 271.861 
-3.58375e-06 7.88425e-06 2.68622e+25 -1.68518 6.22535 272.152 
-1.67242e-06 7.88425e-06 2.68937e+25 -1.63246 5.67596 271.82 
-1.69631e-05 8.36208e-06 2.68401e+25 -0.0227724 0.636185 272.603 
-1.50517e-05 8.36208e-06 2.68703e+25 -0.524653 5.3496 272.13 
-1.31404e-05 8.36208e-06 2.6903e+25 -1.10511 7.40854 272.077 
-1.12291e-05 8.36208e-06 2.6896e+25 -1.35431 7.92611 271.774 
-9.31775e-06 8.36208e-06 2.68799e+25 -1.68969 8.27448 271.952 
-7.40642e-06 8.36208e-06 2.69027e+25 -1.32215 8.44652 271.883 
-5.49508e-06 8.36208e-06 2.68717e+25 -1.33428 6.87709 271.886 
-3.58375e-06 8.36208e-06 2.68917e+25 -1.18149 6.36573 271.918 
-1.67242e-06 8.36208e-06 2.68727e+25 -0.96856 5.52448 271.992 
-1.69631e-05 8.83992e-06 2.68116e+25 0.0621294 0.619134 272.674 
-1.50517e-05 8.83992e-06 2.68456e+25 -0.471484 5.14026 272.386 
-1.31404e-05 8.83992e-06 2.68631e+25 -1.55798 7.66753 272.112 
-1.12291e-05 8.83992e-06 2.69013e+25 -1.78871 7.86335 271.848 
-9.31775e-06 8.83992e-06 2.69255e+25 -2.02682 8.26994 271.71 
-7.40642e-06 8.83992e-06 2.68416e+25 -1.50965 8.24485 272.314 
-5.49508e-06 8.83992e-06 2.68452e+25 -1.01564 6.71235 272.294 
-3.58375e-06 8.83992e-06 2.6893e+25 -0.51483 6.48586 272.021 
-1.67242e-06 8.83992e-06 2.68793e+25 0.111159 5.31269 271.992 
-1.69631e-05 9.31775e-06 2.67901e+25 -0.108961 0.702454 272.717 
-1.50517e-05 9.31775e-06 2.68398e+25 -0.943008 5.08595 272.153 
-1.31404e-05 9.31775e-06 2.68951e+25 -1.9402 7.85501 271.715 
-1.12291e-05 9.31775e-06 2.69175e+25 -2.24415 7.74783 271.628 
-9.31775e-06 9.31775e-06 2.68853e+25 -2.03235 8.30704 271.927 
-7.40642e-06 9.31775e-06 2.68351e+25 -1.51411 7.97031 272.423 
-5.49508e-06 9.31775e-06 2.68611e+25 -0.773541 6.61072 272.199 
-3.58375e-06 9.31775e-06 2.68794e+25 0.177321 6.32467 271.981 
-1.67242e-06 9.31775e-06 2.68747e+25 0.802028 5.11046 271.893 
-1.69631e-05 9.79558e-06 2.67897e+25 -0.073286 0.878067 272.916 
-1.50517e-05 9.79558e-06 2.68484e+25 -0.758839 5.29031 272.136 
-1.31404e-05 9.79558e-06 2.69237e+25 -2.30722 8.11331 271.685 
-1.12291e-05 9.79558e-06 2.69308e+25 -2.81902 7.89355 271.73 
-9.31775e-06 9.79558e-06 2.68595e+25 -1.90144 8.21983 271.934 
-7.40642e-06 9.79558e-06 2.68381e+25 -1.47156 7.88789 272.712 
-5.49508e-06 9.79558e-06 2.69142e+25 -0.565952 6.37886 272.145 
-3.58375e-06 9.79558e-06 2.68914e+25 0.815596 5.95411 271.956 
-1.67242e-06 9.79558e-06 2.6903e+25 1.46947 4.91017 271.69 
-1.69631e-05 1.02734e-05 2.67586e+25 -0.0626113 1.01282 272.967 
-1.50517e-05 1.02734e-05 2.68656e+25 -0.974608 5.63375 272.09 
-1.31404e-05 1.02734e-05 2.68927e+25 -2.37447 8.22338 271.721 
-1.12291e-05 1.02734e-05 2.69068e+25 -2.63914 8.03662 271.826 
-9.31775e-06 1.02734e-05 2.68639e+25 -1.70023 8.02802 272.194 
-7.40642e-06 1.02734e-05 2.68232e+25 -1.67063 7.98227 272.624 
-5.49508e-06 1.02734e-05 2.6874e+25 -0.275173 5.92459 272.187 
-3.58375e-06 1.02734e-05 2.68817e+25 1.23514 5.66392 272.029 
-1.67242e-06 1.02734e-05 2.68786e+25 2.36648 4.71503 272.041 
-1.69631e-05 1.07512e-05 2.6796e+25 -0.0456812 1.17742 272.942 
-1.50517e-05 1.07512e-05 2.68776e+25 -1.08212 6.01033 271.895 
-1.31404e-05 1.07512e-05 2.68972e+25 -2.237 8.46203 272.019 
-1.12291e-05 1.07512e-05 2.68936e+25 -2.40557 7.97113 271.829 
-9.31775e-06 1.07512e-05 2.69164e+25 -1.65122 7.94933 271.846 
-7.40642e-06 1.07512e-05 2.68017e+25 -1.19926 7.79066 272.82 
-5.49508e-06 1.07512e-05 2.68779e+25 0.388032 5.71061 272.032 
-3.58375e-06 1.07512e-05 2.68845e+25 1.74998 5.44812 272.031 
-1.67242e-06 1.07512e-05 2.68806e+25 3.20005 4.37912 271.949 
-1.69631e-05 1.12291e-05 2.68323e+25 0.0795464 1.1621 272.652 
-1.50517e-05 1.12291e-05 2.68861e+25 -1.59166 6.41503 271.917 
-1.31404e-05 1.12291e-05 2.68699e+25 -2.38054 8.60743 272.201 
-1.12291e-05 1.12291e-05 2.6895e+25 -2.37192 7.79304 271.892 
-9.31775e-06 1.12291e-05 2.69339e+25 -1.40365 7.51439 271.527 
-7.40642e-06 1.12291e-05 2.68521e+25 -0.23507 7.45423 272.462 
-5.49508e-06 1.12291e-05 2.69017e+25 1.26029 5.43425 271.918 
-3.58375e-06 1.12291e-05 2.68621e+25 2.58868 5.07704 272.263 
-1.67242e-06 1.12291e-05 2.68901e+25 4.28401 4.00067 271.812 
-1.69631e-05 1.17069e-05 2.68104e+25 -0.174874 1.27202 272.552 
-1.50517e-05 1.17069e-05 2.68612e+25 -1.56883 6.8911 272.202 
-1.31404e-05 1.17069e-05 2.68308e+25 -2.70785 8.77259 272.263 
-1.12291e-05 1.17069e-05 2.69129e+25 -2.45971 7.76275 271.665 
-9.31775e-06 1.17069e-05 2.69048e+25 -1.20599 7.06503 271.781 
-7.40642e-06 1.17069e-05 2.68697e+25 0.627762 6.99695 272.388 
-5.49508e-06 1.17069e-05 2.68715e+25 2.24674 5.27379 272.166 
-3.58375e-06 1.17069e-05 2.69008e+25 3.65258 4.56946 272.014 
-1.67242e-06 1.17069e-05 2.69121e+25 5.25469 3.58427 271.735 
-1.69631e-05 1.21847e-05 2.67641e+25 -0.0720726 1.51152 273.055 
-1.50517e-05 1.21847e-05 2.68696e+25 -1.7635 7.39859 271.935 
-1.31404e-05 1.21847e-05 2.68403e+25 -2.79211 8.66863 272.301 
-1.12291e-05 1.21847e-05 2.69247e+25 -2.21594 7.67648 271.424 
-9.31775e-06 1.21847e-05 2.68884e+25 -0.87065 6.72617 271.91 
-7.40642e-06 1.21847e-05 2.68823e+25 1.24058 6.19098 272.015 
-5.49508e-06 1.21847e-05 2.68592e+25 3.68542 4.91439 272.265 
-3.58375e-06 1.21847e-05 2.68683e+25 5.05066 4.11385 272.28 
-1.67242e-06 1.21847e-05 2.69008e+25 6.80686 3.19098 271.793 
-1.69631e-05 1.26626e-05 2.6794e+25 -0.0496692 1.64851 272.978 
-1.50517e-05 1.26626e-05 2.68212e+25 -2.21036 7.98574 272.285 
-1.31404e-05 1.26626e-05 2.68374e+25 -2.78344 8.58687 272.312 
-1.12291e-05 1.26626e-05 2.69168e+25 -1.92909 7.48152 271.548 
-9.31775e-06 1.26626e-05 2.68941e+25 -0.373826 6.36178 271.977 
-7.40642e-06 1.26626e-05 2.68884e+25 2.20365 5.4835 272.119 
-5.49508e-06 1.26626e-05 2.68705e+25 4.88235 4.34682 272.221 
-3.58375e-06 1.26626e-05 2.68973e+25 6.45765 3.63992 271.965 
-1.67242e-06 1.26626e-05 2.68766e+25 8.55269 2.94965 272.082 
-1.69631e-05 1.31404e-05 2.68073e+25 -0.0214344 1.80178 272.674 
-1.50517e-05 1.31404e-05 2.67912e+25 -2.67813 8.56861 272.466 
-1.31404e-05 1.31404e-05 2.68436e+25 -3.10181 8.45162 271.947 
-1.12291e-05 1.31404e-05 2.68809e+25 -1.45028 7.20608 271.805 
-9.31775e-06 1.31404e-05 2.6921e+25 0.894461 5.7753 271.788 
-7.40642e-06 1.31404e-05 2.68699e+25 3.90461 4.87136 271.987 
-5.49508e-06 1.31404e-05 2.68606e+25 6.35696 3.70878 272.363 
-3.58375e-06 1.31404e-05 2.6893e+25 8.48727 3.03932 271.85 
-1.67242e-06 1.31404e-05 2.6867e+25 10.6819 2.50481 272.151 
-1.69631e-05 1.36182e-05 2.67745e+25 -0.192209 2.04775 272.783 
-1.50517e-05 1.36182e-05 2.68034e+25 -3.34828 9.10209 272.384 
-1.31404e-05 1.36182e-05 2.68781e+25 -2.77353 8.05898 271.889 
-1.12291e-05 1.36182e-05 2.69026e+25 -0.463332 6.45591 271.876 
-9.31775e-06 1.36182e-05 2.69173e+25 2.33436 5.28583 271.588 
-7.40642e-06 1.36182e-05 2.69387e+25 5.54615 4.32297 271.684 
-5.49508e-06 1.36182e-05 2.68624e+25 8.33707 3.05548 272.456 
-3.58375e-06 1.36182e-05 2.68949e+25 10.5578 2.47372 272.215 
-1.67242e-06 1.36182e-05 2.68447e+25 12.2153 1.93385 272.308 
-1.69631e-05 1.40961e-05 2.67184e+25 -0.204516 2.63206 273.007 
-1.50517e-05 1.40961e-05 2.6772e+25 -3.30908 9.44571 272.615 
-1.31404e-05 1.40961e-05 2.68927e+25 -2.05663 7.60242 271.691 
-1.12291e-05 1.40961e-05 2.68808e+25 0.798422 5.62749 271.996 
-9.31775e-06 1.40961e-05 2.68959e+25 4.16078 4.48049 271.798 
-7.40642e-06 1.40961e-05 2.69175e+25 7.71763 3.61428 271.704 
-5.49508e-06 1.40961e-05 2.68623e+25 10.4889 2.46301 272.427 
-3.58375e-06 1.40961e-05 2.68658e+25 12.7176 1.98935 272.218 
-1.67242e-06 1.40961e-05 2.68411e+25 14.306 1.57918 272.512 
-1.69631e-05 1.45739e-05 2.67269e+25 -0.333033 3.23235 272.765 
-1.50517e-05 1.45739e-05 2.67746e+25 -3.38508 9.65508 272.621 
-1.31404e-05 1.45739e-05 2.68741e+25 -0.726798 6.84856 271.822 
-1.12291e-05 1.45739e-05 2.68612e+25 2.98846 4.48689 272.138 
-9.31775e-06 1.45739e-05 2.689e+25 6.71777 3.69438 271.832 
-7.40642e-06 1.45739e-05 2.69126e+25 10.5923 3.08619 271.856 
-5.49508e-06 1.45739e-05 2.68438e+25 12.894 1.69746 272.383 
-3.58375e-06 1.45739e-05 2.68259e+25 15.3784 1.68843 272.486 
-1.67242e-06 1.45739e-05 2.68204e+25 16.7675 1.24763 272.591 
-1.69631e-05 1.50518e-05 2.66836e+25 -0.467393 4.18419 273.029 
-1.50517e-05 1.50518e-05 2.67256e+25 -2.85803 9.52805 272.834 
-1.31404e-05 1.50518e-05 2.68621e+25 1.40038 5.84223 272.059 
-1.12291e-05 1.50518e-05 2.68531e+25 6.56364 3.53635 272.285 
-9.31775e-06 1.50518e-05 2.68652e+25 10.3289 2.65551 272.145 
-7.40642e-06 1.50518e-05 2.69217e+25 13.5071 2.46979 271.902 
-5.49508e-06 1.50518e-05 2.68373e+25 16.0692 0.977262 272.481 
-3.58375e-06 1.50518e-05 2.68014e+25 18.1101 1.34559 272.775 
-1.67242e-06 1.50518e-05 2.68619e+25 19.5193 1.00738 272.453 
-1.69631e-05 1.55296e-05 2.65964e+25 -0.69296 5.53961 272.985 
-1.50517e-05 1.55296e-05 2.67508e+25 -1.05305 8.40456 272.56 
-1.31404e-05 1.55296e-05 2.68246e+25 5.37979 4.07204 272.333 
-1.12291e-05 1.55296e-05 2.67869e+25 11.2591 2.5872 272.986 
-9.31775e-06 1.55296e-05 2.6864e+25 14.657 1.51175 272.411 
-7.40642e-06 1.55296e-05 2.69038e+25 17.5652 1.72367 271.982 
-5.49508e-06 1.55296e-05 2.6813e+25 19.7355 0.547919 272.666 
-3.58375e-06 1.55296e-05 2.68368e+25 21.1194 0.667033 272.623 
-1.67242e-06 1.55296e-05 2.68453e+25 22.704 0.724232 272.633 
-1.69631e-05 1.60074e-05 2.64877e+25 -0.761051 7.07177 273.055 
-1.50517e-05 1.60074e-05 2.67401e+25 3.61196 6.21182 272.672 
-1.31404e-05 1.60074e-05 2.68128e+25 11.9596 2.34182 272.557 
-1.12291e-05 1.60074e-05 2.67916e+25 16.7089 1.5233 273.108 
-9.31775e-06 1.60074e-05 2.68079e+25 19.9768 0.846904 272.649 
-7.40642e-06 1.60074e-05 2.68476e+25 21.9726 1.03838 272.408 
-5.49508e-06 1.60074e-05 2.68408e+25 23.7905 0.362637 272.672 
-3.58375e-06 1.60074e-05 2.6833e+25 25.2011 0.302763 272.552 
-1.67242e-06 1.60074e-05 2.68191e+25 26.1826 0.519884 272.851 
-1.69631e-05 1.64852e-05 2.62697e+25 -0.405809 8.47181 272.993 
-1.50517e-05 1.64852e-05 2.67249e+25 11.9306 3.48789 272.835 
-1.31404e-05 1.64852e-05 2.68205e+25 19.8713 0.938908 272.603 
-1.12291e-05 1.64852e-05 2.68156e+25 23.3562 0.547275 272.956 
-9.31775e-06 1.64852e-05 2.68202e+25 25.8408 0.283388 272.626 
-7.40642e-06 1.64852e-05 2.68133e+25 27.1178 0.430486 272.929 
-5.49508e-06 1.64852e-05 2.68089e+25 28.2781 0.20484 273.066 
-3.58375e-06 1.64852e-05 2.68025e+25 28.6837 0.079729 272.847 
-1.67242e-06 1.64852e-05 2.68394e+25 29.7202 0.367292 272.761 
-1.69631e-05 1.69631e-05 2.5542e+25 4.03187 6.25005 273.035 
-1.50517e-05 1.69631e-05 2.66833e+25 24.5744 0.816526 273.297 
-1.31404e-05 1.69631e-05 2.67797e+25 28.715 0.126003 273.078 
-1.12291e-05 1.69631e-05 2.67932e+25 30.4161 0.113051 273.196 
-9.31775e-06 1.69631e-05 2.68374e+25 31.274 -0.0248597 272.781 
-7.40642e-06 1.69631e-05 2.68281e+25 31.7168 0.0348996 272.763 
-5.49508e-06 1.69631e-05 2.67976e+25 32.1446 0.0369383 273.005 
-3.58375e-06 1.69631e-05 2.67953e+25 32.4558 -0.0465078 272.927 
-1.67242e-06 1.69631e-05 2.68229e+25 32.6233 0.0988265 272.885 
-1.60074e-05 2.38917e-07 2.68923e+25 -0.0180168 1.94708 271.944 
-1.40961e-05 2.38917e-07 2.6904e+25 -0.292512 3.94719 271.949 
-1.21847e-05 2.38917e-07 2.68845e+25 -1.21926 5.17178 271.964 
-1.02734e-05 2.38917e-07 2.69103e+25 -2.38564 5.62807 271.835 
-8.36208e-06 2.38917e-07 2.69438e+25 -3.4493 5.5186 271.518 
-6.45075e-06 2.38917e-07 2.69138e+25 -3.87194 5.28856 271.704 
-4.53942e-06 2.38917e-07 2.69261e+25 -5.00554 4.42965 271.548 
-2.62808e-06 2.38917e-07 2.69134e+25 -6.48391 3.34271 271.778 
-7.1675e-07 2.38917e-07 2.69006e+25 -7.26937 2.25972 272.159 
-1.60074e-05 7.1675e-07 2.68989e+25 -0.153794 2.03047 272.157 
-1.40961e-05 7.1675e-07 2.69116e+25 -0.391606 4.06564 271.777 
-1.21847e-05 7.1675e-07 2.6908e+25 -1.25922 5.67835 271.721 
-1.02734e-05 7.1675e-07 2.69235e+25 -2.56677 5.88396 271.68 
-8.36208e-06 7.1675e-07 2.6951e+25 -3.11603 5.91865 271.407 
-6.45075e-06 7.1675e-07 2.69398e+25 -3.76507 5.56106 271.635 
-4.53942e-06 7.1675e-07 2.69074e+25 -4.48264 4.78005 271.633 
-2.62808e-06 7.1675e-07 2.68971e+25 -6.28583 3.73325 271.943 
-7.1675e-07 7.1675e-07 2.69159e+25 -7.22302 2.51483 271.918 
-1.60074e-05 1.19458e-06 2.6897e+25 -0.223137 2.24195 272.066 
-1.40961e-05 1.19458e-06 2.68999e+25 -0.463125 4.24829 271.905 
-1.21847e-05 1.19458e-06 2.69458e+25 -1.66071 5.89896 271.612 
-1.02734e-05 1.19458e-06 2.69589e+25 -2.4892 6.20819 271.331 
-8.36208e-06 1.19458e-06 2.69506e+25 -2.36985 6.1733 271.529 
-6.45075e-06 1.19458e-06 2.69766e+25 -3.20602 5.7498 271.295 
-4.53942e-06 1.19458e-06 2.6949e+25 -4.04816 5.37762 271.646 
-2.62808e-06 1.19458e-06 2.68951e+25 -5.9876 4.24249 271.998 
-7.1675e-07 1.19458e-06 2.68984e+25 -7.02603 2.77487 272.021 
-1.60074e-05 1.67242e-06 2.68595e+25 0.0498927 2.11044 272.316 
-1.40961e-05 1.67242e-06 2.69013e+25 -0.462181 4.33275 271.942 
-1.21847e-05 1.67242e-06 2.69487e+25 -1.48073 6.02827 271.542 
-1.02734e-05 1.67242e-06 2.69583e+25 -2.43697 6.31923 271.549 
-8.36208e-06 1.67242e-06 2.69607e+25 -2.53616 6.10604 271.223 
-6.45075e-06 1.67242e-06 2.69639e+25 -3.32339 5.97071 271.289 
-4.53942e-06 1.67242e-06 2.69141e+25 -3.96224 5.6954 271.835 
-2.62808e-06 1.67242e-06 2.68994e+25 -5.38728 4.72673 271.93 
-7.1675e-07 1.67242e-06 2.68761e+25 -6.73237 2.88944 272.284 
-1.60074e-05 2.15025e-06 2.68631e+25 0.108455 2.29415 272.429 
-1.40961e-05 2.15025e-06 2.69089e+25 -0.56512 4.56158 271.99 
-1.21847e-05 2.15025e-06 2.69633e+25 -1.3027 6.22562 271.31 
-1.02734e-05 2.15025e-06 2.69176e+25 -2.49543 6.43632 271.802 
-8.36208e-06 2.15025e-06 2.6983e+25 -2.82423 6.09101 271.187 
-6.45075e-06 2.15025e-06 2.69664e+25 -3.54384 6.13358 271.416 
-4.53942e-06 2.15025e-06 2.69359e+25 -3.9068 5.88031 271.594 
-2.62808e-06 2.15025e-06 2.69158e+25 -5.19979 5.14505 271.929 
-7.1675e-07 2.15025e-06 2.68553e+25 -6.24395 3.04504 272.332 
-1.60074e-05 2.62808e-06 2.68903e+25 -0.0109457 2.45421 272.225 
-1.40961e-05 2.62808e-06 2.6917e+25 -0.608277 4.75815 272.044 
-1.21847e-05 2.62808e-06 2.69931e+25 -1.49298 6.3417 271.205 
-1.02734e-05 2.62808e-06 2.69291e+25 -2.22828 6.7433 271.694 
-8.36208e-06 2.62808e-06 2.69894e+25 -2.84658 6.08193 271.03 
-6.45075e-06 2.62808e-06 2.69427e+25 -3.28245 6.1707 271.639 
-4.53942e-06 2.62808e-06 2.69185e+25 -4.07993 6.0686 271.602 
-2.62808e-06 2.62808e-06 2.68811e+25 -4.88065 5.34803 272.163 
-7.1675e-07 2.62808e-06 2.68257e+25 -6.05962 3.30687 272.604 
-1.60074e-05 3.10592e-06 2.69218e+25 -0.153411 2.46706 271.965 
-1.40961e-05 3.10592e-06 2.69357e+25 -0.560244 5.07563 271.607 
-1.21847e-05 3.10592e-06 2.69662e+25 -1.59674 6.47904 271.451 
-1.02734e-05 3.10592e-06 2.69357e+25 -1.85256 6.96385 271.639 
-8.36208e-06 3.10592e-06 2.69644e+25 -2.76583 6.10941 271.271 
-6.45075e-06 3.10592e-06 2.69346e+25 -3.28857 6.31275 271.61 
-4.53942e-06 3.10592e-06 2.69497e+25 -4.2955 6.33945 271.485 
-2.62808e-06 3.10592e-06 2.68409e+25 -4.84325 5.30672 272.49 
-7.1675e-07 3.10592e-06 2.68451e+25 -5.45763 3.8234 272.611 
-1.60074e-05 3.58375e-06 2.68828e+25 -0.0139554 2.41341 272.123 
-1.40961e-05 3.58375e-06 2.69226e+25 -0.144319 5.25012 271.726 
-1.21847e-05 3.58375e-06 2.69688e+25 -1.2573 6.69343 271.283 
-1.02734e-05 3.58375e-06 2.69725e+25 -1.45507 7.10758 271.372 
-8.36208e-06 3.58375e-06 2.69668e+25 -2.5662 6.34612 271.482 
-6.45075e-06 3.58375e-06 2.69042e+25 -3.21389 6.58348 271.86 
-4.53942e-06 3.58375e-06 2.69128e+25 -4.06586 6.69066 271.762 
-2.62808e-06 3.58375e-06 2.68197e+25 -4.86329 5.55235 272.435 
-7.1675e-07 3.58375e-06 2.68445e+25 -4.95072 3.88797 272.603 
-1.60074e-05 4.06158e-06 2.68996e+25 0.118165 2.45681 271.994 
-1.40961e-05 4.06158e-06 2.69483e+25 -0.308957 5.49419 271.599 
-1.21847e-05 4.06158e-06 2.69495e+25 -1.11915 6.90783 271.47 
-1.02734e-05 4.06158e-06 2.69715e+25 -1.03149 7.2406 271.138 
-8.36208e-06 4.06158e-06 2.69553e+25 -2.22728 6.71699 271.471 
-6.45075e-06 4.06158e-06 2.69187e+25 -3.29049 6.69687 271.825 
-4.53942e-06 4.06158e-06 2.68917e+25 -4.01038 6.75795 272.165 
-2.62808e-06 4.06158e-06 2.68273e+25 -4.45709 5.76357 272.475 
-7.1675e-07 4.06158e-06 2.68265e+25 -4.56023 3.95548 272.797 
-1.60074e-05 4.53942e-06 2.68756e+25 -0.0518469 2.34815 272.182 
-1.40961e-05 4.53942e-06 2.69073e+25 -0.862139 5.82638 271.676 
-1.21847e-05 4.53942e-06 2.69105e+25 -0.682134 6.98051 271.878 
-1.02734e-05 4.53942e-06 2.69374e+25 -1.13675 7.22795 271.369 
-8.36208e-06 4.53942e-06 2.69662e+25 -2.03012 7.01437 271.195 
-6.45075e-06 4.53942e-06 2.69175e+25 -3.19152 6.88528 271.795 
-4.53942e-06 4.53942e-06 2.68433e+25 -3.80973 6.86736 272.519 
-2.62808e-06 4.53942e-06 2.68406e+25 -3.99055 5.69603 272.477 
-7.1675e-07 4.53942e-06 2.68278e+25 -4.37127 4.24899 272.687 
-1.60074e-05 5.01725e-06 2.69033e+25 0.0237022 2.28866 271.966 
-1.40961e-05 5.01725e-06 2.69377e+25 -0.557074 5.81396 271.653 
-1.21847e-05 5.01725e-06 2.68743e+25 -0.49274 6.98718 272.101 
-1.02734e-05 5.01725e-06 2.69244e+25 -1.26343 7.26412 271.595 
-8.36208e-06 5.01725e-06 2.69301e+25 -1.56417 7.46881 271.438 
-6.45075e-06 5.01725e-06 2.68947e+25 -2.97428 7.18431 271.88 
-4.53942e-06 5.01725e-06 2.68886e+25 -3.93735 6.80407 272.271 
-2.62808e-06 5.01725e-06 2.68567e+25 -3.71648 5.67415 272.357 
-7.1675e-07 5.01725e-06 2.68169e+25 -4.32814 4.50039 272.628 
-1.60074e-05 5.49508e-06 2.69083e+25 -0.0330721 2.29856 272.038 
-1.40961e-05 5.49508e-06 2.68958e+25 -0.646949 5.79227 271.874 
-1.21847e-05 5.49508e-06 2.68942e+25 -0.409437 7.14399 271.836 
-1.02734e-05 5.49508e-06 2.69356e+25 -1.31259 7.40402 271.536 
-8.36208e-06 5.49508e-06 2.69585e+25 -1.70521 7.93396 271.367 
-6.45075e-06 5.49508e-06 2.68823e+25 -2.97018 7.57572 272.102 
-4.53942e-06 5.49508e-06 2.69006e+25 -3.46018 6.75948 272.024 
-2.62808e-06 5.49508e-06 2.68505e+25 -3.21239 5.56607 272.402 
-7.1675e-07 5.49508e-06 2.68378e+25 -3.99691 4.69007 272.277 
-1.60074e-05 5.97292e-06 2.69057e+25 -0.229123 2.29548 272.183 
-1.40961e-05 5.97292e-06 2.68736e+25 -0.597521 5.90122 272.041 
-1.21847e-05 5.97292e-06 2.6855e+25 -0.446247 7.40739 272.137 
-1.02734e-05 5.97292e-06 2.69151e+25 -1.58507 7.27753 271.76 
-8.36208e-06 5.97292e-06 2.69307e+25 -2.198 8.284 271.6 
-6.45075e-06 5.97292e-06 2.69169e+25 -2.85674 7.68239 271.643 
-4.53942e-06 5.97292e-06 2.68878e+25 -3.17406 6.64439 272.184 
-2.62808e-06 5.97292e-06 2.68633e+25 -2.95276 5.59335 272.198 
-7.1675e-07 5.97292e-06 2.68342e+25 -3.34796 4.95757 272.417 
-1.60074e-05 6.45075e-06 2.68689e+25 -0.0350002 2.3883 272.28 
-1.40961e-05 6.45075e-06 2.68841e+25 -0.373604 5.92911 271.961 
-1.21847e-05 6.45075e-06 2.68746e+25 -0.692984 7.45691 272.244 
-1.02734e-05 6.45075e-06 2.69253e+25 -1.34969 7.37747 271.579 
-8.36208e-06 6.45075e-06 2.69635e+25 -2.46612 8.25904 271.546 
-6.45075e-06 6.45075e-06 2.69084e+25 -2.79746 7.77366 271.839 
-4.53942e-06 6.45075e-06 2.6871e+25 -2.69004 6.48268 272.247 
-2.62808e-06 6.45075e-06 2.68526e+25 -2.53895 5.69441 272.295 
-7.1675e-07 6.45075e-06 2.68574e+25 -2.74656 5.10811 272.163 
-1.60074e-05 6.92858e-06 2.6825e+25 -0.0936863 2.66178 272.541 
-1.40961e-05 6.92858e-06 2.6899e+25 -0.161935 5.97024 272.014 
-1.21847e-05 6.92858e-06 2.68511e+25 -0.849278 7.52006 272.178 
-1.02734e-05 6.92858e-06 2.69168e+25 -1.28617 7.70872 271.672 
-8.36208e-06 6.92858e-06 2.69149e+25 -1.90151 8.32351 271.655 
-6.45075e-06 6.92858e-06 2.6879e+25 -2.40596 7.79083 272.013 
-4.53942e-06 6.92858e-06 2.68793e+25 -2.16295 6.4172 272.238 
-2.62808e-06 6.92858e-06 2.6853e+25 -2.27609 5.91746 272.271 
-7.1675e-07 6.92858e-06 2.6884e+25 -2.80466 5.03852 271.813 
-1.60074e-05 7.40642e-06 2.68415e+25 -0.0318384 2.71573 272.433 
-1.40961e-05 7.40642e-06 2.69024e+25 -0.219844 6.06625 271.997 
-1.21847e-05 7.40642e-06 2.68933e+25 -1.06243 7.72691 271.835 
-1.02734e-05 7.40642e-06 2.69129e+25 -1.06979 8.14739 271.825 
-8.36208e-06 7.40642e-06 2.69465e+25 -1.89111 8.39588 271.535 
-6.45075e-06 7.40642e-06 2.69044e+25 -2.20563 7.68174 271.762 
-4.53942e-06 7.40642e-06 2.687e+25 -2.16601 6.38809 272.257 
-2.62808e-06 7.40642e-06 2.68905e+25 -1.99353 6.06752 272.048 
-7.1675e-07 7.40642e-06 2.68721e+25 -2.38211 4.75776 271.806 
-1.60074e-05 7.88425e-06 2.6835e+25 -0.0234368 2.61427 272.366 
-1.40961e-05 7.88425e-06 2.69027e+25 -0.282402 6.09105 271.829 
-1.21847e-05 7.88425e-06 2.69192e+25 -1.15166 8.02297 271.705 
-1.02734e-05 7.88425e-06 2.68939e+25 -1.28704 8.50647 271.939 
-8.36208e-06 7.88425e-06 2.69319e+25 -1.73511 8.42349 271.527 
-6.45075e-06 7.88425e-06 2.69013e+25 -1.7912 7.7793 271.85 
-4.53942e-06 7.88425e-06 2.68749e+25 -1.66063 6.40585 272.064 
-2.62808e-06 7.88425e-06 2.68917e+25 -1.68651 6.09437 271.962 
-7.1675e-07 7.88425e-06 2.6836e+25 -1.6084 4.49602 272.136 
-1.60074e-05 8.36208e-06 2.68341e+25 -0.32141 2.72571 272.273 
-1.40961e-05 8.36208e-06 2.68625e+25 -0.467603 6.18685 271.906 
-1.21847e-05 8.36208e-06 2.69126e+25 -1.77586 7.91206 271.635 
-1.02734e-05 8.36208e-06 2.69014e+25 -1.59712 8.77712 271.92 
-8.36208e-06 8.36208e-06 2.68761e+25 -1.70289 8.43268 271.761 
-6.45075e-06 8.36208e-06 2.68864e+25 -1.56832 7.99483 271.887 
-4.53942e-06 8.36208e-06 2.69037e+25 -0.915737 6.37815 272.034 
-2.62808e-06 8.36208e-06 2.68673e+25 -1.27245 6.06735 271.973 
-7.1675e-07 8.36208e-06 2.68433e+25 -0.698117 4.48333 272.301 
-1.60074e-05 8.83992e-06 2.68351e+25 -0.365214 3.00212 272.447 
-1.40961e-05 8.83992e-06 2.68722e+25 -0.625348 6.41216 272.008 
-1.21847e-05 8.83992e-06 2.69126e+25 -2.0369 8.04144 271.806 
-1.02734e-05 8.83992e-06 2.68874e+25 -2.0273 8.74484 271.965 
-8.36208e-06 8.83992e-06 2.68597e+25 -1.82596 8.41387 272.148 
-6.45075e-06 8.83992e-06 2.68392e+25 -1.22363 8.07948 272.436 
-4.53942e-06 8.83992e-06 2.68403e+25 -0.49651 6.23097 272.322 
-2.62808e-06 8.83992e-06 2.68595e+25 -0.371341 5.90362 272.205 
-7.1675e-07 8.83992e-06 2.68326e+25 0.303233 4.5026 272.375 
-1.60074e-05 9.31775e-06 2.68782e+25 -0.574984 3.24513 272.264 
-1.40961e-05 9.31775e-06 2.68772e+25 -1.37892 6.83376 271.813 
-1.21847e-05 9.31775e-06 2.6905e+25 -2.13881 8.10826 271.765 
-1.02734e-05 9.31775e-06 2.68821e+25 -2.34006 8.74548 272.138 
-8.36208e-06 9.31775e-06 2.68572e+25 -1.89598 8.273 272.559 
-6.45075e-06 9.31775e-06 2.68511e+25 -1.16774 7.85216 272.356 
-4.53942e-06 9.31775e-06 2.68579e+25 -0.158983 5.99408 272.02 
-2.62808e-06 9.31775e-06 2.6866e+25 0.604312 5.73598 271.942 
-7.1675e-07 9.31775e-06 2.68362e+25 0.997088 4.50727 272.214 
-1.60074e-05 9.79558e-06 2.68705e+25 -0.384769 3.56972 272.163 
-1.40961e-05 9.79558e-06 2.68727e+25 -1.59136 7.32004 271.965 
-1.21847e-05 9.79558e-06 2.69082e+25 -2.38475 8.19052 271.862 
-1.02734e-05 9.79558e-06 2.69004e+25 -2.42168 8.49788 271.896 
-8.36208e-06 9.79558e-06 2.68301e+25 -1.75602 8.23804 272.395 
-6.45075e-06 9.79558e-06 2.68639e+25 -1.31659 7.55226 272.207 
-4.53942e-06 9.79558e-06 2.68885e+25 0.051907 5.56691 272.106 
-2.62808e-06 9.79558e-06 2.68564e+25 1.35024 5.66595 272.076 
-7.1675e-07 9.79558e-06 2.68911e+25 1.72939 4.5265 271.703 
-1.60074e-05 1.02734e-05 2.6883e+25 -0.300149 3.65558 272.072 
-1.40961e-05 1.02734e-05 2.68611e+25 -1.95516 7.71399 272.211 
-1.21847e-05 1.02734e-05 2.69095e+25 -2.66615 8.21216 271.673 
-1.02734e-05 1.02734e-05 2.68716e+25 -2.30133 7.967 272.157 
-8.36208e-06 1.02734e-05 2.68205e+25 -1.45856 8.04553 272.685 
-6.45075e-06 1.02734e-05 2.68646e+25 -0.890357 7.22071 272.062 
-4.53942e-06 1.02734e-05 2.69056e+25 0.489183 5.36469 271.721 
-2.62808e-06 1.02734e-05 2.68488e+25 1.71406 5.40628 272.101 
-7.1675e-07 1.02734e-05 2.68694e+25 2.88136 4.35775 272.076 
-1.60074e-05 1.07512e-05 2.68413e+25 -0.433116 3.89724 272.265 
-1.40961e-05 1.07512e-05 2.68999e+25 -1.75097 8.09228 271.901 
-1.21847e-05 1.07512e-05 2.6914e+25 -2.41865 8.33359 271.592 
-1.02734e-05 1.07512e-05 2.69158e+25 -1.97529 7.75849 271.643 
-8.36208e-06 1.07512e-05 2.6859e+25 -1.36949 7.94648 272.247 
-6.45075e-06 1.07512e-05 2.68868e+25 -0.204122 6.79687 272.009 
-4.53942e-06 1.07512e-05 2.68816e+25 1.14992 5.13648 271.977 
-2.62808e-06 1.07512e-05 2.68654e+25 2.65209 5.12382 272.108 
-7.1675e-07 1.07512e-05 2.68569e+25 4.13212 4.0501 272.21 
-1.60074e-05 1.12291e-05 2.68403e+25 -0.619515 4.37167 272.214 
-1.40961e-05 1.12291e-05 2.6846e+25 -2.17836 8.3054 272.028 
-1.21847e-05 1.12291e-05 2.69277e+25 -2.46476 8.34134 271.346 
-1.02734e-05 1.12291e-05 2.69424e+25 -2.0005 7.72522 271.479 
-8.36208e-06 1.12291e-05 2.68733e+25 -0.775818 7.82188 272.055 
-6.45075e-06 1.12291e-05 2.6882e+25 0.656201 6.40385 272.197 
-4.53942e-06 1.12291e-05 2.68833e+25 1.8171 4.81343 271.957 
-2.62808e-06 1.12291e-05 2.68451e+25 3.24958 4.67673 272.179 
-7.1675e-07 1.12291e-05 2.68338e+25 4.8932 3.73412 272.227 
-1.60074e-05 1.17069e-05 2.6821e+25 -0.735268 4.80525 272.453 
-1.40961e-05 1.17069e-05 2.68608e+25 -2.40006 8.40862 272.099 
-1.21847e-05 1.17069e-05 2.69205e+25 -2.58461 8.2804 271.602 
-1.02734e-05 1.17069e-05 2.69215e+25 -1.96917 7.41582 271.59 
-8.36208e-06 1.17069e-05 2.68663e+25 -0.433104 7.57182 272.046 
-6.45075e-06 1.17069e-05 2.6884e+25 1.56625 6.03597 272.223 
-4.53942e-06 1.17069e-05 2.68689e+25 2.94616 4.42836 272.002 
-2.62808e-06 1.17069e-05 2.68885e+25 4.54205 4.3732 271.787 
-7.1675e-07 1.17069e-05 2.6893e+25 5.89625 3.53697 272.043 
-1.60074e-05 1.21847e-05 2.67961e+25 -0.676688 5.20503 272.53 
-1.40961e-05 1.21847e-05 2.6877e+25 -2.48418 8.72422 272.027 
-1.21847e-05 1.21847e-05 2.69131e+25 -2.37254 8.02603 271.609 
-1.02734e-05 1.21847e-05 2.69121e+25 -1.76984 6.92637 271.869 
-8.36208e-06 1.21847e-05 2.69215e+25 -0.139581 7.01002 271.911 
-6.45075e-06 1.21847e-05 2.69028e+25 2.47982 5.58631 271.745 
-4.53942e-06 1.21847e-05 2.69044e+25 4.07851 4.04851 271.776 
-2.62808e-06 1.21847e-05 2.69056e+25 5.81323 4.0159 272.014 
-7.1675e-07 1.21847e-05 2.68597e+25 7.35125 3.11377 272.09 
-1.60074e-05 1.26626e-05 2.67895e+25 -0.907399 5.71536 272.609 
-1.40961e-05 1.26626e-05 2.68207e+25 -2.67559 8.97649 272.415 
-1.21847e-05 1.26626e-05 2.6913e+25 -2.3326 7.75308 271.674 
-1.02734e-05 1.26626e-05 2.68732e+25 -1.1154 6.3302 271.976 
-8.36208e-06 1.26626e-05 2.68636e+25 0.856617 6.48363 272.288 
-6.45075e-06 1.26626e-05 2.68828e+25 3.46889 5.0146 272.005 
-4.53942e-06 1.26626e-05 2.6866e+25 5.55965 3.78715 272.299 
-2.62808e-06 1.26626e-05 2.68957e+25 7.69022 3.41554 271.845 
-7.1675e-07 1.26626e-05 2.68322e+25 9.3746 2.62401 272.129 
-1.60074e-05 1.31404e-05 2.67974e+25 -1.1546 6.51561 272.456 
-1.40961e-05 1.31404e-05 2.68153e+25 -3.48604 9.18391 272.222 
-1.21847e-05 1.31404e-05 2.68935e+25 -2.51239 7.49043 271.695 
-1.02734e-05 1.31404e-05 2.69029e+25 -0.271258 5.86637 271.863 
-8.36208e-06 1.31404e-05 2.68412e+25 2.24176 5.66896 272.398 
-6.45075e-06 1.31404e-05 2.68568e+25 5.20124 4.3501 272.301 
-4.53942e-06 1.31404e-05 2.68398e+25 7.29135 3.36508 272.448 
-2.62808e-06 1.31404e-05 2.68962e+25 9.50905 2.72029 271.869 
-7.1675e-07 1.31404e-05 2.68458e+25 11.3059 2.21658 272.267 
-1.60074e-05 1.36182e-05 2.67866e+25 -1.82955 7.37234 272.495 
-1.40961e-05 1.36182e-05 2.68613e+25 -3.35332 9.17609 271.997 
-1.21847e-05 1.36182e-05 2.68687e+25 -1.92736 7.10339 272.076 
-1.02734e-05 1.36182e-05 2.68893e+25 0.9015 5.26125 271.932 
-8.36208e-06 1.36182e-05 2.68865e+25 4.11745 4.73161 272.153 
-6.45075e-06 1.36182e-05 2.68511e+25 6.91974 3.56826 272.373 
-4.53942e-06 1.36182e-05 2.68417e+25 9.43881 2.96471 272.506 
-2.62808e-06 1.36182e-05 2.68647e+25 11.4779 2.49391 272.056 
-7.1675e-07 1.36182e-05 2.68309e+25 13.3706 1.92304 272.333 
-1.60074e-05 1.40961e-05 2.68052e+25 -1.84732 8.33883 272.003 
-1.40961e-05 1.40961e-05 2.6849e+25 -3.19953 8.74053 272.043 
-1.21847e-05 1.40961e-05 2.68614e+25 -0.810819 6.54073 271.913 
-1.02734e-05 1.40961e-05 2.68775e+25 2.68001 4.61597 272.226 
-8.36208e-06 1.40961e-05 2.69427e+25 5.95841 3.67693 271.775 
-6.45075e-06 1.40961e-05 2.68883e+25 9.0738 2.90495 272.277 
-4.53942e-06 1.40961e-05 2.68466e+25 11.8513 2.2425 272.393 
-2.62808e-06 1.40961e-05 2.68753e+25 13.7648 1.93287 272.158 
-7.1675e-07 1.40961e-05 2.68574e+25 15.2284 1.43086 272.366 
-1.60074e-05 1.45739e-05 2.67573e+25 -2.364 9.23335 272.037 
-1.40961e-05 1.45739e-05 2.68193e+25 -2.49893 8.12711 272.162 
-1.21847e-05 1.45739e-05 2.68603e+25 1.18387 5.86869 271.965 
-1.02734e-05 1.45739e-05 2.68835e+25 4.99389 3.79098 272.044 
-8.36208e-06 1.45739e-05 2.69313e+25 8.63998 2.58408 271.747 
-6.45075e-06 1.45739e-05 2.68894e+25 11.716 2.35167 272.067 
-4.53942e-06 1.45739e-05 2.68299e+25 14.3951 1.54101 272.569 
-2.62808e-06 1.45739e-05 2.68614e+25 16.0111 1.51543 272.246 
-7.1675e-07 1.45739e-05 2.68651e+25 17.3357 1.12041 272.264 
-1.60074e-05 1.50518e-05 2.67178e+25 -3.03138 10.1311 272.286 
-1.40961e-05 1.50518e-05 2.67848e+25 -1.24199 7.15905 272.374 
-1.21847e-05 1.50518e-05 2.68269e+25 4.20395 4.72161 272.375 
-1.02734e-05 1.50518e-05 2.68787e+25 8.37793 2.91182 272.161 
-8.36208e-06 1.50518e-05 2.68964e+25 12.241 1.76345 271.889 
-6.45075e-06 1.50518e-05 2.68665e+25 14.6643 1.78784 272.238 
-4.53942e-06 1.50518e-05 2.68108e+25 17.1171 0.894138 272.682 
-2.62808e-06 1.50518e-05 2.68538e+25 18.7706 1.11341 272.387 
-7.1675e-07 1.50518e-05 2.6842e+25 20.0404 0.780474 272.416 
-1.60074e-05 1.55296e-05 2.67112e+25 -3.05562 10.6404 272.401 
-1.40961e-05 1.55296e-05 2.68096e+25 1.95998 5.77702 272.299 
-1.21847e-05 1.55296e-05 2.67811e+25 8.5451 3.21064 272.832 
-1.02734e-05 1.55296e-05 2.68507e+25 12.945 2.21162 272.38 
-8.36208e-06 1.55296e-05 2.6889e+25 16.4005 1.05731 272.173 
-6.45075e-06 1.55296e-05 2.68271e+25 18.8474 1.10149 272.685 
-4.53942e-06 1.55296e-05 2.68274e+25 20.391 0.56884 272.452 
-2.62808e-06 1.55296e-05 2.68209e+25 22.2366 0.69343 272.595 
-7.1675e-07 1.55296e-05 2.6826e+25 23.1869 0.403235 272.662 
-1.60074e-05 1.60074e-05 2.66284e+25 -0.922484 9.9768 272.885 
-1.40961e-05 1.60074e-05 2.67798e+25 8.24821 3.93279 272.423 
-1.21847e-05 1.60074e-05 2.67984e+25 14.4122 1.89307 272.865 
-1.02734e-05 1.60074e-05 2.67976e+25 18.4913 1.42229 272.882 
-8.36208e-06 1.60074e-05 2.68444e+25 20.8762 0.438689 272.531 
-6.45075e-06 1.60074e-05 2.67865e+25 23.2293 0.555765 273.066 
-4.53942e-06 1.60074e-05 2.68213e+25 24.3862 0.320533 272.715 
-2.62808e-06 1.60074e-05 2.68133e+25 25.7788 0.441604 272.51 
-7.1675e-07 1.60074e-05 2.68467e+25 26.5654 0.330991 272.605 
-1.60074e-05 1.64852e-05 2.65403e+25 4.78701 7.11474 273.436 
-1.40961e-05 1.64852e-05 2.67867e+25 16.9495 1.93236 272.416 
-1.21847e-05 1.64852e-05 2.68157e+25 22.0215 0.882628 273.053 
-1.02734e-05 1.64852e-05 2.67824e+25 24.642 0.662345 273.132 
-8.36208e-06 1.64852e-05 2.68512e+25 26.2838 0.197098 272.571 
-6.45075e-06 1.64852e-05 2.68119e+25 27.9322 0.149143 273.106 
-4.53942e-06 1.64852e-05 2.68578e+25 28.5223 0.187772 272.53 
-2.62808e-06 1.64852e-05 2.68417e+25 29.0429 0.0438748 272.526 
-7.1675e-07 1.64852e-05 2.68499e+25 30.0296 0.107942 272.416 
-1.60074e-05 1.69631e-05 2.64937e+25 18.393 2.13715 273.494 
-1.40961e-05 1.69631e-05 2.67542e+25 27.3883 0.452185 272.996 
-1.21847e-05 1.69631e-05 2.68026e+25 29.6607 0.224582 272.93 
-1.02734e-05 1.69631e-05 2.67879e+25 31.0539 0.13544 273.096 
-8.36208e-06 1.69631e-05 2.68131e+25 31.5701 0.0696961 272.917 
-6.45075e-06 1.69631e-05 2.68424e+25 31.9754 0.0130078 273.036 
-4.53942e-06 1.69631e-05 2.68283e+25 32.3171 0.175519 272.797 
-2.62808e-06 1.69631e-05 2.68109e+25 32.5094 -0.060688 272.634 
-7.1675e-07 1.69631e-05 2.68206e+25 32.9601 0.00759938 272.714 
-1.55296e-05 2.38917e-07 2.68786e+25 0.000374793 2.88035 272.045 
-1.36182e-05 2.38917e-07 2.68842e+25 -0.393618 4.20817 271.896 
-1.17069e-05 2.38917e-07 2.69133e+25 -1.57719 5.47711 271.534 
-9.79558e-06 2.38917e-07 2.68918e+25 -2.57434 5.77407 271.97 
-7.88425e-06 2.38917e-07 2.69868e+25 -3.63171 5.57657 271.32 
-5.97292e-06 2.38917e-07 2.69285e+25 -3.97181 5.48027 271.459 
-4.06158e-06 2.38917e-07 2.69186e+25 -5.22811 4.2833 271.549 
-2.15025e-06 2.38917e-07 2.68782e+25 -6.75683 3.19329 272.122 
-2.38917e-07 2.38917e-07 2.68572e+25 -7.61239 2.04886 272.073 
-1.55296e-05 7.1675e-07 2.69214e+25 -0.272065 2.90258 271.995 
-1.36182e-05 7.1675e-07 2.68914e+25 -0.439884 4.23355 271.925 
-1.17069e-05 7.1675e-07 2.69375e+25 -1.65195 5.83996 271.596 
-9.79558e-06 7.1675e-07 2.6901e+25 -2.81665 5.93928 271.892 
-7.88425e-06 7.1675e-07 2.69461e+25 -3.34935 5.55748 271.552 
-5.97292e-06 7.1675e-07 2.69678e+25 -3.90484 5.46 271.489 
-4.06158e-06 7.1675e-07 2.68989e+25 -4.91781 4.52172 271.713 
-2.15025e-06 7.1675e-07 2.6889e+25 -6.74245 3.50451 271.939 
-2.38917e-07 7.1675e-07 2.68409e+25 -7.35192 2.24757 272.105 
-1.55296e-05 1.19458e-06 2.69171e+25 -0.220194 2.84946 271.884 
-1.36182e-05 1.19458e-06 2.69339e+25 -0.788923 4.46089 271.769 
-1.17069e-05 1.19458e-06 2.69302e+25 -1.66606 5.95645 271.583 
-9.79558e-06 1.19458e-06 2.69295e+25 -2.67813 5.95601 271.697 
-7.88425e-06 1.19458e-06 2.69663e+25 -2.47953 5.71043 271.525 
-5.97292e-06 1.19458e-06 2.69612e+25 -3.49929 5.65574 271.402 
-4.06158e-06 1.19458e-06 2.69099e+25 -4.6482 4.96854 271.907 
-2.15025e-06 1.19458e-06 2.68851e+25 -6.41401 3.92211 272.097 
-2.38917e-07 1.19458e-06 2.68615e+25 -7.2073 2.35761 272.191 
-1.55296e-05 1.67242e-06 2.68994e+25 0.0233336 2.92845 272.005 
-1.36182e-05 1.67242e-06 2.6936e+25 -0.583678 4.84186 271.756 
-1.17069e-05 1.67242e-06 2.6913e+25 -1.64708 6.05471 271.741 
-9.79558e-06 1.67242e-06 2.6933e+25 -2.48718 6.06942 271.643 
-7.88425e-06 1.67242e-06 2.69833e+25 -2.61842 5.84273 271.266 
-5.97292e-06 1.67242e-06 2.69408e+25 -3.45732 5.69993 271.38 
-4.06158e-06 1.67242e-06 2.6897e+25 -4.23202 5.51423 271.905 
-2.15025e-06 1.67242e-06 2.68644e+25 -5.84763 4.24178 272.221 
-2.38917e-07 1.67242e-06 2.68534e+25 -6.76596 2.4439 272.115 
-1.55296e-05 2.15025e-06 2.68547e+25 -0.162701 3.13171 272.308 
-1.36182e-05 2.15025e-06 2.69113e+25 -0.856737 5.04784 271.74 
-1.17069e-05 2.15025e-06 2.6938e+25 -1.70935 6.38719 271.364 
-9.79558e-06 2.15025e-06 2.6925e+25 -2.70932 6.21528 271.707 
-7.88425e-06 2.15025e-06 2.69806e+25 -2.89171 6.09203 271.288 
-5.97292e-06 2.15025e-06 2.69358e+25 -3.61449 5.79125 271.632 
-4.06158e-06 2.15025e-06 2.69235e+25 -4.13266 5.75191 271.781 
-2.15025e-06 2.15025e-06 2.68596e+25 -5.42764 4.52765 272.24 
-2.38917e-07 2.15025e-06 2.68511e+25 -6.5689 2.61951 272.234 
-1.55296e-05 2.62808e-06 2.68803e+25 -0.277985 3.39549 272.135 
-1.36182e-05 2.62808e-06 2.69534e+25 -0.788463 5.30751 271.604 
-1.17069e-05 2.62808e-06 2.69557e+25 -1.69837 6.84319 271.35 
-9.79558e-06 2.62808e-06 2.69579e+25 -2.5485 6.47165 271.642 
-7.88425e-06 2.62808e-06 2.69784e+25 -2.90445 6.27236 271.174 
-5.97292e-06 2.62808e-06 2.6915e+25 -3.42232 5.95559 271.798 
-4.06158e-06 2.62808e-06 2.69166e+25 -4.33265 6.08248 271.936 
-2.15025e-06 2.62808e-06 2.68693e+25 -5.0787 4.72946 272.389 
-2.38917e-07 2.62808e-06 2.67993e+25 -6.36808 2.92897 272.585 
-1.55296e-05 3.10592e-06 2.69243e+25 0.041576 3.41135 271.737 
-1.36182e-05 3.10592e-06 2.696e+25 -0.686782 5.34058 271.588 
-1.17069e-05 3.10592e-06 2.69376e+25 -1.70044 7.05576 271.582 
-9.79558e-06 3.10592e-06 2.6941e+25 -2.18411 6.89926 271.633 
-7.88425e-06 3.10592e-06 2.69691e+25 -2.86528 6.24422 271.354 
-5.97292e-06 3.10592e-06 2.69549e+25 -3.60253 6.30504 271.483 
-4.06158e-06 3.10592e-06 2.69516e+25 -4.62859 6.37038 271.542 
-2.15025e-06 3.10592e-06 2.68671e+25 -5.02794 5.06031 272.437 
-2.38917e-07 3.10592e-06 2.67598e+25 -5.8082 3.08955 272.76 
-1.55296e-05 3.58375e-06 2.69191e+25 0.0885341 3.19865 271.963 
-1.36182e-05 3.58375e-06 2.69547e+25 -0.506512 5.74388 271.448 
-1.17069e-05 3.58375e-06 2.69381e+25 -1.26209 7.00926 271.582 
-9.79558e-06 3.58375e-06 2.69697e+25 -1.57035 7.07509 271.354 
-7.88425e-06 3.58375e-06 2.69507e+25 -2.82438 6.42993 271.547 
-5.97292e-06 3.58375e-06 2.69168e+25 -3.29247 6.52298 271.616 
-4.06158e-06 3.58375e-06 2.68858e+25 -4.28684 6.52888 271.898 
-2.15025e-06 3.58375e-06 2.68434e+25 -5.04148 5.26169 272.539 
-2.38917e-07 3.58375e-06 2.67756e+25 -5.09191 3.43573 272.751 
-1.55296e-05 4.06158e-06 2.69092e+25 0.170849 3.04251 271.773 
-1.36182e-05 4.06158e-06 2.6945e+25 -0.615369 6.12612 271.605 
-1.17069e-05 4.06158e-06 2.69207e+25 -1.1304 6.82981 271.781 
-9.79558e-06 4.06158e-06 2.698e+25 -1.10831 7.24485 271.325 
-7.88425e-06 4.06158e-06 2.69532e+25 -2.70118 6.7584 271.466 
-5.97292e-06 4.06158e-06 2.69221e+25 -3.4068 6.52077 271.929 
-4.06158e-06 4.06158e-06 2.68985e+25 -3.97808 6.67462 271.991 
-2.15025e-06 4.06158e-06 2.68439e+25 -4.49334 5.20248 272.374 
-2.38917e-07 4.06158e-06 2.67919e+25 -4.83205 3.84764 272.589 
-1.55296e-05 4.53942e-06 2.68635e+25 -0.00184089 3.10784 272.048 
-1.36182e-05 4.53942e-06 2.69229e+25 -0.924017 6.14441 271.677 
-1.17069e-05 4.53942e-06 2.69136e+25 -0.795513 6.89669 271.859 
-9.79558e-06 4.53942e-06 2.69444e+25 -1.02944 7.35546 271.522 
-7.88425e-06 4.53942e-06 2.69141e+25 -2.39637 7.24009 271.711 
-5.97292e-06 4.53942e-06 2.6911e+25 -3.40882 6.7054 271.825 
-4.06158e-06 4.53942e-06 2.68282e+25 -3.99179 6.88999 272.21 
-2.15025e-06 4.53942e-06 2.68025e+25 -3.94953 5.16844 272.497 
-2.38917e-07 4.53942e-06 2.68257e+25 -4.64824 4.1671 272.479 
-1.55296e-05 5.01725e-06 2.69011e+25 -0.230663 3.35543 272.067 
-1.36182e-05 5.01725e-06 2.6913e+25 -0.587033 6.16518 271.788 
-1.17069e-05 5.01725e-06 2.69136e+25 -0.699895 7.24278 271.926 
-9.79558e-06 5.01725e-06 2.6925e+25 -1.27633 7.24589 271.67 
-7.88425e-06 5.01725e-06 2.6905e+25 -2.03037 7.6533 271.753 
-5.97292e-06 5.01725e-06 2.68771e+25 -3.45928 7.12175 271.973 
-4.06158e-06 5.01725e-06 2.68541e+25 -3.7906 6.83375 272.456 
-2.15025e-06 5.01725e-06 2.68375e+25 -3.61017 5.16941 272.455 
-2.38917e-07 5.01725e-06 2.6858e+25 -4.44558 4.30444 272.311 
-1.55296e-05 5.49508e-06 2.69032e+25 -0.277715 3.7488 272.022 
-1.36182e-05 5.49508e-06 2.69369e+25 -0.649785 6.1732 271.548 
-1.17069e-05 5.49508e-06 2.69053e+25 -0.659378 7.48552 271.714 
-9.79558e-06 5.49508e-06 2.69459e+25 -1.27913 7.20329 271.458 
-7.88425e-06 5.49508e-06 2.69399e+25 -2.10535 8.04548 271.556 
-5.97292e-06 5.49508e-06 2.68743e+25 -3.21117 7.44074 272.114 
-4.06158e-06 5.49508e-06 2.68898e+25 -3.26135 6.61856 272.172 
-2.15025e-06 5.49508e-06 2.68301e+25 -3.23931 5.11023 272.456 
-2.38917e-07 5.49508e-06 2.68437e+25 -4.1167 4.49905 272.222 
-1.55296e-05 5.97292e-06 2.68761e+25 -0.21108 4.03025 272.113 
-1.36182e-05 5.97292e-06 2.69339e+25 -0.563613 6.07372 271.72 
-1.17069e-05 5.97292e-06 2.6913e+25 -0.753408 7.82785 272.03 
-9.79558e-06 5.97292e-06 2.6928e+25 -1.53179 7.22974 271.506 
-7.88425e-06 5.97292e-06 2.69327e+25 -2.34256 8.27513 271.517 
-5.97292e-06 5.97292e-06 2.68627e+25 -2.89548 7.5711 272.088 
-4.06158e-06 5.97292e-06 2.6885e+25 -2.88072 6.40026 272.145 
-2.15025e-06 5.97292e-06 2.68511e+25 -2.97648 5.18981 272.286 
-2.38917e-07 5.97292e-06 2.68189e+25 -3.53518 4.50062 272.176 
-1.55296e-05 6.45075e-06 2.68224e+25 -0.0996163 3.93385 272.314 
-1.36182e-05 6.45075e-06 2.68819e+25 -0.358636 6.03498 272.121 
-1.17069e-05 6.45075e-06 2.68853e+25 -0.720324 8.04711 272.027 
-9.79558e-06 6.45075e-06 2.69204e+25 -1.59486 7.4742 271.747 
-7.88425e-06 6.45075e-06 2.69537e+25 -2.51867 8.44108 271.548 
-5.97292e-06 6.45075e-06 2.68665e+25 -2.90953 7.60325 272.178 
-4.06158e-06 6.45075e-06 2.68495e+25 -2.57887 6.15432 272.249 
-2.15025e-06 6.45075e-06 2.68855e+25 -2.64236 5.2278 272.02 
-2.38917e-07 6.45075e-06 2.68685e+25 -2.87606 4.74841 271.822 
-1.55296e-05 6.92858e-06 2.68508e+25 -0.146499 3.87506 272.428 
-1.36182e-05 6.92858e-06 2.68869e+25 -0.382034 6.2162 272.247 
-1.17069e-05 6.92858e-06 2.68971e+25 -0.892251 8.095 271.777 
-9.79558e-06 6.92858e-06 2.69493e+25 -1.75262 7.86898 271.501 
-7.88425e-06 6.92858e-06 2.6938e+25 -2.06781 8.61293 271.314 
-5.97292e-06 6.92858e-06 2.68543e+25 -2.25973 7.61618 272.227 
-4.06158e-06 6.92858e-06 2.68781e+25 -2.16448 6.03977 271.887 
-2.15025e-06 6.92858e-06 2.68701e+25 -2.61686 5.42031 272.132 
-2.38917e-07 6.92858e-06 2.6864e+25 -2.61725 4.82087 271.703 
-1.55296e-05 7.40642e-06 2.68695e+25 -0.0419913 3.87765 272.393 
-1.36182e-05 7.40642e-06 2.68557e+25 -0.32586 6.33643 272.078 
-1.17069e-05 7.40642e-06 2.69363e+25 -1.33841 8.16081 271.612 
-9.79558e-06 7.40642e-06 2.69105e+25 -1.49507 8.20998 271.757 
-7.88425e-06 7.40642e-06 2.69452e+25 -1.81198 8.62729 271.291 
-5.97292e-06 7.40642e-06 2.69067e+25 -2.20748 7.50618 271.78 
-4.06158e-06 7.40642e-06 2.68754e+25 -2.15869 6.01521 272.168 
-2.15025e-06 7.40642e-06 2.68963e+25 -2.13307 5.7314 271.828 
-2.38917e-07 7.40642e-06 2.68649e+25 -2.04098 4.53735 271.654 
-1.55296e-05 7.88425e-06 2.68501e+25 0.0134118 4.03006 272.421 
-1.36182e-05 7.88425e-06 2.68937e+25 -0.39666 6.50673 271.901 
-1.17069e-05 7.88425e-06 2.69335e+25 -1.20768 8.20845 271.587 
-9.79558e-06 7.88425e-06 2.6876e+25 -1.58131 8.5375 272.099 
-7.88425e-06 7.88425e-06 2.69438e+25 -1.75219 8.57377 271.457 
-5.97292e-06 7.88425e-06 2.68838e+25 -1.98781 7.58162 271.987 
-4.06158e-06 7.88425e-06 2.68551e+25 -1.64089 6.0849 272.035 
-2.15025e-06 7.88425e-06 2.68972e+25 -1.671 5.88606 271.643 
-2.38917e-07 7.88425e-06 2.68338e+25 -1.45965 4.33199 272.022 
-1.55296e-05 8.36208e-06 2.68433e+25 -0.498024 4.08812 272.369 
-1.36182e-05 8.36208e-06 2.68779e+25 -0.683289 6.80003 272.178 
-1.17069e-05 8.36208e-06 2.68756e+25 -1.51025 8.03454 271.864 
-9.79558e-06 8.36208e-06 2.6877e+25 -1.74045 8.60644 272.046 
-7.88425e-06 8.36208e-06 2.69067e+25 -1.63567 8.47371 271.847 
-5.97292e-06 8.36208e-06 2.68958e+25 -1.56095 7.62383 272.015 
-4.06158e-06 8.36208e-06 2.68684e+25 -0.950601 6.19539 272.051 
-2.15025e-06 8.36208e-06 2.68609e+25 -1.078 5.74876 272.012 
-2.38917e-07 8.36208e-06 2.68473e+25 -0.553917 4.18613 272.032 
-1.55296e-05 8.83992e-06 2.67977e+25 -0.538664 4.23106 272.528 
-1.36182e-05 8.83992e-06 2.68955e+25 -1.19984 7.28332 272.022 
-1.17069e-05 8.83992e-06 2.69261e+25 -1.97012 7.78385 271.769 
-9.79558e-06 8.83992e-06 2.69247e+25 -1.98432 8.71568 271.843 
-7.88425e-06 8.83992e-06 2.68655e+25 -1.64146 8.30067 272.192 
-5.97292e-06 8.83992e-06 2.68254e+25 -1.16576 7.42518 272.48 
-4.06158e-06 8.83992e-06 2.68897e+25 -0.425036 6.41277 271.836 
-2.15025e-06 8.83992e-06 2.68786e+25 -0.182276 5.54972 272.086 
-2.38917e-07 8.83992e-06 2.68345e+25 0.427795 3.9629 272.227 
-1.55296e-05 9.31775e-06 2.68536e+25 -0.820116 4.35032 272.276 
-1.36182e-05 9.31775e-06 2.68908e+25 -1.67141 7.73226 271.934 
-1.17069e-05 9.31775e-06 2.68829e+25 -2.18906 7.72163 271.852 
-9.79558e-06 9.31775e-06 2.69407e+25 -2.0876 8.53888 271.541 
-7.88425e-06 9.31775e-06 2.68484e+25 -1.82055 8.10837 272.407 
-5.97292e-06 9.31775e-06 2.68414e+25 -0.903482 7.32624 272.534 
-4.06158e-06 9.31775e-06 2.68851e+25 -0.0342485 6.32982 271.883 
-2.15025e-06 9.31775e-06 2.68662e+25 0.669055 5.40672 272.045 
-2.38917e-07 9.31775e-06 2.68316e+25 0.999121 3.90753 272.014 
-1.55296e-05 9.79558e-06 2.68714e+25 -0.549092 4.5298 271.934 
-1.36182e-05 9.79558e-06 2.68924e+25 -2.01514 7.99076 271.77 
-1.17069e-05 9.79558e-06 2.68997e+25 -2.56655 7.91696 271.927 
-9.79558e-06 9.79558e-06 2.69099e+25 -2.14286 8.30497 271.741 
-7.88425e-06 9.79558e-06 2.68477e+25 -1.54886 7.83811 272.667 
-5.97292e-06 9.79558e-06 2.68664e+25 -0.964744 7.00401 272.172 
-4.06158e-06 9.79558e-06 2.68994e+25 0.414072 6.14865 271.812 
-2.15025e-06 9.79558e-06 2.68756e+25 1.46497 5.37934 271.965 
-2.38917e-07 9.79558e-06 2.68405e+25 1.76452 3.77188 271.717 
-1.55296e-05 1.02734e-05 2.68916e+25 -0.556963 4.80846 272.08 
-1.36182e-05 1.02734e-05 2.68676e+25 -2.24032 8.29215 271.986 
-1.17069e-05 1.02734e-05 2.6911e+25 -2.64181 8.01161 271.601 
-9.79558e-06 1.02734e-05 2.68905e+25 -1.89393 8.12205 272.06 
-7.88425e-06 1.02734e-05 2.68259e+25 -1.43396 7.82624 272.653 
-5.97292e-06 1.02734e-05 2.68618e+25 -0.604017 6.63749 272.374 
-4.06158e-06 1.02734e-05 2.69143e+25 0.907588 5.69606 271.663 
-2.15025e-06 1.02734e-05 2.68676e+25 1.98004 5.19197 272 
-2.38917e-07 1.02734e-05 2.68796e+25 2.92038 3.85554 271.776 
-1.55296e-05 1.07512e-05 2.68771e+25 -0.805134 5.07101 271.998 
-1.36182e-05 1.07512e-05 2.68819e+25 -2.06635 8.4295 272.12 
-1.17069e-05 1.07512e-05 2.69058e+25 -2.53015 8.02559 271.602 
-9.79558e-06 1.07512e-05 2.69191e+25 -1.88464 7.76237 271.658 
-7.88425e-06 1.07512e-05 2.68176e+25 -1.35182 7.96499 272.488 
-5.97292e-06 1.07512e-05 2.6889e+25 0.1845 6.41937 272.081 
-4.06158e-06 1.07512e-05 2.6882e+25 1.41409 5.25412 271.776 
-2.15025e-06 1.07512e-05 2.68498e+25 2.99848 4.84343 272.125 
-2.38917e-07 1.07512e-05 2.68425e+25 4.49186 3.70194 271.989 
-1.55296e-05 1.12291e-05 2.68935e+25 -1.17385 5.4549 271.966 
-1.36182e-05 1.12291e-05 2.6883e+25 -2.18307 8.61457 272.26 
-1.17069e-05 1.12291e-05 2.69367e+25 -2.47331 8.02876 271.589 
-9.79558e-06 1.12291e-05 2.69178e+25 -1.87456 7.59341 271.409 
-7.88425e-06 1.12291e-05 2.68573e+25 -0.56868 7.83119 272.274 
-5.97292e-06 1.12291e-05 2.68899e+25 1.02175 6.0733 272.138 
-4.06158e-06 1.12291e-05 2.68919e+25 2.14795 4.83823 271.833 
-2.15025e-06 1.12291e-05 2.68791e+25 3.7401 4.38433 271.947 
-2.38917e-07 1.12291e-05 2.68912e+25 5.12497 3.56641 271.866 
-1.55296e-05 1.17069e-05 2.68517e+25 -1.10006 5.87348 272.213 
-1.36182e-05 1.17069e-05 2.68575e+25 -2.59142 8.75643 272.185 
-1.17069e-05 1.17069e-05 2.69518e+25 -2.39956 7.89919 271.563 
-9.79558e-06 1.17069e-05 2.69597e+25 -1.55975 7.32019 271.434 
-7.88425e-06 1.17069e-05 2.68688e+25 0.0073182 7.34004 272.17 
-5.97292e-06 1.17069e-05 2.68389e+25 1.8882 5.76789 272.313 
-4.06158e-06 1.17069e-05 2.68911e+25 3.28379 4.61337 271.993 
-2.15025e-06 1.17069e-05 2.6914e+25 4.87881 3.9088 271.674 
-2.38917e-07 1.17069e-05 2.68401e+25 6.33041 3.13416 272.283 
-1.55296e-05 1.21847e-05 2.68421e+25 -1.22505 6.35683 272.249 
-1.36182e-05 1.21847e-05 2.68671e+25 -2.76066 8.9806 272.16 
-1.17069e-05 1.21847e-05 2.69256e+25 -2.21049 7.94318 271.534 
-9.79558e-06 1.21847e-05 2.68797e+25 -1.29268 6.868 271.863 
-7.88425e-06 1.21847e-05 2.68914e+25 0.529412 6.75143 271.963 
-5.97292e-06 1.21847e-05 2.68939e+25 3.07708 5.25454 271.965 
-4.06158e-06 1.21847e-05 2.68965e+25 4.54165 4.22272 271.921 
-2.15025e-06 1.21847e-05 2.69134e+25 6.28769 3.43004 271.914 
-2.38917e-07 1.21847e-05 2.68118e+25 7.80946 2.8353 272.311 
-1.55296e-05 1.26626e-05 2.68273e+25 -1.58808 7.04081 272.391 
-1.36182e-05 1.26626e-05 2.68434e+25 -2.78804 9.09294 272.312 
-1.17069e-05 1.26626e-05 2.69138e+25 -2.13246 7.9343 271.705 
-9.79558e-06 1.26626e-05 2.68958e+25 -0.709075 6.56006 271.945 
-7.88425e-06 1.26626e-05 2.68828e+25 1.55598 5.99275 272.166 
-5.97292e-06 1.26626e-05 2.68687e+25 4.19977 4.46676 272.151 
-4.06158e-06 1.26626e-05 2.68777e+25 5.89675 3.67822 272.076 
-2.15025e-06 1.26626e-05 2.69128e+25 8.2885 2.95655 271.934 
-2.38917e-07 1.26626e-05 2.67736e+25 9.70506 2.52176 272.575 
-1.55296e-05 1.31404e-05 2.68111e+25 -1.91442 7.73904 272.273 
-1.36182e-05 1.31404e-05 2.68484e+25 -3.39309 8.94962 272.025 
-1.17069e-05 1.31404e-05 2.68584e+25 -2.1017 7.49553 272.027 
-9.79558e-06 1.31404e-05 2.69224e+25 0.292705 6.06044 271.65 
-7.88425e-06 1.31404e-05 2.68868e+25 3.12659 5.25824 272.132 
-5.97292e-06 1.31404e-05 2.68581e+25 5.80449 3.98299 272.322 
-4.06158e-06 1.31404e-05 2.68614e+25 7.88745 3.18978 272.121 
-2.15025e-06 1.31404e-05 2.68763e+25 9.993 2.51097 271.991 
-2.38917e-07 1.31404e-05 2.68322e+25 11.7525 2.1842 272.166 
-1.55296e-05 1.36182e-05 2.68278e+25 -2.78744 8.55386 272.185 
-1.36182e-05 1.36182e-05 2.68629e+25 -3.14522 8.68975 271.936 
-1.17069e-05 1.36182e-05 2.68567e+25 -1.21257 6.79533 272.175 
-9.79558e-06 1.36182e-05 2.69162e+25 1.58862 5.35885 271.605 
-7.88425e-06 1.36182e-05 2.68948e+25 4.94038 4.35458 272.108 
-5.97292e-06 1.36182e-05 2.68835e+25 7.65428 3.31798 272.338 
-4.06158e-06 1.36182e-05 2.68577e+25 10.0291 2.49711 272.291 
-2.15025e-06 1.36182e-05 2.68503e+25 11.8054 1.93583 272.179 
-2.38917e-07 1.36182e-05 2.68038e+25 13.6848 1.78005 272.33 
-1.55296e-05 1.40961e-05 2.68008e+25 -2.73982 9.42584 272.418 
-1.36182e-05 1.40961e-05 2.68519e+25 -2.54152 8.2809 271.884 
-1.17069e-05 1.40961e-05 2.68561e+25 -0.135749 6.00349 272.251 
-9.79558e-06 1.40961e-05 2.69009e+25 3.42129 4.56405 271.797 
-7.88425e-06 1.40961e-05 2.68889e+25 7.10104 3.6908 272.065 
-5.97292e-06 1.40961e-05 2.68549e+25 9.80847 2.54267 272.491 
-4.06158e-06 1.40961e-05 2.68712e+25 12.428 2.03404 272.319 
-2.15025e-06 1.40961e-05 2.68647e+25 14.134 1.68888 272.382 
-2.38917e-07 1.40961e-05 2.68324e+25 15.7437 1.48132 272.229 
-1.55296e-05 1.45739e-05 2.6805e+25 -3.04191 10.1117 272.041 
-1.36182e-05 1.45739e-05 2.68399e+25 -1.60903 7.53097 272.06 
-1.17069e-05 1.45739e-05 2.68507e+25 1.99905 5.19569 272.374 
-9.79558e-06 1.45739e-05 2.6894e+25 5.84578 3.79415 271.965 
-7.88425e-06 1.45739e-05 2.69143e+25 9.60798 2.6581 271.966 
-5.97292e-06 1.45739e-05 2.68688e+25 12.1969 1.9377 272.313 
-4.06158e-06 1.45739e-05 2.68393e+25 14.9628 1.62097 272.496 
-2.15025e-06 1.45739e-05 2.68843e+25 16.394 1.48186 272.192 
-2.38917e-07 1.45739e-05 2.68427e+25 17.6007 1.0572 272.124 
-1.55296e-05 1.50518e-05 2.67652e+25 -3.29541 10.2594 272.362 
-1.36182e-05 1.50518e-05 2.68342e+25 -0.0187037 6.33131 272.207 
-1.17069e-05 1.50518e-05 2.68319e+25 5.61056 4.20227 272.597 
-9.79558e-06 1.50518e-05 2.68724e+25 9.27153 2.88108 272.213 
-7.88425e-06 1.50518e-05 2.69168e+25 12.9252 1.74012 271.93 
-5.97292e-06 1.50518e-05 2.68569e+25 15.3953 1.25618 272.41 
-4.06158e-06 1.50518e-05 2.68539e+25 17.5575 1.09563 272.362 
-2.15025e-06 1.50518e-05 2.68453e+25 19.2232 1.07325 272.447 
-2.38917e-07 1.50518e-05 2.68589e+25 20.5588 0.69249 272.206 
-1.55296e-05 1.55296e-05 2.67219e+25 -2.51992 9.62494 272.682 
-1.36182e-05 1.55296e-05 2.68191e+25 3.61076 4.9506 272.353 
-1.17069e-05 1.55296e-05 2.67903e+25 9.95574 2.81111 273.067 
-9.79558e-06 1.55296e-05 2.684e+25 13.6816 1.94666 272.459 
-7.88425e-06 1.55296e-05 2.68741e+25 16.9669 1.30796 272.225 
-5.97292e-06 1.55296e-05 2.68225e+25 19.3419 0.741979 272.87 
-4.06158e-06 1.55296e-05 2.68238e+25 20.6127 0.723939 272.459 
-2.15025e-06 1.55296e-05 2.68391e+25 22.3734 0.753022 272.772 
-2.38917e-07 1.55296e-05 2.67806e+25 23.3627 0.430585 272.656 
-1.55296e-05 1.60074e-05 2.66779e+25 1.14202 8.01041 272.694 
-1.36182e-05 1.60074e-05 2.68118e+25 10.1359 3.07074 272.422 
-1.17069e-05 1.60074e-05 2.68037e+25 15.5785 1.51909 273.077 
-9.79558e-06 1.60074e-05 2.68101e+25 19.3256 1.07735 272.844 
-7.88425e-06 1.60074e-05 2.68391e+25 21.3793 0.689801 272.449 
-5.97292e-06 1.60074e-05 2.68457e+25 23.5541 0.313648 272.723 
-4.06158e-06 1.60074e-05 2.68621e+25 24.7375 0.269505 272.439 
-2.15025e-06 1.60074e-05 2.68067e+25 26.0944 0.5028 272.706 
-2.38917e-07 1.60074e-05 2.68185e+25 26.8377 0.16052 272.5 
-1.55296e-05 1.64852e-05 2.6636e+25 8.68802 4.89442 273.077 
-1.36182e-05 1.64852e-05 2.67822e+25 18.635 1.34523 272.827 
-1.17069e-05 1.64852e-05 2.67861e+25 22.7398 0.664606 273.062 
-9.79558e-06 1.64852e-05 2.67684e+25 25.2325 0.36178 273.112 
-7.88425e-06 1.64852e-05 2.68307e+25 26.5493 0.210986 272.529 
-5.97292e-06 1.64852e-05 2.68248e+25 28.2346 0.112684 272.678 
-4.06158e-06 1.64852e-05 2.68234e+25 28.5527 -0.01563 272.92 
-2.15025e-06 1.64852e-05 2.68256e+25 29.4145 0.259036 272.769 
-2.38917e-07 1.64852e-05 2.68021e+25 30.1724 -0.0288831 272.579 
-1.55296e-05 1.69631e-05 2.66532e+25 22.1136 1.37808 273.314 
-1.36182e-05 1.69631e-05 2.67846e+25 28.1914 0.246381 272.865 
-1.17069e-05 1.69631e-05 2.67765e+25 30.1466 0.200763 273.288 
-9.79558e-06 1.69631e-05 2.68284e+25 31.3132 -0.0267947 272.929 
-7.88425e-06 1.69631e-05 2.68415e+25 31.6233 0.0278914 272.841 
-5.97292e-06 1.69631e-05 2.6817e+25 31.926 0.0182571 272.95 
-4.06158e-06 1.69631e-05 2.67866e+25 32.4979 0.0178017 273.015 
-2.15025e-06 1.69631e-05 2.67948e+25 32.5059 0.0425268 272.987 
-2.38917e-07 1.69631e-05 2.68273e+25 33.0198 -0.00552546 272.522 
1.19458e-06 -1.69631e-05 2.68011e+25 -0.224214 -0.00697341 273.084 
3.10592e-06 -1.69631e-05 2.68388e+25 -0.43423 -0.103226 272.91 
5.01725e-06 -1.69631e-05 2.68677e+25 -0.266318 0.0780606 272.619 
6.92858e-06 -1.69631e-05 2.6861e+25 -0.248938 -0.0295141 272.507 
8.83992e-06 -1.69631e-05 2.68693e+25 -0.458276 -0.017674 272.671 
1.07512e-05 -1.69631e-05 2.68646e+25 -0.0248957 -0.0852968 272.771 
1.26626e-05 -1.69631e-05 2.68361e+25 0.106105 -0.0618154 272.987 
1.45739e-05 -1.69631e-05 2.68123e+25 0.155321 0.0399627 272.849 
1.64852e-05 -1.69631e-05 2.68121e+25 -0.126336 0.0476129 273.003 
1.19458e-06 -1.64852e-05 2.68127e+25 -0.575543 -0.0410127 273.038 
3.10592e-06 -1.64852e-05 2.687e+25 -0.714873 -0.260029 272.798 
5.01725e-06 -1.64852e-05 2.68512e+25 -0.457637 0.214343 272.747 
6.92858e-06 -1.64852e-05 2.69274e+25 -0.662838 0.036612 272.286 
8.83992e-06 -1.64852e-05 2.69043e+25 -0.505502 -0.0378662 272.234 
1.07512e-05 -1.64852e-05 2.68949e+25 -0.154198 -0.341114 272.21 
1.26626e-05 -1.64852e-05 2.68452e+25 0.243407 0.025043 272.703 
1.45739e-05 -1.64852e-05 2.6866e+25 0.127713 0.066011 272.73 
1.64852e-05 -1.64852e-05 2.68584e+25 0.170581 0.0461068 272.812 
1.19458e-06 -1.60074e-05 2.689e+25 -1.30626 -0.136885 272.377 
3.10592e-06 -1.60074e-05 2.69215e+25 -1.00597 -0.105686 271.934 
5.01725e-06 -1.60074e-05 2.68776e+25 -1.13576 0.161888 272.626 
6.92858e-06 -1.60074e-05 2.6935e+25 -1.01874 0.0478966 272.06 
8.83992e-06 -1.60074e-05 2.68994e+25 -0.843943 -0.250263 272.185 
1.07512e-05 -1.60074e-05 2.69161e+25 -0.26298 -0.473652 272.069 
1.26626e-05 -1.60074e-05 2.68917e+25 0.363761 0.150036 272.408 
1.45739e-05 -1.60074e-05 2.68776e+25 0.356264 0.173486 272.4 
1.64852e-05 -1.60074e-05 2.68731e+25 0.182227 0.0514846 272.64 
1.19458e-06 -1.55296e-05 2.6893e+25 -1.69947 -0.253696 272.252 
3.10592e-06 -1.55296e-05 2.69094e+25 -1.14763 0.0820114 271.807 
5.01725e-06 -1.55296e-05 2.6882e+25 -1.55244 0.154975 272.354 
6.92858e-06 -1.55296e-05 2.69168e+25 -1.37703 -0.043381 272.229 
8.83992e-06 -1.55296e-05 2.68943e+25 -0.95186 -0.442564 272.333 
1.07512e-05 -1.55296e-05 2.69067e+25 -0.0670947 -0.865187 272.384 
1.26626e-05 -1.55296e-05 2.68902e+25 0.235201 0.155568 272.181 
1.45739e-05 -1.55296e-05 2.6911e+25 0.242396 0.132373 272.261 
1.64852e-05 -1.55296e-05 2.69121e+25 0.168649 0.257748 272.373 
1.19458e-06 -1.50517e-05 2.69072e+25 -1.63973 -0.375321 271.978 
3.10592e-06 -1.50517e-05 2.69144e+25 -1.35024 0.0331792 271.805 
5.01725e-06 -1.50517e-05 2.68814e+25 -1.46165 0.159791 272.172 
6.92858e-06 -1.50517e-05 2.69252e+25 -1.21959 0.0600053 271.964 
8.83992e-06 -1.50517e-05 2.68941e+25 -0.77784 -0.644357 272.345 
1.07512e-05 -1.50517e-05 2.68759e+25 -0.417068 -0.829293 272.555 
1.26626e-05 -1.50517e-05 2.69219e+25 0.0560621 -0.0342391 272.053 
1.45739e-05 -1.50517e-05 2.68777e+25 0.395546 0.017342 272.317 
1.64852e-05 -1.50517e-05 2.6875e+25 0.0715593 0.35524 272.306 
1.19458e-06 -1.45739e-05 2.69421e+25 -1.41648 -0.257849 271.878 
3.10592e-06 -1.45739e-05 2.69389e+25 -1.31117 0.045937 271.811 
5.01725e-06 -1.45739e-05 2.69252e+25 -1.19013 -0.1074 272.044 
6.92858e-06 -1.45739e-05 2.69464e+25 -1.08658 0.184304 271.912 
8.83992e-06 -1.45739e-05 2.68891e+25 -0.924095 -0.4819 272.262 
1.07512e-05 -1.45739e-05 2.68641e+25 -0.734865 -0.847438 272.467 
1.26626e-05 -1.45739e-05 2.6911e+25 0.150823 -0.369551 272.032 
1.45739e-05 -1.45739e-05 2.69134e+25 0.228865 0.0168751 272.294 
1.64852e-05 -1.45739e-05 2.68388e+25 0.0208929 0.530843 272.686 
1.19458e-06 -1.40961e-05 2.69271e+25 -1.35833 -0.337893 271.945 
3.10592e-06 -1.40961e-05 2.6952e+25 -1.53333 0.143476 271.755 
5.01725e-06 -1.40961e-05 2.69565e+25 -1.41152 -0.261739 271.63 
6.92858e-06 -1.40961e-05 2.69432e+25 -1.32204 0.0153246 271.822 
8.83992e-06 -1.40961e-05 2.68535e+25 -0.883534 -0.234981 272.42 
1.07512e-05 -1.40961e-05 2.68772e+25 -0.839523 -0.902955 272.337 
1.26626e-05 -1.40961e-05 2.69167e+25 -0.382189 -0.540894 272.006 
1.45739e-05 -1.40961e-05 2.69053e+25 0.319097 -0.0277044 271.944 
1.64852e-05 -1.40961e-05 2.68427e+25 -0.131529 0.602307 272.788 
1.19458e-06 -1.36182e-05 2.69002e+25 -1.8225 -0.338539 272.102 
3.10592e-06 -1.36182e-05 2.69837e+25 -1.61169 0.171057 271.528 
5.01725e-06 -1.36182e-05 2.69647e+25 -1.13383 -0.0913165 271.628 
6.92858e-06 -1.36182e-05 2.69255e+25 -1.29478 -0.0103612 271.939 
8.83992e-06 -1.36182e-05 2.68889e+25 -0.882387 -0.360639 272.511 
1.07512e-05 -1.36182e-05 2.68969e+25 -1.03947 -1.024 272.378 
1.26626e-05 -1.36182e-05 2.69267e+25 -0.803255 -0.764883 271.924 
1.45739e-05 -1.36182e-05 2.68801e+25 0.199102 -0.0225967 272.223 
1.64852e-05 -1.36182e-05 2.68224e+25 -0.0689365 0.774037 272.807 
1.19458e-06 -1.31404e-05 2.69133e+25 -2.08568 -0.26534 272.047 
3.10592e-06 -1.31404e-05 2.69721e+25 -1.64052 0.0292481 271.439 
5.01725e-06 -1.31404e-05 2.69441e+25 -1.2639 -0.0696061 271.759 
6.92858e-06 -1.31404e-05 2.69071e+25 -1.33856 0.111897 272.103 
8.83992e-06 -1.31404e-05 2.69049e+25 -1.06293 -0.634608 272.281 
1.07512e-05 -1.31404e-05 2.68869e+25 -1.11965 -0.98392 272.431 
1.26626e-05 -1.31404e-05 2.6909e+25 -0.947564 -1.0901 272.156 
1.45739e-05 -1.31404e-05 2.68651e+25 -0.487159 -0.0976663 272.465 
1.64852e-05 -1.31404e-05 2.68649e+25 -0.121917 0.39661 272.59 
1.19458e-06 -1.26626e-05 2.68828e+25 -2.32128 -0.239292 272.278 
3.10592e-06 -1.26626e-05 2.69439e+25 -1.99009 -0.0974412 271.567 
5.01725e-06 -1.26626e-05 2.69256e+25 -1.55116 -0.31198 271.878 
6.92858e-06 -1.26626e-05 2.69125e+25 -1.24709 -0.026424 272.358 
8.83992e-06 -1.26626e-05 2.69058e+25 -0.935819 -0.900354 272.351 
1.07512e-05 -1.26626e-05 2.69025e+25 -0.931705 -0.907843 272.229 
1.26626e-05 -1.26626e-05 2.69231e+25 -0.802193 -1.2066 271.973 
1.45739e-05 -1.26626e-05 2.68417e+25 -0.89166 -0.0956325 272.496 
1.64852e-05 -1.26626e-05 2.6859e+25 -0.145839 -0.00110227 272.496 
1.19458e-06 -1.21847e-05 2.68958e+25 -2.16843 -0.284477 272.216 
3.10592e-06 -1.21847e-05 2.69529e+25 -1.88869 -0.224229 271.855 
5.01725e-06 -1.21847e-05 2.69708e+25 -1.52986 -0.41687 271.728 
6.92858e-06 -1.21847e-05 2.69118e+25 -1.58337 -0.224727 272.115 
8.83992e-06 -1.21847e-05 2.68861e+25 -1.33534 -0.826176 272.344 
1.07512e-05 -1.21847e-05 2.69191e+25 -1.01406 -0.944494 271.979 
1.26626e-05 -1.21847e-05 2.69178e+25 -1.00114 -1.09143 271.926 
1.45739e-05 -1.21847e-05 2.68987e+25 -1.04309 -0.0235924 272.365 
1.64852e-05 -1.21847e-05 2.68803e+25 -0.172382 -0.144789 272.356 
1.19458e-06 -1.17069e-05 2.69052e+25 -2.4474 -0.375618 272.058 
3.10592e-06 -1.17069e-05 2.69208e+25 -2.37469 -0.387983 272.057 
5.01725e-06 -1.17069e-05 2.69634e+25 -1.60496 -0.446048 271.573 
6.92858e-06 -1.17069e-05 2.69123e+25 -1.51046 -0.37612 272.205 
8.83992e-06 -1.17069e-05 2.68908e+25 -1.65369 -0.725686 272.367 
1.07512e-05 -1.17069e-05 2.69125e+25 -1.32178 -1.16017 272.16 
1.26626e-05 -1.17069e-05 2.69164e+25 -0.925479 -1.08708 271.951 
1.45739e-05 -1.17069e-05 2.68917e+25 -0.978378 -0.128494 272.228 
1.64852e-05 -1.17069e-05 2.69058e+25 -0.141391 -0.32406 272.291 
1.19458e-06 -1.12291e-05 2.69052e+25 -2.74801 -0.270773 272.08 
3.10592e-06 -1.12291e-05 2.69434e+25 -2.50738 -0.438127 271.608 
5.01725e-06 -1.12291e-05 2.69475e+25 -2.5861 -0.572517 271.547 
6.92858e-06 -1.12291e-05 2.69119e+25 -1.72263 -0.325967 272.279 
8.83992e-06 -1.12291e-05 2.69138e+25 -1.33467 -0.77008 272.2 
1.07512e-05 -1.12291e-05 2.69146e+25 -1.46886 -1.13989 271.99 
1.26626e-05 -1.12291e-05 2.69613e+25 -0.824059 -1.38079 271.718 
1.45739e-05 -1.12291e-05 2.68537e+25 -0.593599 -0.411971 272.18 
1.64852e-05 -1.12291e-05 2.68611e+25 0.0618542 -0.41925 272.53 
1.19458e-06 -1.07512e-05 2.69144e+25 -3.04447 -0.35232 271.902 
3.10592e-06 -1.07512e-05 2.69401e+25 -2.44157 -0.505898 271.687 
5.01725e-06 -1.07512e-05 2.697e+25 -2.77432 -0.65794 271.814 
6.92858e-06 -1.07512e-05 2.68953e+25 -1.86873 -0.399396 272.182 
8.83992e-06 -1.07512e-05 2.6883e+25 -1.66775 -0.898991 272.513 
1.07512e-05 -1.07512e-05 2.68889e+25 -1.52893 -1.07784 272.05 
1.26626e-05 -1.07512e-05 2.69254e+25 -0.717519 -1.47861 271.795 
1.45739e-05 -1.07512e-05 2.69311e+25 -0.224579 -0.534795 272.108 
1.64852e-05 -1.07512e-05 2.68741e+25 0.0690359 -0.454252 272.581 
1.19458e-06 -1.02734e-05 2.69331e+25 -3.38368 -0.444318 271.693 
3.10592e-06 -1.02734e-05 2.69293e+25 -3.16953 -0.70377 271.923 
5.01725e-06 -1.02734e-05 2.69779e+25 -2.80219 -0.667378 271.549 
6.92858e-06 -1.02734e-05 2.68789e+25 -2.08262 -0.556059 272.414 
8.83992e-06 -1.02734e-05 2.68737e+25 -1.72564 -0.979012 272.229 
1.07512e-05 -1.02734e-05 2.69344e+25 -1.18584 -1.11198 271.811 
1.26626e-05 -1.02734e-05 2.69536e+25 -0.549102 -1.65459 271.694 
1.45739e-05 -1.02734e-05 2.69118e+25 -0.581624 -0.680969 272.088 
1.64852e-05 -1.02734e-05 2.68592e+25 0.0389094 -0.301534 272.621 
1.19458e-06 -9.79558e-06 2.6955e+25 -3.76623 -0.442448 271.677 
3.10592e-06 -9.79558e-06 2.69255e+25 -3.86183 -1.00771 272.052 
5.01725e-06 -9.79558e-06 2.69523e+25 -3.32768 -0.925051 271.923 
6.92858e-06 -9.79558e-06 2.68988e+25 -2.10671 -1.11236 272.122 
8.83992e-06 -9.79558e-06 2.69104e+25 -1.47342 -1.05543 272.099 
1.07512e-05 -9.79558e-06 2.69606e+25 -0.666467 -1.48769 271.704 
1.26626e-05 -9.79558e-06 2.69448e+25 -0.497316 -1.45434 271.797 
1.45739e-05 -9.79558e-06 2.69205e+25 -0.746383 -0.917151 272.03 
1.64852e-05 -9.79558e-06 2.68581e+25 -0.231511 -0.265944 272.489 
1.19458e-06 -9.31775e-06 2.69506e+25 -4.09985 -0.295354 271.804 
3.10592e-06 -9.31775e-06 2.69454e+25 -4.35581 -1.16101 271.714 
5.01725e-06 -9.31775e-06 2.6941e+25 -3.19751 -1.16041 271.779 
6.92858e-06 -9.31775e-06 2.68885e+25 -2.5471 -1.31414 272.05 
8.83992e-06 -9.31775e-06 2.69061e+25 -1.70011 -1.46583 272.099 
1.07512e-05 -9.31775e-06 2.69142e+25 -0.757921 -1.64958 271.628 
1.26626e-05 -9.31775e-06 2.69312e+25 -0.704473 -1.54562 271.898 
1.45739e-05 -9.31775e-06 2.69197e+25 -0.45518 -0.732104 272.006 
1.64852e-05 -9.31775e-06 2.68754e+25 -0.124619 -0.526642 272.391 
1.19458e-06 -8.83992e-06 2.69078e+25 -4.25753 -0.306136 272.143 
3.10592e-06 -8.83992e-06 2.69269e+25 -4.40271 -1.27152 271.64 
5.01725e-06 -8.83992e-06 2.69179e+25 -3.74394 -1.29884 272.151 
6.92858e-06 -8.83992e-06 2.69146e+25 -2.8102 -1.34657 272.301 
8.83992e-06 -8.83992e-06 2.69466e+25 -1.75114 -1.62145 271.882 
1.07512e-05 -8.83992e-06 2.69449e+25 -1.07283 -1.63667 271.627 
1.26626e-05 -8.83992e-06 2.69515e+25 -0.911297 -1.85819 271.636 
1.45739e-05 -8.83992e-06 2.69193e+25 -0.373091 -0.850297 271.965 
1.64852e-05 -8.83992e-06 2.68581e+25 -0.0177933 -0.754819 272.315 
1.19458e-06 -8.36208e-06 2.68663e+25 -4.95554 -0.0481337 272.319 
3.10592e-06 -8.36208e-06 2.69254e+25 -4.66056 -1.37796 271.867 
5.01725e-06 -8.36208e-06 2.68765e+25 -3.83006 -1.4524 272.223 
6.92858e-06 -8.36208e-06 2.69152e+25 -2.66973 -1.68259 272.063 
8.83992e-06 -8.36208e-06 2.69257e+25 -1.87564 -1.66779 271.635 
1.07512e-05 -8.36208e-06 2.69609e+25 -0.906088 -1.73732 271.455 
1.26626e-05 -8.36208e-06 2.69291e+25 -0.799188 -2.05943 271.802 
1.45739e-05 -8.36208e-06 2.69374e+25 0.0254534 -1.00154 271.899 
1.64852e-05 -8.36208e-06 2.68862e+25 -0.0532486 -0.697309 272.229 
1.19458e-06 -7.88425e-06 2.69209e+25 -5.53778 -0.0289201 271.912 
3.10592e-06 -7.88425e-06 2.69341e+25 -4.62288 -1.60929 271.7 
5.01725e-06 -7.88425e-06 2.69257e+25 -3.65426 -1.7961 271.969 
6.92858e-06 -7.88425e-06 2.69406e+25 -3.09334 -2.03035 271.784 
8.83992e-06 -7.88425e-06 2.69006e+25 -2.22834 -2.00469 271.885 
1.07512e-05 -7.88425e-06 2.69427e+25 -1.20751 -1.87745 271.653 
1.26626e-05 -7.88425e-06 2.69313e+25 -0.811814 -2.01111 271.688 
1.45739e-05 -7.88425e-06 2.69242e+25 -0.0187291 -1.12178 271.919 
1.64852e-05 -7.88425e-06 2.68881e+25 -0.0438739 -0.564776 272.419 
1.19458e-06 -7.40642e-06 2.69285e+25 -5.28816 0.0601612 271.954 
3.10592e-06 -7.40642e-06 2.6938e+25 -4.75315 -1.8807 271.88 
5.01725e-06 -7.40642e-06 2.69156e+25 -4.00571 -1.97359 271.902 
6.92858e-06 -7.40642e-06 2.69477e+25 -3.32624 -2.31531 271.809 
8.83992e-06 -7.40642e-06 2.69207e+25 -2.42862 -2.19375 271.837 
1.07512e-05 -7.40642e-06 2.69842e+25 -1.44158 -2.25953 271.309 
1.26626e-05 -7.40642e-06 2.69491e+25 -0.721798 -1.83979 271.791 
1.45739e-05 -7.40642e-06 2.69087e+25 -0.0868374 -1.34091 272.08 
1.64852e-05 -7.40642e-06 2.68521e+25 0.166872 -0.442131 272.614 
1.19458e-06 -6.92858e-06 2.69385e+25 -5.22131 -0.0419875 271.984 
3.10592e-06 -6.92858e-06 2.69244e+25 -5.00907 -2.07205 271.984 
5.01725e-06 -6.92858e-06 2.69284e+25 -4.3476 -1.97228 272.103 
6.92858e-06 -6.92858e-06 2.69519e+25 -3.65476 -2.32807 271.633 
8.83992e-06 -6.92858e-06 2.69099e+25 -2.86187 -2.34892 271.836 
1.07512e-05 -6.92858e-06 2.70109e+25 -1.52381 -2.58894 271.23 
1.26626e-05 -6.92858e-06 2.69499e+25 -0.812467 -1.72546 271.699 
1.45739e-05 -6.92858e-06 2.69171e+25 0.170578 -1.59455 272.149 
1.64852e-05 -6.92858e-06 2.68887e+25 0.160325 -0.514759 272.402 
1.19458e-06 -6.45075e-06 2.68907e+25 -4.98175 -0.0817238 272.123 
3.10592e-06 -6.45075e-06 2.69298e+25 -4.83046 -2.13466 271.969 
5.01725e-06 -6.45075e-06 2.6924e+25 -4.99944 -2.03408 271.978 
6.92858e-06 -6.45075e-06 2.69453e+25 -4.51492 -2.4063 271.863 
8.83992e-06 -6.45075e-06 2.69292e+25 -3.21954 -2.6951 271.814 
1.07512e-05 -6.45075e-06 2.69931e+25 -1.8493 -2.57023 271.286 
1.26626e-05 -6.45075e-06 2.69109e+25 -1.21834 -1.84093 272.031 
1.45739e-05 -6.45075e-06 2.69126e+25 0.188498 -1.88474 272.134 
1.64852e-05 -6.45075e-06 2.68725e+25 0.053317 -0.427045 272.571 
1.19458e-06 -5.97292e-06 2.69306e+25 -4.73551 0.0327048 272.012 
3.10592e-06 -5.97292e-06 2.69304e+25 -5.32448 -1.9451 272.051 
5.01725e-06 -5.97292e-06 2.69155e+25 -5.32231 -2.1763 272.136 
6.92858e-06 -5.97292e-06 2.6928e+25 -4.8949 -2.51712 272.064 
8.83992e-06 -5.97292e-06 2.69513e+25 -3.89563 -3.23037 271.695 
1.07512e-05 -5.97292e-06 2.69614e+25 -2.53702 -2.77435 271.54 
1.26626e-05 -5.97292e-06 2.69111e+25 -1.28764 -1.90459 272.114 
1.45739e-05 -5.97292e-06 2.6905e+25 -0.483318 -1.78961 272.278 
1.64852e-05 -5.97292e-06 2.68472e+25 0.0124361 -0.245138 272.829 
1.19458e-06 -5.49508e-06 2.68976e+25 -5.04643 0.0425585 272.138 
3.10592e-06 -5.49508e-06 2.69308e+25 -5.45868 -1.69359 271.982 
5.01725e-06 -5.49508e-06 2.69091e+25 -5.66379 -2.44882 271.966 
6.92858e-06 -5.49508e-06 2.68854e+25 -5.27886 -2.58946 272.215 
8.83992e-06 -5.49508e-06 2.69648e+25 -4.16184 -3.72645 271.345 
1.07512e-05 -5.49508e-06 2.69583e+25 -2.88108 -3.14923 271.761 
1.26626e-05 -5.49508e-06 2.68949e+25 -1.18121 -2.30132 272.464 
1.45739e-05 -5.49508e-06 2.69148e+25 -0.716156 -1.92513 272.279 
1.64852e-05 -5.49508e-06 2.68708e+25 -0.0131018 -0.437681 272.469 
1.19458e-06 -5.01725e-06 2.68683e+25 -5.27887 0.0725255 272.336 
3.10592e-06 -5.01725e-06 2.69271e+25 -5.94408 -1.60658 271.819 
5.01725e-06 -5.01725e-06 2.69005e+25 -5.43935 -2.60069 271.955 
6.92858e-06 -5.01725e-06 2.68985e+25 -5.43153 -2.70348 272.297 
8.83992e-06 -5.01725e-06 2.70078e+25 -4.32678 -3.91755 271.283 
1.07512e-05 -5.01725e-06 2.69748e+25 -3.2497 -3.58145 271.791 
1.26626e-05 -5.01725e-06 2.68947e+25 -1.50994 -2.69747 272.276 
1.45739e-05 -5.01725e-06 2.68681e+25 -0.555646 -1.92302 272.414 
1.64852e-05 -5.01725e-06 2.6916e+25 -0.0765123 -0.603363 272.175 
1.19458e-06 -4.53942e-06 2.69136e+25 -5.6805 0.0431715 271.888 
3.10592e-06 -4.53942e-06 2.69019e+25 -6.16681 -1.67418 272.032 
5.01725e-06 -4.53942e-06 2.69749e+25 -6.14985 -2.50921 271.722 
6.92858e-06 -4.53942e-06 2.68968e+25 -5.4643 -3.07311 272.324 
8.83992e-06 -4.53942e-06 2.69526e+25 -4.51193 -4.11499 271.514 
1.07512e-05 -4.53942e-06 2.69202e+25 -3.53194 -3.96177 272.055 
1.26626e-05 -4.53942e-06 2.685e+25 -1.22382 -3.17209 272.446 
1.45739e-05 -4.53942e-06 2.68763e+25 -0.0164457 -1.88037 272.36 
1.64852e-05 -4.53942e-06 2.68607e+25 -0.0995083 -0.725607 272.496 
1.19458e-06 -4.06158e-06 2.69203e+25 -5.95572 0.0791547 271.976 
3.10592e-06 -4.06158e-06 2.6912e+25 -6.54376 -1.61157 272.015 
5.01725e-06 -4.06158e-06 2.69132e+25 -6.45152 -2.58273 271.988 
6.92858e-06 -4.06158e-06 2.69315e+25 -5.87986 -3.19505 271.948 
8.83992e-06 -4.06158e-06 2.69437e+25 -4.84557 -4.13884 271.899 
1.07512e-05 -4.06158e-06 2.69102e+25 -3.44073 -4.38095 272.168 
1.26626e-05 -4.06158e-06 2.68544e+25 -1.38855 -3.67703 272.698 
1.45739e-05 -4.06158e-06 2.68802e+25 0.104116 -2.04331 272.352 
1.64852e-05 -4.06158e-06 2.68895e+25 -0.149028 -0.64257 272.462 
1.19458e-06 -3.58375e-06 2.6918e+25 -6.44958 0.0220827 271.887 
3.10592e-06 -3.58375e-06 2.68642e+25 -6.95293 -1.50604 272.176 
5.01725e-06 -3.58375e-06 2.69374e+25 -6.80138 -2.59944 271.886 
6.92858e-06 -3.58375e-06 2.6938e+25 -6.02754 -3.13591 271.848 
8.83992e-06 -3.58375e-06 2.69505e+25 -4.94822 -4.44072 271.81 
1.07512e-05 -3.58375e-06 2.69136e+25 -2.88065 -4.93074 272.095 
1.26626e-05 -3.58375e-06 2.68729e+25 -1.42767 -4.10419 272.514 
1.45739e-05 -3.58375e-06 2.68621e+25 -0.0256218 -2.37361 272.387 
1.64852e-05 -3.58375e-06 2.68761e+25 -0.0886688 -0.629604 272.632 
1.19458e-06 -3.10592e-06 2.69062e+25 -6.87912 0.0555922 271.939 
3.10592e-06 -3.10592e-06 2.68803e+25 -7.13329 -1.31654 272.252 
5.01725e-06 -3.10592e-06 2.69231e+25 -7.16594 -2.49376 271.686 
6.92858e-06 -3.10592e-06 2.69278e+25 -6.73299 -3.53151 271.678 
8.83992e-06 -3.10592e-06 2.69826e+25 -5.02449 -4.85888 271.447 
1.07512e-05 -3.10592e-06 2.69149e+25 -3.1715 -5.46591 272.227 
1.26626e-05 -3.10592e-06 2.68453e+25 -1.5151 -4.53125 272.564 
1.45739e-05 -3.10592e-06 2.68913e+25 -0.194979 -2.59211 272.284 
1.64852e-05 -3.10592e-06 2.68514e+25 0.0757842 -0.565501 272.546 
1.19458e-06 -2.62808e-06 2.69081e+25 -7.02327 0.145367 271.908 
3.10592e-06 -2.62808e-06 2.68657e+25 -7.50496 -1.26351 272.214 
5.01725e-06 -2.62808e-06 2.69278e+25 -7.32952 -2.57038 271.744 
6.92858e-06 -2.62808e-06 2.6951e+25 -7.29764 -3.93517 271.701 
8.83992e-06 -2.62808e-06 2.69821e+25 -5.43509 -5.48002 271.475 
1.07512e-05 -2.62808e-06 2.6899e+25 -3.64798 -5.91064 272.045 
1.26626e-05 -2.62808e-06 2.68706e+25 -1.75887 -4.84263 272.248 
1.45739e-05 -2.62808e-06 2.68815e+25 -0.585364 -2.84375 272.181 
1.64852e-05 -2.62808e-06 2.68055e+25 0.129 -0.380652 272.827 
1.19458e-06 -2.15025e-06 2.69235e+25 -7.19624 0.337697 271.899 
3.10592e-06 -2.15025e-06 2.68605e+25 -7.46189 -1.35765 272.281 
5.01725e-06 -2.15025e-06 2.68944e+25 -7.63111 -2.594 271.877 
6.92858e-06 -2.15025e-06 2.69479e+25 -7.41744 -4.15911 271.836 
8.83992e-06 -2.15025e-06 2.691e+25 -6.04766 -5.91351 271.764 
1.07512e-05 -2.15025e-06 2.68949e+25 -4.28844 -6.31735 272.068 
1.26626e-05 -2.15025e-06 2.68871e+25 -1.94608 -5.30593 272.367 
1.45739e-05 -2.15025e-06 2.68718e+25 -0.615114 -3.25368 272.39 
1.64852e-05 -2.15025e-06 2.68124e+25 -0.0844916 -0.393195 272.87 
1.19458e-06 -1.67242e-06 2.69204e+25 -7.74711 0.535805 271.939 
3.10592e-06 -1.67242e-06 2.6891e+25 -7.19949 -1.34725 272.338 
5.01725e-06 -1.67242e-06 2.69043e+25 -7.38713 -2.55725 271.988 
6.92858e-06 -1.67242e-06 2.68727e+25 -7.28364 -4.4653 272.228 
8.83992e-06 -1.67242e-06 2.69033e+25 -5.86486 -6.422 272.041 
1.07512e-05 -1.67242e-06 2.688e+25 -4.58641 -6.81644 272.27 
1.26626e-05 -1.67242e-06 2.68807e+25 -2.29672 -5.89117 272.378 
1.45739e-05 -1.67242e-06 2.68735e+25 -0.734481 -3.62666 272.3 
1.64852e-05 -1.67242e-06 2.68571e+25 0.0810082 -0.549585 272.723 
1.19458e-06 -1.19458e-06 2.69109e+25 -8.01002 0.602017 272.08 
3.10592e-06 -1.19458e-06 2.68734e+25 -7.19077 -1.37177 272.255 
5.01725e-06 -1.19458e-06 2.68689e+25 -7.23109 -2.67441 272.307 
6.92858e-06 -1.19458e-06 2.68952e+25 -6.6226 -4.63852 272.239 
8.83992e-06 -1.19458e-06 2.69283e+25 -5.9649 -6.68353 271.679 
1.07512e-05 -1.19458e-06 2.69093e+25 -4.2505 -7.32824 272.18 
1.26626e-05 -1.19458e-06 2.6871e+25 -2.65666 -6.25349 272.524 
1.45739e-05 -1.19458e-06 2.6881e+25 -1.036 -3.92432 272.29 
1.64852e-05 -1.19458e-06 2.68671e+25 0.0936886 -0.626938 272.562 
1.19458e-06 -7.1675e-07 2.69261e+25 -7.71017 0.659876 271.788 
3.10592e-06 -7.1675e-07 2.68951e+25 -7.23588 -1.35243 272.027 
5.01725e-06 -7.1675e-07 2.68721e+25 -6.91883 -2.72399 272.753 
6.92858e-06 -7.1675e-07 2.69417e+25 -6.69958 -4.82702 271.953 
8.83992e-06 -7.1675e-07 2.69501e+25 -6.16705 -6.94543 271.54 
1.07512e-05 -7.1675e-07 2.68921e+25 -4.28398 -7.87195 272.254 
1.26626e-05 -7.1675e-07 2.68495e+25 -3.07676 -6.61425 272.414 
1.45739e-05 -7.1675e-07 2.6874e+25 -1.33022 -4.1756 272.334 
1.64852e-05 -7.1675e-07 2.68746e+25 0.0702624 -0.64926 272.394 
1.19458e-06 -2.38917e-07 2.6911e+25 -7.84032 0.460188 271.645 
3.10592e-06 -2.38917e-07 2.69262e+25 -7.64569 -1.57726 271.719 
5.01725e-06 -2.38917e-07 2.68187e+25 -7.01277 -2.85356 272.527 
6.92858e-06 -2.38917e-07 2.69175e+25 -6.36642 -4.78362 271.726 
8.83992e-06 -2.38917e-07 2.69013e+25 -6.19514 -7.22638 271.936 
1.07512e-05 -2.38917e-07 2.69052e+25 -4.52553 -8.14653 272.068 
1.26626e-05 -2.38917e-07 2.68373e+25 -3.5755 -7.08724 272.263 
1.45739e-05 -2.38917e-07 2.6888e+25 -1.87327 -4.57405 272.188 
1.64852e-05 -2.38917e-07 2.68704e+25 -0.317872 -0.76639 272.377 
2.38917e-07 -1.69631e-05 2.68264e+25 -0.148338 0.107285 272.812 
2.15025e-06 -1.69631e-05 2.68562e+25 -0.423792 0.0891964 272.972 
4.06158e-06 -1.69631e-05 2.68021e+25 -0.093157 0.0454269 272.907 
5.97292e-06 -1.69631e-05 2.68656e+25 -0.373968 -0.179335 272.825 
7.88425e-06 -1.69631e-05 2.68229e+25 -0.252286 0.0292277 272.909 
9.79558e-06 -1.69631e-05 2.68759e+25 -0.244377 0.00165669 272.549 
1.17069e-05 -1.69631e-05 2.68656e+25 0.184496 0.016316 272.615 
1.36182e-05 -1.69631e-05 2.68453e+25 0.130641 -0.00910872 272.825 
1.55296e-05 -1.69631e-05 2.68136e+25 -0.0323784 0.111037 272.964 
2.38917e-07 -1.64852e-05 2.68093e+25 -0.72225 0.258192 272.913 
2.15025e-06 -1.64852e-05 2.68522e+25 -0.561085 0.202106 272.683 
4.06158e-06 -1.64852e-05 2.68484e+25 -0.529023 -0.146964 272.864 
5.97292e-06 -1.64852e-05 2.68713e+25 -0.834044 -0.0479617 272.355 
7.88425e-06 -1.64852e-05 2.68839e+25 -0.564183 -0.0609956 272.549 
9.79558e-06 -1.64852e-05 2.68892e+25 -0.416989 -0.0267218 272.231 
1.17069e-05 -1.64852e-05 2.68986e+25 0.292234 0.13257 272.173 
1.36182e-05 -1.64852e-05 2.68256e+25 0.169036 -0.04257 272.831 
1.55296e-05 -1.64852e-05 2.68795e+25 0.172391 0.0548734 272.508 
2.38917e-07 -1.60074e-05 2.68257e+25 -1.26566 0.206963 272.801 
2.15025e-06 -1.60074e-05 2.69231e+25 -0.919988 0.0320695 271.991 
4.06158e-06 -1.60074e-05 2.68703e+25 -1.09244 -0.179794 272.545 
5.97292e-06 -1.60074e-05 2.68888e+25 -1.09038 -0.0916782 272.513 
7.88425e-06 -1.60074e-05 2.68935e+25 -1.08216 -0.113446 272.219 
9.79558e-06 -1.60074e-05 2.68889e+25 -0.509308 -0.058107 272.266 
1.17069e-05 -1.60074e-05 2.69044e+25 0.254012 -0.0628964 272.152 
1.36182e-05 -1.60074e-05 2.68575e+25 0.217019 0.0285322 272.828 
1.55296e-05 -1.60074e-05 2.69017e+25 0.300198 -0.0241274 272.009 
2.38917e-07 -1.55296e-05 2.68514e+25 -1.80419 0.281398 272.412 
2.15025e-06 -1.55296e-05 2.6946e+25 -1.29109 -0.122111 271.741 
4.06158e-06 -1.55296e-05 2.6873e+25 -1.49739 -0.186794 272.362 
5.97292e-06 -1.55296e-05 2.69268e+25 -1.20498 -0.18174 272.103 
7.88425e-06 -1.55296e-05 2.68505e+25 -1.40059 -0.0265671 272.726 
9.79558e-06 -1.55296e-05 2.6869e+25 -0.556208 -0.288021 272.38 
1.17069e-05 -1.55296e-05 2.69414e+25 -0.0904069 -0.256501 271.99 
1.36182e-05 -1.55296e-05 2.68938e+25 0.222691 -0.0359334 272.261 
1.55296e-05 -1.55296e-05 2.69318e+25 0.464719 0.0816831 271.816 
2.38917e-07 -1.50517e-05 2.68388e+25 -1.8299 0.0817404 272.39 
2.15025e-06 -1.50517e-05 2.69525e+25 -1.36919 -0.264843 271.454 
4.06158e-06 -1.50517e-05 2.69009e+25 -1.26629 -0.0863085 272.086 
5.97292e-06 -1.50517e-05 2.69555e+25 -1.12078 -0.180884 271.751 
7.88425e-06 -1.50517e-05 2.6858e+25 -1.20707 -0.259346 272.761 
9.79558e-06 -1.50517e-05 2.68495e+25 -0.523969 -0.428717 272.445 
1.17069e-05 -1.50517e-05 2.68978e+25 -0.261557 -0.457803 272.103 
1.36182e-05 -1.50517e-05 2.6935e+25 0.339248 0.0334452 271.984 
1.55296e-05 -1.50517e-05 2.69522e+25 0.394871 0.137935 271.724 
2.38917e-07 -1.45739e-05 2.6869e+25 -1.71293 -0.182011 272.302 
2.15025e-06 -1.45739e-05 2.69645e+25 -1.36122 -0.412243 271.596 
4.06158e-06 -1.45739e-05 2.69464e+25 -1.51988 -0.0436992 271.925 
5.97292e-06 -1.45739e-05 2.69409e+25 -0.951664 -0.225797 271.571 
7.88425e-06 -1.45739e-05 2.6869e+25 -1.02626 -0.495705 272.355 
9.79558e-06 -1.45739e-05 2.68796e+25 -0.947675 -0.60392 272.509 
1.17069e-05 -1.45739e-05 2.68956e+25 -0.173862 -0.467739 272.334 
1.36182e-05 -1.45739e-05 2.69428e+25 0.470746 0.0311254 271.933 
1.55296e-05 -1.45739e-05 2.69209e+25 0.165705 0.0833977 272.126 
2.38917e-07 -1.40961e-05 2.68762e+25 -1.68078 -0.328588 272.23 
2.15025e-06 -1.40961e-05 2.6929e+25 -1.42855 -0.328469 271.827 
4.06158e-06 -1.40961e-05 2.69354e+25 -1.56063 -0.0199712 272.092 
5.97292e-06 -1.40961e-05 2.6952e+25 -1.37137 -0.156138 271.657 
7.88425e-06 -1.40961e-05 2.68657e+25 -0.975489 -0.565841 272.5 
9.79558e-06 -1.40961e-05 2.6892e+25 -1.01807 -0.72983 272.339 
1.17069e-05 -1.40961e-05 2.68905e+25 -0.616421 -0.620288 272.247 
1.36182e-05 -1.40961e-05 2.69147e+25 0.173661 -0.196341 272.08 
1.55296e-05 -1.40961e-05 2.69277e+25 0.249146 0.438957 272.289 
2.38917e-07 -1.36182e-05 2.68603e+25 -1.89104 -0.218192 272.319 
2.15025e-06 -1.36182e-05 2.69462e+25 -1.86043 -0.242667 271.656 
4.06158e-06 -1.36182e-05 2.69204e+25 -1.5392 -0.148647 271.855 
5.97292e-06 -1.36182e-05 2.695e+25 -1.30944 -0.265322 271.774 
7.88425e-06 -1.36182e-05 2.68966e+25 -0.799873 -0.537792 272.383 
9.79558e-06 -1.36182e-05 2.69308e+25 -1.04156 -0.63021 272.092 
1.17069e-05 -1.36182e-05 2.68904e+25 -1.24607 -0.769851 272.209 
1.36182e-05 -1.36182e-05 2.69058e+25 -0.221405 -0.513941 272.308 
1.55296e-05 -1.36182e-05 2.68884e+25 -0.276261 0.421266 272.351 
2.38917e-07 -1.31404e-05 2.68769e+25 -1.8665 -0.312998 272.199 
2.15025e-06 -1.31404e-05 2.69524e+25 -2.02442 -0.316452 271.805 
4.06158e-06 -1.31404e-05 2.6977e+25 -1.47175 -0.293464 271.759 
5.97292e-06 -1.31404e-05 2.6943e+25 -1.01018 -0.25319 271.899 
7.88425e-06 -1.31404e-05 2.68561e+25 -1.50218 -0.695901 272.569 
9.79558e-06 -1.31404e-05 2.68858e+25 -0.902812 -0.595447 272.422 
1.17069e-05 -1.31404e-05 2.6904e+25 -1.23575 -0.608373 272.11 
1.36182e-05 -1.31404e-05 2.68886e+25 -0.686208 -0.783482 272.48 
1.55296e-05 -1.31404e-05 2.69081e+25 -0.664108 0.486217 272.086 
2.38917e-07 -1.26626e-05 2.68952e+25 -1.9884 -0.203977 272.226 
2.15025e-06 -1.26626e-05 2.69154e+25 -2.20306 -0.493502 272.09 
4.06158e-06 -1.26626e-05 2.69715e+25 -1.61509 -0.40482 271.429 
5.97292e-06 -1.26626e-05 2.69313e+25 -1.57535 -0.313253 272.025 
7.88425e-06 -1.26626e-05 2.68982e+25 -1.25836 -0.7441 272.569 
9.79558e-06 -1.26626e-05 2.68277e+25 -0.847515 -0.528196 272.876 
1.17069e-05 -1.26626e-05 2.69123e+25 -0.915754 -0.665797 272.105 
1.36182e-05 -1.26626e-05 2.68651e+25 -0.686578 -0.576509 272.508 
1.55296e-05 -1.26626e-05 2.68937e+25 -0.649736 0.578928 272.078 
2.38917e-07 -1.21847e-05 2.68905e+25 -2.05841 -0.00671315 272.089 
2.15025e-06 -1.21847e-05 2.69103e+25 -2.04343 -0.748076 272.099 
4.06158e-06 -1.21847e-05 2.69366e+25 -1.73403 -0.288166 271.799 
5.97292e-06 -1.21847e-05 2.69403e+25 -1.58032 -0.130392 271.713 
7.88425e-06 -1.21847e-05 2.68588e+25 -1.2251 -0.695891 272.315 
9.79558e-06 -1.21847e-05 2.68563e+25 -1.26351 -0.448869 272.521 
1.17069e-05 -1.21847e-05 2.69336e+25 -0.875631 -0.727352 271.846 
1.36182e-05 -1.21847e-05 2.68813e+25 -0.920111 -0.615945 272.319 
1.55296e-05 -1.21847e-05 2.68887e+25 -0.604628 0.146549 272.123 
2.38917e-07 -1.17069e-05 2.69248e+25 -2.21001 0.106805 271.927 
2.15025e-06 -1.17069e-05 2.69053e+25 -2.48918 -0.774241 272.237 
4.06158e-06 -1.17069e-05 2.69175e+25 -1.82731 -0.476826 272.004 
5.97292e-06 -1.17069e-05 2.69418e+25 -1.53145 -0.014127 271.79 
7.88425e-06 -1.17069e-05 2.68631e+25 -1.38371 -0.816781 272.613 
9.79558e-06 -1.17069e-05 2.68699e+25 -1.3765 -0.540572 272.582 
1.17069e-05 -1.17069e-05 2.6926e+25 -1.13677 -0.821793 271.831 
1.36182e-05 -1.17069e-05 2.69244e+25 -0.964577 -0.579343 272.031 
1.55296e-05 -1.17069e-05 2.68592e+25 -0.362787 -0.168439 272.432 
2.38917e-07 -1.12291e-05 2.69346e+25 -2.85932 0.222207 271.707 
2.15025e-06 -1.12291e-05 2.68955e+25 -2.616 -0.72286 272.213 
4.06158e-06 -1.12291e-05 2.69446e+25 -2.35921 -0.550897 271.729 
5.97292e-06 -1.12291e-05 2.69171e+25 -2.07058 -0.201319 272.069 
7.88425e-06 -1.12291e-05 2.68709e+25 -1.54563 -0.848063 272.43 
9.79558e-06 -1.12291e-05 2.68754e+25 -1.39157 -0.631659 272.603 
1.17069e-05 -1.12291e-05 2.69346e+25 -1.12227 -0.938567 271.636 
1.36182e-05 -1.12291e-05 2.69083e+25 -0.795319 -0.431743 272.181 
1.55296e-05 -1.12291e-05 2.68829e+25 -0.187887 -0.29926 272.247 
2.38917e-07 -1.07512e-05 2.6914e+25 -3.28759 0.232994 271.807 
2.15025e-06 -1.07512e-05 2.69129e+25 -2.88611 -0.792945 271.75 
4.06158e-06 -1.07512e-05 2.69428e+25 -2.78357 -0.481184 271.851 
5.97292e-06 -1.07512e-05 2.6948e+25 -2.4198 -0.533789 271.816 
7.88425e-06 -1.07512e-05 2.68936e+25 -1.62787 -0.884522 272.175 
9.79558e-06 -1.07512e-05 2.68767e+25 -1.5508 -0.610977 272.291 
1.17069e-05 -1.07512e-05 2.69443e+25 -1.03281 -1.19247 271.932 
1.36182e-05 -1.07512e-05 2.69161e+25 -0.390545 -0.396059 272.145 
1.55296e-05 -1.07512e-05 2.6908e+25 -0.091057 -0.417049 272.044 
2.38917e-07 -1.02734e-05 2.68917e+25 -3.65978 0.213063 271.911 
2.15025e-06 -1.02734e-05 2.69488e+25 -3.5545 -0.696675 271.681 
4.06158e-06 -1.02734e-05 2.69434e+25 -2.89494 -0.447171 271.822 
5.97292e-06 -1.02734e-05 2.6914e+25 -2.47421 -0.703394 271.986 
7.88425e-06 -1.02734e-05 2.68951e+25 -1.96292 -0.922743 272.171 
9.79558e-06 -1.02734e-05 2.69103e+25 -1.62638 -0.72803 272.125 
1.17069e-05 -1.02734e-05 2.69311e+25 -0.841488 -1.40074 271.797 
1.36182e-05 -1.02734e-05 2.68959e+25 -0.828795 -0.472307 272.076 
1.55296e-05 -1.02734e-05 2.68896e+25 -0.139965 -0.735465 272.042 
2.38917e-07 -9.79558e-06 2.68859e+25 -3.78059 0.0569061 272.012 
2.15025e-06 -9.79558e-06 2.69167e+25 -4.04809 -0.749293 272.012 
4.06158e-06 -9.79558e-06 2.69285e+25 -3.48058 -0.533072 271.916 
5.97292e-06 -9.79558e-06 2.68952e+25 -2.78031 -0.971015 272.128 
7.88425e-06 -9.79558e-06 2.68873e+25 -1.86801 -0.738595 272.267 
9.79558e-06 -9.79558e-06 2.69242e+25 -1.34338 -0.98382 272.002 
1.17069e-05 -9.79558e-06 2.69004e+25 -0.64951 -1.52385 272.003 
1.36182e-05 -9.79558e-06 2.69351e+25 -0.843135 -0.358874 271.836 
1.55296e-05 -9.79558e-06 2.68947e+25 -0.451283 -0.839184 272.221 
2.38917e-07 -9.31775e-06 2.68863e+25 -4.01549 -0.125167 272.161 
2.15025e-06 -9.31775e-06 2.69154e+25 -4.15473 -0.767973 272.046 
4.06158e-06 -9.31775e-06 2.69415e+25 -3.88086 -0.669569 271.846 
5.97292e-06 -9.31775e-06 2.69193e+25 -2.79059 -1.13772 272.039 
7.88425e-06 -9.31775e-06 2.69224e+25 -2.15515 -0.684353 272.108 
9.79558e-06 -9.31775e-06 2.68961e+25 -1.09802 -1.16789 272.246 
1.17069e-05 -9.31775e-06 2.69437e+25 -0.854827 -1.60868 271.621 
1.36182e-05 -9.31775e-06 2.6932e+25 -0.483205 -0.336485 271.93 
1.55296e-05 -9.31775e-06 2.6928e+25 -0.583138 -1.05569 272.002 
2.38917e-07 -8.83992e-06 2.68869e+25 -4.29903 -0.204815 271.965 
2.15025e-06 -8.83992e-06 2.68997e+25 -4.35792 -0.581319 272.128 
4.06158e-06 -8.83992e-06 2.69279e+25 -4.14523 -0.925508 272.072 
5.97292e-06 -8.83992e-06 2.68725e+25 -3.33969 -1.36869 272.216 
7.88425e-06 -8.83992e-06 2.6901e+25 -2.10586 -1.10084 272.167 
9.79558e-06 -8.83992e-06 2.69361e+25 -1.2972 -1.35948 271.981 
1.17069e-05 -8.83992e-06 2.6974e+25 -1.13293 -1.4714 271.547 
1.36182e-05 -8.83992e-06 2.69417e+25 -0.343681 -0.405438 271.576 
1.55296e-05 -8.83992e-06 2.6926e+25 -0.220603 -1.20711 271.92 
2.38917e-07 -8.36208e-06 2.68738e+25 -4.67026 -0.00865847 272.33 
2.15025e-06 -8.36208e-06 2.69153e+25 -4.96325 -0.640498 272.042 
4.06158e-06 -8.36208e-06 2.69271e+25 -4.2766 -1.06118 271.9 
5.97292e-06 -8.36208e-06 2.69312e+25 -3.44735 -1.78448 272.128 
7.88425e-06 -8.36208e-06 2.68894e+25 -2.20214 -1.5089 272.064 
9.79558e-06 -8.36208e-06 2.69165e+25 -1.31904 -1.56367 271.797 
1.17069e-05 -8.36208e-06 2.69509e+25 -0.829529 -1.44785 271.633 
1.36182e-05 -8.36208e-06 2.69536e+25 -0.49392 -0.552077 271.563 
1.55296e-05 -8.36208e-06 2.69196e+25 0.232825 -0.998813 271.848 
2.38917e-07 -7.88425e-06 2.68674e+25 -5.06258 0.207031 272.101 
2.15025e-06 -7.88425e-06 2.6903e+25 -5.37207 -0.976051 272.088 
4.06158e-06 -7.88425e-06 2.69382e+25 -4.24052 -1.25638 271.874 
5.97292e-06 -7.88425e-06 2.69113e+25 -3.40393 -1.88747 271.933 
7.88425e-06 -7.88425e-06 2.68986e+25 -2.57452 -1.66372 272.069 
9.79558e-06 -7.88425e-06 2.69263e+25 -1.69763 -1.78642 271.65 
1.17069e-05 -7.88425e-06 2.69085e+25 -0.69717 -1.51387 272.015 
1.36182e-05 -7.88425e-06 2.69554e+25 -0.624233 -0.949881 271.764 
1.55296e-05 -7.88425e-06 2.69329e+25 0.411641 -0.904773 271.926 
2.38917e-07 -7.40642e-06 2.68838e+25 -5.39643 0.315827 271.952 
2.15025e-06 -7.40642e-06 2.69221e+25 -5.30664 -1.08572 271.847 
4.06158e-06 -7.40642e-06 2.69052e+25 -4.23239 -1.56906 271.855 
5.97292e-06 -7.40642e-06 2.69206e+25 -3.71713 -1.97008 272.085 
7.88425e-06 -7.40642e-06 2.69791e+25 -3.04471 -1.88418 271.787 
9.79558e-06 -7.40642e-06 2.69221e+25 -1.97535 -2.02351 271.831 
1.17069e-05 -7.40642e-06 2.69295e+25 -0.810833 -1.6899 271.729 
1.36182e-05 -7.40642e-06 2.69371e+25 -0.700982 -1.32515 271.858 
1.55296e-05 -7.40642e-06 2.69151e+25 0.358252 -1.01063 272.062 
2.38917e-07 -6.92858e-06 2.6844e+25 -5.21301 0.279184 272.229 
2.15025e-06 -6.92858e-06 2.68722e+25 -5.13952 -1.08962 272.2 
4.06158e-06 -6.92858e-06 2.69406e+25 -4.69446 -1.6896 271.811 
5.97292e-06 -6.92858e-06 2.69342e+25 -4.147 -2.23057 271.764 
7.88425e-06 -6.92858e-06 2.69495e+25 -3.41982 -2.18925 271.784 
9.79558e-06 -6.92858e-06 2.68875e+25 -2.14468 -2.41208 272.298 
1.17069e-05 -6.92858e-06 2.69592e+25 -1.13976 -1.90674 271.473 
1.36182e-05 -6.92858e-06 2.69136e+25 -0.731849 -1.59889 272.008 
1.55296e-05 -6.92858e-06 2.68832e+25 0.0808005 -0.967444 272.288 
2.38917e-07 -6.45075e-06 2.69058e+25 -4.77549 0.220775 272.111 
2.15025e-06 -6.45075e-06 2.6888e+25 -4.89664 -1.06915 272.255 
4.06158e-06 -6.45075e-06 2.69628e+25 -5.07812 -1.88993 271.735 
5.97292e-06 -6.45075e-06 2.69744e+25 -4.56856 -2.43403 271.481 
7.88425e-06 -6.45075e-06 2.6937e+25 -3.90694 -2.5262 271.781 
9.79558e-06 -6.45075e-06 2.69263e+25 -2.49287 -2.93905 272.015 
1.17069e-05 -6.45075e-06 2.69536e+25 -1.64028 -2.04749 271.355 
1.36182e-05 -6.45075e-06 2.69116e+25 -0.674346 -2.06312 272.087 
1.55296e-05 -6.45075e-06 2.68992e+25 0.103271 -0.96094 272.249 
2.38917e-07 -5.97292e-06 2.68779e+25 -4.8253 0.0540071 272.016 
2.15025e-06 -5.97292e-06 2.69245e+25 -4.81263 -1.1374 271.964 
4.06158e-06 -5.97292e-06 2.69067e+25 -5.51465 -1.83319 272.182 
5.97292e-06 -5.97292e-06 2.69296e+25 -4.92695 -2.49779 271.803 
7.88425e-06 -5.97292e-06 2.6917e+25 -4.57159 -2.73922 272.063 
9.79558e-06 -5.97292e-06 2.69909e+25 -2.85457 -3.31835 271.492 
1.17069e-05 -5.97292e-06 2.69628e+25 -1.73087 -2.47843 271.546 
1.36182e-05 -5.97292e-06 2.68853e+25 -0.666987 -2.40946 272.433 
1.55296e-05 -5.97292e-06 2.6854e+25 -0.315124 -1.02499 272.347 
2.38917e-07 -5.49508e-06 2.68586e+25 -5.20403 -0.0676282 272.396 
2.15025e-06 -5.49508e-06 2.69345e+25 -5.06512 -1.14838 271.971 
4.06158e-06 -5.49508e-06 2.68705e+25 -5.49096 -1.70183 272.214 
5.97292e-06 -5.49508e-06 2.69102e+25 -5.4028 -2.63632 271.99 
7.88425e-06 -5.49508e-06 2.69327e+25 -4.85508 -3.12399 272.123 
9.79558e-06 -5.49508e-06 2.69829e+25 -3.17094 -3.36643 271.278 
1.17069e-05 -5.49508e-06 2.69448e+25 -2.13273 -2.80878 271.843 
1.36182e-05 -5.49508e-06 2.68623e+25 -0.997128 -2.60468 272.712 
1.55296e-05 -5.49508e-06 2.69062e+25 -0.7256 -1.31097 272.105 
2.38917e-07 -5.01725e-06 2.68728e+25 -5.3616 -0.156013 272.251 
2.15025e-06 -5.01725e-06 2.69103e+25 -5.61891 -0.912453 272.041 
4.06158e-06 -5.01725e-06 2.68817e+25 -5.8226 -1.81324 272.183 
5.97292e-06 -5.01725e-06 2.69344e+25 -5.56116 -2.5586 271.977 
7.88425e-06 -5.01725e-06 2.69257e+25 -4.7523 -3.3727 272.048 
9.79558e-06 -5.01725e-06 2.69568e+25 -3.93904 -3.46022 271.678 
1.17069e-05 -5.01725e-06 2.69275e+25 -2.29667 -3.23907 272.165 
1.36182e-05 -5.01725e-06 2.68751e+25 -0.604263 -2.69833 272.545 
1.55296e-05 -5.01725e-06 2.69282e+25 -0.330661 -1.3347 271.855 
2.38917e-07 -4.53942e-06 2.69123e+25 -5.83664 -0.0315699 271.857 
2.15025e-06 -4.53942e-06 2.68961e+25 -6.00246 -0.693089 272.162 
4.06158e-06 -4.53942e-06 2.69066e+25 -6.19134 -1.86644 271.766 
5.97292e-06 -4.53942e-06 2.69129e+25 -5.89769 -2.84889 271.882 
7.88425e-06 -4.53942e-06 2.69641e+25 -4.81555 -3.63086 271.505 
9.79558e-06 -4.53942e-06 2.69442e+25 -4.35396 -3.88817 271.886 
1.17069e-05 -4.53942e-06 2.69169e+25 -2.42714 -3.81346 272.162 
1.36182e-05 -4.53942e-06 2.68565e+25 -0.486869 -2.88118 272.501 
1.55296e-05 -4.53942e-06 2.69207e+25 -0.0637258 -1.5666 271.936 
2.38917e-07 -4.06158e-06 2.69192e+25 -6.01294 -0.0448546 271.743 
2.15025e-06 -4.06158e-06 2.68492e+25 -6.27174 -0.415633 272.513 
4.06158e-06 -4.06158e-06 2.69499e+25 -6.5343 -1.85408 271.713 
5.97292e-06 -4.06158e-06 2.6934e+25 -6.20343 -3.09359 271.818 
7.88425e-06 -4.06158e-06 2.69295e+25 -5.50799 -4.00238 271.703 
9.79558e-06 -4.06158e-06 2.69189e+25 -4.34451 -4.33131 272.28 
1.17069e-05 -4.06158e-06 2.68991e+25 -2.18238 -4.48378 272.422 
1.36182e-05 -4.06158e-06 2.69038e+25 -0.285477 -3.11726 272.133 
1.55296e-05 -4.06158e-06 2.69292e+25 0.27192 -1.46693 271.807 
2.38917e-07 -3.58375e-06 2.68802e+25 -6.23537 0.112529 271.866 
2.15025e-06 -3.58375e-06 2.68619e+25 -6.54916 -0.311233 272.248 
4.06158e-06 -3.58375e-06 2.69252e+25 -6.77378 -2.01235 271.865 
5.97292e-06 -3.58375e-06 2.69702e+25 -6.67285 -3.38449 271.4 
7.88425e-06 -3.58375e-06 2.69346e+25 -5.55799 -4.26002 271.693 
9.79558e-06 -3.58375e-06 2.6936e+25 -4.12831 -4.75403 271.794 
1.17069e-05 -3.58375e-06 2.68592e+25 -2.11354 -4.9364 272.473 
1.36182e-05 -3.58375e-06 2.68956e+25 -0.581721 -3.53564 272.167 
1.55296e-05 -3.58375e-06 2.69262e+25 0.128053 -1.3054 272.062 
2.38917e-07 -3.10592e-06 2.68958e+25 -6.54627 0.357648 271.792 
2.15025e-06 -3.10592e-06 2.68836e+25 -7.12617 -0.251608 272.197 
4.06158e-06 -3.10592e-06 2.6901e+25 -7.32232 -2.12713 271.871 
5.97292e-06 -3.10592e-06 2.69301e+25 -7.00236 -3.46649 271.607 
7.88425e-06 -3.10592e-06 2.69055e+25 -6.16615 -4.71638 271.837 
9.79558e-06 -3.10592e-06 2.6955e+25 -4.24739 -5.00616 271.6 
1.17069e-05 -3.10592e-06 2.68364e+25 -2.45644 -5.26719 272.584 
1.36182e-05 -3.10592e-06 2.6913e+25 -0.687116 -3.95291 271.915 
1.55296e-05 -3.10592e-06 2.69064e+25 0.135515 -1.27377 272.228 
2.38917e-07 -2.62808e-06 2.69054e+25 -6.62525 0.653489 271.73 
2.15025e-06 -2.62808e-06 2.68725e+25 -7.17983 0.0425247 272.097 
4.06158e-06 -2.62808e-06 2.68601e+25 -7.52794 -2.02009 272.326 
5.97292e-06 -2.62808e-06 2.69071e+25 -7.3922 -3.30272 271.976 
7.88425e-06 -2.62808e-06 2.692e+25 -6.47044 -5.14318 271.987 
9.79558e-06 -2.62808e-06 2.6956e+25 -4.52277 -5.52152 271.7 
1.17069e-05 -2.62808e-06 2.68735e+25 -2.83853 -5.75903 272.25 
1.36182e-05 -2.62808e-06 2.68916e+25 -1.07193 -4.25262 272.242 
1.55296e-05 -2.62808e-06 2.6889e+25 0.20566 -1.57654 272.526 
2.38917e-07 -2.15025e-06 2.68961e+25 -6.85312 0.967469 271.823 
2.15025e-06 -2.15025e-06 2.68829e+25 -7.41091 0.175967 271.928 
4.06158e-06 -2.15025e-06 2.68779e+25 -7.40115 -1.9706 272.305 
5.97292e-06 -2.15025e-06 2.69051e+25 -7.69574 -3.26875 271.983 
7.88425e-06 -2.15025e-06 2.68944e+25 -6.78632 -5.54672 272.031 
9.79558e-06 -2.15025e-06 2.6931e+25 -5.03018 -6.09131 272.029 
1.17069e-05 -2.15025e-06 2.69205e+25 -3.07986 -6.15389 272.219 
1.36182e-05 -2.15025e-06 2.68568e+25 -1.2665 -4.49561 272.612 
1.55296e-05 -2.15025e-06 2.68737e+25 -0.11989 -1.73847 272.454 
2.38917e-07 -1.67242e-06 2.6898e+25 -7.18837 1.31061 271.715 
2.15025e-06 -1.67242e-06 2.69232e+25 -7.59154 -0.00491227 272.036 
4.06158e-06 -1.67242e-06 2.68872e+25 -7.22406 -2.00282 272.398 
5.97292e-06 -1.67242e-06 2.6932e+25 -7.50667 -3.24311 271.889 
7.88425e-06 -1.67242e-06 2.68851e+25 -6.64121 -5.88128 272.161 
9.79558e-06 -1.67242e-06 2.69253e+25 -5.3146 -6.43041 271.873 
1.17069e-05 -1.67242e-06 2.68716e+25 -3.38914 -6.72261 272.46 
1.36182e-05 -1.67242e-06 2.687e+25 -1.59036 -4.95793 272.354 
1.55296e-05 -1.67242e-06 2.68837e+25 -0.0557012 -1.66899 272.485 
2.38917e-07 -1.19458e-06 2.68643e+25 -7.64697 1.5123 271.908 
2.15025e-06 -1.19458e-06 2.68991e+25 -7.64086 -0.459149 272.067 
4.06158e-06 -1.19458e-06 2.68827e+25 -7.20115 -1.94472 272.189 
5.97292e-06 -1.19458e-06 2.69025e+25 -7.09087 -3.37587 271.975 
7.88425e-06 -1.19458e-06 2.6879e+25 -6.32708 -6.0986 272.357 
9.79558e-06 -1.19458e-06 2.6912e+25 -5.32346 -6.84877 271.998 
1.17069e-05 -1.19458e-06 2.68671e+25 -3.35004 -7.38375 272.536 
1.36182e-05 -1.19458e-06 2.68831e+25 -1.86011 -5.34634 272.361 
1.55296e-05 -1.19458e-06 2.68447e+25 -0.393466 -1.82716 272.452 
2.38917e-07 -7.1675e-07 2.6894e+25 -7.61132 1.63938 271.74 
2.15025e-06 -7.1675e-07 2.68925e+25 -7.46931 -0.894928 271.973 
4.06158e-06 -7.1675e-07 2.68641e+25 -7.13273 -1.95481 272.438 
5.97292e-06 -7.1675e-07 2.69042e+25 -6.79019 -3.48006 272.036 
7.88425e-06 -7.1675e-07 2.69012e+25 -6.36084 -5.93874 272.375 
9.79558e-06 -7.1675e-07 2.69068e+25 -5.12784 -7.281 272.246 
1.17069e-05 -7.1675e-07 2.68831e+25 -3.67226 -7.70356 272.33 
1.36182e-05 -7.1675e-07 2.68504e+25 -2.07681 -5.83295 272.495 
1.55296e-05 -7.1675e-07 2.68423e+25 -0.540329 -2.18809 272.639 
2.38917e-07 -2.38917e-07 2.68627e+25 -7.75943 1.89189 271.816 
2.15025e-06 -2.38917e-07 2.68567e+25 -7.82834 -0.885338 271.967 
4.06158e-06 -2.38917e-07 2.68487e+25 -7.40361 -2.06939 272.37 
5.97292e-06 -2.38917e-07 2.68456e+25 -6.60328 -3.49374 272.347 
7.88425e-06 -2.38917e-07 2.68734e+25 -6.6213 -5.93818 272.197 
9.79558e-06 -2.38917e-07 2.68869e+25 -5.26227 -7.80112 272.2 
1.17069e-05 -2.38917e-07 2.68358e+25 -4.19602 -7.85632 272.564 
1.36182e-05 -2.38917e-07 2.68661e+25 -2.38778 -6.19031 272.191 
1.55296e-05 -2.38917e-07 2.68696e+25 -0.958124 -2.59342 272.254 
7.1675e-07 -1.69631e-05 2.68824e+25 -0.258131 -0.0317845 272.752 
2.62808e-06 -1.69631e-05 2.68435e+25 -0.58096 0.0313614 272.861 
4.53942e-06 -1.69631e-05 2.68194e+25 -0.11606 0.0621787 272.833 
6.45075e-06 -1.69631e-05 2.6844e+25 -0.251831 0.077547 272.769 
8.36208e-06 -1.69631e-05 2.68707e+25 -0.355232 0.125493 272.571 
1.02734e-05 -1.69631e-05 2.68595e+25 -0.12207 -0.0450887 272.807 
1.21847e-05 -1.69631e-05 2.68484e+25 0.074449 0.0101662 272.727 
1.40961e-05 -1.69631e-05 2.68426e+25 0.221737 0.0156902 272.636 
1.60074e-05 -1.69631e-05 2.68185e+25 -0.137692 -0.0176917 273.093 
7.1675e-07 -1.64852e-05 2.68689e+25 -0.694033 -0.0851278 272.687 
2.62808e-06 -1.64852e-05 2.68685e+25 -0.569733 0.0681008 272.392 
4.53942e-06 -1.64852e-05 2.68123e+25 -0.410262 0.0992513 272.98 
6.45075e-06 -1.64852e-05 2.68714e+25 -0.769948 -0.196314 272.383 
8.36208e-06 -1.64852e-05 2.68941e+25 -0.577186 0.245124 272.345 
1.02734e-05 -1.64852e-05 2.68833e+25 -0.345585 -0.200319 272.321 
1.21847e-05 -1.64852e-05 2.68427e+25 0.306131 0.02998 272.54 
1.40961e-05 -1.64852e-05 2.68472e+25 0.0633958 -0.00995743 272.703 
1.60074e-05 -1.64852e-05 2.68799e+25 0.262251 0.0271787 272.644 
7.1675e-07 -1.60074e-05 2.68887e+25 -1.34071 -0.0756263 272.372 
2.62808e-06 -1.60074e-05 2.69354e+25 -0.835959 0.215725 271.965 
4.53942e-06 -1.60074e-05 2.68413e+25 -1.18717 0.108487 272.681 
6.45075e-06 -1.60074e-05 2.6905e+25 -1.08407 -0.229788 272.377 
8.36208e-06 -1.60074e-05 2.68955e+25 -0.972595 0.232909 272.304 
1.02734e-05 -1.60074e-05 2.69046e+25 -0.509989 -0.395392 272.137 
1.21847e-05 -1.60074e-05 2.68818e+25 0.388379 0.00513072 272.486 
1.40961e-05 -1.60074e-05 2.68593e+25 0.351013 -0.0878901 272.442 
1.60074e-05 -1.60074e-05 2.69141e+25 0.213633 0.113953 272.066 
7.1675e-07 -1.55296e-05 2.69024e+25 -1.71236 -0.0176332 272.141 
2.62808e-06 -1.55296e-05 2.69403e+25 -1.12316 0.176905 271.755 
4.53942e-06 -1.55296e-05 2.68571e+25 -1.47757 0.173655 272.534 
6.45075e-06 -1.55296e-05 2.68993e+25 -1.22849 -0.186322 272.272 
8.36208e-06 -1.55296e-05 2.68725e+25 -1.30899 -0.105285 272.41 
1.02734e-05 -1.55296e-05 2.6886e+25 -0.253611 -0.476897 272.307 
1.21847e-05 -1.55296e-05 2.6913e+25 0.102211 -0.144332 272.165 
1.40961e-05 -1.55296e-05 2.69029e+25 0.218854 -0.152781 272.288 
1.60074e-05 -1.55296e-05 2.69014e+25 0.265991 0.205634 272.242 
7.1675e-07 -1.50517e-05 2.69311e+25 -1.64806 -0.0937011 271.902 
2.62808e-06 -1.50517e-05 2.69582e+25 -1.39805 0.131295 271.625 
4.53942e-06 -1.50517e-05 2.68899e+25 -1.41507 0.273088 272.143 
6.45075e-06 -1.50517e-05 2.69519e+25 -1.10368 -0.139583 272.008 
8.36208e-06 -1.50517e-05 2.68892e+25 -0.867264 -0.292991 272.343 
1.02734e-05 -1.50517e-05 2.686e+25 -0.423466 -0.720084 272.737 
1.21847e-05 -1.50517e-05 2.68867e+25 -0.0956347 -0.275007 272.402 
1.40961e-05 -1.50517e-05 2.69074e+25 0.273856 -0.129893 272.276 
1.60074e-05 -1.50517e-05 2.6913e+25 0.301768 0.396747 271.999 
7.1675e-07 -1.45739e-05 2.69117e+25 -1.47021 -0.180536 272.161 
2.62808e-06 -1.45739e-05 2.69487e+25 -1.31906 0.154245 271.713 
4.53942e-06 -1.45739e-05 2.69226e+25 -1.49249 0.291215 272.085 
6.45075e-06 -1.45739e-05 2.69519e+25 -1.00783 -0.0310274 271.819 
8.36208e-06 -1.45739e-05 2.6884e+25 -0.87115 -0.485703 272.319 
1.02734e-05 -1.45739e-05 2.68736e+25 -0.710449 -0.770147 272.561 
1.21847e-05 -1.45739e-05 2.68853e+25 -0.203054 -0.312642 272.21 
1.40961e-05 -1.45739e-05 2.69054e+25 0.377894 -0.0508373 272.257 
1.60074e-05 -1.45739e-05 2.68858e+25 0.162494 0.547226 272.23 
7.1675e-07 -1.40961e-05 2.68995e+25 -1.51773 -0.356292 272.162 
2.62808e-06 -1.40961e-05 2.69388e+25 -1.48317 0.123813 271.748 
4.53942e-06 -1.40961e-05 2.69504e+25 -1.48411 0.0913276 271.744 
6.45075e-06 -1.40961e-05 2.6911e+25 -1.37191 0.0455565 272.056 
8.36208e-06 -1.40961e-05 2.6885e+25 -0.869099 -0.663993 272.434 
1.02734e-05 -1.40961e-05 2.68714e+25 -1.04873 -0.887028 272.461 
1.21847e-05 -1.40961e-05 2.69149e+25 -0.478363 -0.584266 272.195 
1.40961e-05 -1.40961e-05 2.69038e+25 0.35749 0.131906 272.166 
1.60074e-05 -1.40961e-05 2.68844e+25 0.0121115 0.582772 272.426 
7.1675e-07 -1.36182e-05 2.68774e+25 -1.88457 -0.534183 272.289 
2.62808e-06 -1.36182e-05 2.69674e+25 -1.74327 0.0563419 271.454 
4.53942e-06 -1.36182e-05 2.69517e+25 -1.15388 -0.207415 271.565 
6.45075e-06 -1.36182e-05 2.69223e+25 -1.25128 0.0455168 271.757 
8.36208e-06 -1.36182e-05 2.69092e+25 -0.976739 -0.57969 272.337 
1.02734e-05 -1.36182e-05 2.68857e+25 -1.12365 -0.913296 272.428 
1.21847e-05 -1.36182e-05 2.69095e+25 -1.11487 -0.717592 272.196 
1.40961e-05 -1.36182e-05 2.68654e+25 0.0123095 -0.0255397 272.293 
1.60074e-05 -1.36182e-05 2.68722e+25 -0.0630058 0.62471 272.422 
7.1675e-07 -1.31404e-05 2.68838e+25 -1.94684 -0.410733 272.229 
2.62808e-06 -1.31404e-05 2.69869e+25 -1.8257 -0.227542 271.344 
4.53942e-06 -1.31404e-05 2.695e+25 -1.45553 -0.406898 271.883 
6.45075e-06 -1.31404e-05 2.69476e+25 -1.17714 0.0638831 271.841 
8.36208e-06 -1.31404e-05 2.68802e+25 -1.32555 -0.560649 272.357 
1.02734e-05 -1.31404e-05 2.68693e+25 -0.959035 -0.840241 272.563 
1.21847e-05 -1.31404e-05 2.68905e+25 -1.2146 -1.01823 272.241 
1.40961e-05 -1.31404e-05 2.68724e+25 -0.607502 -0.166383 272.359 
1.60074e-05 -1.31404e-05 2.69179e+25 -0.642576 0.450358 272.049 
7.1675e-07 -1.26626e-05 2.68949e+25 -2.18531 -0.219025 272.187 
2.62808e-06 -1.26626e-05 2.69339e+25 -2.03899 -0.389867 271.895 
4.53942e-06 -1.26626e-05 2.69621e+25 -1.61866 -0.380483 271.828 
6.45075e-06 -1.26626e-05 2.69084e+25 -1.44247 0.201266 271.893 
8.36208e-06 -1.26626e-05 2.68938e+25 -1.06388 -0.845162 272.29 
1.02734e-05 -1.26626e-05 2.68885e+25 -0.977574 -0.75307 272.629 
1.21847e-05 -1.26626e-05 2.69266e+25 -0.816329 -1.08684 272.056 
1.40961e-05 -1.26626e-05 2.68652e+25 -0.749094 -0.286903 272.577 
1.60074e-05 -1.26626e-05 2.6894e+25 -0.441122 0.101586 272.105 
7.1675e-07 -1.21847e-05 2.68916e+25 -2.16116 -0.0304824 272.282 
2.62808e-06 -1.21847e-05 2.69254e+25 -1.93041 -0.355534 272.055 
4.53942e-06 -1.21847e-05 2.69526e+25 -1.69279 -0.450733 271.564 
6.45075e-06 -1.21847e-05 2.68917e+25 -1.74909 0.0479989 272.005 
8.36208e-06 -1.21847e-05 2.68884e+25 -1.24667 -1.00594 272.278 
1.02734e-05 -1.21847e-05 2.68965e+25 -1.18019 -0.853431 272.523 
1.21847e-05 -1.21847e-05 2.69483e+25 -0.790057 -1.11083 271.771 
1.40961e-05 -1.21847e-05 2.69205e+25 -0.970872 -0.100179 272.079 
1.60074e-05 -1.21847e-05 2.69008e+25 -0.174402 -0.150076 272.19 
7.1675e-07 -1.17069e-05 2.69169e+25 -2.38464 0.116413 271.921 
2.62808e-06 -1.17069e-05 2.69007e+25 -2.51336 -0.389804 271.95 
4.53942e-06 -1.17069e-05 2.69579e+25 -1.68464 -0.63521 271.733 
6.45075e-06 -1.17069e-05 2.68901e+25 -1.48075 0.0139747 272.163 
8.36208e-06 -1.17069e-05 2.6865e+25 -1.45078 -0.848302 272.601 
1.02734e-05 -1.17069e-05 2.68593e+25 -1.28396 -0.875483 272.419 
1.21847e-05 -1.17069e-05 2.69152e+25 -1.08568 -1.09019 271.664 
1.40961e-05 -1.17069e-05 2.69256e+25 -1.08802 -0.0357292 271.906 
1.60074e-05 -1.17069e-05 2.6915e+25 -0.333064 -0.199162 272.236 
7.1675e-07 -1.12291e-05 2.69341e+25 -2.78134 0.0812958 271.978 
2.62808e-06 -1.12291e-05 2.68983e+25 -2.59036 -0.546683 271.868 
4.53942e-06 -1.12291e-05 2.69568e+25 -2.51424 -0.524916 271.641 
6.45075e-06 -1.12291e-05 2.68914e+25 -1.79262 -0.0957565 272.28 
8.36208e-06 -1.12291e-05 2.68607e+25 -1.46212 -0.821548 272.416 
1.02734e-05 -1.12291e-05 2.68967e+25 -1.42884 -0.919141 272.165 
1.21847e-05 -1.12291e-05 2.69461e+25 -1.03627 -1.19786 271.748 
1.40961e-05 -1.12291e-05 2.68751e+25 -0.81595 -0.0988883 272.321 
1.60074e-05 -1.12291e-05 2.68669e+25 -0.0531873 -0.353016 272.435 
7.1675e-07 -1.07512e-05 2.6923e+25 -3.18591 -0.0792396 271.717 
2.62808e-06 -1.07512e-05 2.69183e+25 -2.68946 -0.687833 271.925 
4.53942e-06 -1.07512e-05 2.69253e+25 -2.81872 -0.416609 271.944 
6.45075e-06 -1.07512e-05 2.69055e+25 -2.11993 -0.368977 272.155 
8.36208e-06 -1.07512e-05 2.69077e+25 -1.61541 -0.833135 272.228 
1.02734e-05 -1.07512e-05 2.68771e+25 -1.4678 -0.786335 272.161 
1.21847e-05 -1.07512e-05 2.69106e+25 -0.783639 -1.31653 271.86 
1.40961e-05 -1.07512e-05 2.68948e+25 -0.264142 -0.2083 272.161 
1.60074e-05 -1.07512e-05 2.68984e+25 0.0410589 -0.414978 272.357 
7.1675e-07 -1.02734e-05 2.69363e+25 -3.62148 -0.275505 271.686 
2.62808e-06 -1.02734e-05 2.69472e+25 -3.43795 -1.06055 271.74 
4.53942e-06 -1.02734e-05 2.69142e+25 -2.88304 -0.452153 272.075 
6.45075e-06 -1.02734e-05 2.69322e+25 -2.25495 -0.648634 272.184 
8.36208e-06 -1.02734e-05 2.68762e+25 -1.93308 -0.849156 272.25 
1.02734e-05 -1.02734e-05 2.69047e+25 -1.45394 -0.96466 272.223 
1.21847e-05 -1.02734e-05 2.69429e+25 -0.703393 -1.43212 271.772 
1.40961e-05 -1.02734e-05 2.68854e+25 -0.862252 -0.29681 272.12 
1.60074e-05 -1.02734e-05 2.68963e+25 0.150294 -0.495479 272.262 
7.1675e-07 -9.79558e-06 2.69388e+25 -3.62289 -0.278415 271.693 
2.62808e-06 -9.79558e-06 2.69299e+25 -3.97482 -1.1326 271.769 
4.53942e-06 -9.79558e-06 2.69444e+25 -3.41962 -0.410411 272.099 
6.45075e-06 -9.79558e-06 2.69606e+25 -2.60072 -0.808314 271.932 
8.36208e-06 -9.79558e-06 2.69102e+25 -1.83402 -1.11275 272.008 
1.02734e-05 -9.79558e-06 2.6913e+25 -1.02574 -1.216 272.06 
1.21847e-05 -9.79558e-06 2.6931e+25 -0.435894 -1.66883 271.916 
1.40961e-05 -9.79558e-06 2.6926e+25 -0.779634 -0.436843 271.932 
1.60074e-05 -9.79558e-06 2.68706e+25 -0.335001 -0.714861 272.379 
7.1675e-07 -9.31775e-06 2.69133e+25 -4.00789 -0.206463 271.904 
2.62808e-06 -9.31775e-06 2.695e+25 -4.36604 -1.05125 271.845 
4.53942e-06 -9.31775e-06 2.69135e+25 -3.55477 -0.640087 271.831 
6.45075e-06 -9.31775e-06 2.69379e+25 -2.58529 -1.05306 271.889 
8.36208e-06 -9.31775e-06 2.69155e+25 -1.96088 -1.38361 272.08 
1.02734e-05 -9.31775e-06 2.69306e+25 -0.901839 -1.5456 272.05 
1.21847e-05 -9.31775e-06 2.69359e+25 -0.915723 -1.70874 271.758 
1.40961e-05 -9.31775e-06 2.69271e+25 -0.425942 -0.603584 271.716 
1.60074e-05 -9.31775e-06 2.68949e+25 -0.376576 -0.76058 272.249 
7.1675e-07 -8.83992e-06 2.69292e+25 -4.24425 -0.174186 271.931 
2.62808e-06 -8.83992e-06 2.69227e+25 -4.49403 -0.942617 271.787 
4.53942e-06 -8.83992e-06 2.69326e+25 -3.99132 -0.992631 272.044 
6.45075e-06 -8.83992e-06 2.6906e+25 -3.00508 -1.26805 272.157 
8.36208e-06 -8.83992e-06 2.6951e+25 -1.82277 -1.5862 272.014 
1.02734e-05 -8.83992e-06 2.69311e+25 -1.11461 -1.68355 272.103 
1.21847e-05 -8.83992e-06 2.69743e+25 -1.10871 -1.76539 271.465 
1.40961e-05 -8.83992e-06 2.69056e+25 -0.439825 -0.472055 271.976 
1.60074e-05 -8.83992e-06 2.69402e+25 -0.178379 -0.898162 271.866 
7.1675e-07 -8.36208e-06 2.69073e+25 -4.81269 -0.189061 272.122 
2.62808e-06 -8.36208e-06 2.68906e+25 -4.73871 -0.980625 272.13 
4.53942e-06 -8.36208e-06 2.68961e+25 -4.09469 -1.28375 272.135 
6.45075e-06 -8.36208e-06 2.68937e+25 -3.01145 -1.58055 272.281 
8.36208e-06 -8.36208e-06 2.69084e+25 -1.88568 -1.74488 272.132 
1.02734e-05 -8.36208e-06 2.69892e+25 -1.12226 -1.88012 271.483 
1.21847e-05 -8.36208e-06 2.69142e+25 -0.842051 -1.80485 271.903 
1.40961e-05 -8.36208e-06 2.69387e+25 -0.182589 -0.560744 271.804 
1.60074e-05 -8.36208e-06 2.69409e+25 0.0927437 -0.935032 271.717 
7.1675e-07 -7.88425e-06 2.69154e+25 -5.33718 0.062257 272.208 
2.62808e-06 -7.88425e-06 2.69204e+25 -4.95483 -1.21558 271.852 
4.53942e-06 -7.88425e-06 2.69451e+25 -3.91557 -1.54593 271.879 
6.45075e-06 -7.88425e-06 2.69403e+25 -3.25947 -1.89399 271.913 
8.36208e-06 -7.88425e-06 2.69169e+25 -2.55664 -1.80669 271.922 
1.02734e-05 -7.88425e-06 2.69447e+25 -1.31167 -2.13024 271.65 
1.21847e-05 -7.88425e-06 2.69614e+25 -0.682379 -1.68849 271.823 
1.40961e-05 -7.88425e-06 2.69225e+25 -0.190632 -0.875308 272.116 
1.60074e-05 -7.88425e-06 2.69039e+25 0.23545 -0.70605 271.913 
7.1675e-07 -7.40642e-06 2.68991e+25 -5.36762 0.137136 272.204 
2.62808e-06 -7.40642e-06 2.6949e+25 -5.11747 -1.72838 271.865 
4.53942e-06 -7.40642e-06 2.69432e+25 -4.09321 -1.72689 271.634 
6.45075e-06 -7.40642e-06 2.69606e+25 -3.67548 -2.04303 271.813 
8.36208e-06 -7.40642e-06 2.6897e+25 -2.64388 -2.07049 272.04 
1.02734e-05 -7.40642e-06 2.69443e+25 -1.84219 -2.36229 271.749 
1.21847e-05 -7.40642e-06 2.6944e+25 -0.706239 -1.6974 271.756 
1.40961e-05 -7.40642e-06 2.68934e+25 -0.402128 -1.15929 272.284 
1.60074e-05 -7.40642e-06 2.69179e+25 0.224326 -0.41048 272.322 
7.1675e-07 -6.92858e-06 2.6882e+25 -5.29469 0.167661 272.06 
2.62808e-06 -6.92858e-06 2.69137e+25 -5.11061 -1.92115 272.218 
4.53942e-06 -6.92858e-06 2.69503e+25 -4.49661 -1.94744 271.751 
6.45075e-06 -6.92858e-06 2.69338e+25 -3.71757 -2.2987 271.813 
8.36208e-06 -6.92858e-06 2.69117e+25 -3.10204 -2.40532 271.972 
1.02734e-05 -6.92858e-06 2.69336e+25 -1.67853 -2.60753 271.928 
1.21847e-05 -6.92858e-06 2.69394e+25 -0.900233 -1.81453 271.609 
1.40961e-05 -6.92858e-06 2.68703e+25 -0.288028 -1.68956 272.263 
1.60074e-05 -6.92858e-06 2.68874e+25 0.145964 -0.374987 272.27 
7.1675e-07 -6.45075e-06 2.69254e+25 -4.76932 0.354678 271.93 
2.62808e-06 -6.45075e-06 2.69277e+25 -4.82985 -1.99824 271.851 
4.53942e-06 -6.45075e-06 2.69374e+25 -4.92515 -2.03757 271.903 
6.45075e-06 -6.45075e-06 2.69427e+25 -4.60234 -2.51908 271.655 
8.36208e-06 -6.45075e-06 2.69014e+25 -3.68508 -2.75908 271.945 
1.02734e-05 -6.45075e-06 2.69701e+25 -1.98268 -2.96347 271.601 
1.21847e-05 -6.45075e-06 2.69342e+25 -1.39233 -2.13675 271.652 
1.40961e-05 -6.45075e-06 2.69027e+25 -0.144783 -2.12033 272.108 
1.60074e-05 -6.45075e-06 2.68864e+25 0.0276326 -0.468223 272.438 
7.1675e-07 -5.97292e-06 2.69117e+25 -4.71035 0.478154 271.851 
2.62808e-06 -5.97292e-06 2.69252e+25 -4.85859 -1.79052 271.997 
4.53942e-06 -5.97292e-06 2.69048e+25 -5.61005 -2.13444 272.096 
6.45075e-06 -5.97292e-06 2.69127e+25 -4.89714 -2.46286 271.904 
8.36208e-06 -5.97292e-06 2.68907e+25 -4.33943 -3.03076 271.939 
1.02734e-05 -5.97292e-06 2.69641e+25 -2.81627 -3.18585 271.519 
1.21847e-05 -5.97292e-06 2.69261e+25 -1.48174 -2.16086 271.895 
1.40961e-05 -5.97292e-06 2.68897e+25 -0.518996 -2.44386 272.335 
1.60074e-05 -5.97292e-06 2.6857e+25 0.00799294 -0.625547 272.473 
7.1675e-07 -5.49508e-06 2.68865e+25 -5.12165 0.408849 272.382 
2.62808e-06 -5.49508e-06 2.69171e+25 -5.31859 -1.46929 272.068 
4.53942e-06 -5.49508e-06 2.68978e+25 -5.62998 -2.02208 272.176 
6.45075e-06 -5.49508e-06 2.69095e+25 -5.32652 -2.4788 272.153 
8.36208e-06 -5.49508e-06 2.69566e+25 -4.46027 -3.28271 271.676 
1.02734e-05 -5.49508e-06 2.69385e+25 -3.17185 -3.26486 271.584 
1.21847e-05 -5.49508e-06 2.68987e+25 -1.72265 -2.63624 272.172 
1.40961e-05 -5.49508e-06 2.68978e+25 -0.819086 -2.51835 272.448 
1.60074e-05 -5.49508e-06 2.68966e+25 -0.445484 -0.966236 272.148 
7.1675e-07 -5.01725e-06 2.68796e+25 -5.33569 0.302457 272.237 
2.62808e-06 -5.01725e-06 2.69267e+25 -5.85294 -1.32596 271.9 
4.53942e-06 -5.01725e-06 2.68791e+25 -5.61035 -2.08362 272.066 
6.45075e-06 -5.01725e-06 2.68818e+25 -5.57309 -2.53799 272.396 
8.36208e-06 -5.01725e-06 2.6968e+25 -4.55072 -3.73334 271.456 
1.02734e-05 -5.01725e-06 2.69113e+25 -3.55142 -3.45418 271.762 
1.21847e-05 -5.01725e-06 2.69147e+25 -1.85548 -3.03224 272.168 
1.40961e-05 -5.01725e-06 2.68601e+25 -0.520754 -2.62255 272.636 
1.60074e-05 -5.01725e-06 2.69067e+25 -0.253564 -1.267 271.826 
7.1675e-07 -4.53942e-06 2.69214e+25 -5.82602 0.200783 271.944 
2.62808e-06 -4.53942e-06 2.69258e+25 -6.06438 -1.15005 271.808 
4.53942e-06 -4.53942e-06 2.69289e+25 -6.14138 -2.22448 271.843 
6.45075e-06 -4.53942e-06 2.6889e+25 -5.65267 -2.50871 272.282 
8.36208e-06 -4.53942e-06 2.69784e+25 -4.58644 -3.76243 271.674 
1.02734e-05 -4.53942e-06 2.68983e+25 -3.97083 -3.83287 272.032 
1.21847e-05 -4.53942e-06 2.68693e+25 -1.80038 -3.55607 272.437 
1.40961e-05 -4.53942e-06 2.68881e+25 -0.324148 -2.78256 272.333 
1.60074e-05 -4.53942e-06 2.6919e+25 -0.0387594 -1.26195 271.789 
7.1675e-07 -4.06158e-06 2.69118e+25 -5.93851 0.097738 271.98 
2.62808e-06 -4.06158e-06 2.69251e+25 -6.47895 -1.13345 272.008 
4.53942e-06 -4.06158e-06 2.69345e+25 -6.56031 -2.31654 271.79 
6.45075e-06 -4.06158e-06 2.69368e+25 -5.96432 -2.75674 271.765 
8.36208e-06 -4.06158e-06 2.6937e+25 -5.13235 -4.01878 271.628 
1.02734e-05 -4.06158e-06 2.68969e+25 -3.8821 -4.23429 272.263 
1.21847e-05 -4.06158e-06 2.68406e+25 -1.76022 -4.07822 272.752 
1.40961e-05 -4.06158e-06 2.69206e+25 0.0191435 -3.06188 272.277 
1.60074e-05 -4.06158e-06 2.69059e+25 0.0288787 -1.04667 272.059 
7.1675e-07 -3.58375e-06 2.69028e+25 -6.50602 0.124838 272.014 
2.62808e-06 -3.58375e-06 2.68597e+25 -6.66792 -0.847276 272.434 
4.53942e-06 -3.58375e-06 2.69306e+25 -6.67806 -2.22524 271.767 
6.45075e-06 -3.58375e-06 2.69536e+25 -6.25094 -3.07634 271.693 
8.36208e-06 -3.58375e-06 2.69375e+25 -5.17972 -4.42824 271.465 
1.02734e-05 -3.58375e-06 2.69082e+25 -3.59632 -4.90471 271.986 
1.21847e-05 -3.58375e-06 2.68432e+25 -1.81496 -4.37607 272.767 
1.40961e-05 -3.58375e-06 2.68919e+25 -0.343601 -3.15017 272.514 
1.60074e-05 -3.58375e-06 2.6859e+25 0.0181774 -0.903781 272.376 
7.1675e-07 -3.10592e-06 2.6913e+25 -6.69003 0.254828 271.96 
2.62808e-06 -3.10592e-06 2.68801e+25 -7.18122 -0.799883 272.212 
4.53942e-06 -3.10592e-06 2.69023e+25 -7.21728 -2.28851 272.044 
6.45075e-06 -3.10592e-06 2.69721e+25 -7.02857 -3.35416 271.626 
8.36208e-06 -3.10592e-06 2.69624e+25 -5.6376 -4.83639 271.575 
1.02734e-05 -3.10592e-06 2.69112e+25 -3.68393 -5.57759 271.964 
1.21847e-05 -3.10592e-06 2.68644e+25 -2.00731 -4.779 272.497 
1.40961e-05 -3.10592e-06 2.68863e+25 -0.341608 -3.35345 272.286 
1.60074e-05 -3.10592e-06 2.68553e+25 0.129938 -0.8267 272.561 
7.1675e-07 -2.62808e-06 2.69212e+25 -6.81848 0.423468 272.026 
2.62808e-06 -2.62808e-06 2.6938e+25 -7.38447 -0.764563 272.005 
4.53942e-06 -2.62808e-06 2.69202e+25 -7.52406 -2.47935 272.043 
6.45075e-06 -2.62808e-06 2.69526e+25 -7.46987 -3.44685 271.695 
8.36208e-06 -2.62808e-06 2.69497e+25 -6.02479 -5.41278 271.75 
1.02734e-05 -2.62808e-06 2.69301e+25 -4.02398 -6.06114 272.015 
1.21847e-05 -2.62808e-06 2.68556e+25 -2.23858 -5.34437 272.359 
1.40961e-05 -2.62808e-06 2.6868e+25 -0.873697 -3.63856 272.395 
1.60074e-05 -2.62808e-06 2.6896e+25 0.305305 -0.713497 272.437 
7.1675e-07 -2.15025e-06 2.69341e+25 -7.12171 0.588697 271.973 
2.62808e-06 -2.15025e-06 2.6923e+25 -7.49839 -0.677024 271.983 
4.53942e-06 -2.15025e-06 2.69077e+25 -7.5081 -2.49178 272.079 
6.45075e-06 -2.15025e-06 2.69557e+25 -7.61521 -3.49413 271.731 
8.36208e-06 -2.15025e-06 2.6929e+25 -6.38175 -5.87002 271.829 
1.02734e-05 -2.15025e-06 2.69398e+25 -4.71391 -6.42399 272.018 
1.21847e-05 -2.15025e-06 2.6904e+25 -2.54475 -5.96241 272.317 
1.40961e-05 -2.15025e-06 2.68557e+25 -0.987658 -3.85369 272.429 
1.60074e-05 -2.15025e-06 2.68721e+25 -0.18412 -0.602548 272.316 
7.1675e-07 -1.67242e-06 2.6904e+25 -7.50567 0.83733 272.111 
2.62808e-06 -1.67242e-06 2.68791e+25 -7.31422 -0.758392 272.202 
4.53942e-06 -1.67242e-06 2.69065e+25 -7.31445 -2.23354 272.023 
6.45075e-06 -1.67242e-06 2.68822e+25 -7.55537 -3.66675 272.162 
8.36208e-06 -1.67242e-06 2.69012e+25 -6.3676 -6.23342 272.122 
1.02734e-05 -1.67242e-06 2.69522e+25 -4.97841 -6.76523 271.984 
1.21847e-05 -1.67242e-06 2.68662e+25 -2.81 -6.5472 272.524 
1.40961e-05 -1.67242e-06 2.68945e+25 -1.09708 -4.1847 272.22 
1.60074e-05 -1.67242e-06 2.6875e+25 0.0152877 -0.718748 272.469 
7.1675e-07 -1.19458e-06 2.68945e+25 -7.79052 1.13002 272.148 
2.62808e-06 -1.19458e-06 2.68893e+25 -7.2204 -0.930472 272.063 
4.53942e-06 -1.19458e-06 2.68643e+25 -7.28652 -2.1611 272.225 
6.45075e-06 -1.19458e-06 2.68622e+25 -6.71372 -3.89923 272.21 
8.36208e-06 -1.19458e-06 2.69254e+25 -6.24403 -6.5638 271.91 
1.02734e-05 -1.19458e-06 2.69043e+25 -4.86368 -7.20188 272.021 
1.21847e-05 -1.19458e-06 2.68803e+25 -2.92564 -6.90084 272.555 
1.40961e-05 -1.19458e-06 2.68939e+25 -1.41153 -4.70229 272.079 
1.60074e-05 -1.19458e-06 2.6847e+25 -0.096957 -0.78755 272.674 
7.1675e-07 -7.1675e-07 2.69246e+25 -7.77997 1.28417 271.843 
2.62808e-06 -7.1675e-07 2.6863e+25 -7.31713 -1.06228 272.189 
4.53942e-06 -7.1675e-07 2.68363e+25 -7.08246 -2.2249 272.521 
6.45075e-06 -7.1675e-07 2.69169e+25 -6.82575 -4.02595 271.992 
8.36208e-06 -7.1675e-07 2.69278e+25 -6.41886 -6.71669 271.835 
1.02734e-05 -7.1675e-07 2.69022e+25 -4.68418 -7.70934 272.212 
1.21847e-05 -7.1675e-07 2.68803e+25 -3.41533 -7.22423 272.367 
1.40961e-05 -7.1675e-07 2.68773e+25 -1.65525 -5.10575 272.281 
1.60074e-05 -7.1675e-07 2.68625e+25 -0.094804 -1.18322 272.439 
7.1675e-07 -2.38917e-07 2.68991e+25 -7.95179 1.36148 271.687 
2.62808e-06 -2.38917e-07 2.68859e+25 -7.8044 -1.10585 271.783 
4.53942e-06 -2.38917e-07 2.68251e+25 -7.16244 -2.34843 272.502 
6.45075e-06 -2.38917e-07 2.68578e+25 -6.45418 -4.1014 272.315 
8.36208e-06 -2.38917e-07 2.69166e+25 -6.26951 -6.86682 271.885 
1.02734e-05 -2.38917e-07 2.68932e+25 -4.75992 -8.04577 272.042 
1.21847e-05 -2.38917e-07 2.68317e+25 -4.01234 -7.5017 272.545 
1.40961e-05 -2.38917e-07 2.68937e+25 -2.18781 -5.40245 272.104 
1.60074e-05 -2.38917e-07 2.68819e+25 -0.69027 -1.56595 272.47 
1.67242e-06 -1.69631e-05 2.68188e+25 -0.253792 0.0586024 273.069 
3.58375e-06 -1.69631e-05 2.68392e+25 -0.143871 -0.144943 272.774 
5.49508e-06 -1.69631e-05 2.68526e+25 -0.412588 0.0612793 272.684 
7.40642e-06 -1.69631e-05 2.68225e+25 -0.197578 -0.0361335 272.696 
9.31775e-06 -1.69631e-05 2.68645e+25 -0.381811 -0.0686728 272.697 
1.12291e-05 -1.69631e-05 2.68292e+25 0.144745 -0.0714801 272.75 
1.31404e-05 -1.69631e-05 2.68104e+25 0.095004 -0.0204155 273.004 
1.50518e-05 -1.69631e-05 2.68457e+25 0.0590397 0.00288233 272.902 
1.69631e-05 -1.69631e-05 2.6825e+25 -0.073599 -0.109995 273.062 
1.67242e-06 -1.64852e-05 2.68479e+25 -0.672747 0.121255 272.738 
3.58375e-06 -1.64852e-05 2.68541e+25 -0.723953 -0.252479 272.561 
5.49508e-06 -1.64852e-05 2.68524e+25 -0.628899 0.199793 272.485 
7.40642e-06 -1.64852e-05 2.68831e+25 -0.768467 0.000616689 272.38 
9.31775e-06 -1.64852e-05 2.68823e+25 -0.419226 -0.244458 272.36 
1.12291e-05 -1.64852e-05 2.68773e+25 0.173455 -0.239469 272.22 
1.31404e-05 -1.64852e-05 2.68317e+25 0.168662 0.0394065 272.907 
1.50518e-05 -1.64852e-05 2.68687e+25 0.108603 0.0513568 272.446 
1.69631e-05 -1.64852e-05 2.68229e+25 0.0569941 -0.0761685 273.074 
1.67242e-06 -1.60074e-05 2.69272e+25 -1.08726 0.0681784 272.056 
3.58375e-06 -1.60074e-05 2.68983e+25 -1.09977 -0.303753 272.289 
5.49508e-06 -1.60074e-05 2.68929e+25 -1.13529 0.398957 272.374 
7.40642e-06 -1.60074e-05 2.68849e+25 -0.926893 -0.0484556 272.282 
9.31775e-06 -1.60074e-05 2.69236e+25 -0.632747 -0.28209 272.214 
1.12291e-05 -1.60074e-05 2.69012e+25 -0.000894827 -0.563165 272.184 
1.31404e-05 -1.60074e-05 2.68688e+25 0.315899 0.0254826 272.498 
1.50518e-05 -1.60074e-05 2.69152e+25 0.336177 0.0602999 272.051 
1.69631e-05 -1.60074e-05 2.68385e+25 -0.00813283 0.128265 272.946 
1.67242e-06 -1.55296e-05 2.69406e+25 -1.46792 -0.223787 271.833 
3.58375e-06 -1.55296e-05 2.68845e+25 -1.37568 -0.185577 272.32 
5.49508e-06 -1.55296e-05 2.68749e+25 -1.41553 0.241254 272.35 
7.40642e-06 -1.55296e-05 2.68705e+25 -1.39693 0.0114666 272.347 
9.31775e-06 -1.55296e-05 2.69305e+25 -0.701156 -0.420581 272.137 
1.12291e-05 -1.55296e-05 2.69633e+25 -0.0650927 -0.527983 271.997 
1.31404e-05 -1.55296e-05 2.69151e+25 0.207691 0.149618 272.23 
1.50518e-05 -1.55296e-05 2.69293e+25 0.40602 -0.0302868 272.067 
1.69631e-05 -1.55296e-05 2.68512e+25 0.0589675 0.140132 272.886 
1.67242e-06 -1.50517e-05 2.69339e+25 -1.57725 -0.34144 271.829 
3.58375e-06 -1.50517e-05 2.68772e+25 -1.21433 -0.0599769 272.302 
5.49508e-06 -1.50517e-05 2.69465e+25 -1.30321 0.001885 271.946 
7.40642e-06 -1.50517e-05 2.68901e+25 -1.307 0.0970223 272.359 
9.31775e-06 -1.50517e-05 2.68737e+25 -0.785773 -0.625365 272.307 
1.12291e-05 -1.50517e-05 2.69106e+25 -0.391668 -0.495004 272.18 
1.31404e-05 -1.50517e-05 2.69215e+25 0.324284 0.0693575 272.213 
1.50518e-05 -1.50517e-05 2.68961e+25 0.373384 -0.105164 272.089 
1.69631e-05 -1.50517e-05 2.68208e+25 0.0106077 0.24642 273.048 
1.67242e-06 -1.45739e-05 2.69762e+25 -1.40682 -0.480646 271.595 
3.58375e-06 -1.45739e-05 2.6917e+25 -1.47356 -0.0754602 271.926 
5.49508e-06 -1.45739e-05 2.69944e+25 -0.939513 -0.155129 271.353 
7.40642e-06 -1.45739e-05 2.69124e+25 -1.17925 0.0539543 272.177 
9.31775e-06 -1.45739e-05 2.68775e+25 -1.03108 -0.73124 272.294 
1.12291e-05 -1.45739e-05 2.69002e+25 -0.43253 -0.804254 272.294 
1.31404e-05 -1.45739e-05 2.69181e+25 0.297642 -0.128166 272.031 
1.50518e-05 -1.45739e-05 2.69124e+25 0.256818 -0.0863751 272.179 
1.69631e-05 -1.45739e-05 2.68344e+25 -0.0300291 0.228471 272.876 
1.67242e-06 -1.40961e-05 2.69214e+25 -1.30329 -0.475939 271.887 
3.58375e-06 -1.40961e-05 2.69369e+25 -1.60658 0.000581953 271.765 
5.49508e-06 -1.40961e-05 2.69263e+25 -1.37776 -0.304044 271.817 
7.40642e-06 -1.40961e-05 2.68908e+25 -0.920189 0.0659527 272.181 
9.31775e-06 -1.40961e-05 2.68939e+25 -0.940561 -0.74465 272.12 
1.12291e-05 -1.40961e-05 2.69006e+25 -0.833792 -1.05802 272.234 
1.31404e-05 -1.40961e-05 2.68951e+25 -0.112511 -0.326392 272.17 
1.50518e-05 -1.40961e-05 2.68736e+25 0.370811 -0.120791 272.283 
1.69631e-05 -1.40961e-05 2.68269e+25 -0.0806735 0.159454 272.84 
1.67242e-06 -1.36182e-05 2.69257e+25 -1.88823 -0.444838 271.913 
3.58375e-06 -1.36182e-05 2.6938e+25 -1.57873 0.0240828 271.894 
5.49508e-06 -1.36182e-05 2.69136e+25 -1.33153 -0.254188 271.806 
7.40642e-06 -1.36182e-05 2.6858e+25 -1.2204 -0.423839 272.247 
9.31775e-06 -1.36182e-05 2.68666e+25 -0.842132 -0.574331 272.298 
1.12291e-05 -1.36182e-05 2.68888e+25 -1.04456 -1.02737 272.353 
1.31404e-05 -1.36182e-05 2.68795e+25 -0.562651 -0.58974 272.219 
1.50518e-05 -1.36182e-05 2.68611e+25 -0.0724065 0.107627 272.438 
1.69631e-05 -1.36182e-05 2.68206e+25 -0.0297323 0.00784269 273.041 
1.67242e-06 -1.31404e-05 2.69089e+25 -2.09899 -0.568801 272.077 
3.58375e-06 -1.31404e-05 2.69756e+25 -1.56615 0.0311469 271.474 
5.49508e-06 -1.31404e-05 2.68992e+25 -1.12802 -0.241205 272.055 
7.40642e-06 -1.31404e-05 2.68659e+25 -1.44606 -0.445799 272.366 
9.31775e-06 -1.31404e-05 2.68771e+25 -0.839021 -0.499841 272.31 
1.12291e-05 -1.31404e-05 2.691e+25 -1.27221 -0.918831 272.255 
1.31404e-05 -1.31404e-05 2.68791e+25 -0.738467 -0.741305 272.415 
1.50518e-05 -1.31404e-05 2.68766e+25 -0.428119 0.381599 272.401 
1.69631e-05 -1.31404e-05 2.68243e+25 0.00278178 0.034586 273.002 
1.67242e-06 -1.26626e-05 2.68763e+25 -2.2957 -0.459469 272.19 
3.58375e-06 -1.26626e-05 2.69796e+25 -1.7329 -0.112833 271.412 
5.49508e-06 -1.26626e-05 2.68893e+25 -1.47816 -0.247206 271.94 
7.40642e-06 -1.26626e-05 2.69053e+25 -1.13446 -0.328358 272.273 
9.31775e-06 -1.26626e-05 2.68546e+25 -0.861251 -0.479523 272.62 
1.12291e-05 -1.26626e-05 2.69507e+25 -0.883172 -0.861273 272.032 
1.31404e-05 -1.26626e-05 2.69007e+25 -0.682385 -0.979784 272.165 
1.50518e-05 -1.26626e-05 2.68757e+25 -0.861506 0.346546 272.344 
1.69631e-05 -1.26626e-05 2.68297e+25 0.017613 0.081358 273.011 
1.67242e-06 -1.21847e-05 2.69092e+25 -2.08633 -0.493907 272.043 
3.58375e-06 -1.21847e-05 2.69692e+25 -1.78245 -0.340818 271.567 
5.49508e-06 -1.21847e-05 2.69421e+25 -1.50428 -0.267211 271.694 
7.40642e-06 -1.21847e-05 2.68816e+25 -1.37759 -0.420122 272.277 
9.31775e-06 -1.21847e-05 2.68936e+25 -1.30266 -0.598205 272.318 
1.12291e-05 -1.21847e-05 2.6942e+25 -0.978355 -0.929682 271.856 
1.31404e-05 -1.21847e-05 2.68978e+25 -1.02643 -1.07122 272.344 
1.50518e-05 -1.21847e-05 2.69026e+25 -0.943752 0.191407 272.25 
1.69631e-05 -1.21847e-05 2.68365e+25 -0.0428637 0.03404 272.863 
1.67242e-06 -1.17069e-05 2.69234e+25 -2.54408 -0.461883 272.038 
3.58375e-06 -1.17069e-05 2.69025e+25 -2.15536 -0.515829 271.904 
5.49508e-06 -1.17069e-05 2.69697e+25 -1.57262 -0.271872 271.433 
7.40642e-06 -1.17069e-05 2.68926e+25 -1.48832 -0.479825 272.421 
9.31775e-06 -1.17069e-05 2.68495e+25 -1.55561 -0.714768 272.679 
1.12291e-05 -1.17069e-05 2.69243e+25 -1.08359 -0.917877 271.865 
1.31404e-05 -1.17069e-05 2.68939e+25 -0.805923 -1.14924 272.234 
1.50518e-05 -1.17069e-05 2.68792e+25 -0.656371 -0.118757 272.416 
1.69631e-05 -1.17069e-05 2.68447e+25 0.0568745 -0.0331601 272.656 
1.67242e-06 -1.12291e-05 2.69152e+25 -2.6517 -0.528094 272.023 
3.58375e-06 -1.12291e-05 2.69302e+25 -2.42862 -0.820087 271.824 
5.49508e-06 -1.12291e-05 2.69517e+25 -2.37637 -0.476915 271.71 
7.40642e-06 -1.12291e-05 2.68831e+25 -1.57682 -0.622626 272.61 
9.31775e-06 -1.12291e-05 2.68605e+25 -1.28047 -0.743396 272.483 
1.12291e-05 -1.12291e-05 2.69229e+25 -1.44308 -1.01795 272.046 
1.31404e-05 -1.12291e-05 2.6936e+25 -0.755436 -0.993863 271.859 
1.50518e-05 -1.12291e-05 2.68786e+25 -0.342701 -0.430677 272.105 
1.69631e-05 -1.12291e-05 2.68496e+25 0.0211957 -0.0316711 272.738 
1.67242e-06 -1.07512e-05 2.69204e+25 -2.79609 -0.661083 271.772 
3.58375e-06 -1.07512e-05 2.69671e+25 -2.57178 -0.657218 271.718 
5.49508e-06 -1.07512e-05 2.69441e+25 -2.66677 -0.67255 271.73 
7.40642e-06 -1.07512e-05 2.68763e+25 -1.80238 -0.814459 272.431 
9.31775e-06 -1.07512e-05 2.68549e+25 -1.55647 -0.735608 272.414 
1.12291e-05 -1.07512e-05 2.6905e+25 -1.44215 -1.42744 272.003 
1.31404e-05 -1.07512e-05 2.69175e+25 -0.536431 -1.16312 271.979 
1.50518e-05 -1.07512e-05 2.69254e+25 -0.241023 -0.570913 272.271 
1.69631e-05 -1.07512e-05 2.68596e+25 -0.00508371 0.0126439 272.692 
1.67242e-06 -1.02734e-05 2.69426e+25 -3.58997 -0.710659 271.792 
3.58375e-06 -1.02734e-05 2.69036e+25 -2.90078 -0.550964 272.084 
5.49508e-06 -1.02734e-05 2.69491e+25 -2.69659 -0.923822 271.718 
7.40642e-06 -1.02734e-05 2.69227e+25 -1.84276 -0.877894 272.254 
9.31775e-06 -1.02734e-05 2.68923e+25 -1.76643 -0.80418 272.152 
1.12291e-05 -1.02734e-05 2.69437e+25 -0.903251 -1.67615 271.709 
1.31404e-05 -1.02734e-05 2.69315e+25 -0.670937 -1.13621 272.019 
1.50518e-05 -1.02734e-05 2.69025e+25 -0.366517 -0.651136 272.107 
1.69631e-05 -1.02734e-05 2.68303e+25 -0.0629554 0.0094032 272.672 
1.67242e-06 -9.79558e-06 2.69119e+25 -3.92283 -0.51374 272.106 
3.58375e-06 -9.79558e-06 2.69182e+25 -3.65322 -0.733983 272.003 
5.49508e-06 -9.79558e-06 2.69423e+25 -2.95369 -1.1291 271.832 
7.40642e-06 -9.79558e-06 2.69004e+25 -1.76804 -0.871621 272.269 
9.31775e-06 -9.79558e-06 2.69013e+25 -1.42114 -0.790823 272.18 
1.12291e-05 -9.79558e-06 2.69607e+25 -0.644543 -1.67361 271.686 
1.31404e-05 -9.79558e-06 2.69112e+25 -0.697984 -0.88477 271.943 
1.50518e-05 -9.79558e-06 2.69021e+25 -0.649978 -0.85261 272.147 
1.69631e-05 -9.79558e-06 2.68263e+25 -0.0587239 -0.123099 272.681 
1.67242e-06 -9.31775e-06 2.6939e+25 -4.12613 -0.391782 271.958 
3.58375e-06 -9.31775e-06 2.6941e+25 -4.14808 -1.01889 271.852 
5.49508e-06 -9.31775e-06 2.69165e+25 -2.96343 -1.38309 272.051 
7.40642e-06 -9.31775e-06 2.69443e+25 -2.4525 -1.09536 271.954 
9.31775e-06 -9.31775e-06 2.68892e+25 -1.27604 -0.855534 272.248 
1.12291e-05 -9.31775e-06 2.69407e+25 -0.83242 -1.47089 271.645 
1.31404e-05 -9.31775e-06 2.69221e+25 -0.592138 -0.79295 271.879 
1.50518e-05 -9.31775e-06 2.69425e+25 -0.562713 -0.895745 271.82 
1.69631e-05 -9.31775e-06 2.68494e+25 -0.00119699 -0.177933 272.621 
1.67242e-06 -8.83992e-06 2.6902e+25 -4.30355 -0.401289 272.142 
3.58375e-06 -8.83992e-06 2.69528e+25 -4.29088 -1.18422 271.798 
5.49508e-06 -8.83992e-06 2.68959e+25 -3.67658 -1.67291 271.975 
7.40642e-06 -8.83992e-06 2.69048e+25 -2.56089 -1.42131 272.149 
9.31775e-06 -8.83992e-06 2.69272e+25 -1.53951 -1.23414 272.021 
1.12291e-05 -8.83992e-06 2.6953e+25 -1.03049 -1.50126 271.616 
1.31404e-05 -8.83992e-06 2.69311e+25 -0.504126 -1.02194 271.705 
1.50518e-05 -8.83992e-06 2.69365e+25 -0.231577 -0.869438 271.863 
1.69631e-05 -8.83992e-06 2.68214e+25 -0.0588527 -0.149317 273.002 
1.67242e-06 -8.36208e-06 2.69073e+25 -5.1463 -0.405202 272.066 
3.58375e-06 -8.36208e-06 2.69589e+25 -4.49988 -1.3622 271.796 
5.49508e-06 -8.36208e-06 2.68903e+25 -3.6349 -1.82871 272.185 
7.40642e-06 -8.36208e-06 2.69217e+25 -2.40329 -1.59924 272.033 
9.31775e-06 -8.36208e-06 2.69268e+25 -1.60248 -1.50522 271.717 
1.12291e-05 -8.36208e-06 2.69394e+25 -0.765041 -1.48054 271.818 
1.31404e-05 -8.36208e-06 2.69371e+25 -0.743821 -1.35656 271.701 
1.50518e-05 -8.36208e-06 2.69149e+25 0.219103 -1.01964 272.091 
1.69631e-05 -8.36208e-06 2.68831e+25 -0.0345356 -0.237695 272.604 
1.67242e-06 -7.88425e-06 2.69178e+25 -5.42447 -0.375585 272.12 
3.58375e-06 -7.88425e-06 2.69351e+25 -4.39163 -1.49983 271.774 
5.49508e-06 -7.88425e-06 2.69186e+25 -3.48624 -1.88331 272.052 
7.40642e-06 -7.88425e-06 2.69152e+25 -2.74758 -1.84897 271.957 
9.31775e-06 -7.88425e-06 2.695e+25 -1.90425 -1.88379 271.708 
1.12291e-05 -7.88425e-06 2.69593e+25 -0.96381 -1.68501 271.798 
1.31404e-05 -7.88425e-06 2.69634e+25 -0.85864 -1.43708 271.738 
1.50518e-05 -7.88425e-06 2.69261e+25 0.311854 -1.27632 271.984 
1.69631e-05 -7.88425e-06 2.68874e+25 -0.0646635 -0.325388 272.622 
1.67242e-06 -7.40642e-06 2.69058e+25 -5.29504 -0.421905 272.056 
3.58375e-06 -7.40642e-06 2.68962e+25 -4.53869 -1.70541 272.035 
5.49508e-06 -7.40642e-06 2.69214e+25 -3.86234 -2.08419 271.881 
7.40642e-06 -7.40642e-06 2.69578e+25 -3.20031 -2.02972 271.539 
9.31775e-06 -7.40642e-06 2.69436e+25 -2.22567 -2.04703 271.783 
1.12291e-05 -7.40642e-06 2.69598e+25 -1.00585 -1.91951 271.64 
1.31404e-05 -7.40642e-06 2.69352e+25 -0.875978 -1.48757 271.76 
1.50518e-05 -7.40642e-06 2.69056e+25 0.108734 -1.58261 271.925 
1.69631e-05 -7.40642e-06 2.68861e+25 0.0817742 -0.369484 272.463 
1.67242e-06 -6.92858e-06 2.68983e+25 -5.19877 -0.426597 272.161 
3.58375e-06 -6.92858e-06 2.69313e+25 -4.78597 -1.95888 271.936 
5.49508e-06 -6.92858e-06 2.6932e+25 -4.33023 -2.1632 271.761 
7.40642e-06 -6.92858e-06 2.69405e+25 -3.67594 -2.16037 271.755 
9.31775e-06 -6.92858e-06 2.69361e+25 -2.62554 -2.34035 272.045 
1.12291e-05 -6.92858e-06 2.69909e+25 -1.37213 -2.16104 271.371 
1.31404e-05 -6.92858e-06 2.69385e+25 -0.91267 -1.4057 271.624 
1.50518e-05 -6.92858e-06 2.68832e+25 0.231724 -1.62168 272.213 
1.69631e-05 -6.92858e-06 2.68589e+25 0.138413 -0.0826834 272.501 
1.67242e-06 -6.45075e-06 2.69038e+25 -4.8838 -0.540794 272.12 
3.58375e-06 -6.45075e-06 2.69249e+25 -5.04744 -1.91748 271.777 
5.49508e-06 -6.45075e-06 2.69526e+25 -4.79178 -2.23492 271.778 
7.40642e-06 -6.45075e-06 2.69258e+25 -4.23113 -2.29155 271.912 
9.31775e-06 -6.45075e-06 2.69482e+25 -2.8801 -2.71111 271.86 
1.12291e-05 -6.45075e-06 2.70096e+25 -1.80183 -2.34764 271.165 
1.31404e-05 -6.45075e-06 2.69108e+25 -1.04828 -1.50965 272.132 
1.50518e-05 -6.45075e-06 2.68795e+25 0.126359 -1.49373 272.114 
1.69631e-05 -6.45075e-06 2.68687e+25 -0.0209988 -0.0189914 272.73 
1.67242e-06 -5.97292e-06 2.69226e+25 -4.84732 -0.552309 272.142 
3.58375e-06 -5.97292e-06 2.69424e+25 -5.42441 -1.73011 271.999 
5.49508e-06 -5.97292e-06 2.69476e+25 -5.24503 -2.59739 271.848 
7.40642e-06 -5.97292e-06 2.68972e+25 -4.8579 -2.61945 272.064 
9.31775e-06 -5.97292e-06 2.69668e+25 -3.28179 -3.11572 271.411 
1.12291e-05 -5.97292e-06 2.69781e+25 -2.19234 -2.57215 271.359 
1.31404e-05 -5.97292e-06 2.68789e+25 -0.938232 -1.92159 272.377 
1.50518e-05 -5.97292e-06 2.68746e+25 -0.502961 -1.50049 272.239 
1.69631e-05 -5.97292e-06 2.6798e+25 -0.00134148 -0.119489 273.284 
1.67242e-06 -5.49508e-06 2.69514e+25 -5.0406 -0.518918 271.934 
3.58375e-06 -5.49508e-06 2.69224e+25 -5.50578 -1.79737 272.111 
5.49508e-06 -5.49508e-06 2.69378e+25 -5.29919 -2.71301 271.967 
7.40642e-06 -5.49508e-06 2.69049e+25 -5.13336 -2.75551 272.005 
9.31775e-06 -5.49508e-06 2.69929e+25 -3.51458 -3.82244 271.175 
1.12291e-05 -5.49508e-06 2.6959e+25 -2.51502 -2.98482 271.47 
1.31404e-05 -5.49508e-06 2.68853e+25 -1.05964 -2.04478 272.431 
1.50518e-05 -5.49508e-06 2.69353e+25 -0.738796 -1.3805 272.068 
1.69631e-05 -5.49508e-06 2.68319e+25 0.0706245 -0.0270341 272.951 
1.67242e-06 -5.01725e-06 2.68998e+25 -5.37271 -0.400961 272.071 
3.58375e-06 -5.01725e-06 2.69307e+25 -5.85516 -1.80721 271.821 
5.49508e-06 -5.01725e-06 2.69149e+25 -5.50987 -2.72888 271.81 
7.40642e-06 -5.01725e-06 2.68757e+25 -5.05265 -3.05189 272.258 
9.31775e-06 -5.01725e-06 2.6998e+25 -4.20192 -4.35509 271.482 
1.12291e-05 -5.01725e-06 2.69239e+25 -2.80981 -3.38179 271.913 
1.31404e-05 -5.01725e-06 2.68589e+25 -0.941085 -2.31539 272.548 
1.50518e-05 -5.01725e-06 2.69037e+25 -0.409642 -1.51888 272.029 
1.69631e-05 -5.01725e-06 2.68674e+25 0.00538952 0.0222449 272.662 
1.67242e-06 -4.53942e-06 2.69399e+25 -5.75945 -0.218157 272.267 
3.58375e-06 -4.53942e-06 2.69037e+25 -6.1917 -1.84538 271.74 
5.49508e-06 -4.53942e-06 2.69172e+25 -6.2204 -2.71429 271.998 
7.40642e-06 -4.53942e-06 2.68813e+25 -5.14825 -3.41439 272.149 
9.31775e-06 -4.53942e-06 2.69468e+25 -4.47921 -4.29963 271.689 
1.12291e-05 -4.53942e-06 2.69171e+25 -3.01101 -3.94468 272.034 
1.31404e-05 -4.53942e-06 2.68693e+25 -0.742727 -2.83293 272.544 
1.50518e-05 -4.53942e-06 2.69143e+25 -0.182449 -1.51775 271.984 
1.69631e-05 -4.53942e-06 2.68256e+25 -0.0701356 -0.0302076 272.916 
1.67242e-06 -4.06158e-06 2.68915e+25 -6.01938 -0.10026 272.433 
3.58375e-06 -4.06158e-06 2.69353e+25 -6.59651 -1.75616 271.834 
5.49508e-06 -4.06158e-06 2.69143e+25 -6.3234 -2.80382 271.92 
7.40642e-06 -4.06158e-06 2.69436e+25 -5.78076 -3.6953 271.708 
9.31775e-06 -4.06158e-06 2.69368e+25 -4.71173 -4.42322 271.862 
1.12291e-05 -4.06158e-06 2.68977e+25 -2.85544 -4.60947 272.179 
1.31404e-05 -4.06158e-06 2.68827e+25 -0.843005 -3.32148 272.567 
1.50518e-05 -4.06158e-06 2.69023e+25 0.385437 -1.5248 272.019 
1.69631e-05 -4.06158e-06 2.68559e+25 -0.121863 -0.20027 272.734 
1.67242e-06 -3.58375e-06 2.69306e+25 -6.41359 0.0690094 271.821 
3.58375e-06 -3.58375e-06 2.69136e+25 -6.98315 -1.7989 271.845 
5.49508e-06 -3.58375e-06 2.69757e+25 -6.82105 -2.8733 271.65 
7.40642e-06 -3.58375e-06 2.69559e+25 -5.81247 -3.94321 271.534 
9.31775e-06 -3.58375e-06 2.69509e+25 -4.4716 -4.6996 271.689 
1.12291e-05 -3.58375e-06 2.68951e+25 -2.46078 -5.07528 272.316 
1.31404e-05 -3.58375e-06 2.68635e+25 -1.00171 -3.85323 272.623 
1.50518e-05 -3.58375e-06 2.68904e+25 0.154273 -1.61316 272.036 
1.69631e-05 -3.58375e-06 2.68375e+25 0.0386443 -0.325086 272.767 
1.67242e-06 -3.10592e-06 2.69241e+25 -7.02048 0.143049 272.004 
3.58375e-06 -3.10592e-06 2.68898e+25 -7.20901 -1.88767 272.067 
5.49508e-06 -3.10592e-06 2.69492e+25 -6.98507 -3.01315 271.691 
7.40642e-06 -3.10592e-06 2.69169e+25 -6.42085 -4.06591 271.759 
9.31775e-06 -3.10592e-06 2.69546e+25 -4.59454 -5.20701 271.639 
1.12291e-05 -3.10592e-06 2.68647e+25 -2.77804 -5.42798 272.554 
1.31404e-05 -3.10592e-06 2.68433e+25 -1.17173 -4.22409 272.599 
1.50518e-05 -3.10592e-06 2.69007e+25 -0.072375 -1.73836 272.138 
1.69631e-05 -3.10592e-06 2.68288e+25 -0.0210517 -0.335476 272.861 
1.67242e-06 -2.62808e-06 2.6905e+25 -7.03651 0.191343 272.068 
3.58375e-06 -2.62808e-06 2.68587e+25 -7.48519 -1.83208 272.47 
5.49508e-06 -2.62808e-06 2.69343e+25 -7.3594 -3.1196 271.834 
7.40642e-06 -2.62808e-06 2.69396e+25 -6.87018 -4.32485 271.745 
9.31775e-06 -2.62808e-06 2.69627e+25 -5.01008 -5.47571 271.59 
1.12291e-05 -2.62808e-06 2.688e+25 -3.30609 -5.71909 272.313 
1.31404e-05 -2.62808e-06 2.68855e+25 -1.39138 -4.72836 272.246 
1.50518e-05 -2.62808e-06 2.68755e+25 -0.163137 -1.96981 272.154 
1.69631e-05 -2.62808e-06 2.67784e+25 -0.0360434 -0.302596 273.174 
1.67242e-06 -2.15025e-06 2.6892e+25 -7.47205 0.250341 271.975 
3.58375e-06 -2.15025e-06 2.68658e+25 -7.37196 -1.79136 272.351 
5.49508e-06 -2.15025e-06 2.69229e+25 -7.72328 -3.03928 272.082 
7.40642e-06 -2.15025e-06 2.69156e+25 -7.15916 -4.77273 272.026 
9.31775e-06 -2.15025e-06 2.69517e+25 -5.51253 -6.01762 271.901 
1.12291e-05 -2.15025e-06 2.69084e+25 -3.55766 -6.33304 272.307 
1.31404e-05 -2.15025e-06 2.68718e+25 -1.49105 -5.04459 272.263 
1.50518e-05 -2.15025e-06 2.68707e+25 -0.237245 -2.37024 272.288 
1.69631e-05 -2.15025e-06 2.67791e+25 0.0291526 -0.306496 273.206 
1.67242e-06 -1.67242e-06 2.68945e+25 -7.77071 0.252274 272.019 
3.58375e-06 -1.67242e-06 2.68227e+25 -7.33276 -1.80883 272.599 
5.49508e-06 -1.67242e-06 2.69103e+25 -7.35927 -3.0143 271.893 
7.40642e-06 -1.67242e-06 2.68756e+25 -6.91693 -5.02367 272.312 
9.31775e-06 -1.67242e-06 2.69465e+25 -5.53234 -6.32083 271.643 
1.12291e-05 -1.67242e-06 2.6882e+25 -4.07864 -7.06266 272.463 
1.31404e-05 -1.67242e-06 2.68807e+25 -1.99623 -5.24843 272.236 
1.50518e-05 -1.67242e-06 2.69171e+25 -0.343683 -2.71204 272.032 
1.69631e-05 -1.67242e-06 2.68327e+25 0.0208919 -0.208293 272.851 
1.67242e-06 -1.19458e-06 2.69003e+25 -7.9192 0.196398 271.924 
3.58375e-06 -1.19458e-06 2.68772e+25 -7.10926 -1.81494 272.45 
5.49508e-06 -1.19458e-06 2.68805e+25 -7.21516 -2.851 272.215 
7.40642e-06 -1.19458e-06 2.6879e+25 -6.4784 -5.33559 272.087 
9.31775e-06 -1.19458e-06 2.69293e+25 -5.78885 -6.55721 272.043 
1.12291e-05 -1.19458e-06 2.68839e+25 -3.75672 -7.47591 272.223 
1.31404e-05 -1.19458e-06 2.68921e+25 -2.24234 -5.62164 272.256 
1.50518e-05 -1.19458e-06 2.68707e+25 -0.68003 -3.19062 272.338 
1.69631e-05 -1.19458e-06 2.68092e+25 0.120502 -0.152595 272.841 
1.67242e-06 -7.1675e-07 2.69242e+25 -7.74914 0.0308797 271.829 
3.58375e-06 -7.1675e-07 2.68928e+25 -7.22976 -1.80474 272.133 
5.49508e-06 -7.1675e-07 2.68764e+25 -6.80829 -2.93134 272.475 
7.40642e-06 -7.1675e-07 2.6875e+25 -6.45633 -5.56733 272.159 
9.31775e-06 -7.1675e-07 2.6913e+25 -5.63631 -7.06897 272.064 
1.12291e-05 -7.1675e-07 2.69093e+25 -3.90722 -7.80308 272.237 
1.31404e-05 -7.1675e-07 2.687e+25 -2.57033 -6.09201 272.413 
1.50518e-05 -7.1675e-07 2.68667e+25 -1.00238 -3.54355 272.373 
1.69631e-05 -7.1675e-07 2.6838e+25 -0.00361577 -0.033439 272.825 
1.67242e-06 -2.38917e-07 2.68884e+25 -7.59873 0.00751933 271.807 
3.58375e-06 -2.38917e-07 2.68897e+25 -7.45376 -1.86565 272.18 
5.49508e-06 -2.38917e-07 2.68272e+25 -6.80046 -3.10507 272.431 
7.40642e-06 -2.38917e-07 2.68859e+25 -6.61924 -5.67307 271.905 
9.31775e-06 -2.38917e-07 2.68755e+25 -5.78049 -7.71347 272.028 
1.12291e-05 -2.38917e-07 2.68814e+25 -4.30557 -8.09877 272.452 
1.31404e-05 -2.38917e-07 2.6879e+25 -2.94933 -6.65769 272.282 
1.50518e-05 -2.38917e-07 2.68827e+25 -1.31935 -3.96926 272.304 
1.69631e-05 -2.38917e-07 2.682e+25 -0.110455 -0.0765855 272.71 
1.67242e-06 2.38917e-07 2.68824e+25 -8.17736 -0.038736 272.06 
3.58375e-06 2.38917e-07 2.68895e+25 -8.03567 -2.00255 271.808 
5.49508e-06 2.38917e-07 2.68427e+25 -6.7836 -3.31809 272.215 
7.40642e-06 2.38917e-07 2.69196e+25 -6.40122 -5.46187 272.029 
9.31775e-06 2.38917e-07 2.68999e+25 -5.9223 -8.04513 271.946 
1.12291e-05 2.38917e-07 2.68908e+25 -4.80412 -8.13409 272.151 
1.31404e-05 2.38917e-07 2.68543e+25 -3.15233 -7.5077 272.486 
1.50518e-05 2.38917e-07 2.68543e+25 -1.3509 -4.31779 272.387 
1.69631e-05 2.38917e-07 2.68079e+25 -0.121188 -0.366279 272.96 
1.67242e-06 7.1675e-07 2.69269e+25 -8.06665 -0.157883 271.862 
3.58375e-06 7.1675e-07 2.69039e+25 -8.22915 -2.06666 271.847 
5.49508e-06 7.1675e-07 2.68803e+25 -7.11556 -3.49338 272.126 
7.40642e-06 7.1675e-07 2.68785e+25 -6.44167 -5.32452 272.242 
9.31775e-06 7.1675e-07 2.69176e+25 -6.09861 -8.22914 272.029 
1.12291e-05 7.1675e-07 2.68771e+25 -5.25253 -8.28615 272.327 
1.31404e-05 7.1675e-07 2.68803e+25 -3.3451 -8.03718 272.293 
1.50518e-05 7.1675e-07 2.68681e+25 -1.57309 -4.4081 272.588 
1.69631e-05 7.1675e-07 2.67984e+25 -0.154719 -0.625951 272.877 
1.67242e-06 1.19458e-06 2.69075e+25 -7.75893 -0.00824768 271.643 
3.58375e-06 1.19458e-06 2.68964e+25 -8.04937 -2.08126 272.009 
5.49508e-06 1.19458e-06 2.68673e+25 -7.50266 -3.77843 272.282 
7.40642e-06 1.19458e-06 2.68876e+25 -6.62333 -5.52781 272.232 
9.31775e-06 1.19458e-06 2.69275e+25 -5.9862 -8.50146 271.988 
1.12291e-05 1.19458e-06 2.69002e+25 -5.25281 -8.57154 272.377 
1.31404e-05 1.19458e-06 2.68804e+25 -3.26676 -8.42669 272.444 
1.50518e-05 1.19458e-06 2.68827e+25 -1.47437 -4.59551 272.393 
1.69631e-05 1.19458e-06 2.68365e+25 -0.0640196 -0.807714 272.842 
1.67242e-06 1.67242e-06 2.68864e+25 -7.41855 0.0379449 271.954 
3.58375e-06 1.67242e-06 2.68964e+25 -7.9658 -2.05719 272.049 
5.49508e-06 1.67242e-06 2.68971e+25 -7.75563 -4.23753 272.043 
7.40642e-06 1.67242e-06 2.68651e+25 -6.83283 -5.82028 272.335 
9.31775e-06 1.67242e-06 2.68849e+25 -6.24315 -8.67396 272.087 
1.12291e-05 1.67242e-06 2.68526e+25 -5.35367 -8.95253 272.641 
1.31404e-05 1.67242e-06 2.68338e+25 -3.37421 -8.79373 272.635 
1.50518e-05 1.67242e-06 2.68678e+25 -1.28387 -5.33056 272.491 
1.69631e-05 1.67242e-06 2.6808e+25 0.111285 -0.850453 273.149 
1.67242e-06 2.15025e-06 2.69119e+25 -7.12351 0.389917 271.685 
3.58375e-06 2.15025e-06 2.68734e+25 -7.94964 -1.85864 272.071 
5.49508e-06 2.15025e-06 2.68976e+25 -8.17261 -4.37198 271.945 
7.40642e-06 2.15025e-06 2.68545e+25 -7.18881 -5.96767 272.298 
9.31775e-06 2.15025e-06 2.68605e+25 -6.53415 -8.79362 272.441 
1.12291e-05 2.15025e-06 2.68705e+25 -5.05838 -9.51616 272.263 
1.31404e-05 2.15025e-06 2.68571e+25 -3.28905 -9.18123 272.561 
1.50518e-05 2.15025e-06 2.69376e+25 -1.20363 -6.06796 271.996 
1.69631e-05 2.15025e-06 2.68154e+25 -0.0502587 -0.780544 272.918 
1.67242e-06 2.62808e-06 2.69092e+25 -6.95591 0.796354 271.76 
3.58375e-06 2.62808e-06 2.68723e+25 -7.66396 -1.80634 272.149 
5.49508e-06 2.62808e-06 2.68991e+25 -8.04536 -4.52777 272.066 
7.40642e-06 2.62808e-06 2.68448e+25 -7.30659 -6.13468 272.351 
9.31775e-06 2.62808e-06 2.6854e+25 -6.58711 -8.95715 272.386 
1.12291e-05 2.62808e-06 2.68751e+25 -5.58437 -10.1541 272.293 
1.31404e-05 2.62808e-06 2.68572e+25 -3.46233 -9.69697 272.394 
1.50518e-05 2.62808e-06 2.69248e+25 -1.54204 -6.64763 272.03 
1.69631e-05 2.62808e-06 2.68191e+25 -0.0240215 -0.841565 272.831 
1.67242e-06 3.10592e-06 2.68894e+25 -6.4535 1.04541 271.875 
3.58375e-06 3.10592e-06 2.68506e+25 -7.58157 -1.80861 272.37 
5.49508e-06 3.10592e-06 2.68839e+25 -8.23458 -4.55413 272.1 
7.40642e-06 3.10592e-06 2.6879e+25 -7.57267 -6.26991 272.31 
9.31775e-06 3.10592e-06 2.68685e+25 -6.91226 -8.84867 272.517 
1.12291e-05 3.10592e-06 2.68976e+25 -5.77463 -10.7404 272.153 
1.31404e-05 3.10592e-06 2.68692e+25 -3.50784 -10.129 272.34 
1.50518e-05 3.10592e-06 2.68892e+25 -1.22899 -6.91851 272.414 
1.69631e-05 3.10592e-06 2.6813e+25 -0.067033 -0.974522 272.904 
1.67242e-06 3.58375e-06 2.68999e+25 -6.16135 1.27204 271.868 
3.58375e-06 3.58375e-06 2.68678e+25 -7.38062 -1.54414 272.218 
5.49508e-06 3.58375e-06 2.68708e+25 -8.30194 -4.53371 272.256 
7.40642e-06 3.58375e-06 2.68168e+25 -7.54917 -6.60881 272.658 
9.31775e-06 3.58375e-06 2.6867e+25 -7.04491 -8.81181 272.381 
1.12291e-05 3.58375e-06 2.68963e+25 -5.69238 -11.2853 272.222 
1.31404e-05 3.58375e-06 2.6911e+25 -3.59779 -10.9548 272.181 
1.50518e-05 3.58375e-06 2.68754e+25 -1.10856 -7.45932 272.436 
1.69631e-05 3.58375e-06 2.68202e+25 0.0208974 -0.995382 273.145 
1.67242e-06 4.06158e-06 2.68859e+25 -5.90611 1.43052 271.991 
3.58375e-06 4.06158e-06 2.69153e+25 -7.24002 -1.22222 272.011 
5.49508e-06 4.06158e-06 2.68734e+25 -7.72107 -4.48067 272.235 
7.40642e-06 4.06158e-06 2.685e+25 -7.41118 -6.69471 272.335 
9.31775e-06 4.06158e-06 2.68889e+25 -6.98339 -8.98384 272.06 
1.12291e-05 4.06158e-06 2.69494e+25 -5.70556 -11.5358 271.731 
1.31404e-05 4.06158e-06 2.68928e+25 -3.53512 -11.6953 272.144 
1.50518e-05 4.06158e-06 2.68776e+25 -1.19412 -7.96069 272.238 
1.69631e-05 4.06158e-06 2.68814e+25 -0.00280143 -0.976828 272.746 
1.67242e-06 4.53942e-06 2.68542e+25 -5.2919 1.40178 272.084 
3.58375e-06 4.53942e-06 2.68545e+25 -6.49635 -0.673577 272.185 
5.49508e-06 4.53942e-06 2.68436e+25 -7.25698 -4.52885 272.283 
7.40642e-06 4.53942e-06 2.68737e+25 -7.14484 -6.80656 272.202 
9.31775e-06 4.53942e-06 2.68717e+25 -6.86582 -9.31461 272.108 
1.12291e-05 4.53942e-06 2.69225e+25 -5.66707 -11.9393 271.801 
1.31404e-05 4.53942e-06 2.693e+25 -3.71093 -12.4081 271.851 
1.50518e-05 4.53942e-06 2.68982e+25 -1.22854 -8.66041 272.383 
1.69631e-05 4.53942e-06 2.68527e+25 -0.00151073 -1.02237 272.662 
1.67242e-06 5.01725e-06 2.68385e+25 -5.036 1.58385 272.204 
3.58375e-06 5.01725e-06 2.68855e+25 -5.65066 -0.32557 271.999 
5.49508e-06 5.01725e-06 2.69222e+25 -6.6112 -4.42807 271.88 
7.40642e-06 5.01725e-06 2.68464e+25 -6.92675 -6.89917 272.378 
9.31775e-06 5.01725e-06 2.68233e+25 -6.48886 -9.74259 272.634 
1.12291e-05 5.01725e-06 2.68812e+25 -5.81006 -12.439 272.202 
1.31404e-05 5.01725e-06 2.69035e+25 -3.90146 -12.9776 272.127 
1.50518e-05 5.01725e-06 2.68842e+25 -1.45173 -9.15647 272.461 
1.69631e-05 5.01725e-06 2.68444e+25 -0.133635 -1.16772 272.757 
1.67242e-06 5.49508e-06 2.68687e+25 -4.70855 1.85642 272.102 
3.58375e-06 5.49508e-06 2.69155e+25 -5.04236 -0.50788 271.845 
5.49508e-06 5.49508e-06 2.69229e+25 -6.23056 -4.28974 271.804 
7.40642e-06 5.49508e-06 2.686e+25 -6.77545 -6.93547 272.271 
9.31775e-06 5.49508e-06 2.68522e+25 -6.5969 -10.0393 272.643 
1.12291e-05 5.49508e-06 2.68687e+25 -5.28121 -12.8234 272.168 
1.31404e-05 5.49508e-06 2.68735e+25 -3.91628 -13.4133 272.365 
1.50518e-05 5.49508e-06 2.68727e+25 -1.68631 -9.59387 272.584 
1.69631e-05 5.49508e-06 2.68544e+25 0.0444959 -1.16206 272.836 
1.67242e-06 5.97292e-06 2.6861e+25 -4.04687 1.98682 271.981 
3.58375e-06 5.97292e-06 2.68903e+25 -4.44096 -0.520306 271.73 
5.49508e-06 5.97292e-06 2.68684e+25 -5.3834 -3.819 271.922 
7.40642e-06 5.97292e-06 2.68621e+25 -6.23086 -6.9328 272.329 
9.31775e-06 5.97292e-06 2.68619e+25 -6.23963 -10.2515 272.588 
1.12291e-05 5.97292e-06 2.68888e+25 -5.50539 -13.2036 272.307 
1.31404e-05 5.97292e-06 2.6879e+25 -3.51315 -13.894 272.454 
1.50518e-05 5.97292e-06 2.68694e+25 -2.00214 -10.1366 272.376 
1.69631e-05 5.97292e-06 2.68675e+25 -0.109024 -1.38527 272.728 
1.67242e-06 6.45075e-06 2.68736e+25 -3.63734 2.23022 271.891 
3.58375e-06 6.45075e-06 2.68884e+25 -3.66642 -0.149778 271.989 
5.49508e-06 6.45075e-06 2.68765e+25 -4.63939 -3.29065 272.003 
7.40642e-06 6.45075e-06 2.685e+25 -5.843 -6.99559 272.296 
9.31775e-06 6.45075e-06 2.68621e+25 -5.98162 -10.3205 272.334 
1.12291e-05 6.45075e-06 2.68921e+25 -5.35898 -13.4279 272.347 
1.31404e-05 6.45075e-06 2.68861e+25 -3.70567 -14.289 272.444 
1.50518e-05 6.45075e-06 2.68733e+25 -1.63156 -10.5277 272.557 
1.69631e-05 6.45075e-06 2.68172e+25 -0.000138588 -1.56893 272.914 
1.67242e-06 6.92858e-06 2.6929e+25 -2.50484 2.49256 271.684 
3.58375e-06 6.92858e-06 2.68732e+25 -3.15224 0.201791 272.055 
5.49508e-06 6.92858e-06 2.68725e+25 -3.77723 -2.91676 271.993 
7.40642e-06 6.92858e-06 2.68616e+25 -5.09813 -6.84083 271.924 
9.31775e-06 6.92858e-06 2.68725e+25 -5.59707 -10.1037 272.31 
1.12291e-05 6.92858e-06 2.68361e+25 -5.24769 -13.5106 272.812 
1.31404e-05 6.92858e-06 2.69092e+25 -4.0973 -14.7354 272.142 
1.50518e-05 6.92858e-06 2.69196e+25 -1.65404 -10.9641 272.104 
1.69631e-05 6.92858e-06 2.68264e+25 -0.152468 -1.7091 272.866 
1.67242e-06 7.40642e-06 2.68765e+25 -1.49611 2.48335 271.942 
3.58375e-06 7.40642e-06 2.68634e+25 -2.59181 0.457794 272.18 
5.49508e-06 7.40642e-06 2.68805e+25 -2.9267 -2.76261 272.024 
7.40642e-06 7.40642e-06 2.68944e+25 -4.12012 -6.56556 272.032 
9.31775e-06 7.40642e-06 2.6839e+25 -4.87632 -9.94255 272.474 
1.12291e-05 7.40642e-06 2.6842e+25 -4.99858 -13.5359 272.83 
1.31404e-05 7.40642e-06 2.69098e+25 -4.08855 -15.1838 272.092 
1.50518e-05 7.40642e-06 2.68875e+25 -1.74244 -11.6057 272.432 
1.69631e-05 7.40642e-06 2.68603e+25 -0.183207 -2.02025 272.834 
1.67242e-06 7.88425e-06 2.68544e+25 -0.714159 2.45378 272.032 
3.58375e-06 7.88425e-06 2.6872e+25 -1.16236 0.613334 271.964 
5.49508e-06 7.88425e-06 2.68462e+25 -2.23314 -2.66661 272.225 
7.40642e-06 7.88425e-06 2.68408e+25 -3.03997 -6.30488 272.421 
9.31775e-06 7.88425e-06 2.68385e+25 -3.98176 -9.7104 272.629 
1.12291e-05 7.88425e-06 2.6888e+25 -4.8201 -13.5894 272.204 
1.31404e-05 7.88425e-06 2.68965e+25 -4.11698 -15.5918 272.237 
1.50518e-05 7.88425e-06 2.69297e+25 -1.67009 -12.2145 272.406 
1.69631e-05 7.88425e-06 2.68929e+25 0.0145312 -2.17714 272.614 
1.67242e-06 8.36208e-06 2.68784e+25 -0.346469 2.46754 272.063 
3.58375e-06 8.36208e-06 2.68466e+25 -0.457807 0.617455 272.109 
5.49508e-06 8.36208e-06 2.68069e+25 -1.26542 -2.64043 272.663 
7.40642e-06 8.36208e-06 2.6835e+25 -2.13804 -5.87829 272.408 
9.31775e-06 8.36208e-06 2.68613e+25 -3.65121 -9.47626 272.53 
1.12291e-05 8.36208e-06 2.68966e+25 -4.29783 -13.3766 272.315 
1.31404e-05 8.36208e-06 2.69219e+25 -4.31838 -15.8472 272.217 
1.50518e-05 8.36208e-06 2.68873e+25 -1.83964 -12.767 272.295 
1.69631e-05 8.36208e-06 2.68476e+25 -0.0470886 -2.29173 272.895 
1.67242e-06 8.83992e-06 2.68481e+25 0.48962 2.36255 272.188 
3.58375e-06 8.83992e-06 2.68868e+25 0.556778 0.78637 271.915 
5.49508e-06 8.83992e-06 2.68349e+25 -0.0944188 -2.68711 272.631 
7.40642e-06 8.83992e-06 2.68352e+25 -1.32027 -5.33186 272.524 
9.31775e-06 8.83992e-06 2.6869e+25 -2.76897 -9.28246 272.451 
1.12291e-05 8.83992e-06 2.68407e+25 -3.44003 -13.094 272.656 
1.31404e-05 8.83992e-06 2.6906e+25 -4.1336 -16.2086 272.324 
1.50518e-05 8.83992e-06 2.69403e+25 -2.12773 -13.3189 272.25 
1.69631e-05 8.83992e-06 2.68783e+25 -0.0314311 -2.31751 272.59 
1.67242e-06 9.31775e-06 2.68593e+25 1.18413 2.32978 272.091 
3.58375e-06 9.31775e-06 2.68504e+25 1.19092 0.719428 272.034 
5.49508e-06 9.31775e-06 2.68265e+25 1.14374 -2.5298 272.448 
7.40642e-06 9.31775e-06 2.67902e+25 -0.0672323 -5.00175 272.725 
9.31775e-06 9.31775e-06 2.68641e+25 -1.85595 -8.93566 272.333 
1.12291e-05 9.31775e-06 2.69083e+25 -2.71537 -12.7861 272.24 
1.31404e-05 9.31775e-06 2.68893e+25 -4.02841 -16.1897 272.543 
1.50518e-05 9.31775e-06 2.69675e+25 -2.45095 -14.0473 272.055 
1.69631e-05 9.31775e-06 2.68726e+25 -0.0788116 -2.52117 272.87 
1.67242e-06 9.79558e-06 2.68724e+25 2.69636 2.08653 271.893 
3.58375e-06 9.79558e-06 2.68272e+25 2.49088 0.590995 272.251 
5.49508e-06 9.79558e-06 2.68166e+25 2.36526 -2.19188 272.348 
7.40642e-06 9.79558e-06 2.68487e+25 1.12929 -4.55853 272.318 
9.31775e-06 9.79558e-06 2.69039e+25 -0.460356 -8.55569 272.044 
1.12291e-05 9.79558e-06 2.69321e+25 -2.30466 -12.2416 271.922 
1.31404e-05 9.79558e-06 2.68691e+25 -3.38093 -16.1294 272.812 
1.50518e-05 9.79558e-06 2.69371e+25 -2.21537 -14.8499 272.341 
1.69631e-05 9.79558e-06 2.68922e+25 -0.143152 -2.84069 272.744 
1.67242e-06 1.02734e-05 2.68689e+25 3.66512 1.97206 272.023 
3.58375e-06 1.02734e-05 2.68379e+25 3.95754 0.522373 272.252 
5.49508e-06 1.02734e-05 2.68076e+25 3.42132 -1.76765 272.507 
7.40642e-06 1.02734e-05 2.68506e+25 2.02434 -4.21829 272.277 
9.31775e-06 1.02734e-05 2.68851e+25 0.843458 -8.11642 272.299 
1.12291e-05 1.02734e-05 2.6939e+25 -1.85129 -11.8446 271.86 
1.31404e-05 1.02734e-05 2.69016e+25 -3.00834 -16.1876 272.612 
1.50518e-05 1.02734e-05 2.69213e+25 -1.79306 -15.6647 272.429 
1.69631e-05 1.02734e-05 2.68573e+25 0.0427067 -2.90278 273.01 
1.67242e-06 1.07512e-05 2.68778e+25 4.89702 1.95292 271.903 
3.58375e-06 1.07512e-05 2.68792e+25 5.40251 0.517754 272.185 
5.49508e-06 1.07512e-05 2.68454e+25 4.62107 -1.38486 272.304 
7.40642e-06 1.07512e-05 2.68654e+25 3.56418 -3.81952 272.07 
9.31775e-06 1.07512e-05 2.6895e+25 2.1679 -7.59756 272.182 
1.12291e-05 1.07512e-05 2.69186e+25 -0.920201 -11.3133 272.089 
1.31404e-05 1.07512e-05 2.69141e+25 -2.74308 -15.9914 272.356 
1.50518e-05 1.07512e-05 2.69294e+25 -1.88574 -16.2212 272.296 
1.69631e-05 1.07512e-05 2.68936e+25 -0.120677 -2.97694 272.78 
1.67242e-06 1.12291e-05 2.6871e+25 6.0696 1.75639 271.968 
3.58375e-06 1.12291e-05 2.68676e+25 6.7013 0.845105 272.098 
5.49508e-06 1.12291e-05 2.68474e+25 6.22397 -1.17095 272.186 
7.40642e-06 1.12291e-05 2.68385e+25 5.00762 -3.59782 272.213 
9.31775e-06 1.12291e-05 2.68699e+25 3.38564 -7.1025 272.337 
1.12291e-05 1.12291e-05 2.69448e+25 0.279318 -10.6663 272.106 
1.31404e-05 1.12291e-05 2.69455e+25 -2.12463 -15.8011 272.107 
1.50518e-05 1.12291e-05 2.69211e+25 -1.94357 -16.6709 272.691 
1.69631e-05 1.12291e-05 2.69217e+25 -0.10173 -3.23756 272.788 
1.67242e-06 1.17069e-05 2.68963e+25 7.30339 1.58223 271.788 
3.58375e-06 1.17069e-05 2.68813e+25 8.16221 0.776145 272.022 
5.49508e-06 1.17069e-05 2.68622e+25 7.57901 -1.11082 272.058 
7.40642e-06 1.17069e-05 2.68976e+25 6.172 -3.34591 271.885 
9.31775e-06 1.17069e-05 2.68492e+25 4.44448 -6.51187 272.765 
1.12291e-05 1.17069e-05 2.69351e+25 1.1462 -9.70691 272.072 
1.31404e-05 1.17069e-05 2.69449e+25 -1.89543 -15.4199 272.124 
1.50518e-05 1.17069e-05 2.69306e+25 -2.04365 -17.0524 272.603 
1.69631e-05 1.17069e-05 2.69138e+25 -0.0934735 -3.47853 273.085 
1.67242e-06 1.21847e-05 2.69278e+25 8.83746 1.35651 271.643 
3.58375e-06 1.21847e-05 2.68949e+25 9.46697 0.743606 271.728 
5.49508e-06 1.21847e-05 2.68891e+25 9.04425 -1.07507 271.79 
7.40642e-06 1.21847e-05 2.6918e+25 7.96493 -2.95296 271.856 
9.31775e-06 1.21847e-05 2.68457e+25 6.31905 -5.59288 272.673 
1.12291e-05 1.21847e-05 2.69469e+25 2.60394 -8.76915 272.072 
1.31404e-05 1.21847e-05 2.6947e+25 -0.81575 -14.9241 272.396 
1.50518e-05 1.21847e-05 2.69742e+25 -2.22383 -17.3528 272.549 
1.69631e-05 1.21847e-05 2.69556e+25 -0.125405 -3.72553 273.04 
1.67242e-06 1.26626e-05 2.68886e+25 10.5788 1.05354 271.768 
3.58375e-06 1.26626e-05 2.6891e+25 10.9364 0.804164 272.076 
5.49508e-06 1.26626e-05 2.68724e+25 11.012 -0.752974 272.119 
7.40642e-06 1.26626e-05 2.6884e+25 9.91824 -2.70751 271.955 
9.31775e-06 1.26626e-05 2.68491e+25 7.98324 -4.6599 272.654 
1.12291e-05 1.26626e-05 2.69221e+25 4.39996 -7.89608 272.331 
1.31404e-05 1.26626e-05 2.6932e+25 0.20334 -13.9325 272.468 
1.50518e-05 1.26626e-05 2.70021e+25 -2.18842 -17.5408 272.474 
1.69631e-05 1.26626e-05 2.70043e+25 -0.186758 -4.04845 272.769 
1.67242e-06 1.31404e-05 2.6868e+25 12.1665 1.04749 272.127 
3.58375e-06 1.31404e-05 2.68486e+25 12.793 0.857297 272.072 
5.49508e-06 1.31404e-05 2.68554e+25 12.8796 -0.49106 272.222 
7.40642e-06 1.31404e-05 2.68831e+25 11.9926 -2.4597 272.1 
9.31775e-06 1.31404e-05 2.68358e+25 10.1501 -3.9037 272.649 
1.12291e-05 1.31404e-05 2.69034e+25 6.55666 -6.93591 272.422 
1.31404e-05 1.31404e-05 2.69471e+25 1.57387 -12.7117 272.678 
1.50518e-05 1.31404e-05 2.69866e+25 -2.1647 -17.5903 272.718 
1.69631e-05 1.31404e-05 2.70054e+25 -0.0935873 -4.36691 272.9 
1.67242e-06 1.36182e-05 2.68517e+25 14.5258 0.984041 272.172 
3.58375e-06 1.36182e-05 2.68866e+25 14.9944 0.591099 271.967 
5.49508e-06 1.36182e-05 2.68929e+25 15.0875 -0.197764 272.129 
7.40642e-06 1.36182e-05 2.68382e+25 14.104 -2.01687 272.252 
9.31775e-06 1.36182e-05 2.68854e+25 11.911 -3.24071 272.437 
1.12291e-05 1.36182e-05 2.69162e+25 8.79033 -5.94238 272.441 
1.31404e-05 1.36182e-05 2.6932e+25 2.84779 -11.2121 272.816 
1.50518e-05 1.36182e-05 2.70072e+25 -2.33681 -17.3894 272.51 
1.69631e-05 1.36182e-05 2.7007e+25 -0.158467 -4.64621 272.786 
1.67242e-06 1.40961e-05 2.68685e+25 16.5146 0.760839 272.307 
3.58375e-06 1.40961e-05 2.68482e+25 17.0371 0.166534 272.156 
5.49508e-06 1.40961e-05 2.68588e+25 17.162 0.0314676 272.151 
7.40642e-06 1.40961e-05 2.68764e+25 16.6273 -1.65472 272.129 
9.31775e-06 1.40961e-05 2.68977e+25 14.1912 -2.7862 272.472 
1.12291e-05 1.40961e-05 2.68697e+25 10.8898 -4.73994 272.751 
1.31404e-05 1.40961e-05 2.69621e+25 5.08578 -9.51769 272.732 
1.50518e-05 1.40961e-05 2.70783e+25 -1.56873 -16.5561 272.315 
1.69631e-05 1.40961e-05 2.70577e+25 -0.224596 -5.1606 272.782 
1.67242e-06 1.45739e-05 2.68309e+25 18.6895 0.656708 272.241 
3.58375e-06 1.45739e-05 2.68843e+25 19.3447 -0.0634109 271.958 
5.49508e-06 1.45739e-05 2.68637e+25 19.7492 0.278909 272.174 
7.40642e-06 1.45739e-05 2.68619e+25 18.8211 -1.29754 272.237 
9.31775e-06 1.45739e-05 2.68458e+25 16.6837 -2.42156 272.575 
1.12291e-05 1.45739e-05 2.68758e+25 13.3794 -3.53868 272.739 
1.31404e-05 1.45739e-05 2.69615e+25 7.52293 -7.81655 272.463 
1.50518e-05 1.45739e-05 2.70629e+25 -0.249232 -15.3499 272.623 
1.69631e-05 1.45739e-05 2.70673e+25 -0.388331 -5.88569 273.023 
1.67242e-06 1.50518e-05 2.68599e+25 21.4876 0.573497 272.081 
3.58375e-06 1.50518e-05 2.68772e+25 22.0497 -0.0777636 272.05 
5.49508e-06 1.50518e-05 2.68518e+25 21.8873 0.448908 272.312 
7.40642e-06 1.50518e-05 2.68996e+25 21.1752 -0.945356 271.956 
9.31775e-06 1.50518e-05 2.68657e+25 19.485 -1.90298 272.568 
1.12291e-05 1.50518e-05 2.69074e+25 16.3019 -2.42724 272.726 
1.31404e-05 1.50518e-05 2.69492e+25 10.6192 -5.90179 272.858 
1.50518e-05 1.50518e-05 2.70663e+25 1.77709 -13.521 272.67 
1.69631e-05 1.50518e-05 2.71589e+25 -0.427937 -6.76016 273.145 
1.67242e-06 1.55296e-05 2.68554e+25 24.6621 0.576833 272.198 
3.58375e-06 1.55296e-05 2.68666e+25 24.8092 -0.0577512 272.205 
5.49508e-06 1.55296e-05 2.68414e+25 24.4926 0.470538 272.523 
7.40642e-06 1.55296e-05 2.69162e+25 24.0342 -0.61982 271.95 
9.31775e-06 1.55296e-05 2.68788e+25 22.3287 -1.39156 272.597 
1.12291e-05 1.55296e-05 2.69031e+25 19.5933 -1.42099 272.813 
1.31404e-05 1.55296e-05 2.6972e+25 14.6678 -3.95684 272.809 
1.50518e-05 1.55296e-05 2.71013e+25 4.63441 -10.8512 272.749 
1.69631e-05 1.55296e-05 2.72792e+25 -0.595079 -7.7733 273.103 
1.67242e-06 1.60074e-05 2.683e+25 27.3502 0.468526 272.53 
3.58375e-06 1.60074e-05 2.68705e+25 27.6411 -0.0751867 272.354 
5.49508e-06 1.60074e-05 2.68518e+25 27.7644 0.419874 272.472 
7.40642e-06 1.60074e-05 2.68808e+25 27.1389 -0.189485 272.275 
9.31775e-06 1.60074e-05 2.6849e+25 25.7952 -0.739075 272.663 
1.12291e-05 1.60074e-05 2.68746e+25 23.556 -0.765889 272.834 
1.31404e-05 1.60074e-05 2.69475e+25 19.376 -2.2915 273.171 
1.50518e-05 1.60074e-05 2.70888e+25 9.46032 -7.36243 273.45 
1.69631e-05 1.60074e-05 2.74643e+25 -0.645151 -8.9295 272.901 
1.67242e-06 1.64852e-05 2.67997e+25 30.1352 0.35035 272.934 
3.58375e-06 1.64852e-05 2.68246e+25 30.1288 -0.0909406 272.519 
5.49508e-06 1.64852e-05 2.68419e+25 30.3026 0.113551 272.422 
7.40642e-06 1.64852e-05 2.68555e+25 30.0318 -0.103885 272.619 
9.31775e-06 1.64852e-05 2.68419e+25 29.1781 -0.284402 272.682 
1.12291e-05 1.64852e-05 2.68656e+25 27.8363 -0.314807 272.885 
1.31404e-05 1.64852e-05 2.69225e+25 24.9912 -0.95586 273.204 
1.50518e-05 1.64852e-05 2.70757e+25 16.8301 -3.59163 273.397 
1.69631e-05 1.64852e-05 2.77243e+25 -0.00619671 -9.51721 273.127 
1.67242e-06 1.69631e-05 2.67871e+25 33.0879 0.21443 273.028 
3.58375e-06 1.69631e-05 2.67997e+25 32.9006 -0.0425885 272.912 
5.49508e-06 1.69631e-05 2.68187e+25 33.1025 -0.0167706 272.745 
7.40642e-06 1.69631e-05 2.68038e+25 32.8728 -0.113714 272.89 
9.31775e-06 1.69631e-05 2.68289e+25 32.4375 -0.018891 272.991 
1.12291e-05 1.69631e-05 2.69056e+25 31.9206 -0.112916 272.919 
1.31404e-05 1.69631e-05 2.69173e+25 30.8836 -0.224677 273.195 
1.50518e-05 1.69631e-05 2.7082e+25 26.6033 -0.803921 273.073 
1.69631e-05 1.69631e-05 2.85228e+25 4.10614 -6.15036 273.979 
2.38917e-07 2.38917e-07 2.69019e+25 -7.86443 2.12122 271.661 
2.15025e-06 2.38917e-07 2.68966e+25 -8.13806 -0.675068 271.752 
4.06158e-06 2.38917e-07 2.68594e+25 -7.803 -2.31039 272.132 
5.97292e-06 2.38917e-07 2.68612e+25 -6.56482 -3.70832 272.258 
7.88425e-06 2.38917e-07 2.68919e+25 -6.50731 -6.25094 272.115 
9.79558e-06 2.38917e-07 2.69122e+25 -5.58308 -8.26731 271.899 
1.17069e-05 2.38917e-07 2.68428e+25 -4.69761 -8.13063 272.506 
1.36182e-05 2.38917e-07 2.69061e+25 -2.42149 -6.66197 271.724 
1.55296e-05 2.38917e-07 2.68489e+25 -1.16877 -2.91019 272.577 
2.38917e-07 7.1675e-07 2.68969e+25 -7.41443 2.2159 271.997 
2.15025e-06 7.1675e-07 2.68837e+25 -8.1598 -0.649085 271.924 
4.06158e-06 7.1675e-07 2.69142e+25 -8.09622 -2.60573 271.956 
5.97292e-06 7.1675e-07 2.6893e+25 -6.89639 -3.85889 272.209 
7.88425e-06 7.1675e-07 2.68667e+25 -6.44828 -6.29131 272.518 
9.79558e-06 7.1675e-07 2.68857e+25 -5.82327 -8.60498 272.166 
1.17069e-05 7.1675e-07 2.68799e+25 -4.9626 -8.30225 272.405 
1.36182e-05 7.1675e-07 2.6924e+25 -2.93939 -7.28584 272.111 
1.55296e-05 7.1675e-07 2.68338e+25 -1.1769 -3.35024 272.837 
2.38917e-07 1.19458e-06 2.68808e+25 -7.34184 2.36224 272.035 
2.15025e-06 1.19458e-06 2.68977e+25 -7.554 -0.770069 271.921 
4.06158e-06 1.19458e-06 2.68686e+25 -8.0182 -2.7255 272.208 
5.97292e-06 1.19458e-06 2.68432e+25 -7.11083 -4.17567 272.431 
7.88425e-06 1.19458e-06 2.68965e+25 -6.3837 -6.23737 272.061 
9.79558e-06 1.19458e-06 2.69117e+25 -5.87715 -8.85402 272.093 
1.17069e-05 1.19458e-06 2.68991e+25 -4.88457 -8.69123 272.287 
1.36182e-05 1.19458e-06 2.68988e+25 -2.89447 -7.7602 272.33 
1.55296e-05 1.19458e-06 2.6868e+25 -1.02777 -3.96782 272.53 
2.38917e-07 1.67242e-06 2.6859e+25 -6.87891 2.33967 272.081 
2.15025e-06 1.67242e-06 2.68882e+25 -7.67004 -0.775494 271.932 
4.06158e-06 1.67242e-06 2.68802e+25 -7.92388 -2.78624 271.999 
5.97292e-06 1.67242e-06 2.68926e+25 -7.44163 -4.50081 272.184 
7.88425e-06 1.67242e-06 2.68569e+25 -6.56402 -6.43278 272.389 
9.79558e-06 1.67242e-06 2.68688e+25 -6.13463 -8.86899 272.213 
1.17069e-05 1.67242e-06 2.68948e+25 -4.79083 -9.21719 272.326 
1.36182e-05 1.67242e-06 2.68226e+25 -2.96937 -8.21015 272.691 
1.55296e-05 1.67242e-06 2.68472e+25 -0.526563 -4.40666 272.501 
2.38917e-07 2.15025e-06 2.68712e+25 -6.801 2.49248 272.124 
2.15025e-06 2.15025e-06 2.69167e+25 -7.5188 -0.517246 271.735 
4.06158e-06 2.15025e-06 2.68856e+25 -8.14166 -2.71293 271.968 
5.97292e-06 2.15025e-06 2.68676e+25 -7.8945 -4.84758 272.245 
7.88425e-06 2.15025e-06 2.68714e+25 -7.08103 -6.56419 272.568 
9.79558e-06 2.15025e-06 2.68682e+25 -6.23227 -9.17694 272.476 
1.17069e-05 2.15025e-06 2.68874e+25 -4.60486 -9.73607 272.298 
1.36182e-05 2.15025e-06 2.68876e+25 -2.85286 -8.58603 272.574 
1.55296e-05 2.15025e-06 2.68974e+25 -0.758849 -4.85959 272.294 
2.38917e-07 2.62808e-06 2.68829e+25 -6.51906 2.56511 271.998 
2.15025e-06 2.62808e-06 2.69667e+25 -7.39419 -0.0872206 271.315 
4.06158e-06 2.62808e-06 2.6878e+25 -7.73023 -2.63109 272.318 
5.97292e-06 2.62808e-06 2.68617e+25 -8.08502 -4.99238 272.287 
7.88425e-06 2.62808e-06 2.68566e+25 -7.10829 -6.74146 272.375 
9.79558e-06 2.62808e-06 2.68604e+25 -6.60694 -9.39297 272.301 
1.17069e-05 2.62808e-06 2.68829e+25 -4.93701 -10.0752 272.36 
1.36182e-05 2.62808e-06 2.69158e+25 -2.97553 -8.95156 272.112 
1.55296e-05 2.62808e-06 2.68861e+25 -1.05259 -5.31005 272.412 
2.38917e-07 3.10592e-06 2.6823e+25 -5.94247 2.64141 272.36 
2.15025e-06 3.10592e-06 2.69123e+25 -6.80731 0.345577 271.685 
4.06158e-06 3.10592e-06 2.68677e+25 -7.75742 -2.42579 272.261 
5.97292e-06 3.10592e-06 2.68664e+25 -8.29516 -4.90679 272.26 
7.88425e-06 3.10592e-06 2.68615e+25 -7.24024 -6.98374 272.323 
9.79558e-06 3.10592e-06 2.68996e+25 -7.07162 -9.33771 272.134 
1.17069e-05 3.10592e-06 2.68926e+25 -5.11126 -10.9219 272.291 
1.36182e-05 3.10592e-06 2.69141e+25 -2.99241 -9.51791 272.124 
1.55296e-05 3.10592e-06 2.6819e+25 -0.909233 -5.91069 272.893 
2.38917e-07 3.58375e-06 2.68167e+25 -5.39585 2.78455 272.319 
2.15025e-06 3.58375e-06 2.6908e+25 -6.31025 0.656468 272.092 
4.06158e-06 3.58375e-06 2.68613e+25 -7.57061 -2.20098 272.339 
5.97292e-06 3.58375e-06 2.68435e+25 -8.17798 -4.94737 272.571 
7.88425e-06 3.58375e-06 2.68425e+25 -7.41843 -7.34042 272.435 
9.79558e-06 3.58375e-06 2.69054e+25 -6.79846 -9.38916 272.126 
1.17069e-05 3.58375e-06 2.68948e+25 -5.36585 -11.3774 272.239 
1.36182e-05 3.58375e-06 2.69049e+25 -2.8014 -10.0924 272.141 
1.55296e-05 3.58375e-06 2.68516e+25 -0.706745 -6.19963 272.659 
2.38917e-07 4.06158e-06 2.67966e+25 -5.3962 3.19214 272.506 
2.15025e-06 4.06158e-06 2.6861e+25 -6.03698 0.757594 272.163 
4.06158e-06 4.06158e-06 2.68912e+25 -7.70888 -1.86782 271.933 
5.97292e-06 4.06158e-06 2.68416e+25 -7.69955 -5.12031 272.488 
7.88425e-06 4.06158e-06 2.68595e+25 -7.31328 -7.45374 272.324 
9.79558e-06 4.06158e-06 2.6909e+25 -6.74711 -9.78743 272.012 
1.17069e-05 4.06158e-06 2.69525e+25 -5.21066 -11.8005 271.691 
1.36182e-05 4.06158e-06 2.69368e+25 -2.76186 -10.8268 271.885 
1.55296e-05 4.06158e-06 2.68676e+25 -0.643444 -6.55702 272.578 
2.38917e-07 4.53942e-06 2.68103e+25 -4.73619 3.43152 272.566 
2.15025e-06 4.53942e-06 2.68625e+25 -5.54569 1.18986 272.12 
4.06158e-06 4.53942e-06 2.68727e+25 -6.93312 -1.58781 272.11 
5.97292e-06 4.53942e-06 2.6825e+25 -7.25362 -5.40031 272.511 
7.88425e-06 4.53942e-06 2.69174e+25 -6.99991 -7.5014 271.999 
9.79558e-06 4.53942e-06 2.68832e+25 -6.36861 -10.1012 272.316 
1.17069e-05 4.53942e-06 2.69556e+25 -5.26728 -12.2506 271.835 
1.36182e-05 4.53942e-06 2.69077e+25 -3.19287 -11.4381 272.095 
1.55296e-05 4.53942e-06 2.68954e+25 -0.567559 -7.0786 272.401 
2.38917e-07 5.01725e-06 2.68169e+25 -4.76372 3.554 272.46 
2.15025e-06 5.01725e-06 2.6863e+25 -5.21216 1.433 272 
4.06158e-06 5.01725e-06 2.6919e+25 -5.77983 -1.32622 271.806 
5.97292e-06 5.01725e-06 2.68754e+25 -6.73437 -5.29254 272.284 
7.88425e-06 5.01725e-06 2.68945e+25 -6.96911 -7.44778 272.17 
9.79558e-06 5.01725e-06 2.68415e+25 -6.28306 -10.4303 272.535 
1.17069e-05 5.01725e-06 2.69221e+25 -5.32047 -12.6481 271.921 
1.36182e-05 5.01725e-06 2.69265e+25 -3.11678 -12.0968 272.069 
1.55296e-05 5.01725e-06 2.68901e+25 -1.00676 -7.55304 272.205 
2.38917e-07 5.49508e-06 2.68214e+25 -4.26851 3.75717 272.253 
2.15025e-06 5.49508e-06 2.68786e+25 -4.94717 1.66621 271.863 
4.06158e-06 5.49508e-06 2.68805e+25 -4.99827 -1.04094 271.745 
5.97292e-06 5.49508e-06 2.68993e+25 -6.41324 -5.06404 271.905 
7.88425e-06 5.49508e-06 2.68397e+25 -6.79825 -7.37944 272.493 
9.79558e-06 5.49508e-06 2.68926e+25 -6.14287 -10.6979 272.251 
1.17069e-05 5.49508e-06 2.69065e+25 -4.93216 -13.1795 272.191 
1.36182e-05 5.49508e-06 2.69125e+25 -3.3962 -12.9869 272.308 
1.55296e-05 5.49508e-06 2.68753e+25 -1.25416 -8.03728 272.492 
2.38917e-07 5.97292e-06 2.68323e+25 -3.66068 3.99554 272.277 
2.15025e-06 5.97292e-06 2.68775e+25 -4.14924 1.82034 271.814 
4.06158e-06 5.97292e-06 2.68964e+25 -4.69424 -0.840517 271.792 
5.97292e-06 5.97292e-06 2.69088e+25 -6.01915 -4.78071 271.746 
7.88425e-06 5.97292e-06 2.68466e+25 -6.26102 -7.33458 272.563 
9.79558e-06 5.97292e-06 2.68663e+25 -6.15285 -11.0369 272.346 
1.17069e-05 5.97292e-06 2.68707e+25 -5.05359 -13.5948 272.244 
1.36182e-05 5.97292e-06 2.68817e+25 -3.19227 -13.2517 272.382 
1.55296e-05 5.97292e-06 2.68648e+25 -1.47429 -8.45708 272.695 
2.38917e-07 6.45075e-06 2.68717e+25 -3.04172 3.97644 271.856 
2.15025e-06 6.45075e-06 2.6929e+25 -3.54981 1.59956 271.405 
4.06158e-06 6.45075e-06 2.68916e+25 -4.02184 -0.64823 271.91 
5.97292e-06 6.45075e-06 2.68649e+25 -5.12894 -4.36946 271.87 
7.88425e-06 6.45075e-06 2.68557e+25 -5.84537 -7.30226 272.367 
9.79558e-06 6.45075e-06 2.68438e+25 -6.05954 -11.013 272.643 
1.17069e-05 6.45075e-06 2.68875e+25 -5.09401 -14.0623 272.184 
1.36182e-05 6.45075e-06 2.68997e+25 -3.25864 -13.7249 272.38 
1.55296e-05 6.45075e-06 2.68979e+25 -1.15481 -8.99351 272.294 
2.38917e-07 6.92858e-06 2.69049e+25 -2.44377 3.75083 271.464 
2.15025e-06 6.92858e-06 2.69116e+25 -2.50057 1.38744 271.744 
4.06158e-06 6.92858e-06 2.68828e+25 -3.39397 -0.478443 271.986 
5.97292e-06 6.92858e-06 2.68945e+25 -4.03066 -3.99423 271.909 
7.88425e-06 6.92858e-06 2.68152e+25 -5.24397 -7.29925 272.361 
9.79558e-06 6.92858e-06 2.68718e+25 -5.65668 -11.0464 272.606 
1.17069e-05 6.92858e-06 2.68331e+25 -5.21922 -14.3607 272.823 
1.36182e-05 6.92858e-06 2.69265e+25 -3.52968 -14.2707 272.174 
1.55296e-05 6.92858e-06 2.69045e+25 -1.13666 -9.51143 272.137 
2.38917e-07 7.40642e-06 2.68735e+25 -1.8785 3.69181 271.673 
2.15025e-06 7.40642e-06 2.68767e+25 -1.59633 1.39871 271.812 
4.06158e-06 7.40642e-06 2.68769e+25 -2.73928 -0.297731 272.208 
5.97292e-06 7.40642e-06 2.68762e+25 -3.1858 -3.62629 271.888 
7.88425e-06 7.40642e-06 2.68716e+25 -4.32867 -7.18146 272.038 
9.79558e-06 7.40642e-06 2.68285e+25 -4.92191 -11.0819 272.757 
1.17069e-05 7.40642e-06 2.68665e+25 -5.02237 -14.3272 272.734 
1.36182e-05 7.40642e-06 2.68846e+25 -3.69405 -14.8604 272.373 
1.55296e-05 7.40642e-06 2.69037e+25 -1.08189 -10.0319 272.109 
2.38917e-07 7.88425e-06 2.68283e+25 -1.31932 3.60654 271.952 
2.15025e-06 7.88425e-06 2.68842e+25 -0.875951 1.77875 271.779 
4.06158e-06 7.88425e-06 2.68748e+25 -1.36525 -0.0809729 272.095 
5.97292e-06 7.88425e-06 2.68304e+25 -2.24738 -3.40314 272.375 
7.88425e-06 7.88425e-06 2.68744e+25 -3.46603 -6.9215 272.227 
9.79558e-06 7.88425e-06 2.68265e+25 -4.44753 -10.8972 272.616 
1.17069e-05 7.88425e-06 2.68462e+25 -4.69615 -14.2786 272.71 
1.36182e-05 7.88425e-06 2.69214e+25 -3.67652 -15.332 272.204 
1.55296e-05 7.88425e-06 2.69278e+25 -1.29163 -10.3545 272.143 
2.38917e-07 8.36208e-06 2.68313e+25 -0.400517 3.47267 271.821 
2.15025e-06 8.36208e-06 2.68272e+25 -0.404222 2.08517 272.194 
4.06158e-06 8.36208e-06 2.68729e+25 -0.615767 0.230199 272.086 
5.97292e-06 8.36208e-06 2.68023e+25 -1.26306 -3.38834 272.63 
7.88425e-06 8.36208e-06 2.68569e+25 -2.57821 -6.54485 272.266 
9.79558e-06 8.36208e-06 2.68553e+25 -3.78686 -10.5417 272.371 
1.17069e-05 8.36208e-06 2.68839e+25 -4.59001 -14.3057 272.38 
1.36182e-05 8.36208e-06 2.69073e+25 -3.87955 -15.8134 272.405 
1.55296e-05 8.36208e-06 2.69064e+25 -1.21555 -10.8597 272.263 
2.38917e-07 8.83992e-06 2.68769e+25 0.454 3.39776 271.761 
2.15025e-06 8.83992e-06 2.6829e+25 0.608209 1.93814 272.22 
4.06158e-06 8.83992e-06 2.68733e+25 0.445594 0.412013 271.92 
5.97292e-06 8.83992e-06 2.68226e+25 -0.249494 -3.25874 272.552 
7.88425e-06 8.83992e-06 2.68795e+25 -1.71655 -6.12888 272.273 
9.79558e-06 8.83992e-06 2.68856e+25 -2.92386 -10.4889 272.375 
1.17069e-05 8.83992e-06 2.6871e+25 -3.76892 -14.1253 272.64 
1.36182e-05 8.83992e-06 2.68808e+25 -3.7738 -16.2617 272.587 
1.55296e-05 8.83992e-06 2.69363e+25 -1.46842 -11.5044 272.212 
2.38917e-07 9.31775e-06 2.68856e+25 1.14686 3.29488 271.563 
2.15025e-06 9.31775e-06 2.68472e+25 1.37125 1.83355 272.16 
4.06158e-06 9.31775e-06 2.68542e+25 1.36408 0.373938 272.061 
5.97292e-06 9.31775e-06 2.68271e+25 0.881568 -2.97385 272.544 
7.88425e-06 9.31775e-06 2.68434e+25 -0.566909 -5.68261 272.399 
9.79558e-06 9.31775e-06 2.687e+25 -2.28239 -10.2332 272.208 
1.17069e-05 9.31775e-06 2.69012e+25 -3.23346 -13.6644 272.33 
1.36182e-05 9.31775e-06 2.68786e+25 -4.00564 -16.6443 272.604 
1.55296e-05 9.31775e-06 2.69879e+25 -1.77042 -12.0716 271.921 
2.38917e-07 9.79558e-06 2.68718e+25 1.83567 3.1088 271.799 
2.15025e-06 9.79558e-06 2.68552e+25 2.79233 1.90508 272.127 
4.06158e-06 9.79558e-06 2.68472e+25 2.56439 0.228938 272.247 
5.97292e-06 9.79558e-06 2.6822e+25 1.99491 -2.69393 272.566 
7.88425e-06 9.79558e-06 2.68689e+25 0.879562 -5.33053 272.226 
9.79558e-06 9.79558e-06 2.68919e+25 -0.970611 -9.76955 272.179 
1.17069e-05 9.79558e-06 2.69323e+25 -2.72283 -13.3354 272.285 
1.36182e-05 9.79558e-06 2.68804e+25 -3.30959 -16.8271 272.798 
1.55296e-05 9.79558e-06 2.69434e+25 -1.29816 -12.9166 272.314 
2.38917e-07 1.02734e-05 2.6856e+25 2.99982 2.82171 271.834 
2.15025e-06 1.02734e-05 2.68878e+25 3.71803 1.88057 271.859 
4.06158e-06 1.02734e-05 2.6821e+25 3.85284 0.263666 272.362 
5.97292e-06 1.02734e-05 2.68363e+25 3.0234 -2.3125 272.382 
7.88425e-06 1.02734e-05 2.68534e+25 1.71485 -5.13459 272.222 
9.79558e-06 1.02734e-05 2.68829e+25 0.338801 -9.19994 272.199 
1.17069e-05 1.02734e-05 2.69267e+25 -2.1957 -12.9698 272.21 
1.36182e-05 1.02734e-05 2.68926e+25 -2.90304 -16.9419 272.924 
1.55296e-05 1.02734e-05 2.69168e+25 -1.04564 -13.7527 272.472 
2.38917e-07 1.07512e-05 2.68677e+25 4.37855 2.97401 271.692 
2.15025e-06 1.07512e-05 2.68862e+25 4.92356 1.78184 271.771 
4.06158e-06 1.07512e-05 2.68192e+25 5.2639 0.475567 272.43 
5.97292e-06 1.07512e-05 2.68439e+25 4.3388 -1.99419 272.446 
7.88425e-06 1.07512e-05 2.68826e+25 3.02527 -4.66826 271.973 
9.79558e-06 1.07512e-05 2.68883e+25 1.49231 -8.57544 272.224 
1.17069e-05 1.07512e-05 2.69674e+25 -1.47286 -12.5618 272.014 
1.36182e-05 1.07512e-05 2.68972e+25 -2.87738 -17.0294 272.649 
1.55296e-05 1.07512e-05 2.69355e+25 -1.42794 -14.3511 272.614 
2.38917e-07 1.12291e-05 2.68843e+25 5.36275 2.87271 271.822 
2.15025e-06 1.12291e-05 2.6887e+25 6.23073 1.58682 271.844 
4.06158e-06 1.12291e-05 2.68688e+25 6.74711 0.408963 272.108 
5.97292e-06 1.12291e-05 2.68452e+25 5.96703 -1.78088 272.259 
7.88425e-06 1.12291e-05 2.68725e+25 4.67475 -4.09543 271.927 
9.79558e-06 1.12291e-05 2.69016e+25 2.63674 -7.66405 272.149 
1.17069e-05 1.12291e-05 2.69307e+25 -0.465697 -11.9981 272.072 
1.36182e-05 1.12291e-05 2.69193e+25 -2.3566 -16.8538 272.558 
1.55296e-05 1.12291e-05 2.69318e+25 -1.43585 -14.8529 272.529 
2.38917e-07 1.17069e-05 2.68281e+25 6.52189 2.76441 272.264 
2.15025e-06 1.17069e-05 2.68672e+25 7.49446 1.40469 271.9 
4.06158e-06 1.17069e-05 2.68805e+25 8.02323 0.51575 271.984 
5.97292e-06 1.17069e-05 2.68916e+25 7.51097 -1.4697 272.083 
7.88425e-06 1.17069e-05 2.68736e+25 6.05796 -3.84395 271.921 
9.79558e-06 1.17069e-05 2.68819e+25 3.95674 -7.05201 272.512 
1.17069e-05 1.17069e-05 2.69369e+25 0.331077 -11.2832 272.115 
1.36182e-05 1.17069e-05 2.69479e+25 -2.14927 -16.6894 272.309 
1.55296e-05 1.17069e-05 2.69471e+25 -1.55867 -15.2938 272.526 
2.38917e-07 1.21847e-05 2.6842e+25 8.08905 2.47208 272.192 
2.15025e-06 1.21847e-05 2.69283e+25 9.17711 1.13362 271.689 
4.06158e-06 1.21847e-05 2.68716e+25 9.33811 0.856154 271.845 
5.97292e-06 1.21847e-05 2.68933e+25 8.82288 -1.25373 271.73 
7.88425e-06 1.21847e-05 2.68824e+25 7.89323 -3.81017 271.929 
9.79558e-06 1.21847e-05 2.68512e+25 5.309 -6.4947 272.471 
1.17069e-05 1.21847e-05 2.69614e+25 1.59976 -10.4244 272.019 
1.36182e-05 1.21847e-05 2.69582e+25 -1.54169 -16.2931 272.185 
1.55296e-05 1.21847e-05 2.69788e+25 -1.84357 -15.8598 272.482 
2.38917e-07 1.26626e-05 2.68021e+25 9.9718 2.13702 272.473 
2.15025e-06 1.26626e-05 2.6919e+25 10.6258 0.931791 271.622 
4.06158e-06 1.26626e-05 2.69083e+25 11.0244 0.938263 271.815 
5.97292e-06 1.26626e-05 2.6886e+25 10.6773 -0.918792 272.182 
7.88425e-06 1.26626e-05 2.68656e+25 9.61973 -3.6776 272.113 
9.79558e-06 1.26626e-05 2.68624e+25 7.05876 -5.4445 272.585 
1.17069e-05 1.26626e-05 2.6959e+25 3.4316 -9.33586 272.142 
1.36182e-05 1.26626e-05 2.69958e+25 -0.938648 -15.384 272.332 
1.55296e-05 1.26626e-05 2.70075e+25 -1.97018 -16.3432 272.489 
2.38917e-07 1.31404e-05 2.6805e+25 12.0627 1.9295 272.463 
2.15025e-06 1.31404e-05 2.68888e+25 12.3739 0.726001 271.699 
4.06158e-06 1.31404e-05 2.68543e+25 13.0192 0.607464 272.098 
5.97292e-06 1.31404e-05 2.68531e+25 12.7354 -0.722023 272.437 
7.88425e-06 1.31404e-05 2.69113e+25 11.5679 -3.23768 272.061 
9.79558e-06 1.31404e-05 2.68799e+25 9.37416 -4.56291 272.511 
1.17069e-05 1.31404e-05 2.6913e+25 5.48371 -8.24633 272.492 
1.36182e-05 1.31404e-05 2.69538e+25 0.293888 -14.2393 272.644 
1.55296e-05 1.31404e-05 2.7028e+25 -2.02835 -16.6112 272.585 
2.38917e-07 1.36182e-05 2.68131e+25 14.0082 1.60352 272.511 
2.15025e-06 1.36182e-05 2.68581e+25 14.5035 0.659808 271.98 
4.06158e-06 1.36182e-05 2.68293e+25 15.342 0.354211 272.158 
5.97292e-06 1.36182e-05 2.68585e+25 14.823 -0.622538 272.424 
7.88425e-06 1.36182e-05 2.69005e+25 13.5422 -2.7917 271.994 
9.79558e-06 1.36182e-05 2.68784e+25 11.1996 -3.76739 272.445 
1.17069e-05 1.36182e-05 2.6934e+25 7.61 -7.02255 272.523 
1.36182e-05 1.36182e-05 2.69779e+25 1.2117 -12.8283 272.562 
1.55296e-05 1.36182e-05 2.7058e+25 -2.33845 -16.9386 272.506 
2.38917e-07 1.40961e-05 2.68373e+25 16.1022 1.2356 272.295 
2.15025e-06 1.40961e-05 2.68826e+25 16.64 0.728544 271.979 
4.06158e-06 1.40961e-05 2.68193e+25 17.3411 0.148227 272.419 
5.97292e-06 1.40961e-05 2.68824e+25 16.9814 -0.508226 272.035 
7.88425e-06 1.40961e-05 2.68778e+25 16.0477 -2.06233 272.224 
9.79558e-06 1.40961e-05 2.68959e+25 13.7213 -3.1319 272.495 
1.17069e-05 1.40961e-05 2.689e+25 9.54178 -5.64815 272.88 
1.36182e-05 1.40961e-05 2.70049e+25 3.29542 -11.0072 272.533 
1.55296e-05 1.40961e-05 2.7064e+25 -2.09298 -17.0791 272.405 
2.38917e-07 1.45739e-05 2.68472e+25 17.9581 0.964233 272.112 
2.15025e-06 1.45739e-05 2.6854e+25 18.9741 0.443667 272.004 
4.06158e-06 1.45739e-05 2.68545e+25 19.5472 -0.0897345 272.15 
5.97292e-06 1.45739e-05 2.6858e+25 19.4306 -0.312042 272.268 
7.88425e-06 1.45739e-05 2.68297e+25 18.4833 -1.35491 272.449 
9.79558e-06 1.45739e-05 2.6902e+25 16.0533 -2.40372 272.507 
1.17069e-05 1.45739e-05 2.69104e+25 12.047 -4.15035 272.788 
1.36182e-05 1.45739e-05 2.70122e+25 5.63605 -9.04019 272.53 
1.55296e-05 1.45739e-05 2.70865e+25 -1.42883 -16.6993 272.594 
2.38917e-07 1.50518e-05 2.68291e+25 20.8222 0.590132 272.408 
2.15025e-06 1.50518e-05 2.68703e+25 21.5775 0.273816 272.015 
4.06158e-06 1.50518e-05 2.68624e+25 21.9671 -0.182506 272.124 
5.97292e-06 1.50518e-05 2.68193e+25 21.8289 -0.137694 272.483 
7.88425e-06 1.50518e-05 2.68817e+25 20.9767 -1.0532 272.312 
9.79558e-06 1.50518e-05 2.68726e+25 18.9238 -1.85235 272.605 
1.17069e-05 1.50518e-05 2.6949e+25 15.2429 -2.86552 272.711 
1.36182e-05 1.50518e-05 2.69832e+25 8.61785 -7.13061 272.814 
1.55296e-05 1.50518e-05 2.71423e+25 -0.167586 -15.4492 272.514 
2.38917e-07 1.55296e-05 2.6771e+25 23.8069 0.23717 272.562 
2.15025e-06 1.55296e-05 2.68556e+25 24.6499 0.165657 272.074 
4.06158e-06 1.55296e-05 2.68737e+25 24.7083 -0.0196139 272.164 
5.97292e-06 1.55296e-05 2.68462e+25 24.5898 -0.139004 272.433 
7.88425e-06 1.55296e-05 2.68777e+25 23.6906 -0.804552 272.27 
9.79558e-06 1.55296e-05 2.68881e+25 21.7552 -1.21005 272.553 
1.17069e-05 1.55296e-05 2.69423e+25 18.739 -1.91697 272.722 
1.36182e-05 1.55296e-05 2.69591e+25 12.6791 -4.96862 273.111 
1.55296e-05 1.55296e-05 2.71613e+25 1.61157 -13.2321 272.782 
2.38917e-07 1.60074e-05 2.68056e+25 27.1179 -0.124338 272.544 
2.15025e-06 1.60074e-05 2.67993e+25 27.3491 0.184895 272.639 
4.06158e-06 1.60074e-05 2.68794e+25 27.3922 0.331717 272.132 
5.97292e-06 1.60074e-05 2.68919e+25 27.7147 -0.267859 272.127 
7.88425e-06 1.60074e-05 2.6882e+25 26.8832 -0.491675 272.131 
9.79558e-06 1.60074e-05 2.68628e+25 25.1868 -0.72258 272.716 
1.17069e-05 1.60074e-05 2.69307e+25 22.8558 -1.07671 272.571 
1.36182e-05 1.60074e-05 2.69538e+25 17.6532 -2.92512 273.043 
1.55296e-05 1.60074e-05 2.71801e+25 5.53407 -9.81004 273.092 
2.38917e-07 1.64852e-05 2.68027e+25 30.0518 -0.180259 272.541 
2.15025e-06 1.64852e-05 2.67751e+25 30.3781 0.0614297 272.92 
4.06158e-06 1.64852e-05 2.68338e+25 30.2912 0.342314 272.456 
5.97292e-06 1.64852e-05 2.68419e+25 30.5201 -0.194213 272.304 
7.88425e-06 1.64852e-05 2.68725e+25 29.9691 -0.258505 272.46 
9.79558e-06 1.64852e-05 2.68579e+25 28.7947 -0.289496 272.639 
1.17069e-05 1.64852e-05 2.69184e+25 27.3397 -0.449902 272.725 
1.36182e-05 1.64852e-05 2.69433e+25 23.8476 -1.30931 273.412 
1.55296e-05 1.64852e-05 2.71733e+25 12.6421 -5.40003 273.501 
2.38917e-07 1.69631e-05 2.68015e+25 32.9268 -0.0848662 272.728 
2.15025e-06 1.69631e-05 2.67876e+25 33.3058 -0.0824127 272.851 
4.06158e-06 1.69631e-05 2.68386e+25 32.9272 0.124737 272.741 
5.97292e-06 1.69631e-05 2.68234e+25 33.0308 -0.0325901 272.773 
7.88425e-06 1.69631e-05 2.68443e+25 32.6558 -0.0143848 272.729 
9.79558e-06 1.69631e-05 2.68401e+25 32.3222 -0.0182857 272.863 
1.17069e-05 1.69631e-05 2.69029e+25 31.7446 -0.0424375 272.892 
1.36182e-05 1.69631e-05 2.69251e+25 30.2782 -0.198571 273.248 
1.55296e-05 1.69631e-05 2.7145e+25 24.1322 -1.23565 273.455 
7.1675e-07 2.38917e-07 2.68985e+25 -8.00697 1.48019 271.878 
2.62808e-06 2.38917e-07 2.68677e+25 -8.217 -1.28751 272.055 
4.53942e-06 2.38917e-07 2.68461e+25 -7.49899 -2.7242 272.256 
6.45075e-06 2.38917e-07 2.68548e+25 -6.54026 -4.23378 272.193 
8.36208e-06 2.38917e-07 2.68842e+25 -6.27439 -7.11951 271.948 
1.02734e-05 2.38917e-07 2.68769e+25 -5.27988 -8.37504 271.98 
1.21847e-05 2.38917e-07 2.68638e+25 -4.25042 -7.80888 272.314 
1.40961e-05 2.38917e-07 2.69064e+25 -1.81143 -5.71734 271.835 
1.60074e-05 2.38917e-07 2.68456e+25 -0.769761 -1.95765 272.57 
7.1675e-07 7.1675e-07 2.68769e+25 -7.59123 1.65811 271.919 
2.62808e-06 7.1675e-07 2.68637e+25 -8.14565 -1.34087 272.107 
4.53942e-06 7.1675e-07 2.69087e+25 -7.76701 -3.07075 271.89 
6.45075e-06 7.1675e-07 2.68693e+25 -6.65819 -4.34001 272.227 
8.36208e-06 7.1675e-07 2.68791e+25 -6.41825 -7.29373 272.149 
1.02734e-05 7.1675e-07 2.69256e+25 -5.4322 -8.67815 272.172 
1.21847e-05 7.1675e-07 2.68525e+25 -4.60176 -8.40455 272.558 
1.40961e-05 7.1675e-07 2.69264e+25 -2.31222 -6.27607 271.808 
1.60074e-05 7.1675e-07 2.68529e+25 -0.691439 -2.36716 272.541 
7.1675e-07 1.19458e-06 2.68942e+25 -7.31998 1.8391 271.9 
2.62808e-06 1.19458e-06 2.68844e+25 -7.73684 -1.10472 271.966 
4.53942e-06 1.19458e-06 2.6901e+25 -7.90227 -3.4266 272.122 
6.45075e-06 1.19458e-06 2.68701e+25 -6.84358 -4.55806 272.278 
8.36208e-06 1.19458e-06 2.69299e+25 -6.3727 -7.34995 271.895 
1.02734e-05 1.19458e-06 2.69235e+25 -5.81443 -8.81282 271.976 
1.21847e-05 1.19458e-06 2.68671e+25 -4.30155 -8.91223 272.492 
1.40961e-05 1.19458e-06 2.69255e+25 -2.49379 -6.73962 272.09 
1.60074e-05 1.19458e-06 2.68498e+25 -0.567806 -2.70095 272.697 
7.1675e-07 1.67242e-06 2.68929e+25 -7.05987 1.96906 271.921 
2.62808e-06 1.67242e-06 2.69106e+25 -7.72539 -0.916925 272.064 
4.53942e-06 1.67242e-06 2.69194e+25 -7.95641 -3.42685 271.716 
6.45075e-06 1.67242e-06 2.68748e+25 -7.20357 -4.5034 272.47 
8.36208e-06 1.67242e-06 2.68751e+25 -6.46384 -7.36299 272.311 
1.02734e-05 1.67242e-06 2.69126e+25 -5.9255 -9.06962 272.097 
1.21847e-05 1.67242e-06 2.68602e+25 -4.09504 -9.60008 272.649 
1.40961e-05 1.67242e-06 2.68402e+25 -2.53998 -7.29282 272.509 
1.60074e-05 1.67242e-06 2.68504e+25 -0.167283 -3.0244 272.798 
7.1675e-07 2.15025e-06 2.69345e+25 -6.69933 2.05598 271.726 
2.62808e-06 2.15025e-06 2.69005e+25 -7.6573 -0.881697 271.963 
4.53942e-06 2.15025e-06 2.68966e+25 -8.18907 -3.50554 271.878 
6.45075e-06 2.15025e-06 2.68404e+25 -7.59989 -4.7853 272.372 
8.36208e-06 2.15025e-06 2.68987e+25 -6.97871 -7.53133 272.282 
1.02734e-05 2.15025e-06 2.68522e+25 -6.08224 -9.26061 272.473 
1.21847e-05 2.15025e-06 2.68339e+25 -4.36422 -10.0941 272.593 
1.40961e-05 2.15025e-06 2.68636e+25 -2.55343 -7.64634 272.249 
1.60074e-05 2.15025e-06 2.68352e+25 -0.411612 -3.35597 272.938 
7.1675e-07 2.62808e-06 2.68892e+25 -6.60764 2.04394 271.964 
2.62808e-06 2.62808e-06 2.69269e+25 -7.77089 -0.879273 271.709 
4.53942e-06 2.62808e-06 2.68539e+25 -7.88399 -3.39006 272.309 
6.45075e-06 2.62808e-06 2.6855e+25 -7.83795 -5.11803 272.211 
8.36208e-06 2.62808e-06 2.68708e+25 -6.90238 -7.69754 272.491 
1.02734e-05 2.62808e-06 2.68726e+25 -6.40188 -9.37929 272.171 
1.21847e-05 2.62808e-06 2.68567e+25 -4.3006 -10.5227 272.487 
1.40961e-05 2.62808e-06 2.68823e+25 -2.46137 -8.05231 272.285 
1.60074e-05 2.62808e-06 2.68363e+25 -0.541048 -3.7397 272.641 
7.1675e-07 3.10592e-06 2.68712e+25 -6.03472 2.27095 272.171 
2.62808e-06 3.10592e-06 2.69145e+25 -7.31633 -0.410406 271.83 
4.53942e-06 3.10592e-06 2.68465e+25 -7.97775 -3.11018 272.121 
6.45075e-06 3.10592e-06 2.68731e+25 -8.22218 -5.52421 272.295 
8.36208e-06 3.10592e-06 2.6872e+25 -6.97397 -7.87129 272.51 
1.02734e-05 3.10592e-06 2.69197e+25 -6.79 -9.80637 272.027 
1.21847e-05 3.10592e-06 2.68675e+25 -4.51577 -10.9874 272.405 
1.40961e-05 3.10592e-06 2.68853e+25 -2.33699 -8.69105 272.275 
1.60074e-05 3.10592e-06 2.68476e+25 -0.449602 -4.11242 272.676 
7.1675e-07 3.58375e-06 2.68641e+25 -5.80625 2.56213 272.378 
2.62808e-06 3.58375e-06 2.68433e+25 -6.48261 -0.0720566 272.288 
4.53942e-06 3.58375e-06 2.68702e+25 -7.8896 -2.94956 272.228 
6.45075e-06 3.58375e-06 2.68428e+25 -8.04844 -5.80086 272.625 
8.36208e-06 3.58375e-06 2.68808e+25 -7.09202 -8.06486 272.489 
1.02734e-05 3.58375e-06 2.69285e+25 -6.45357 -10.2481 272.054 
1.21847e-05 3.58375e-06 2.68701e+25 -4.96796 -11.4142 272.436 
1.40961e-05 3.58375e-06 2.68932e+25 -2.16691 -9.35881 272.372 
1.60074e-05 3.58375e-06 2.68427e+25 -0.379461 -4.48058 272.769 
7.1675e-07 4.06158e-06 2.68264e+25 -5.55995 2.88252 272.607 
2.62808e-06 4.06158e-06 2.68789e+25 -6.28903 0.153488 271.991 
4.53942e-06 4.06158e-06 2.68785e+25 -7.89039 -2.66698 272.054 
6.45075e-06 4.06158e-06 2.68166e+25 -7.47921 -5.88935 272.597 
8.36208e-06 4.06158e-06 2.68602e+25 -7.1708 -8.23573 272.343 
1.02734e-05 4.06158e-06 2.69164e+25 -6.29621 -10.7536 272.117 
1.21847e-05 4.06158e-06 2.69054e+25 -4.68246 -11.9501 272.112 
1.40961e-05 4.06158e-06 2.69034e+25 -2.11821 -9.94278 272.271 
1.60074e-05 4.06158e-06 2.68653e+25 -0.302779 -4.75031 272.589 
7.1675e-07 4.53942e-06 2.68457e+25 -4.94079 3.04458 272.356 
2.62808e-06 4.53942e-06 2.68608e+25 -5.99856 0.458945 272.181 
4.53942e-06 4.53942e-06 2.68645e+25 -7.18719 -2.54635 272.151 
6.45075e-06 4.53942e-06 2.68349e+25 -7.20315 -5.87067 272.638 
8.36208e-06 4.53942e-06 2.68768e+25 -7.12658 -8.26454 272.266 
1.02734e-05 4.53942e-06 2.6918e+25 -6.32713 -10.9583 271.931 
1.21847e-05 4.53942e-06 2.69411e+25 -4.96726 -12.42 271.887 
1.40961e-05 4.53942e-06 2.69122e+25 -2.55413 -10.5067 272.173 
1.60074e-05 4.53942e-06 2.6912e+25 -0.220779 -4.99589 272.194 
7.1675e-07 5.01725e-06 2.68401e+25 -4.81207 3.14341 272.225 
2.62808e-06 5.01725e-06 2.68697e+25 -5.31702 0.782583 272.137 
4.53942e-06 5.01725e-06 2.68978e+25 -6.09211 -2.28382 271.892 
6.45075e-06 5.01725e-06 2.68362e+25 -6.87352 -5.94762 272.471 
8.36208e-06 5.01725e-06 2.68534e+25 -7.11268 -8.09302 272.425 
1.02734e-05 5.01725e-06 2.68673e+25 -6.09743 -10.9017 272.491 
1.21847e-05 5.01725e-06 2.68825e+25 -4.77014 -12.88 272.253 
1.40961e-05 5.01725e-06 2.6909e+25 -2.37657 -11.2047 272.279 
1.60074e-05 5.01725e-06 2.69045e+25 -0.554629 -5.3271 272.235 
7.1675e-07 5.49508e-06 2.68628e+25 -4.36559 3.11077 272.413 
2.62808e-06 5.49508e-06 2.68995e+25 -5.07862 0.754273 271.942 
4.53942e-06 5.49508e-06 2.69148e+25 -5.39728 -1.88772 271.746 
6.45075e-06 5.49508e-06 2.68881e+25 -6.61836 -5.80706 272.078 
8.36208e-06 5.49508e-06 2.68118e+25 -6.81685 -8.17875 272.641 
1.02734e-05 5.49508e-06 2.68775e+25 -5.86411 -11.081 272.466 
1.21847e-05 5.49508e-06 2.68693e+25 -4.59118 -13.2865 272.406 
1.40961e-05 5.49508e-06 2.6882e+25 -2.76841 -11.8364 272.369 
1.60074e-05 5.49508e-06 2.69187e+25 -0.748782 -5.76627 272.04 
7.1675e-07 5.97292e-06 2.68555e+25 -3.85571 3.29104 272.248 
2.62808e-06 5.97292e-06 2.68957e+25 -4.21954 0.810154 271.664 
4.53942e-06 5.97292e-06 2.691e+25 -4.8884 -1.50692 271.662 
6.45075e-06 5.97292e-06 2.69185e+25 -6.22262 -5.68053 271.64 
8.36208e-06 5.97292e-06 2.68147e+25 -6.27449 -8.20337 272.869 
1.02734e-05 5.97292e-06 2.68295e+25 -5.9459 -11.2603 272.646 
1.21847e-05 5.97292e-06 2.68555e+25 -4.49254 -13.7749 272.602 
1.40961e-05 5.97292e-06 2.68896e+25 -2.88354 -12.3961 272.403 
1.60074e-05 5.97292e-06 2.68895e+25 -0.98407 -6.35788 272.251 
7.1675e-07 6.45075e-06 2.68817e+25 -2.91097 3.43502 271.776 
2.62808e-06 6.45075e-06 2.69058e+25 -3.34214 0.862876 271.599 
4.53942e-06 6.45075e-06 2.68882e+25 -3.95305 -1.48598 271.778 
6.45075e-06 6.45075e-06 2.687e+25 -5.41249 -5.47956 271.935 
8.36208e-06 6.45075e-06 2.68453e+25 -5.87297 -8.10578 272.436 
1.02734e-05 6.45075e-06 2.685e+25 -5.85088 -11.6786 272.626 
1.21847e-05 6.45075e-06 2.6872e+25 -4.64567 -14.3095 272.308 
1.40961e-05 6.45075e-06 2.68903e+25 -2.62636 -12.9032 272.379 
1.60074e-05 6.45075e-06 2.69191e+25 -0.710404 -6.78905 272.003 
7.1675e-07 6.92858e-06 2.69197e+25 -2.35857 3.48647 271.604 
2.62808e-06 6.92858e-06 2.6866e+25 -2.46557 0.905144 271.769 
4.53942e-06 6.92858e-06 2.68987e+25 -3.63651 -1.48226 271.888 
6.45075e-06 6.92858e-06 2.68637e+25 -4.43802 -5.13504 271.946 
8.36208e-06 6.92858e-06 2.68417e+25 -5.37646 -7.95993 272.284 
1.02734e-05 6.92858e-06 2.68386e+25 -5.55691 -11.9918 272.913 
1.21847e-05 6.92858e-06 2.68714e+25 -5.01662 -14.7038 272.453 
1.40961e-05 6.92858e-06 2.68845e+25 -2.95438 -13.4868 272.366 
1.60074e-05 6.92858e-06 2.68959e+25 -0.707697 -7.08597 272.294 
7.1675e-07 7.40642e-06 2.69044e+25 -1.87124 3.49131 271.607 
2.62808e-06 7.40642e-06 2.68627e+25 -1.95483 1.27623 272.015 
4.53942e-06 7.40642e-06 2.68406e+25 -2.7772 -1.33571 272.114 
6.45075e-06 7.40642e-06 2.68602e+25 -3.57475 -4.74145 272.006 
8.36208e-06 7.40642e-06 2.68875e+25 -4.45783 -7.75834 271.969 
1.02734e-05 7.40642e-06 2.68239e+25 -5.10862 -12.0096 272.816 
1.21847e-05 7.40642e-06 2.68659e+25 -5.03169 -14.8882 272.611 
1.40961e-05 7.40642e-06 2.69042e+25 -3.04153 -14.1744 272.248 
1.60074e-05 7.40642e-06 2.69083e+25 -0.779995 -7.38436 272.349 
7.1675e-07 7.88425e-06 2.68872e+25 -1.14854 3.37724 271.788 
2.62808e-06 7.88425e-06 2.68562e+25 -1.30399 1.67187 272.121 
4.53942e-06 7.88425e-06 2.68559e+25 -1.77474 -1.17277 272.14 
6.45075e-06 7.88425e-06 2.68409e+25 -2.3966 -4.48151 272.113 
8.36208e-06 7.88425e-06 2.69092e+25 -3.65507 -7.71157 271.855 
1.02734e-05 7.88425e-06 2.68614e+25 -4.50879 -11.8196 272.683 
1.21847e-05 7.88425e-06 2.68414e+25 -4.66978 -15.0494 272.873 
1.40961e-05 7.88425e-06 2.69254e+25 -3.11887 -14.7631 272.166 
1.60074e-05 7.88425e-06 2.69438e+25 -0.711695 -7.91919 272.045 
7.1675e-07 8.36208e-06 2.68798e+25 -0.307944 3.18577 271.758 
2.62808e-06 8.36208e-06 2.68053e+25 -0.34772 1.66293 272.391 
4.53942e-06 8.36208e-06 2.68239e+25 -0.809679 -0.830052 272.505 
6.45075e-06 8.36208e-06 2.68404e+25 -1.44415 -4.1483 272.414 
8.36208e-06 8.36208e-06 2.68727e+25 -3.01317 -7.4867 272.065 
1.02734e-05 8.36208e-06 2.68716e+25 -3.90821 -11.8791 272.369 
1.21847e-05 8.36208e-06 2.68878e+25 -4.38927 -15.2293 272.367 
1.40961e-05 8.36208e-06 2.69143e+25 -3.33216 -15.5178 272.425 
1.60074e-05 8.36208e-06 2.69097e+25 -0.825636 -8.43966 272.232 
7.1675e-07 8.83992e-06 2.68846e+25 0.55103 3.16684 271.847 
2.62808e-06 8.83992e-06 2.68259e+25 0.604575 1.66065 272.187 
4.53942e-06 8.83992e-06 2.68476e+25 0.113638 -0.535071 272.171 
6.45075e-06 8.83992e-06 2.68344e+25 -0.477656 -3.81698 272.408 
8.36208e-06 8.83992e-06 2.68421e+25 -2.07395 -7.13598 272.295 
1.02734e-05 8.83992e-06 2.68812e+25 -3.23692 -11.5396 272.314 
1.21847e-05 8.83992e-06 2.68757e+25 -4.04592 -15.2814 272.529 
1.40961e-05 8.83992e-06 2.68784e+25 -3.40538 -16.0949 272.634 
1.60074e-05 8.83992e-06 2.69083e+25 -0.7834 -8.89536 272.223 
7.1675e-07 9.31775e-06 2.68946e+25 1.17579 3.2289 271.636 
2.62808e-06 9.31775e-06 2.68429e+25 1.38773 1.77425 272.186 
4.53942e-06 9.31775e-06 2.68336e+25 1.50406 -0.327768 272.153 
6.45075e-06 9.31775e-06 2.68142e+25 0.588502 -3.51479 272.568 
8.36208e-06 9.31775e-06 2.68622e+25 -0.989611 -6.66985 272.168 
1.02734e-05 9.31775e-06 2.68834e+25 -2.39365 -11.4041 272.205 
1.21847e-05 9.31775e-06 2.68851e+25 -3.63014 -14.8635 272.42 
1.40961e-05 9.31775e-06 2.69083e+25 -3.55827 -16.4954 272.713 
1.60074e-05 9.31775e-06 2.69335e+25 -1.03678 -9.64348 272.26 
7.1675e-07 9.79558e-06 2.6874e+25 2.23298 3.13031 272.012 
2.62808e-06 9.79558e-06 2.68637e+25 2.59631 1.83619 272.042 
4.53942e-06 9.79558e-06 2.68551e+25 2.71846 -0.39772 272.313 
6.45075e-06 9.79558e-06 2.67934e+25 1.6796 -3.21382 272.617 
8.36208e-06 9.79558e-06 2.68728e+25 0.514107 -6.31066 272.193 
1.02734e-05 9.79558e-06 2.6886e+25 -1.3687 -11.2793 272.243 
1.21847e-05 9.79558e-06 2.68794e+25 -2.95282 -14.6216 272.554 
1.40961e-05 9.79558e-06 2.68948e+25 -3.16649 -16.8573 272.695 
1.60074e-05 9.79558e-06 2.69592e+25 -0.621876 -10.2664 272.161 
7.1675e-07 1.02734e-05 2.68444e+25 3.30086 2.69132 272.101 
2.62808e-06 1.02734e-05 2.68374e+25 3.88282 1.85697 272.196 
4.53942e-06 1.02734e-05 2.68501e+25 3.67352 -0.485179 272.306 
6.45075e-06 1.02734e-05 2.68142e+25 2.79666 -2.9484 272.587 
8.36208e-06 1.02734e-05 2.6883e+25 1.44549 -5.87814 271.949 
1.02734e-05 1.02734e-05 2.68547e+25 -0.404981 -10.6006 272.316 
1.21847e-05 1.02734e-05 2.69116e+25 -2.56319 -14.2803 272.338 
1.40961e-05 1.02734e-05 2.6926e+25 -2.75529 -17.0292 272.671 
1.60074e-05 1.02734e-05 2.69544e+25 -0.300861 -10.7453 272.166 
7.1675e-07 1.07512e-05 2.69002e+25 4.28885 2.31023 271.817 
2.62808e-06 1.07512e-05 2.68642e+25 5.13098 1.73411 271.924 
4.53942e-06 1.07512e-05 2.68318e+25 5.15837 -0.337368 272.135 
6.45075e-06 1.07512e-05 2.68466e+25 4.1338 -2.80661 272.388 
8.36208e-06 1.07512e-05 2.68941e+25 2.67002 -5.6999 271.996 
1.02734e-05 1.07512e-05 2.69172e+25 0.606337 -9.66119 272.15 
1.21847e-05 1.07512e-05 2.69595e+25 -1.92057 -13.7865 271.997 
1.40961e-05 1.07512e-05 2.6891e+25 -2.65296 -17.3874 272.633 
1.60074e-05 1.07512e-05 2.69538e+25 -0.950955 -11.3488 272.362 
7.1675e-07 1.12291e-05 2.69099e+25 5.48769 2.3405 271.72 
2.62808e-06 1.12291e-05 2.68678e+25 6.5281 1.41308 271.996 
4.53942e-06 1.12291e-05 2.68842e+25 6.65923 -0.231596 271.924 
6.45075e-06 1.12291e-05 2.68545e+25 5.60301 -2.42847 272.353 
8.36208e-06 1.12291e-05 2.68593e+25 4.29202 -5.51891 272.481 
1.02734e-05 1.12291e-05 2.69015e+25 1.72734 -8.7089 272.242 
1.21847e-05 1.12291e-05 2.69649e+25 -1.13397 -13.2358 272.048 
1.40961e-05 1.12291e-05 2.69074e+25 -2.52158 -17.5852 272.728 
1.60074e-05 1.12291e-05 2.69395e+25 -0.98307 -11.8591 272.467 
7.1675e-07 1.17069e-05 2.68796e+25 6.85874 2.00107 271.905 
2.62808e-06 1.17069e-05 2.68918e+25 7.79735 1.07165 271.797 
4.53942e-06 1.17069e-05 2.68951e+25 7.75777 0.0451402 271.846 
6.45075e-06 1.17069e-05 2.68843e+25 7.07062 -1.96656 272.039 
8.36208e-06 1.17069e-05 2.68638e+25 5.74919 -5.04209 272.477 
1.02734e-05 1.17069e-05 2.69041e+25 3.26003 -7.85626 272.186 
1.21847e-05 1.17069e-05 2.69496e+25 -0.435129 -12.5268 272.18 
1.40961e-05 1.17069e-05 2.69099e+25 -2.26297 -17.4067 272.639 
1.60074e-05 1.17069e-05 2.69382e+25 -1.03263 -12.3547 272.708 
7.1675e-07 1.21847e-05 2.68936e+25 8.41097 1.59907 271.895 
2.62808e-06 1.21847e-05 2.68754e+25 9.3242 0.856321 271.731 
4.53942e-06 1.21847e-05 2.68568e+25 9.16857 0.166223 272.123 
6.45075e-06 1.21847e-05 2.68708e+25 8.55698 -1.56717 271.922 
8.36208e-06 1.21847e-05 2.68909e+25 7.57548 -4.524 272.211 
1.02734e-05 1.21847e-05 2.68778e+25 4.49405 -6.99173 272.346 
1.21847e-05 1.21847e-05 2.69356e+25 0.576377 -11.5859 272.018 
1.40961e-05 1.21847e-05 2.69675e+25 -2.06204 -17.1153 272.559 
1.60074e-05 1.21847e-05 2.69654e+25 -1.12912 -13.0124 272.587 
7.1675e-07 1.26626e-05 2.68644e+25 10.2261 1.39892 272.071 
2.62808e-06 1.26626e-05 2.68832e+25 10.9457 0.762665 271.898 
4.53942e-06 1.26626e-05 2.69208e+25 11.1146 0.180155 271.827 
6.45075e-06 1.26626e-05 2.68664e+25 10.3861 -1.27857 272.066 
8.36208e-06 1.26626e-05 2.6862e+25 9.42767 -4.10971 272.372 
1.02734e-05 1.26626e-05 2.69115e+25 6.12918 -6.18622 272.301 
1.21847e-05 1.26626e-05 2.69259e+25 2.37665 -10.6684 272.157 
1.40961e-05 1.26626e-05 2.69224e+25 -1.85846 -16.6855 272.844 
1.60074e-05 1.26626e-05 2.69809e+25 -1.38689 -13.7568 272.803 
7.1675e-07 1.31404e-05 2.68239e+25 12.2087 1.30141 272.369 
2.62808e-06 1.31404e-05 2.68983e+25 12.532 0.431329 271.954 
4.53942e-06 1.31404e-05 2.68607e+25 13.1998 0.1059 272.176 
6.45075e-06 1.31404e-05 2.68321e+25 12.5664 -0.998317 272.461 
8.36208e-06 1.31404e-05 2.68571e+25 11.1488 -3.77818 272.376 
1.02734e-05 1.31404e-05 2.68977e+25 8.4126 -5.16933 272.264 
1.21847e-05 1.31404e-05 2.69462e+25 4.33893 -9.54092 272.316 
1.40961e-05 1.31404e-05 2.69529e+25 -0.862593 -15.7595 272.855 
1.60074e-05 1.31404e-05 2.69694e+25 -1.45834 -14.5298 272.93 
7.1675e-07 1.36182e-05 2.68373e+25 14.3255 1.17326 272.441 
2.62808e-06 1.36182e-05 2.68812e+25 14.496 0.414278 272.137 
4.53942e-06 1.36182e-05 2.68672e+25 15.364 0.154172 272.176 
6.45075e-06 1.36182e-05 2.68434e+25 14.7897 -0.908087 272.473 
8.36208e-06 1.36182e-05 2.68561e+25 12.8987 -3.23432 272.192 
1.02734e-05 1.36182e-05 2.69179e+25 10.5105 -4.25184 272.228 
1.21847e-05 1.36182e-05 2.6948e+25 6.10552 -8.15918 272.637 
1.40961e-05 1.36182e-05 2.69972e+25 -0.350633 -14.4474 272.654 
1.60074e-05 1.36182e-05 2.70496e+25 -1.795 -15.285 272.461 
7.1675e-07 1.40961e-05 2.68447e+25 16.1761 1.09606 272.269 
2.62808e-06 1.40961e-05 2.69003e+25 16.728 0.229721 271.693 
4.53942e-06 1.40961e-05 2.68541e+25 17.6668 0.134608 272.244 
6.45075e-06 1.40961e-05 2.68247e+25 16.8896 -0.752981 272.303 
8.36208e-06 1.40961e-05 2.68851e+25 15.1915 -2.48573 272.379 
1.02734e-05 1.40961e-05 2.693e+25 12.9908 -3.53394 272.171 
1.21847e-05 1.40961e-05 2.69193e+25 8.10279 -6.56334 272.885 
1.40961e-05 1.40961e-05 2.69548e+25 1.34463 -12.8418 272.855 
1.60074e-05 1.40961e-05 2.7049e+25 -1.94513 -15.8998 272.545 
7.1675e-07 1.45739e-05 2.68319e+25 18.3594 0.816001 272.466 
2.62808e-06 1.45739e-05 2.69145e+25 19.1247 0.147121 271.672 
4.53942e-06 1.45739e-05 2.68634e+25 19.643 -0.10728 272.086 
6.45075e-06 1.45739e-05 2.68614e+25 19.2241 -0.677902 272.333 
8.36208e-06 1.45739e-05 2.6872e+25 17.8709 -1.79284 272.231 
1.02734e-05 1.45739e-05 2.68941e+25 15.3899 -2.71779 272.514 
1.21847e-05 1.45739e-05 2.69039e+25 10.5425 -5.1116 272.903 
1.40961e-05 1.45739e-05 2.70162e+25 3.62357 -10.8684 272.635 
1.60074e-05 1.45739e-05 2.71374e+25 -1.64912 -16.2082 272.537 
7.1675e-07 1.50518e-05 2.68443e+25 21.1251 0.517115 272.423 
2.62808e-06 1.50518e-05 2.68522e+25 21.6455 0.0316864 272.186 
4.53942e-06 1.50518e-05 2.68519e+25 21.9257 0.044244 272.337 
6.45075e-06 1.50518e-05 2.68577e+25 21.8248 -0.615721 272.209 
8.36208e-06 1.50518e-05 2.68832e+25 20.5377 -1.19914 272.428 
1.02734e-05 1.50518e-05 2.69039e+25 18.3093 -2.05319 272.545 
1.21847e-05 1.50518e-05 2.69233e+25 14.0297 -3.5514 272.699 
1.40961e-05 1.50518e-05 2.70359e+25 6.4231 -8.65229 272.643 
1.60074e-05 1.50518e-05 2.7165e+25 -1.51727 -15.8564 272.621 
7.1675e-07 1.55296e-05 2.68509e+25 24.1673 0.130106 272.23 
2.62808e-06 1.55296e-05 2.68285e+25 24.7042 -0.0596246 272.431 
4.53942e-06 1.55296e-05 2.68675e+25 24.4289 0.0595092 272.307 
6.45075e-06 1.55296e-05 2.68815e+25 24.6335 -0.657053 272.403 
8.36208e-06 1.55296e-05 2.68888e+25 23.3353 -0.684595 272.327 
1.02734e-05 1.55296e-05 2.68434e+25 21.0275 -1.33866 272.855 
1.21847e-05 1.55296e-05 2.6915e+25 17.7793 -2.43841 272.825 
1.40961e-05 1.55296e-05 2.70109e+25 10.3061 -6.23667 272.845 
1.60074e-05 1.55296e-05 2.71926e+25 -0.596376 -14.7016 272.927 
7.1675e-07 1.60074e-05 2.6869e+25 27.0769 -0.0828016 272.508 
2.62808e-06 1.60074e-05 2.68423e+25 27.4314 -0.131465 272.54 
4.53942e-06 1.60074e-05 2.68533e+25 27.2775 0.0838086 272.235 
6.45075e-06 1.60074e-05 2.68725e+25 27.6022 -0.369746 272.511 
8.36208e-06 1.60074e-05 2.68732e+25 26.4972 -0.313316 272.352 
1.02734e-05 1.60074e-05 2.68374e+25 24.7288 -0.704245 272.779 
1.21847e-05 1.60074e-05 2.69616e+25 21.9554 -1.41791 272.628 
1.40961e-05 1.60074e-05 2.70135e+25 15.6583 -3.95994 273.062 
1.60074e-05 1.60074e-05 2.72503e+25 1.81411 -12.3855 273.249 
7.1675e-07 1.64852e-05 2.68071e+25 29.9954 0.00618467 272.75 
2.62808e-06 1.64852e-05 2.6838e+25 30.3781 -0.165977 272.413 
4.53942e-06 1.64852e-05 2.68521e+25 30.4742 0.149117 272.392 
6.45075e-06 1.64852e-05 2.68544e+25 30.3271 -0.0911707 272.52 
8.36208e-06 1.64852e-05 2.68952e+25 29.7391 0.0366938 272.478 
1.02734e-05 1.64852e-05 2.68529e+25 28.6274 -0.320339 272.975 
1.21847e-05 1.64852e-05 2.69381e+25 26.6815 -0.463035 272.761 
1.40961e-05 1.64852e-05 2.69943e+25 22.1067 -1.82403 273.238 
1.60074e-05 1.64852e-05 2.72846e+25 7.50754 -7.98134 273.732 
7.1675e-07 1.69631e-05 2.68133e+25 32.9203 0.0941603 272.791 
2.62808e-06 1.69631e-05 2.68059e+25 33.1298 -0.0432654 272.649 
4.53942e-06 1.69631e-05 2.68254e+25 33.0347 -0.0289874 272.65 
6.45075e-06 1.69631e-05 2.68718e+25 32.817 -0.0421884 272.731 
8.36208e-06 1.69631e-05 2.68389e+25 32.6982 0.0676139 272.835 
1.02734e-05 1.69631e-05 2.68602e+25 32.0604 -0.157532 272.969 
1.21847e-05 1.69631e-05 2.69408e+25 31.5233 -0.0830719 272.878 
1.40961e-05 1.69631e-05 2.69456e+25 29.5491 -0.395812 273.369 
1.60074e-05 1.69631e-05 2.73199e+25 19.9551 -2.43902 273.684 
1.19458e-06 2.38917e-07 2.68899e+25 -8.13608 0.263977 271.696 
3.10592e-06 2.38917e-07 2.69056e+25 -8.08974 -1.70318 271.823 
5.01725e-06 2.38917e-07 2.68463e+25 -7.09516 -3.17627 272.409 
6.92858e-06 2.38917e-07 2.69091e+25 -6.47182 -4.8291 271.981 
8.83992e-06 2.38917e-07 2.68679e+25 -6.04981 -7.47064 272.117 
1.07512e-05 2.38917e-07 2.68625e+25 -4.92749 -8.48949 272.073 
1.26626e-05 2.38917e-07 2.68444e+25 -3.84163 -7.66225 272.403 
1.45739e-05 2.38917e-07 2.6906e+25 -1.49545 -4.92192 271.898 
1.64852e-05 2.38917e-07 2.68299e+25 -0.419535 -1.05431 272.671 
1.19458e-06 7.1675e-07 2.69273e+25 -7.95843 0.640259 271.771 
3.10592e-06 7.1675e-07 2.68751e+25 -8.16827 -1.65053 272.094 
5.01725e-06 7.1675e-07 2.69005e+25 -7.38461 -3.54708 272.115 
6.92858e-06 7.1675e-07 2.69025e+25 -6.46465 -4.95745 272.097 
8.83992e-06 7.1675e-07 2.69201e+25 -6.32258 -7.57874 272.118 
1.07512e-05 7.1675e-07 2.68757e+25 -5.43657 -8.65712 272.35 
1.26626e-05 7.1675e-07 2.6872e+25 -3.93647 -8.26129 272.509 
1.45739e-05 7.1675e-07 2.69056e+25 -1.82926 -5.18689 272.156 
1.64852e-05 7.1675e-07 2.68333e+25 -0.329645 -1.35186 272.68 
1.19458e-06 1.19458e-06 2.69061e+25 -7.54022 0.909295 271.913 
3.10592e-06 1.19458e-06 2.68962e+25 -7.97557 -1.5358 271.993 
5.01725e-06 1.19458e-06 2.68773e+25 -7.73507 -3.76977 272.035 
6.92858e-06 1.19458e-06 2.6909e+25 -6.75119 -5.04109 272.129 
8.83992e-06 1.19458e-06 2.69233e+25 -6.22557 -7.69538 271.937 
1.07512e-05 1.19458e-06 2.69088e+25 -5.53705 -8.7792 272.097 
1.26626e-05 1.19458e-06 2.68686e+25 -3.82411 -8.94966 272.584 
1.45739e-05 1.19458e-06 2.68849e+25 -1.96432 -5.77862 272.181 
1.64852e-05 1.19458e-06 2.68308e+25 -0.287734 -1.59356 272.979 
1.19458e-06 1.67242e-06 2.69335e+25 -7.18267 1.18588 271.661 
3.10592e-06 1.67242e-06 2.6922e+25 -7.73901 -1.35784 272.097 
5.01725e-06 1.67242e-06 2.68876e+25 -8.02472 -3.82347 272.039 
6.92858e-06 1.67242e-06 2.68617e+25 -7.22105 -5.24126 272.485 
8.83992e-06 1.67242e-06 2.68902e+25 -6.32205 -7.94512 272.034 
1.07512e-05 1.67242e-06 2.68893e+25 -5.70586 -9.05237 272.328 
1.26626e-05 1.67242e-06 2.68684e+25 -3.57741 -9.29755 272.583 
1.45739e-05 1.67242e-06 2.68461e+25 -1.96758 -6.31365 272.508 
1.64852e-05 1.67242e-06 2.6846e+25 0.0733588 -1.78634 272.817 
1.19458e-06 2.15025e-06 2.69351e+25 -6.82838 1.36122 271.876 
3.10592e-06 2.15025e-06 2.68483e+25 -7.81247 -1.28584 272.319 
5.01725e-06 2.15025e-06 2.68947e+25 -8.0943 -3.86222 272.113 
6.92858e-06 2.15025e-06 2.68311e+25 -7.26152 -5.44694 272.659 
8.83992e-06 2.15025e-06 2.69017e+25 -6.74776 -8.12104 272.201 
1.07512e-05 2.15025e-06 2.68994e+25 -5.68644 -9.45523 272.108 
1.26626e-05 2.15025e-06 2.68759e+25 -3.89976 -9.74869 272.601 
1.45739e-05 2.15025e-06 2.6888e+25 -2.02229 -7.00166 272.123 
1.64852e-05 2.15025e-06 2.68397e+25 -0.076613 -1.97459 272.725 
1.19458e-06 2.62808e-06 2.69004e+25 -6.71673 1.54967 272.034 
3.10592e-06 2.62808e-06 2.68702e+25 -7.8004 -1.16685 272.21 
5.01725e-06 2.62808e-06 2.68733e+25 -8.12144 -3.79913 272.37 
6.92858e-06 2.62808e-06 2.68284e+25 -7.5506 -5.64277 272.618 
8.83992e-06 2.62808e-06 2.6897e+25 -6.67302 -8.31627 272.282 
1.07512e-05 2.62808e-06 2.69068e+25 -6.10432 -9.97275 272.194 
1.26626e-05 2.62808e-06 2.68807e+25 -3.88866 -10.2626 272.422 
1.45739e-05 2.62808e-06 2.69026e+25 -1.93041 -7.60038 272.201 
1.64852e-05 2.62808e-06 2.68568e+25 -0.265739 -2.18866 272.681 
1.19458e-06 3.10592e-06 2.68635e+25 -6.33704 1.75616 272.118 
3.10592e-06 3.10592e-06 2.68637e+25 -7.56941 -1.35643 272.247 
5.01725e-06 3.10592e-06 2.68859e+25 -8.16992 -3.68687 272.059 
6.92858e-06 3.10592e-06 2.68556e+25 -7.81035 -5.99527 272.314 
8.83992e-06 3.10592e-06 2.68388e+25 -6.9078 -8.50889 272.527 
1.07512e-05 3.10592e-06 2.69099e+25 -6.38022 -10.3415 272.3 
1.26626e-05 3.10592e-06 2.68919e+25 -4.07325 -10.7127 272.329 
1.45739e-05 3.10592e-06 2.68692e+25 -1.76093 -8.1275 272.344 
1.64852e-05 3.10592e-06 2.68504e+25 -0.139315 -2.40697 272.774 
1.19458e-06 3.58375e-06 2.68698e+25 -6.03047 1.94888 272.178 
3.10592e-06 3.58375e-06 2.68687e+25 -6.87697 -1.05526 272.017 
5.01725e-06 3.58375e-06 2.68921e+25 -8.08034 -3.43996 272.089 
6.92858e-06 3.58375e-06 2.68359e+25 -7.79591 -6.21857 272.404 
8.83992e-06 3.58375e-06 2.68465e+25 -7.01563 -8.5223 272.662 
1.07512e-05 3.58375e-06 2.6889e+25 -5.97959 -10.8057 272.105 
1.26626e-05 3.58375e-06 2.68712e+25 -4.41793 -11.286 272.433 
1.45739e-05 3.58375e-06 2.69014e+25 -1.60849 -8.63039 272.156 
1.64852e-05 3.58375e-06 2.68424e+25 -0.126447 -2.61919 272.978 
1.19458e-06 4.06158e-06 2.68446e+25 -5.78674 1.9995 272.35 
3.10592e-06 4.06158e-06 2.69001e+25 -6.68535 -0.391125 271.867 
5.01725e-06 4.06158e-06 2.6895e+25 -7.88446 -3.50829 272.065 
6.92858e-06 4.06158e-06 2.6822e+25 -7.54266 -6.47093 272.61 
8.83992e-06 4.06158e-06 2.68674e+25 -7.16925 -8.45408 272.365 
1.07512e-05 4.06158e-06 2.69427e+25 -5.91913 -11.0572 271.803 
1.26626e-05 4.06158e-06 2.6918e+25 -4.14938 -11.8974 272.054 
1.45739e-05 4.06158e-06 2.69197e+25 -1.68502 -8.99367 272.054 
1.64852e-05 4.06158e-06 2.68616e+25 -0.10696 -2.87291 272.603 
1.19458e-06 4.53942e-06 2.68211e+25 -5.18606 2.30739 272.466 
3.10592e-06 4.53942e-06 2.68713e+25 -6.16671 -0.0604292 272.103 
5.01725e-06 4.53942e-06 2.68609e+25 -7.24237 -3.55421 271.931 
6.92858e-06 4.53942e-06 2.68527e+25 -7.2061 -6.41983 272.469 
8.83992e-06 4.53942e-06 2.68491e+25 -7.12823 -8.57157 272.375 
1.07512e-05 4.53942e-06 2.69456e+25 -6.17703 -11.3825 271.717 
1.26626e-05 4.53942e-06 2.69495e+25 -4.37275 -12.4751 271.9 
1.45739e-05 4.53942e-06 2.69054e+25 -1.89587 -9.55184 272.269 
1.64852e-05 4.53942e-06 2.6837e+25 -0.0435308 -2.94825 272.593 
1.19458e-06 5.01725e-06 2.68702e+25 -4.7449 2.47543 272.158 
3.10592e-06 5.01725e-06 2.6881e+25 -5.56021 0.0353696 272.152 
5.01725e-06 5.01725e-06 2.69145e+25 -6.4666 -3.39018 271.781 
6.92858e-06 5.01725e-06 2.68546e+25 -6.93359 -6.3401 272.413 
8.83992e-06 5.01725e-06 2.68325e+25 -6.91905 -8.83405 272.735 
1.07512e-05 5.01725e-06 2.68901e+25 -6.01127 -11.67 272.139 
1.26626e-05 5.01725e-06 2.68712e+25 -4.33262 -13.1008 272.085 
1.45739e-05 5.01725e-06 2.69014e+25 -1.79632 -10.1647 272.374 
1.64852e-05 5.01725e-06 2.68691e+25 -0.220267 -3.03625 272.582 
1.19458e-06 5.49508e-06 2.68871e+25 -4.5258 2.64066 272.082 
3.10592e-06 5.49508e-06 2.68924e+25 -5.03776 0.22539 272.009 
5.01725e-06 5.49508e-06 2.69132e+25 -5.78445 -2.99151 271.809 
6.92858e-06 5.49508e-06 2.68784e+25 -6.69084 -6.22092 272.162 
8.83992e-06 5.49508e-06 2.67875e+25 -6.8183 -9.10539 273.017 
1.07512e-05 5.49508e-06 2.68745e+25 -5.64768 -11.8283 272.237 
1.26626e-05 5.49508e-06 2.68976e+25 -4.25645 -13.413 272.361 
1.45739e-05 5.49508e-06 2.68967e+25 -2.25043 -10.6753 272.348 
1.64852e-05 5.49508e-06 2.6873e+25 -0.282964 -3.45416 272.303 
1.19458e-06 5.97292e-06 2.68479e+25 -3.98813 2.70275 272.191 
3.10592e-06 5.97292e-06 2.689e+25 -4.36432 0.345537 271.792 
5.01725e-06 5.97292e-06 2.69171e+25 -5.07323 -2.71816 271.641 
6.92858e-06 5.97292e-06 2.69001e+25 -6.36407 -6.23384 272.171 
8.83992e-06 5.97292e-06 2.68296e+25 -6.22982 -9.12597 272.619 
1.07512e-05 5.97292e-06 2.68902e+25 -5.68433 -12.0488 272.363 
1.26626e-05 5.97292e-06 2.68569e+25 -3.98725 -13.8109 272.508 
1.45739e-05 5.97292e-06 2.6912e+25 -2.4193 -10.9989 272.153 
1.64852e-05 5.97292e-06 2.68935e+25 -0.480282 -3.82969 272.453 
1.19458e-06 6.45075e-06 2.68784e+25 -3.22219 2.97571 271.91 
3.10592e-06 6.45075e-06 2.68876e+25 -3.34654 0.385804 271.806 
5.01725e-06 6.45075e-06 2.68997e+25 -4.24543 -2.39011 271.629 
6.92858e-06 6.45075e-06 2.68584e+25 -5.66675 -6.1286 272.225 
8.83992e-06 6.45075e-06 2.6846e+25 -6.01548 -9.05948 272.395 
1.07512e-05 6.45075e-06 2.68379e+25 -5.57955 -12.2375 272.546 
1.26626e-05 6.45075e-06 2.69081e+25 -4.20942 -14.2174 272.143 
1.45739e-05 6.45075e-06 2.69255e+25 -2.08827 -11.5319 272.171 
1.64852e-05 6.45075e-06 2.69026e+25 -0.296437 -4.37053 272.532 
1.19458e-06 6.92858e-06 2.69096e+25 -2.40667 3.22519 271.748 
3.10592e-06 6.92858e-06 2.68635e+25 -2.89818 0.669146 271.873 
5.01725e-06 6.92858e-06 2.68955e+25 -3.64129 -2.13653 272.09 
6.92858e-06 6.92858e-06 2.68679e+25 -4.80205 -5.81868 272.062 
8.83992e-06 6.92858e-06 2.68414e+25 -5.40606 -9.08393 272.556 
1.07512e-05 6.92858e-06 2.68397e+25 -5.25183 -12.4246 272.636 
1.26626e-05 6.92858e-06 2.69306e+25 -4.51691 -14.7531 272.043 
1.45739e-05 6.92858e-06 2.688e+25 -2.17557 -12.1367 272.426 
1.64852e-05 6.92858e-06 2.68626e+25 -0.426418 -4.74559 272.556 
1.19458e-06 7.40642e-06 2.69158e+25 -1.6473 3.07349 271.567 
3.10592e-06 7.40642e-06 2.68525e+25 -2.27724 1.01431 272.034 
5.01725e-06 7.40642e-06 2.68557e+25 -2.75378 -2.19541 272.015 
6.92858e-06 7.40642e-06 2.68703e+25 -3.86873 -5.5293 272.079 
8.83992e-06 7.40642e-06 2.68618e+25 -4.66802 -8.99091 272.28 
1.07512e-05 7.40642e-06 2.68183e+25 -5.21141 -12.6231 272.924 
1.26626e-05 7.40642e-06 2.68945e+25 -4.72285 -15.3644 272.201 
1.45739e-05 7.40642e-06 2.68957e+25 -2.46249 -12.8036 272.237 
1.64852e-05 7.40642e-06 2.68949e+25 -0.430796 -4.94043 272.375 
1.19458e-06 7.88425e-06 2.68916e+25 -0.912488 2.75021 271.84 
3.10592e-06 7.88425e-06 2.6849e+25 -1.28124 1.01463 272.337 
5.01725e-06 7.88425e-06 2.68654e+25 -2.15846 -2.06507 272.119 
6.92858e-06 7.88425e-06 2.68332e+25 -2.71304 -5.21847 272.262 
8.83992e-06 7.88425e-06 2.68942e+25 -3.79622 -8.7255 272.05 
1.07512e-05 7.88425e-06 2.68478e+25 -4.59945 -12.5798 272.535 
1.26626e-05 7.88425e-06 2.68787e+25 -4.36361 -15.7875 272.692 
1.45739e-05 7.88425e-06 2.6928e+25 -2.28988 -13.5362 272.054 
1.64852e-05 7.88425e-06 2.69333e+25 -0.224696 -5.31621 272.28 
1.19458e-06 8.36208e-06 2.68875e+25 -0.280875 2.63373 271.831 
3.10592e-06 8.36208e-06 2.68769e+25 -0.346721 1.01627 271.996 
5.01725e-06 8.36208e-06 2.68406e+25 -0.971994 -1.73328 272.398 
6.92858e-06 8.36208e-06 2.68264e+25 -1.79819 -4.92543 272.531 
8.83992e-06 8.36208e-06 2.68568e+25 -3.3549 -8.41774 272.255 
1.07512e-05 8.36208e-06 2.68805e+25 -4.10281 -12.2858 272.255 
1.26626e-05 8.36208e-06 2.68678e+25 -4.41081 -15.9342 272.492 
1.45739e-05 8.36208e-06 2.69149e+25 -2.61317 -14.3869 272.249 
1.64852e-05 8.36208e-06 2.68943e+25 -0.272421 -5.71637 272.494 
1.19458e-06 8.83992e-06 2.68478e+25 0.449199 2.78982 272.217 
3.10592e-06 8.83992e-06 2.68716e+25 0.623406 1.00128 271.98 
5.01725e-06 8.83992e-06 2.6831e+25 -0.128017 -1.5684 272.408 
6.92858e-06 8.83992e-06 2.68286e+25 -0.833843 -4.5851 272.379 
8.83992e-06 8.83992e-06 2.68837e+25 -2.49627 -8.0472 272.156 
1.07512e-05 8.83992e-06 2.68667e+25 -3.33173 -12.2545 272.473 
1.26626e-05 8.83992e-06 2.69041e+25 -4.21748 -15.7659 272.129 
1.45739e-05 8.83992e-06 2.6923e+25 -2.75701 -15.1803 272.343 
1.64852e-05 8.83992e-06 2.69217e+25 -0.230877 -6.21198 272.361 
1.19458e-06 9.31775e-06 2.68608e+25 1.13793 2.78684 271.997 
3.10592e-06 9.31775e-06 2.68508e+25 1.19537 1.11313 272.144 
5.01725e-06 9.31775e-06 2.68848e+25 1.41377 -1.43419 272.133 
6.92858e-06 9.31775e-06 2.68072e+25 0.281292 -4.20253 272.554 
8.83992e-06 9.31775e-06 2.68558e+25 -1.4437 -7.66278 272.216 
1.07512e-05 9.31775e-06 2.68991e+25 -2.50941 -12.1624 272.321 
1.26626e-05 9.31775e-06 2.68986e+25 -3.894 -15.7251 272.383 
1.45739e-05 9.31775e-06 2.6931e+25 -3.12084 -15.7438 272.298 
1.64852e-05 9.31775e-06 2.6907e+25 -0.509876 -6.62659 272.373 
1.19458e-06 9.79558e-06 2.68693e+25 2.46587 2.6022 271.885 
3.10592e-06 9.79558e-06 2.68373e+25 2.53086 1.25046 272.179 
5.01725e-06 9.79558e-06 2.68718e+25 2.60045 -1.22008 272.083 
6.92858e-06 9.79558e-06 2.68364e+25 1.30809 -3.93579 272.233 
8.83992e-06 9.79558e-06 2.68798e+25 0.0256705 -7.08866 272.105 
1.07512e-05 9.79558e-06 2.69034e+25 -1.83854 -11.9029 272.154 
1.26626e-05 9.79558e-06 2.68735e+25 -3.24857 -15.469 272.668 
1.45739e-05 9.79558e-06 2.69142e+25 -2.9143 -16.2476 272.505 
1.64852e-05 9.79558e-06 2.69078e+25 -0.334203 -6.85633 272.502 
1.19458e-06 1.02734e-05 2.68496e+25 3.61043 2.48905 272.144 
3.10592e-06 1.02734e-05 2.68684e+25 3.89868 1.39547 271.884 
5.01725e-06 1.02734e-05 2.68286e+25 3.76019 -1.10724 272.378 
6.92858e-06 1.02734e-05 2.68559e+25 2.57297 -3.62286 272.425 
8.83992e-06 1.02734e-05 2.68559e+25 1.16665 -6.72145 272.31 
1.07512e-05 1.02734e-05 2.68886e+25 -1.21847 -11.2358 272.284 
1.26626e-05 1.02734e-05 2.69141e+25 -2.93148 -15.1707 272.537 
1.45739e-05 1.02734e-05 2.68941e+25 -2.38373 -16.6809 272.625 
1.64852e-05 1.02734e-05 2.68959e+25 0.106925 -7.01741 272.65 
1.19458e-06 1.07512e-05 2.68815e+25 4.65416 2.23777 271.93 
3.10592e-06 1.07512e-05 2.68895e+25 5.30875 1.23097 271.874 
5.01725e-06 1.07512e-05 2.68302e+25 4.93107 -0.952671 272.124 
6.92858e-06 1.07512e-05 2.68629e+25 3.87948 -3.26336 272.263 
8.83992e-06 1.07512e-05 2.68563e+25 2.5587 -6.46638 272.196 
1.07512e-05 1.07512e-05 2.69111e+25 -0.264711 -10.5384 272.275 
1.26626e-05 1.07512e-05 2.69315e+25 -2.38664 -14.8928 271.98 
1.45739e-05 1.07512e-05 2.69011e+25 -2.29385 -17.1156 272.722 
1.64852e-05 1.07512e-05 2.69256e+25 -0.510095 -7.22567 272.474 
1.19458e-06 1.12291e-05 2.68982e+25 5.68981 1.7732 271.725 
3.10592e-06 1.12291e-05 2.68673e+25 6.85488 0.989354 271.952 
5.01725e-06 1.12291e-05 2.68669e+25 6.36767 -0.624873 271.977 
6.92858e-06 1.12291e-05 2.68644e+25 5.14543 -2.97995 272.261 
8.83992e-06 1.12291e-05 2.68503e+25 3.85827 -6.17659 272.374 
1.07512e-05 1.12291e-05 2.6886e+25 1.00045 -9.81474 272.24 
1.26626e-05 1.12291e-05 2.69884e+25 -1.73848 -14.3608 271.965 
1.45739e-05 1.12291e-05 2.6922e+25 -2.33695 -17.4657 272.726 
1.64852e-05 1.12291e-05 2.69298e+25 -0.356675 -7.69102 272.771 
1.19458e-06 1.17069e-05 2.68972e+25 7.1552 1.5478 271.717 
3.10592e-06 1.17069e-05 2.68804e+25 7.99076 0.93928 271.773 
5.01725e-06 1.17069e-05 2.69177e+25 7.65879 -0.410043 271.734 
6.92858e-06 1.17069e-05 2.69024e+25 6.6604 -2.56409 272.096 
8.83992e-06 1.17069e-05 2.68448e+25 5.20594 -5.5621 272.734 
1.07512e-05 1.17069e-05 2.69037e+25 2.2277 -8.94828 272.258 
1.26626e-05 1.17069e-05 2.69622e+25 -1.22516 -13.6984 272.028 
1.45739e-05 1.17069e-05 2.69269e+25 -2.30389 -17.7535 272.785 
1.64852e-05 1.17069e-05 2.68992e+25 -0.64414 -8.27624 273.204 
1.19458e-06 1.21847e-05 2.68951e+25 8.68135 1.44058 271.807 
3.10592e-06 1.21847e-05 2.68845e+25 9.39721 0.755692 271.727 
5.01725e-06 1.21847e-05 2.68782e+25 9.04003 -0.356963 272.072 
6.92858e-06 1.21847e-05 2.68974e+25 8.22928 -2.28387 271.912 
8.83992e-06 1.21847e-05 2.68677e+25 6.9327 -5.01048 272.453 
1.07512e-05 1.21847e-05 2.69332e+25 3.60065 -7.80639 272.057 
1.26626e-05 1.21847e-05 2.69384e+25 -0.192856 -13.0417 272.239 
1.45739e-05 1.21847e-05 2.69495e+25 -2.34822 -17.7326 272.602 
1.64852e-05 1.21847e-05 2.69246e+25 -0.356359 -8.71725 273.036 
1.19458e-06 1.26626e-05 2.68935e+25 10.294 1.28448 271.785 
3.10592e-06 1.26626e-05 2.68872e+25 11.0806 0.669741 271.948 
5.01725e-06 1.26626e-05 2.68791e+25 11.233 -0.423641 272.026 
6.92858e-06 1.26626e-05 2.68669e+25 10.2085 -2.05296 272.22 
8.83992e-06 1.26626e-05 2.68607e+25 8.98192 -4.29495 272.567 
1.07512e-05 1.26626e-05 2.69301e+25 5.22817 -6.91215 272.151 
1.26626e-05 1.26626e-05 2.69388e+25 1.33692 -12.2125 272.454 
1.45739e-05 1.26626e-05 2.69626e+25 -2.15385 -17.5606 272.577 
1.64852e-05 1.26626e-05 2.69911e+25 -0.747463 -9.19854 272.573 
1.19458e-06 1.31404e-05 2.68471e+25 12.2943 1.1157 272.236 
3.10592e-06 1.31404e-05 2.68739e+25 12.6352 0.750645 271.921 
5.01725e-06 1.31404e-05 2.68415e+25 13.1201 -0.343568 272.395 
6.92858e-06 1.31404e-05 2.68311e+25 12.3419 -1.82612 272.409 
8.83992e-06 1.31404e-05 2.68616e+25 10.6504 -3.67064 272.541 
1.07512e-05 1.31404e-05 2.69165e+25 7.39399 -6.11402 272.123 
1.26626e-05 1.31404e-05 2.69114e+25 2.98805 -10.9342 272.824 
1.45739e-05 1.31404e-05 2.69409e+25 -1.84493 -17.2346 272.928 
1.64852e-05 1.31404e-05 2.6973e+25 -0.602024 -9.97665 272.81 
1.19458e-06 1.36182e-05 2.68337e+25 14.3995 1.13512 272.321 
3.10592e-06 1.36182e-05 2.69045e+25 14.702 0.462948 271.787 
5.01725e-06 1.36182e-05 2.68782e+25 15.2797 -0.189318 272.064 
6.92858e-06 1.36182e-05 2.68367e+25 14.5058 -1.41962 272.387 
8.83992e-06 1.36182e-05 2.68613e+25 12.3886 -3.21467 272.562 
1.07512e-05 1.36182e-05 2.69172e+25 9.81169 -5.31178 272.352 
1.26626e-05 1.36182e-05 2.69117e+25 4.49971 -9.31887 272.911 
1.45739e-05 1.36182e-05 2.69825e+25 -1.61382 -16.3511 272.751 
1.64852e-05 1.36182e-05 2.69935e+25 -0.891717 -10.8375 272.85 
1.19458e-06 1.40961e-05 2.68461e+25 16.3394 0.978632 272.279 
3.10592e-06 1.40961e-05 2.69056e+25 16.7968 0.361484 271.7 
5.01725e-06 1.40961e-05 2.68978e+25 17.493 0.0644286 272.052 
6.92858e-06 1.40961e-05 2.68472e+25 16.7933 -1.19447 272.441 
8.83992e-06 1.40961e-05 2.68475e+25 14.6435 -2.81616 272.535 
1.07512e-05 1.40961e-05 2.69259e+25 12.0453 -4.31294 272.416 
1.26626e-05 1.40961e-05 2.69366e+25 6.60129 -7.82835 272.747 
1.45739e-05 1.40961e-05 2.70393e+25 -0.255373 -15.1144 272.524 
1.64852e-05 1.40961e-05 2.70939e+25 -1.09391 -11.9082 272.523 
1.19458e-06 1.45739e-05 2.68197e+25 18.6884 0.801785 272.322 
3.10592e-06 1.45739e-05 2.6888e+25 19.3223 0.310256 271.833 
5.01725e-06 1.45739e-05 2.68497e+25 19.8064 0.269865 272.228 
6.92858e-06 1.45739e-05 2.68773e+25 19.1605 -1.09487 272.242 
8.83992e-06 1.45739e-05 2.68916e+25 17.1599 -2.27637 272.402 
1.07512e-05 1.45739e-05 2.6907e+25 14.5181 -3.26366 272.54 
1.26626e-05 1.45739e-05 2.68994e+25 9.09181 -6.51422 272.933 
1.45739e-05 1.45739e-05 2.70526e+25 1.53806 -13.2915 272.563 
1.64852e-05 1.45739e-05 2.71118e+25 -1.26622 -12.6755 272.908 
1.19458e-06 1.50518e-05 2.68287e+25 21.4316 0.64513 272.4 
3.10592e-06 1.50518e-05 2.68822e+25 21.8218 0.0242525 271.915 
5.01725e-06 1.50518e-05 2.68281e+25 21.806 0.0731019 272.342 
6.92858e-06 1.50518e-05 2.68943e+25 21.5587 -0.788011 271.863 
8.83992e-06 1.50518e-05 2.68527e+25 20.0425 -1.57763 272.522 
1.07512e-05 1.50518e-05 2.68837e+25 17.3785 -2.1933 272.669 
1.26626e-05 1.50518e-05 2.69607e+25 12.4415 -4.95887 272.85 
1.45739e-05 1.50518e-05 2.7068e+25 4.06588 -11.1242 272.53 
1.64852e-05 1.50518e-05 2.7203e+25 -1.41506 -13.4181 272.528 
1.19458e-06 1.55296e-05 2.68434e+25 24.4884 0.421777 272.366 
3.10592e-06 1.55296e-05 2.68173e+25 24.791 -0.140218 272.336 
5.01725e-06 1.55296e-05 2.68563e+25 24.5409 0.0870388 272.247 
6.92858e-06 1.55296e-05 2.68882e+25 24.3791 -0.461973 272.07 
8.83992e-06 1.55296e-05 2.68655e+25 22.8307 -1.04833 272.598 
1.07512e-05 1.55296e-05 2.68868e+25 20.392 -1.31902 272.782 
1.26626e-05 1.55296e-05 2.69644e+25 16.4937 -3.23194 272.627 
1.45739e-05 1.55296e-05 2.70154e+25 7.68738 -8.55997 273.046 
1.64852e-05 1.55296e-05 2.7251e+25 -1.33756 -13.9025 272.933 
1.19458e-06 1.60074e-05 2.68625e+25 27.1588 0.158586 272.267 
3.10592e-06 1.60074e-05 2.68555e+25 27.519 -0.228466 272.283 
5.01725e-06 1.60074e-05 2.68357e+25 27.4246 -0.112407 272.575 
6.92858e-06 1.60074e-05 2.68573e+25 27.4036 -0.259334 272.39 
8.83992e-06 1.60074e-05 2.68629e+25 26.2453 -0.65334 272.645 
1.07512e-05 1.60074e-05 2.68556e+25 24.1181 -0.675679 273.009 
1.26626e-05 1.60074e-05 2.69561e+25 20.7619 -1.73881 272.714 
1.45739e-05 1.60074e-05 2.70336e+25 12.9994 -5.47887 273.377 
1.64852e-05 1.60074e-05 2.73442e+25 -0.612082 -13.2524 273.095 
1.19458e-06 1.64852e-05 2.68108e+25 30.028 0.095002 272.737 
3.10592e-06 1.64852e-05 2.68202e+25 30.2962 -0.230724 272.421 
5.01725e-06 1.64852e-05 2.68411e+25 30.3568 -0.15509 272.659 
6.92858e-06 1.64852e-05 2.68332e+25 30.0947 -0.0751691 272.671 
8.83992e-06 1.64852e-05 2.68667e+25 29.3492 -0.356147 272.652 
1.07512e-05 1.64852e-05 2.68496e+25 28.2464 -0.133199 273.061 
1.26626e-05 1.64852e-05 2.6933e+25 25.9701 -0.712821 272.87 
1.45739e-05 1.64852e-05 2.69936e+25 19.9432 -2.63989 273.583 
1.64852e-05 1.64852e-05 2.74732e+25 2.27271 -10.4689 273.404 
1.19458e-06 1.69631e-05 2.68167e+25 32.89 -0.0781663 272.974 
3.10592e-06 1.69631e-05 2.68107e+25 32.9568 -0.0769085 272.396 
5.01725e-06 1.69631e-05 2.68066e+25 33.1598 0.00269976 272.879 
6.92858e-06 1.69631e-05 2.68471e+25 32.93 0.0468696 272.661 
8.83992e-06 1.69631e-05 2.68478e+25 32.6828 -0.171284 272.84 
1.07512e-05 1.69631e-05 2.68584e+25 31.9661 0.122401 272.969 
1.26626e-05 1.69631e-05 2.69373e+25 31.2538 -0.124147 272.76 
1.45739e-05 1.69631e-05 2.70165e+25 28.228 -0.597752 273.32 
1.64852e-05 1.69631e-05 2.7683e+25 13.2481 -3.56313 273.847 
