ITEM: TIMESTEP
170000
ITEM: NUMBER OF CELLS
5184
ITEM: BOX BOUNDS ss ss pp
-1.7202e-05 1.7202e-05
-1.7202e-05 1.7202e-05
-0.5 0.5
ITEM: CELLS xc yc f_1[1] f_1[2] f_1[3] f_1[4] 
-1.69631e-05 -1.69631e-05 2.68179e+25 0.0336945 -0.0408805 272.992 
-1.50517e-05 -1.69631e-05 2.68223e+25 -0.0109174 0.0339224 273.027 
-1.31404e-05 -1.69631e-05 2.68155e+25 -0.0160224 0.0311778 272.914 
-1.12291e-05 -1.69631e-05 2.68471e+25 -0.236168 0.0642839 272.632 
-9.31775e-06 -1.69631e-05 2.68495e+25 -0.101346 -0.0684746 272.737 
-7.40642e-06 -1.69631e-05 2.68392e+25 -0.012564 0.0155211 272.876 
-5.49508e-06 -1.69631e-05 2.68168e+25 -0.361162 0.0185144 273.04 
-3.58375e-06 -1.69631e-05 2.68377e+25 0.016148 0.012008 272.988 
-1.67242e-06 -1.69631e-05 2.68444e+25 -0.272335 -0.023323 272.79 
-1.69631e-05 -1.64852e-05 2.68451e+25 -0.0421406 0.0242315 272.771 
-1.50517e-05 -1.64852e-05 2.68747e+25 -0.150476 -0.0184165 272.428 
-1.31404e-05 -1.64852e-05 2.68431e+25 -0.0450376 0.094661 272.667 
-1.12291e-05 -1.64852e-05 2.68432e+25 -0.110361 -0.0294996 272.626 
-9.31775e-06 -1.64852e-05 2.68681e+25 -0.174761 -0.154025 272.561 
-7.40642e-06 -1.64852e-05 2.69022e+25 0.126467 -0.0246388 272.308 
-5.49508e-06 -1.64852e-05 2.68348e+25 -0.32533 0.119387 272.654 
-3.58375e-06 -1.64852e-05 2.68864e+25 -0.14984 0.0881094 272.465 
-1.67242e-06 -1.64852e-05 2.68649e+25 -0.377666 0.051698 272.726 
-1.69631e-05 -1.60074e-05 2.6854e+25 -0.00367427 0.0522436 272.774 
-1.50517e-05 -1.60074e-05 2.68865e+25 0.00876294 -0.0333453 272.361 
-1.31404e-05 -1.60074e-05 2.68844e+25 -0.0849565 0.13688 272.496 
-1.12291e-05 -1.60074e-05 2.68715e+25 -0.0755707 -0.20125 272.445 
-9.31775e-06 -1.60074e-05 2.68689e+25 -0.125658 -0.0854045 272.446 
-7.40642e-06 -1.60074e-05 2.69089e+25 -0.133029 -0.00470128 272.054 
-5.49508e-06 -1.60074e-05 2.68745e+25 -0.488804 0.0448988 272.421 
-3.58375e-06 -1.60074e-05 2.68863e+25 -0.313777 -0.0264805 272.442 
-1.67242e-06 -1.60074e-05 2.68491e+25 -0.686041 0.0946659 272.737 
-1.69631e-05 -1.55296e-05 2.68353e+25 -0.032487 0.0664602 272.895 
-1.50517e-05 -1.55296e-05 2.69243e+25 -0.0177625 0.0612785 272.194 
-1.31404e-05 -1.55296e-05 2.6883e+25 -0.144959 0.0746791 272.373 
-1.12291e-05 -1.55296e-05 2.68899e+25 -0.0390096 -0.179276 272.329 
-9.31775e-06 -1.55296e-05 2.69162e+25 -0.121406 0.0183178 272.146 
-7.40642e-06 -1.55296e-05 2.69044e+25 -0.343009 0.00618705 272.154 
-5.49508e-06 -1.55296e-05 2.68843e+25 -0.709749 0.0952322 272.197 
-3.58375e-06 -1.55296e-05 2.6917e+25 -0.71625 -0.032591 272.12 
-1.67242e-06 -1.55296e-05 2.68462e+25 -0.74115 0.280696 272.731 
-1.69631e-05 -1.50517e-05 2.68446e+25 -0.00805627 0.134157 272.896 
-1.50517e-05 -1.50517e-05 2.69109e+25 0.0904378 0.154113 272.192 
-1.31404e-05 -1.50517e-05 2.69005e+25 0.171359 0.0260524 272.284 
-1.12291e-05 -1.50517e-05 2.68757e+25 -0.384338 -0.339454 272.27 
-9.31775e-06 -1.50517e-05 2.691e+25 -0.078643 0.0593122 272.033 
-7.40642e-06 -1.50517e-05 2.69014e+25 -0.482496 0.184272 272.115 
-5.49508e-06 -1.50517e-05 2.69016e+25 -0.392107 0.207113 272.015 
-3.58375e-06 -1.50517e-05 2.69277e+25 -0.888111 0.0535492 271.952 
-1.67242e-06 -1.50517e-05 2.68638e+25 -1.25793 0.450043 272.629 
-1.69631e-05 -1.45739e-05 2.68656e+25 0.0445987 0.0726658 272.673 
-1.50517e-05 -1.45739e-05 2.69449e+25 0.182984 0.0762755 271.872 
-1.31404e-05 -1.45739e-05 2.69091e+25 0.0375437 0.0254852 272.103 
-1.12291e-05 -1.45739e-05 2.68728e+25 -0.316666 -0.350632 272.33 
-9.31775e-06 -1.45739e-05 2.69371e+25 -0.3538 0.260471 271.738 
-7.40642e-06 -1.45739e-05 2.69097e+25 -0.778955 0.0654117 272.17 
-5.49508e-06 -1.45739e-05 2.69109e+25 -0.650487 0.413035 272.19 
-3.58375e-06 -1.45739e-05 2.69061e+25 -1.15486 0.120274 272.011 
-1.67242e-06 -1.45739e-05 2.68662e+25 -1.40856 0.57522 272.542 
-1.69631e-05 -1.40961e-05 2.6857e+25 0.0178659 0.0799818 272.75 
-1.50517e-05 -1.40961e-05 2.69153e+25 -0.00621234 -0.0681887 272.091 
-1.31404e-05 -1.40961e-05 2.69324e+25 -0.252541 0.128934 271.859 
-1.12291e-05 -1.40961e-05 2.6898e+25 -0.374253 -0.280901 272.286 
-9.31775e-06 -1.40961e-05 2.6938e+25 -0.529413 0.480472 271.558 
-7.40642e-06 -1.40961e-05 2.69105e+25 -1.10971 -0.0679538 272.203 
-5.49508e-06 -1.40961e-05 2.68865e+25 -0.916107 0.632487 272.323 
-3.58375e-06 -1.40961e-05 2.6885e+25 -1.52669 -0.0117305 272.319 
-1.67242e-06 -1.40961e-05 2.68838e+25 -1.43662 0.528158 272.454 
-1.69631e-05 -1.36182e-05 2.68298e+25 0.0663225 0.00170925 272.669 
-1.50517e-05 -1.36182e-05 2.69053e+25 -0.211535 -0.0765101 272.108 
-1.31404e-05 -1.36182e-05 2.69124e+25 -0.266995 0.209303 272.029 
-1.12291e-05 -1.36182e-05 2.69305e+25 -0.381893 -0.242721 271.847 
-9.31775e-06 -1.36182e-05 2.69413e+25 -1.01833 0.445 271.629 
-7.40642e-06 -1.36182e-05 2.694e+25 -1.58716 -0.0476587 271.901 
-5.49508e-06 -1.36182e-05 2.69144e+25 -1.31459 0.621139 272.15 
-3.58375e-06 -1.36182e-05 2.68694e+25 -1.94419 0.0259776 272.49 
-1.67242e-06 -1.36182e-05 2.69052e+25 -1.81273 0.388395 272.315 
-1.69631e-05 -1.31404e-05 2.68392e+25 0.0205189 -0.122053 272.588 
-1.50517e-05 -1.31404e-05 2.69033e+25 -0.145469 0.139379 271.949 
-1.31404e-05 -1.31404e-05 2.69146e+25 -0.254419 0.37969 272.007 
-1.12291e-05 -1.31404e-05 2.69193e+25 -0.520448 -0.17041 271.8 
-9.31775e-06 -1.31404e-05 2.69899e+25 -1.48518 0.358703 271.455 
-7.40642e-06 -1.31404e-05 2.69547e+25 -1.80073 0.0465515 271.735 
-5.49508e-06 -1.31404e-05 2.69072e+25 -1.68884 0.457674 272.069 
-3.58375e-06 -1.31404e-05 2.68992e+25 -2.12546 0.126364 272.236 
-1.67242e-06 -1.31404e-05 2.6933e+25 -2.01065 0.51908 272.016 
-1.69631e-05 -1.26626e-05 2.68412e+25 -0.0176961 -0.131137 272.73 
-1.50517e-05 -1.26626e-05 2.69092e+25 -0.158197 0.204865 272.032 
-1.31404e-05 -1.26626e-05 2.69114e+25 -0.594171 0.522441 272.085 
-1.12291e-05 -1.26626e-05 2.69127e+25 -0.73643 0.141127 272 
-9.31775e-06 -1.26626e-05 2.69706e+25 -1.63778 0.4267 271.495 
-7.40642e-06 -1.26626e-05 2.69257e+25 -1.89407 0.108572 271.913 
-5.49508e-06 -1.26626e-05 2.69011e+25 -2.21029 0.356118 272.18 
-3.58375e-06 -1.26626e-05 2.68919e+25 -2.35759 0.294684 272.133 
-1.67242e-06 -1.26626e-05 2.69171e+25 -2.27688 0.501978 272.159 
-1.69631e-05 -1.21847e-05 2.68603e+25 -0.057957 -0.0394146 272.806 
-1.50517e-05 -1.21847e-05 2.6952e+25 -0.148458 0.318099 271.583 
-1.31404e-05 -1.21847e-05 2.69005e+25 -0.709813 0.601695 271.989 
-1.12291e-05 -1.21847e-05 2.69086e+25 -1.0055 0.455746 271.959 
-9.31775e-06 -1.21847e-05 2.69652e+25 -1.76143 0.58574 271.677 
-7.40642e-06 -1.21847e-05 2.69363e+25 -2.01916 0.350088 271.803 
-5.49508e-06 -1.21847e-05 2.69401e+25 -2.51846 0.442135 271.855 
-3.58375e-06 -1.21847e-05 2.69337e+25 -2.44028 0.33478 272.053 
-1.67242e-06 -1.21847e-05 2.69202e+25 -2.47886 0.320455 271.866 
-1.69631e-05 -1.17069e-05 2.68384e+25 0.0195918 0.00699595 272.823 
-1.50517e-05 -1.17069e-05 2.69569e+25 -0.198712 0.712648 271.578 
-1.31404e-05 -1.17069e-05 2.69226e+25 -0.719441 0.627057 272.047 
-1.12291e-05 -1.17069e-05 2.68987e+25 -1.20385 0.675641 272.197 
-9.31775e-06 -1.17069e-05 2.69389e+25 -1.69805 0.810674 271.667 
-7.40642e-06 -1.17069e-05 2.69025e+25 -2.28534 0.469981 271.898 
-5.49508e-06 -1.17069e-05 2.69202e+25 -2.58822 0.465098 271.863 
-3.58375e-06 -1.17069e-05 2.6926e+25 -2.74461 0.364744 271.953 
-1.67242e-06 -1.17069e-05 2.69183e+25 -2.44277 0.281837 272.018 
-1.69631e-05 -1.12291e-05 2.68416e+25 0.0513618 -0.0278207 272.828 
-1.50517e-05 -1.12291e-05 2.69377e+25 -0.303935 0.723979 271.817 
-1.31404e-05 -1.12291e-05 2.6914e+25 -0.774523 0.612323 272.05 
-1.12291e-05 -1.12291e-05 2.68869e+25 -1.27321 0.714566 272.127 
-9.31775e-06 -1.12291e-05 2.69389e+25 -1.70977 0.946167 271.813 
-7.40642e-06 -1.12291e-05 2.69367e+25 -2.29 0.526458 271.938 
-5.49508e-06 -1.12291e-05 2.69595e+25 -2.72646 0.65393 271.668 
-3.58375e-06 -1.12291e-05 2.69295e+25 -3.0783 0.344049 272.027 
-1.67242e-06 -1.12291e-05 2.69227e+25 -2.93888 0.240849 272.009 
-1.69631e-05 -1.07512e-05 2.68446e+25 0.0185644 -0.0724827 272.68 
-1.50517e-05 -1.07512e-05 2.69515e+25 -0.335968 0.712749 271.685 
-1.31404e-05 -1.07512e-05 2.69031e+25 -0.714119 0.715855 271.959 
-1.12291e-05 -1.07512e-05 2.69079e+25 -1.26994 0.819283 271.972 
-9.31775e-06 -1.07512e-05 2.69455e+25 -1.94248 1.08494 271.807 
-7.40642e-06 -1.07512e-05 2.69096e+25 -2.11178 0.453601 272.019 
-5.49508e-06 -1.07512e-05 2.69648e+25 -2.89098 0.914578 271.526 
-3.58375e-06 -1.07512e-05 2.69201e+25 -3.27923 0.464102 272.221 
-1.67242e-06 -1.07512e-05 2.68777e+25 -3.60724 0.205863 272.213 
-1.69631e-05 -1.02734e-05 2.68436e+25 -0.107732 0.0229839 272.64 
-1.50517e-05 -1.02734e-05 2.69362e+25 -0.167601 0.687946 271.833 
-1.31404e-05 -1.02734e-05 2.69114e+25 -0.732806 0.700583 272.061 
-1.12291e-05 -1.02734e-05 2.69158e+25 -1.38338 1.11219 272.04 
-9.31775e-06 -1.02734e-05 2.69464e+25 -1.85037 1.19963 271.629 
-7.40642e-06 -1.02734e-05 2.68962e+25 -2.13143 0.590458 272.073 
-5.49508e-06 -1.02734e-05 2.6969e+25 -2.9847 1.03217 271.355 
-3.58375e-06 -1.02734e-05 2.69269e+25 -3.23037 0.618336 271.869 
-1.67242e-06 -1.02734e-05 2.68642e+25 -4.19373 0.309412 272.397 
-1.69631e-05 -9.79558e-06 2.68615e+25 0.0663406 0.120533 272.578 
-1.50517e-05 -9.79558e-06 2.69413e+25 -0.350992 0.838674 271.875 
-1.31404e-05 -9.79558e-06 2.69475e+25 -0.604043 0.867454 271.885 
-1.12291e-05 -9.79558e-06 2.69511e+25 -1.43642 1.24009 271.76 
-9.31775e-06 -9.79558e-06 2.69261e+25 -2.01478 1.4245 271.962 
-7.40642e-06 -9.79558e-06 2.69312e+25 -2.46083 0.811991 271.787 
-5.49508e-06 -9.79558e-06 2.69601e+25 -3.35857 1.13833 271.462 
-3.58375e-06 -9.79558e-06 2.69269e+25 -3.47988 0.798626 271.883 
-1.67242e-06 -9.79558e-06 2.69203e+25 -4.41359 0.51371 272.074 
-1.69631e-05 -9.31775e-06 2.68433e+25 0.00749411 0.040603 272.812 
-1.50517e-05 -9.31775e-06 2.69426e+25 -0.069225 0.942295 271.749 
-1.31404e-05 -9.31775e-06 2.69622e+25 -0.656654 1.05144 271.649 
-1.12291e-05 -9.31775e-06 2.69663e+25 -1.22781 1.31473 271.539 
-9.31775e-06 -9.31775e-06 2.69445e+25 -2.01056 1.55386 271.825 
-7.40642e-06 -9.31775e-06 2.69349e+25 -2.72122 1.08702 271.825 
-5.49508e-06 -9.31775e-06 2.69683e+25 -3.45661 1.2331 271.453 
-3.58375e-06 -9.31775e-06 2.69422e+25 -3.80043 1.01187 271.765 
-1.67242e-06 -9.31775e-06 2.68925e+25 -4.54665 0.53566 272.17 
-1.69631e-05 -8.83992e-06 2.6833e+25 -0.086147 0.105444 272.981 
-1.50517e-05 -8.83992e-06 2.69422e+25 -0.0096961 0.889675 271.813 
-1.31404e-05 -8.83992e-06 2.69573e+25 -0.575523 1.22386 271.532 
-1.12291e-05 -8.83992e-06 2.69484e+25 -1.27788 1.67824 271.82 
-9.31775e-06 -8.83992e-06 2.69444e+25 -1.83426 1.7307 271.856 
-7.40642e-06 -8.83992e-06 2.69494e+25 -2.99822 1.38254 271.559 
-5.49508e-06 -8.83992e-06 2.69916e+25 -3.56253 1.23144 271.279 
-3.58375e-06 -8.83992e-06 2.69523e+25 -4.08377 1.22151 271.669 
-1.67242e-06 -8.83992e-06 2.68885e+25 -4.59155 0.501361 272.381 
-1.69631e-05 -8.36208e-06 2.6844e+25 0.0308352 0.197971 272.98 
-1.50517e-05 -8.36208e-06 2.69321e+25 -0.207755 0.875289 271.868 
-1.31404e-05 -8.36208e-06 2.69664e+25 -0.779739 1.349 271.567 
-1.12291e-05 -8.36208e-06 2.69243e+25 -1.35878 1.87936 271.986 
-9.31775e-06 -8.36208e-06 2.69537e+25 -1.63338 1.72412 271.808 
-7.40642e-06 -8.36208e-06 2.69584e+25 -2.84189 1.75343 271.605 
-5.49508e-06 -8.36208e-06 2.69815e+25 -3.61495 1.27579 271.335 
-3.58375e-06 -8.36208e-06 2.69452e+25 -4.25852 1.30276 271.882 
-1.67242e-06 -8.36208e-06 2.69001e+25 -4.6518 0.551013 272.253 
-1.69631e-05 -7.88425e-06 2.68472e+25 -0.0346909 0.212463 272.858 
-1.50517e-05 -7.88425e-06 2.69207e+25 -0.13363 0.985187 271.896 
-1.31404e-05 -7.88425e-06 2.69508e+25 -0.919822 1.5605 271.672 
-1.12291e-05 -7.88425e-06 2.69215e+25 -1.32999 1.95381 271.921 
-9.31775e-06 -7.88425e-06 2.69355e+25 -1.94214 1.87772 271.851 
-7.40642e-06 -7.88425e-06 2.69651e+25 -2.97178 2.07493 271.612 
-5.49508e-06 -7.88425e-06 2.69655e+25 -3.79593 1.45547 271.459 
-3.58375e-06 -7.88425e-06 2.69307e+25 -4.21483 1.44256 271.859 
-1.67242e-06 -7.88425e-06 2.69164e+25 -4.71144 0.640933 272.157 
-1.69631e-05 -7.40642e-06 2.68458e+25 0.0408479 0.198357 272.817 
-1.50517e-05 -7.40642e-06 2.6947e+25 -0.108026 1.22045 271.66 
-1.31404e-05 -7.40642e-06 2.69377e+25 -0.842585 1.61534 271.825 
-1.12291e-05 -7.40642e-06 2.69148e+25 -1.47558 2.03015 271.983 
-9.31775e-06 -7.40642e-06 2.69623e+25 -1.93878 2.14524 271.521 
-7.40642e-06 -7.40642e-06 2.69826e+25 -2.99609 2.47181 271.514 
-5.49508e-06 -7.40642e-06 2.69583e+25 -3.67899 1.53486 271.639 
-3.58375e-06 -7.40642e-06 2.697e+25 -4.31582 1.68522 271.632 
-1.67242e-06 -7.40642e-06 2.69089e+25 -4.57065 0.795611 272.056 
-1.69631e-05 -6.92858e-06 2.68461e+25 0.0589606 0.157323 272.843 
-1.50517e-05 -6.92858e-06 2.6948e+25 -0.249617 1.47855 271.766 
-1.31404e-05 -6.92858e-06 2.69413e+25 -0.872862 1.70813 271.74 
-1.12291e-05 -6.92858e-06 2.69295e+25 -1.3381 2.0969 271.852 
-9.31775e-06 -6.92858e-06 2.69554e+25 -2.1343 2.33927 271.504 
-7.40642e-06 -6.92858e-06 2.69463e+25 -3.01798 2.72639 271.843 
-5.49508e-06 -6.92858e-06 2.69575e+25 -3.6866 1.68254 271.642 
-3.58375e-06 -6.92858e-06 2.6936e+25 -4.48146 1.87163 271.791 
-1.67242e-06 -6.92858e-06 2.68987e+25 -4.93593 0.99563 271.996 
-1.69631e-05 -6.45075e-06 2.68582e+25 -0.00844227 0.189598 272.802 
-1.50517e-05 -6.45075e-06 2.6936e+25 -0.214349 1.52403 271.833 
-1.31404e-05 -6.45075e-06 2.69434e+25 -0.718735 1.87996 271.759 
-1.12291e-05 -6.45075e-06 2.69284e+25 -1.33372 2.28063 271.741 
-9.31775e-06 -6.45075e-06 2.6955e+25 -2.55154 2.44391 271.636 
-7.40642e-06 -6.45075e-06 2.69418e+25 -3.14781 3.00029 271.821 
-5.49508e-06 -6.45075e-06 2.69636e+25 -3.91838 1.9152 271.63 
-3.58375e-06 -6.45075e-06 2.69357e+25 -4.62163 1.94343 271.777 
-1.67242e-06 -6.45075e-06 2.69058e+25 -5.34243 1.10732 272.042 
-1.69631e-05 -5.97292e-06 2.68782e+25 0.00769434 0.184395 272.727 
-1.50517e-05 -5.97292e-06 2.69502e+25 -0.403881 1.62282 271.702 
-1.31404e-05 -5.97292e-06 2.69391e+25 -0.833186 2.10728 271.846 
-1.12291e-05 -5.97292e-06 2.69327e+25 -1.73431 2.49531 271.882 
-9.31775e-06 -5.97292e-06 2.69384e+25 -2.60903 2.76038 271.67 
-7.40642e-06 -5.97292e-06 2.69426e+25 -3.34636 3.15861 271.499 
-5.49508e-06 -5.97292e-06 2.69513e+25 -4.27273 2.06195 271.724 
-3.58375e-06 -5.97292e-06 2.69466e+25 -4.71898 2.14565 271.862 
-1.67242e-06 -5.97292e-06 2.69004e+25 -5.46746 1.16266 272.039 
-1.69631e-05 -5.49508e-06 2.68477e+25 0.0112354 0.242952 272.728 
-1.50517e-05 -5.49508e-06 2.69105e+25 -0.520941 1.81937 271.88 
-1.31404e-05 -5.49508e-06 2.69054e+25 -0.977251 2.35897 272.058 
-1.12291e-05 -5.49508e-06 2.69381e+25 -2.3026 2.73662 271.826 
-9.31775e-06 -5.49508e-06 2.69345e+25 -2.81532 2.99595 271.707 
-7.40642e-06 -5.49508e-06 2.69818e+25 -3.78204 3.30623 271.359 
-5.49508e-06 -5.49508e-06 2.69404e+25 -4.53169 2.16942 271.842 
-3.58375e-06 -5.49508e-06 2.69388e+25 -5.29631 2.35995 271.871 
-1.67242e-06 -5.49508e-06 2.6897e+25 -5.49941 1.22278 272.244 
-1.69631e-05 -5.01725e-06 2.68531e+25 -0.0174945 0.215217 272.832 
-1.50517e-05 -5.01725e-06 2.69398e+25 -0.775568 1.89232 271.824 
-1.31404e-05 -5.01725e-06 2.69091e+25 -1.01048 2.64854 271.924 
-1.12291e-05 -5.01725e-06 2.69158e+25 -2.18589 3.06866 271.942 
-9.31775e-06 -5.01725e-06 2.69555e+25 -3.10034 3.15486 271.686 
-7.40642e-06 -5.01725e-06 2.6953e+25 -3.84715 3.47398 271.53 
-5.49508e-06 -5.01725e-06 2.68935e+25 -4.5215 2.40048 272.14 
-3.58375e-06 -5.01725e-06 2.68901e+25 -5.57014 2.52592 271.878 
-1.67242e-06 -5.01725e-06 2.68853e+25 -5.6928 1.41935 272.227 
-1.69631e-05 -4.53942e-06 2.68456e+25 0.0240043 0.210442 272.676 
-1.50517e-05 -4.53942e-06 2.69547e+25 -0.574429 1.81516 271.884 
-1.31404e-05 -4.53942e-06 2.68942e+25 -1.02765 2.85385 272.131 
-1.12291e-05 -4.53942e-06 2.69073e+25 -2.14585 3.46825 271.969 
-9.31775e-06 -4.53942e-06 2.69433e+25 -3.28982 3.39456 271.625 
-7.40642e-06 -4.53942e-06 2.69462e+25 -3.85464 3.62656 271.778 
-5.49508e-06 -4.53942e-06 2.69059e+25 -4.73778 2.64651 272.018 
-3.58375e-06 -4.53942e-06 2.69287e+25 -5.66252 2.66935 271.873 
-1.67242e-06 -4.53942e-06 2.68878e+25 -5.91154 1.50444 272.132 
-1.69631e-05 -4.06158e-06 2.68267e+25 -0.0254442 0.237154 272.704 
-1.50517e-05 -4.06158e-06 2.69414e+25 -0.486394 2.09212 271.875 
-1.31404e-05 -4.06158e-06 2.69027e+25 -1.18434 3.10666 272.183 
-1.12291e-05 -4.06158e-06 2.69362e+25 -2.08062 3.853 271.77 
-9.31775e-06 -4.06158e-06 2.69654e+25 -3.14145 3.64925 271.441 
-7.40642e-06 -4.06158e-06 2.69041e+25 -3.70839 3.69881 271.958 
-5.49508e-06 -4.06158e-06 2.69035e+25 -4.43265 3.13973 272.102 
-3.58375e-06 -4.06158e-06 2.69173e+25 -5.49837 2.73293 271.904 
-1.67242e-06 -4.06158e-06 2.69078e+25 -6.10684 1.57965 271.886 
-1.69631e-05 -3.58375e-06 2.68399e+25 -0.0397616 0.379019 272.824 
-1.50517e-05 -3.58375e-06 2.68953e+25 -0.519525 2.34198 272.127 
-1.31404e-05 -3.58375e-06 2.69091e+25 -1.08107 3.4093 272.11 
-1.12291e-05 -3.58375e-06 2.69127e+25 -2.02798 4.1387 271.821 
-9.31775e-06 -3.58375e-06 2.69682e+25 -2.97074 3.86875 271.395 
-7.40642e-06 -3.58375e-06 2.69224e+25 -3.64084 3.72558 271.806 
-5.49508e-06 -3.58375e-06 2.68971e+25 -4.79907 3.44778 272.195 
-3.58375e-06 -3.58375e-06 2.69419e+25 -5.53497 2.79193 271.579 
-1.67242e-06 -3.58375e-06 2.69288e+25 -6.32767 1.78759 271.928 
-1.69631e-05 -3.10592e-06 2.68288e+25 -0.0472853 0.4374 272.913 
-1.50517e-05 -3.10592e-06 2.69084e+25 -0.592236 2.56508 272.114 
-1.31404e-05 -3.10592e-06 2.68973e+25 -1.42775 3.54053 272.231 
-1.12291e-05 -3.10592e-06 2.69102e+25 -1.94163 4.22613 271.954 
-9.31775e-06 -3.10592e-06 2.69476e+25 -2.85385 4.06588 271.557 
-7.40642e-06 -3.10592e-06 2.69348e+25 -3.67799 3.98281 271.834 
-5.49508e-06 -3.10592e-06 2.68956e+25 -4.82883 3.56332 272.083 
-3.58375e-06 -3.10592e-06 2.69243e+25 -5.70679 2.99782 271.719 
-1.67242e-06 -3.10592e-06 2.69193e+25 -6.48847 1.90332 271.93 
-1.69631e-05 -2.62808e-06 2.68455e+25 0.107353 0.465779 272.823 
-1.50517e-05 -2.62808e-06 2.68854e+25 -0.598049 2.82879 272.348 
-1.31404e-05 -2.62808e-06 2.68937e+25 -1.45654 3.66759 272.145 
-1.12291e-05 -2.62808e-06 2.69309e+25 -1.59445 4.26077 271.845 
-9.31775e-06 -2.62808e-06 2.69255e+25 -2.67868 4.43486 271.863 
-7.40642e-06 -2.62808e-06 2.69159e+25 -3.97481 4.21782 271.985 
-5.49508e-06 -2.62808e-06 2.68911e+25 -4.85528 3.74007 272.135 
-3.58375e-06 -2.62808e-06 2.69148e+25 -5.68658 3.17261 271.927 
-1.67242e-06 -2.62808e-06 2.69174e+25 -6.48022 1.9489 271.815 
-1.69631e-05 -2.15025e-06 2.68278e+25 0.0487143 0.388074 272.933 
-1.50517e-05 -2.15025e-06 2.68852e+25 -0.297958 2.91122 272.212 
-1.31404e-05 -2.15025e-06 2.68971e+25 -1.11732 3.79544 272.024 
-1.12291e-05 -2.15025e-06 2.69487e+25 -1.69424 4.21246 271.702 
-9.31775e-06 -2.15025e-06 2.69425e+25 -2.61735 4.75119 271.647 
-7.40642e-06 -2.15025e-06 2.69026e+25 -3.96697 4.44001 272.072 
-5.49508e-06 -2.15025e-06 2.69034e+25 -4.84647 3.87067 271.981 
-3.58375e-06 -2.15025e-06 2.68862e+25 -5.64984 3.35026 272.044 
-1.67242e-06 -2.15025e-06 2.69396e+25 -6.42671 1.98813 271.558 
-1.69631e-05 -1.67242e-06 2.68305e+25 -0.0484409 0.328101 272.975 
-1.50517e-05 -1.67242e-06 2.68917e+25 -0.0740653 2.94735 272.253 
-1.31404e-05 -1.67242e-06 2.69492e+25 -0.899932 3.90615 271.821 
-1.12291e-05 -1.67242e-06 2.69359e+25 -1.79129 4.27858 271.578 
-9.31775e-06 -1.67242e-06 2.69276e+25 -2.70877 4.95551 271.708 
-7.40642e-06 -1.67242e-06 2.69017e+25 -3.81413 4.63586 272.129 
-5.49508e-06 -1.67242e-06 2.69311e+25 -4.8081 4.0735 271.826 
-3.58375e-06 -1.67242e-06 2.68819e+25 -5.60064 3.57438 272.189 
-1.67242e-06 -1.67242e-06 2.69348e+25 -6.53994 2.30778 271.719 
-1.69631e-05 -1.19458e-06 2.68208e+25 -0.0445271 0.444995 272.965 
-1.50517e-05 -1.19458e-06 2.69e+25 -0.134671 3.08073 272.246 
-1.31404e-05 -1.19458e-06 2.6936e+25 -0.761021 4.01956 271.872 
-1.12291e-05 -1.19458e-06 2.69472e+25 -1.69588 4.77488 271.624 
-9.31775e-06 -1.19458e-06 2.6927e+25 -2.6722 5.23624 271.788 
-7.40642e-06 -1.19458e-06 2.69287e+25 -3.67935 4.93263 271.771 
-5.49508e-06 -1.19458e-06 2.68988e+25 -4.90534 4.22675 271.946 
-3.58375e-06 -1.19458e-06 2.68889e+25 -5.665 3.72335 272.007 
-1.67242e-06 -1.19458e-06 2.69143e+25 -6.6412 2.83968 271.848 
-1.69631e-05 -7.1675e-07 2.68201e+25 -0.0476887 0.555758 273.025 
-1.50517e-05 -7.1675e-07 2.69132e+25 -0.235164 3.18888 272.091 
-1.31404e-05 -7.1675e-07 2.69213e+25 -0.765774 4.13385 271.931 
-1.12291e-05 -7.1675e-07 2.69362e+25 -1.55692 5.14302 271.717 
-9.31775e-06 -7.1675e-07 2.69234e+25 -2.562 5.50119 271.698 
-7.40642e-06 -7.1675e-07 2.69138e+25 -3.64777 5.26733 271.752 
-5.49508e-06 -7.1675e-07 2.69014e+25 -4.92024 4.61517 272.081 
-3.58375e-06 -7.1675e-07 2.69023e+25 -5.87443 3.81607 271.872 
-1.67242e-06 -7.1675e-07 2.69322e+25 -6.84905 3.33246 271.683 
-1.69631e-05 -2.38917e-07 2.67952e+25 0.0269641 0.586785 272.945 
-1.50517e-05 -2.38917e-07 2.68965e+25 -0.200564 3.25713 271.94 
-1.31404e-05 -2.38917e-07 2.6917e+25 -0.547831 4.36116 271.802 
-1.12291e-05 -2.38917e-07 2.69233e+25 -1.68682 5.36968 271.629 
-9.31775e-06 -2.38917e-07 2.68829e+25 -2.70598 5.81336 271.924 
-7.40642e-06 -2.38917e-07 2.69267e+25 -3.7174 5.56482 271.753 
-5.49508e-06 -2.38917e-07 2.68975e+25 -4.65484 4.99055 271.848 
-3.58375e-06 -2.38917e-07 2.68877e+25 -5.93111 4.08469 271.95 
-1.67242e-06 -2.38917e-07 2.68731e+25 -6.74273 3.58804 271.979 
-1.64852e-05 -1.69631e-05 2.68712e+25 -0.0371611 0.0358082 272.763 
-1.45739e-05 -1.69631e-05 2.68302e+25 0.0148861 -0.0155825 272.776 
-1.26626e-05 -1.69631e-05 2.68602e+25 -0.109669 0.00233301 272.798 
-1.07512e-05 -1.69631e-05 2.6846e+25 -0.236318 -0.0509873 272.729 
-8.83992e-06 -1.69631e-05 2.68482e+25 -0.0522025 0.0348308 272.852 
-6.92858e-06 -1.69631e-05 2.68429e+25 0.0299191 -0.0648484 272.785 
-5.01725e-06 -1.69631e-05 2.68183e+25 -0.331507 -0.0502469 273.03 
-3.10592e-06 -1.69631e-05 2.6831e+25 -0.0739463 0.0557313 272.864 
-1.19458e-06 -1.69631e-05 2.68461e+25 -0.19613 0.0215011 272.791 
-1.64852e-05 -1.64852e-05 2.68869e+25 -0.0677127 0.0815402 272.586 
-1.45739e-05 -1.64852e-05 2.68779e+25 -0.146943 -0.0808101 272.412 
-1.26626e-05 -1.64852e-05 2.68466e+25 -0.166951 0.169565 272.739 
-1.07512e-05 -1.64852e-05 2.68715e+25 -0.0361656 -0.128565 272.569 
-8.83992e-06 -1.64852e-05 2.68792e+25 -0.145273 -0.0476692 272.56 
-6.92858e-06 -1.64852e-05 2.68928e+25 0.0274285 0.0606992 272.319 
-5.01725e-06 -1.64852e-05 2.68367e+25 -0.3716 -0.124258 272.856 
-3.10592e-06 -1.64852e-05 2.687e+25 -0.23875 0.089987 272.575 
-1.19458e-06 -1.64852e-05 2.68504e+25 -0.435685 -0.0119961 272.684 
-1.64852e-05 -1.60074e-05 2.68992e+25 0.0463043 0.0496019 272.431 
-1.45739e-05 -1.60074e-05 2.69121e+25 0.0138599 -0.0710598 272.133 
-1.26626e-05 -1.60074e-05 2.68776e+25 -0.0688267 0.256846 272.497 
-1.07512e-05 -1.60074e-05 2.68768e+25 0.0325614 -0.122109 272.471 
-8.83992e-06 -1.60074e-05 2.68923e+25 -0.0806853 -0.134795 272.357 
-6.92858e-06 -1.60074e-05 2.69152e+25 -0.182123 0.262539 272.004 
-5.01725e-06 -1.60074e-05 2.68837e+25 -0.452766 -0.0108504 272.446 
-3.10592e-06 -1.60074e-05 2.6888e+25 -0.224457 0.216572 272.376 
-1.19458e-06 -1.60074e-05 2.68602e+25 -0.692804 -0.0165761 272.621 
-1.64852e-05 -1.55296e-05 2.68847e+25 -0.0512311 0.0784625 272.562 
-1.45739e-05 -1.55296e-05 2.69083e+25 -0.157559 -0.0478913 272.123 
-1.26626e-05 -1.55296e-05 2.68641e+25 -0.145401 0.336012 272.384 
-1.07512e-05 -1.55296e-05 2.69072e+25 0.03643 -0.140367 272.097 
-8.83992e-06 -1.55296e-05 2.69034e+25 -0.187684 -0.189435 272.196 
-6.92858e-06 -1.55296e-05 2.6936e+25 -0.417617 0.289896 271.937 
-5.01725e-06 -1.55296e-05 2.68951e+25 -0.742047 -0.0353046 272.318 
-3.10592e-06 -1.55296e-05 2.6876e+25 -0.718279 0.17571 272.228 
-1.19458e-06 -1.55296e-05 2.68477e+25 -1.03267 0.0944921 272.774 
-1.64852e-05 -1.50517e-05 2.68879e+25 -0.0419459 -0.0489499 272.481 
-1.45739e-05 -1.50517e-05 2.69123e+25 0.0838516 0.0366636 272.064 
-1.26626e-05 -1.50517e-05 2.68896e+25 0.0136546 0.460983 272.47 
-1.07512e-05 -1.50517e-05 2.68959e+25 -0.254001 -0.254982 272.102 
-8.83992e-06 -1.50517e-05 2.69263e+25 -0.313573 -0.00380519 272.035 
-6.92858e-06 -1.50517e-05 2.69163e+25 -0.490579 0.206621 272.085 
-5.01725e-06 -1.50517e-05 2.68739e+25 -0.533291 -0.0096598 272.345 
-3.10592e-06 -1.50517e-05 2.68724e+25 -0.954903 0.140331 272.398 
-1.19458e-06 -1.50517e-05 2.68662e+25 -1.36954 0.191225 272.471 
-1.64852e-05 -1.45739e-05 2.687e+25 0.0330787 0.0447477 272.411 
-1.45739e-05 -1.45739e-05 2.69137e+25 0.244782 0.013078 272.04 
-1.26626e-05 -1.45739e-05 2.6855e+25 0.0205062 0.599478 272.535 
-1.07512e-05 -1.45739e-05 2.6901e+25 -0.311377 -0.423383 272.211 
-8.83992e-06 -1.45739e-05 2.69421e+25 -0.598637 0.296387 271.777 
-6.92858e-06 -1.45739e-05 2.68984e+25 -0.683075 0.187711 272.144 
-5.01725e-06 -1.45739e-05 2.6896e+25 -0.851103 0.136067 272.157 
-3.10592e-06 -1.45739e-05 2.68797e+25 -1.1385 0.160327 272.336 
-1.19458e-06 -1.45739e-05 2.68727e+25 -1.51627 0.304843 272.528 
-1.64852e-05 -1.40961e-05 2.69125e+25 0.0749541 0.0116721 272.306 
-1.45739e-05 -1.40961e-05 2.69261e+25 0.137575 0.096661 271.88 
-1.26626e-05 -1.40961e-05 2.68869e+25 -0.238043 0.537006 272.389 
-1.07512e-05 -1.40961e-05 2.6892e+25 -0.568958 -0.382084 272.12 
-8.83992e-06 -1.40961e-05 2.69567e+25 -0.684474 0.461399 271.666 
-6.92858e-06 -1.40961e-05 2.69111e+25 -1.05648 0.119948 272.115 
-5.01725e-06 -1.40961e-05 2.69007e+25 -1.07299 0.261611 272.16 
-3.10592e-06 -1.40961e-05 2.68631e+25 -1.42435 0.192146 272.518 
-1.19458e-06 -1.40961e-05 2.69077e+25 -1.39983 0.422668 272.269 
-1.64852e-05 -1.36182e-05 2.68923e+25 0.0935571 0.0280623 272.379 
-1.45739e-05 -1.36182e-05 2.69089e+25 -0.370241 0.0207493 272.047 
-1.26626e-05 -1.36182e-05 2.69012e+25 -0.470013 0.689831 272.224 
-1.07512e-05 -1.36182e-05 2.69258e+25 -0.524725 -0.093171 272.01 
-8.83992e-06 -1.36182e-05 2.69411e+25 -0.98677 0.58088 271.703 
-6.92858e-06 -1.36182e-05 2.69006e+25 -1.61175 0.116035 272.041 
-5.01725e-06 -1.36182e-05 2.69142e+25 -1.36177 0.484904 272.095 
-3.10592e-06 -1.36182e-05 2.68676e+25 -1.92075 0.0433174 272.486 
-1.19458e-06 -1.36182e-05 2.68858e+25 -1.69901 0.407683 272.388 
-1.64852e-05 -1.31404e-05 2.68941e+25 0.226776 -0.0683915 272.221 
-1.45739e-05 -1.31404e-05 2.69361e+25 -0.269284 0.0401975 271.885 
-1.26626e-05 -1.31404e-05 2.68901e+25 -0.268839 0.678577 272.137 
-1.07512e-05 -1.31404e-05 2.69174e+25 -0.67207 0.102623 271.931 
-8.83992e-06 -1.31404e-05 2.69327e+25 -1.52401 0.655124 271.74 
-6.92858e-06 -1.31404e-05 2.69489e+25 -1.85286 0.063614 271.747 
-5.01725e-06 -1.31404e-05 2.69314e+25 -1.66305 0.670113 271.883 
-3.10592e-06 -1.31404e-05 2.68796e+25 -2.2826 0.104021 272.351 
-1.19458e-06 -1.31404e-05 2.68948e+25 -2.09521 0.272078 272.266 
-1.64852e-05 -1.26626e-05 2.69264e+25 -0.0386563 -0.19726 272.124 
-1.45739e-05 -1.26626e-05 2.69152e+25 -0.16736 0.134012 271.896 
-1.26626e-05 -1.26626e-05 2.6925e+25 -0.654933 0.559318 272.031 
-1.07512e-05 -1.26626e-05 2.69553e+25 -1.06858 0.332336 271.78 
-8.83992e-06 -1.26626e-05 2.69414e+25 -1.65217 0.676832 271.729 
-6.92858e-06 -1.26626e-05 2.69113e+25 -2.05488 0.234857 271.938 
-5.01725e-06 -1.26626e-05 2.69012e+25 -2.13387 0.62732 272.13 
-3.10592e-06 -1.26626e-05 2.68909e+25 -2.36658 0.0335866 272.12 
-1.19458e-06 -1.26626e-05 2.69096e+25 -2.20438 0.244407 272.205 
-1.64852e-05 -1.21847e-05 2.68907e+25 -0.106074 -0.20713 272.277 
-1.45739e-05 -1.21847e-05 2.69399e+25 -0.375289 0.279469 271.857 
-1.26626e-05 -1.21847e-05 2.69158e+25 -0.625232 0.484213 271.971 
-1.07512e-05 -1.21847e-05 2.69263e+25 -1.23236 0.560722 272.129 
-8.83992e-06 -1.21847e-05 2.6904e+25 -2.00833 0.712263 271.858 
-6.92858e-06 -1.21847e-05 2.69098e+25 -2.24236 0.437406 271.912 
-5.01725e-06 -1.21847e-05 2.69189e+25 -2.45116 0.517145 272.09 
-3.10592e-06 -1.21847e-05 2.69092e+25 -2.55274 0.0947693 271.985 
-1.19458e-06 -1.21847e-05 2.69058e+25 -2.28329 0.1963 272.025 
-1.64852e-05 -1.17069e-05 2.68623e+25 -0.108113 -0.0735205 272.458 
-1.45739e-05 -1.17069e-05 2.69455e+25 -0.465639 0.387452 271.7 
-1.26626e-05 -1.17069e-05 2.69081e+25 -0.848736 0.625657 272.143 
-1.07512e-05 -1.17069e-05 2.68868e+25 -1.41204 0.7398 272.211 
-8.83992e-06 -1.17069e-05 2.6946e+25 -1.85089 0.824692 271.824 
-6.92858e-06 -1.17069e-05 2.69107e+25 -2.237 0.434939 272.048 
-5.01725e-06 -1.17069e-05 2.69219e+25 -2.73434 0.530794 271.909 
-3.10592e-06 -1.17069e-05 2.69092e+25 -2.72685 0.207361 272.037 
-1.19458e-06 -1.17069e-05 2.69044e+25 -2.46172 0.123098 272.089 
-1.64852e-05 -1.12291e-05 2.68649e+25 0.0384633 0.0248347 272.648 
-1.45739e-05 -1.12291e-05 2.69332e+25 -0.386361 0.66987 271.766 
-1.26626e-05 -1.12291e-05 2.69074e+25 -0.763895 0.711561 272.005 
-1.07512e-05 -1.12291e-05 2.69221e+25 -1.21077 0.835745 271.951 
-8.83992e-06 -1.12291e-05 2.69407e+25 -1.85174 1.00567 271.849 
-6.92858e-06 -1.12291e-05 2.69197e+25 -2.16763 0.302937 271.956 
-5.01725e-06 -1.12291e-05 2.69341e+25 -2.99078 0.735161 271.662 
-3.10592e-06 -1.12291e-05 2.6888e+25 -3.09462 0.21581 272.191 
-1.19458e-06 -1.12291e-05 2.6901e+25 -3.02503 0.189172 272.153 
-1.64852e-05 -1.07512e-05 2.68716e+25 0.0104642 0.0574349 272.448 
-1.45739e-05 -1.07512e-05 2.69476e+25 -0.333792 0.786347 271.766 
-1.26626e-05 -1.07512e-05 2.69149e+25 -0.831335 0.743846 271.937 
-1.07512e-05 -1.07512e-05 2.69251e+25 -1.60993 0.981511 271.964 
-8.83992e-06 -1.07512e-05 2.69347e+25 -1.94527 1.04457 271.806 
-6.92858e-06 -1.07512e-05 2.69335e+25 -2.18418 0.382607 271.888 
-5.01725e-06 -1.07512e-05 2.69635e+25 -2.96442 0.820014 271.464 
-3.10592e-06 -1.07512e-05 2.69019e+25 -3.33868 0.249809 272.189 
-1.19458e-06 -1.07512e-05 2.68865e+25 -3.73102 0.427355 272.14 
-1.64852e-05 -1.02734e-05 2.68824e+25 -0.20265 0.089361 272.358 
-1.45739e-05 -1.02734e-05 2.69228e+25 -0.275052 0.938334 271.902 
-1.26626e-05 -1.02734e-05 2.69385e+25 -0.891869 1.0147 271.838 
-1.07512e-05 -1.02734e-05 2.69058e+25 -1.60605 1.19922 272.006 
-8.83992e-06 -1.02734e-05 2.69532e+25 -2.10316 1.14973 271.785 
-6.92858e-06 -1.02734e-05 2.69216e+25 -2.44776 0.650502 271.824 
-5.01725e-06 -1.02734e-05 2.69683e+25 -3.08319 0.88438 271.41 
-3.10592e-06 -1.02734e-05 2.69157e+25 -3.4818 0.413874 271.955 
-1.19458e-06 -1.02734e-05 2.69107e+25 -4.20995 0.447362 272.198 
-1.64852e-05 -9.79558e-06 2.68922e+25 0.0848415 0.0365469 272.312 
-1.45739e-05 -9.79558e-06 2.69442e+25 -0.342748 1.02236 271.701 
-1.26626e-05 -9.79558e-06 2.69345e+25 -0.873456 1.20381 271.654 
-1.07512e-05 -9.79558e-06 2.69196e+25 -1.43321 1.40009 271.889 
-8.83992e-06 -9.79558e-06 2.69414e+25 -2.08714 1.24026 271.889 
-6.92858e-06 -9.79558e-06 2.69102e+25 -2.83237 0.972703 271.905 
-5.01725e-06 -9.79558e-06 2.69737e+25 -3.293 0.823621 271.347 
-3.10592e-06 -9.79558e-06 2.69151e+25 -3.71158 0.692045 272.02 
-1.19458e-06 -9.79558e-06 2.69092e+25 -4.52478 0.440246 272.117 
-1.64852e-05 -9.31775e-06 2.68528e+25 -0.0291442 0.0827367 272.626 
-1.45739e-05 -9.31775e-06 2.69311e+25 -0.13626 0.947306 271.607 
-1.26626e-05 -9.31775e-06 2.69504e+25 -0.691605 1.36598 271.698 
-1.07512e-05 -9.31775e-06 2.69566e+25 -1.45174 1.53891 271.743 
-8.83992e-06 -9.31775e-06 2.69186e+25 -2.11791 1.3765 271.855 
-6.92858e-06 -9.31775e-06 2.69482e+25 -2.89725 1.27752 271.768 
-5.01725e-06 -9.31775e-06 2.69821e+25 -3.57836 0.828301 271.351 
-3.10592e-06 -9.31775e-06 2.69307e+25 -4.03254 0.932999 271.919 
-1.19458e-06 -9.31775e-06 2.69198e+25 -4.48234 0.438807 272.016 
-1.64852e-05 -8.83992e-06 2.68513e+25 -0.202817 0.173577 272.757 
-1.45739e-05 -8.83992e-06 2.69584e+25 -0.0996529 1.06079 271.714 
-1.26626e-05 -8.83992e-06 2.69729e+25 -0.702016 1.38542 271.476 
-1.07512e-05 -8.83992e-06 2.69332e+25 -1.56538 1.68801 271.809 
-8.83992e-06 -8.83992e-06 2.69559e+25 -1.92776 1.48296 271.755 
-6.92858e-06 -8.83992e-06 2.69228e+25 -3.28675 1.43211 271.832 
-5.01725e-06 -8.83992e-06 2.69856e+25 -3.50461 0.868444 271.299 
-3.10592e-06 -8.83992e-06 2.69061e+25 -4.20783 1.08703 272.011 
-1.19458e-06 -8.83992e-06 2.69063e+25 -4.50228 0.40621 272.288 
-1.64852e-05 -8.36208e-06 2.68526e+25 -0.0970424 0.26987 272.633 
-1.45739e-05 -8.36208e-06 2.69473e+25 -0.200308 1.19384 271.889 
-1.26626e-05 -8.36208e-06 2.69857e+25 -0.916459 1.4138 271.396 
-1.07512e-05 -8.36208e-06 2.69304e+25 -1.49217 1.83853 271.887 
-8.83992e-06 -8.36208e-06 2.69569e+25 -1.88311 1.78322 271.699 
-6.92858e-06 -8.36208e-06 2.69333e+25 -3.17672 1.74544 271.835 
-5.01725e-06 -8.36208e-06 2.69745e+25 -3.88293 0.982476 271.329 
-3.10592e-06 -8.36208e-06 2.69279e+25 -4.38605 1.20926 271.975 
-1.19458e-06 -8.36208e-06 2.69002e+25 -4.64069 0.250671 272.233 
-1.64852e-05 -7.88425e-06 2.68965e+25 -0.0631008 0.441421 272.447 
-1.45739e-05 -7.88425e-06 2.69376e+25 -0.327667 1.29198 271.927 
-1.26626e-05 -7.88425e-06 2.69451e+25 -1.1523 1.58464 271.379 
-1.07512e-05 -7.88425e-06 2.69156e+25 -1.37363 1.94018 272.023 
-8.83992e-06 -7.88425e-06 2.69588e+25 -2.09842 2.03009 271.758 
-6.92858e-06 -7.88425e-06 2.69468e+25 -3.23658 2.0393 271.673 
-5.01725e-06 -7.88425e-06 2.69419e+25 -3.84205 1.11352 271.591 
-3.10592e-06 -7.88425e-06 2.69247e+25 -4.36204 1.36333 271.93 
-1.19458e-06 -7.88425e-06 2.68981e+25 -4.86064 0.268438 272.209 
-1.64852e-05 -7.40642e-06 2.69016e+25 0.154297 0.431729 272.247 
-1.45739e-05 -7.40642e-06 2.69137e+25 -0.485403 1.57706 271.932 
-1.26626e-05 -7.40642e-06 2.69328e+25 -0.954975 1.91283 271.668 
-1.07512e-05 -7.40642e-06 2.69107e+25 -1.51781 2.04838 271.946 
-8.83992e-06 -7.40642e-06 2.69937e+25 -2.23066 2.24505 271.415 
-6.92858e-06 -7.40642e-06 2.69238e+25 -3.24644 2.2446 271.739 
-5.01725e-06 -7.40642e-06 2.69524e+25 -3.81131 1.25995 271.73 
-3.10592e-06 -7.40642e-06 2.69286e+25 -4.54339 1.38125 271.96 
-1.19458e-06 -7.40642e-06 2.69139e+25 -4.76771 0.438575 271.976 
-1.64852e-05 -6.92858e-06 2.69122e+25 -0.0166571 0.340299 272.258 
-1.45739e-05 -6.92858e-06 2.69261e+25 -0.374192 1.89174 271.82 
-1.26626e-05 -6.92858e-06 2.69351e+25 -1.01221 1.99559 271.724 
-1.07512e-05 -6.92858e-06 2.69295e+25 -1.58649 2.22347 271.838 
-8.83992e-06 -6.92858e-06 2.69832e+25 -2.24279 2.37285 271.208 
-6.92858e-06 -6.92858e-06 2.69294e+25 -3.3074 2.50878 271.862 
-5.01725e-06 -6.92858e-06 2.69494e+25 -3.90367 1.42608 271.683 
-3.10592e-06 -6.92858e-06 2.69301e+25 -4.56321 1.4745 271.814 
-1.19458e-06 -6.92858e-06 2.69243e+25 -5.06601 0.678908 271.95 
-1.64852e-05 -6.45075e-06 2.69168e+25 -0.0767306 0.354376 272.2 
-1.45739e-05 -6.45075e-06 2.6913e+25 -0.271801 2.04657 271.955 
-1.26626e-05 -6.45075e-06 2.69735e+25 -0.880961 2.07499 271.633 
-1.07512e-05 -6.45075e-06 2.69411e+25 -1.62168 2.5984 271.793 
-8.83992e-06 -6.45075e-06 2.69707e+25 -2.66972 2.57176 271.468 
-6.92858e-06 -6.45075e-06 2.69408e+25 -3.32375 2.64761 271.853 
-5.01725e-06 -6.45075e-06 2.69461e+25 -4.0904 1.55988 271.673 
-3.10592e-06 -6.45075e-06 2.69042e+25 -4.76096 1.63958 271.98 
-1.19458e-06 -6.45075e-06 2.68972e+25 -5.3519 0.736167 272.07 
-1.64852e-05 -5.97292e-06 2.69006e+25 -0.0550422 0.470808 272.304 
-1.45739e-05 -5.97292e-06 2.69167e+25 -0.499626 2.01255 271.922 
-1.26626e-05 -5.97292e-06 2.69201e+25 -1.06928 2.32097 271.996 
-1.07512e-05 -5.97292e-06 2.69237e+25 -1.98903 2.90786 271.839 
-8.83992e-06 -5.97292e-06 2.69594e+25 -2.92994 2.78514 271.466 
-6.92858e-06 -5.97292e-06 2.6945e+25 -3.58697 2.84505 271.56 
-5.01725e-06 -5.97292e-06 2.69369e+25 -4.32622 1.70255 271.733 
-3.10592e-06 -5.97292e-06 2.69115e+25 -4.97259 1.84879 271.988 
-1.19458e-06 -5.97292e-06 2.69018e+25 -5.62866 0.774883 272.166 
-1.64852e-05 -5.49508e-06 2.68662e+25 -0.0757262 0.529855 272.562 
-1.45739e-05 -5.49508e-06 2.68977e+25 -0.637015 2.10416 271.95 
-1.26626e-05 -5.49508e-06 2.69211e+25 -1.27213 2.56222 272.016 
-1.07512e-05 -5.49508e-06 2.69363e+25 -2.43631 3.12474 271.779 
-8.83992e-06 -5.49508e-06 2.69654e+25 -3.03589 2.99072 271.502 
-6.92858e-06 -5.49508e-06 2.69415e+25 -3.85995 3.04823 271.561 
-5.01725e-06 -5.49508e-06 2.69675e+25 -4.63972 1.7578 271.492 
-3.10592e-06 -5.49508e-06 2.69387e+25 -5.47443 2.04302 271.799 
-1.19458e-06 -5.49508e-06 2.68857e+25 -5.63598 0.881675 272.3 
-1.64852e-05 -5.01725e-06 2.68989e+25 -0.00933789 0.695638 272.16 
-1.45739e-05 -5.01725e-06 2.69277e+25 -0.670922 2.02813 271.898 
-1.26626e-05 -5.01725e-06 2.6909e+25 -1.27671 2.85215 272.015 
-1.07512e-05 -5.01725e-06 2.69633e+25 -2.48804 3.17925 271.691 
-8.83992e-06 -5.01725e-06 2.69543e+25 -3.30515 3.308 271.568 
-6.92858e-06 -5.01725e-06 2.69436e+25 -4.05769 3.18416 271.535 
-5.01725e-06 -5.01725e-06 2.69383e+25 -4.85036 1.99342 271.73 
-3.10592e-06 -5.01725e-06 2.69299e+25 -5.66348 2.08722 271.853 
-1.19458e-06 -5.01725e-06 2.68837e+25 -5.90474 1.06604 272.27 
-1.64852e-05 -4.53942e-06 2.68906e+25 -0.0686812 0.719938 272.17 
-1.45739e-05 -4.53942e-06 2.69189e+25 -0.568693 2.0296 272.002 
-1.26626e-05 -4.53942e-06 2.69101e+25 -1.13414 2.96953 272.108 
-1.07512e-05 -4.53942e-06 2.6932e+25 -2.43946 3.43011 271.844 
-8.83992e-06 -4.53942e-06 2.69284e+25 -3.44761 3.41972 271.66 
-6.92858e-06 -4.53942e-06 2.69079e+25 -3.9708 3.40139 271.917 
-5.01725e-06 -4.53942e-06 2.69149e+25 -5.08051 2.37763 271.966 
-3.10592e-06 -4.53942e-06 2.69239e+25 -5.75359 2.21129 271.925 
-1.19458e-06 -4.53942e-06 2.68714e+25 -6.08844 1.33846 272.27 
-1.64852e-05 -4.06158e-06 2.6871e+25 -0.118681 0.899861 272.365 
-1.45739e-05 -4.06158e-06 2.69347e+25 -0.736839 2.02851 271.982 
-1.26626e-05 -4.06158e-06 2.68993e+25 -1.42782 3.13924 272.237 
-1.07512e-05 -4.06158e-06 2.69294e+25 -2.4151 3.67057 271.721 
-8.83992e-06 -4.06158e-06 2.69844e+25 -3.48822 3.56354 271.447 
-6.92858e-06 -4.06158e-06 2.6908e+25 -3.7673 3.50868 272.025 
-5.01725e-06 -4.06158e-06 2.68896e+25 -4.89621 2.67787 272.036 
-3.10592e-06 -4.06158e-06 2.69119e+25 -5.52692 2.29707 271.956 
-1.19458e-06 -4.06158e-06 2.69003e+25 -6.23726 1.5845 272.105 
-1.64852e-05 -3.58375e-06 2.68845e+25 -0.207302 1.0035 272.385 
-1.45739e-05 -3.58375e-06 2.69121e+25 -0.675158 2.17535 272.069 
-1.26626e-05 -3.58375e-06 2.68904e+25 -1.4352 3.41314 272.127 
-1.07512e-05 -3.58375e-06 2.69081e+25 -2.24572 3.96503 271.945 
-8.83992e-06 -3.58375e-06 2.69526e+25 -3.17589 3.91911 271.433 
-6.92858e-06 -3.58375e-06 2.68958e+25 -3.8345 3.75237 272.011 
-5.01725e-06 -3.58375e-06 2.68901e+25 -4.98184 2.9667 272.25 
-3.10592e-06 -3.58375e-06 2.69314e+25 -5.74982 2.41363 271.698 
-1.19458e-06 -3.58375e-06 2.68868e+25 -6.48367 1.62975 272.083 
-1.64852e-05 -3.10592e-06 2.68549e+25 -0.0957906 1.15031 272.575 
-1.45739e-05 -3.10592e-06 2.6903e+25 -0.9357 2.50093 272.108 
-1.26626e-05 -3.10592e-06 2.69333e+25 -1.59081 3.69564 271.868 
-1.07512e-05 -3.10592e-06 2.69345e+25 -1.95484 4.03438 271.769 
-8.83992e-06 -3.10592e-06 2.69514e+25 -3.12077 4.21284 271.584 
-6.92858e-06 -3.10592e-06 2.6907e+25 -4.02232 4.08112 271.937 
-5.01725e-06 -3.10592e-06 2.68957e+25 -5.0339 3.17097 272.206 
-3.10592e-06 -3.10592e-06 2.6924e+25 -5.85559 2.62181 271.897 
-1.19458e-06 -3.10592e-06 2.69011e+25 -6.5379 1.70246 272.007 
-1.64852e-05 -2.62808e-06 2.68724e+25 -0.0503586 1.26398 272.534 
-1.45739e-05 -2.62808e-06 2.69213e+25 -0.856754 2.79631 272.008 
-1.26626e-05 -2.62808e-06 2.69263e+25 -1.58722 3.92766 272.019 
-1.07512e-05 -2.62808e-06 2.69202e+25 -1.84529 4.21894 271.767 
-8.83992e-06 -2.62808e-06 2.69529e+25 -2.95864 4.41045 271.677 
-6.92858e-06 -2.62808e-06 2.68952e+25 -4.11398 4.32055 272.207 
-5.01725e-06 -2.62808e-06 2.6891e+25 -5.03937 3.401 272.158 
-3.10592e-06 -2.62808e-06 2.69021e+25 -5.90047 2.87105 271.942 
-1.19458e-06 -2.62808e-06 2.6918e+25 -6.47498 1.67261 271.821 
-1.64852e-05 -2.15025e-06 2.68375e+25 0.0819842 1.46919 272.772 
-1.45739e-05 -2.15025e-06 2.68989e+25 -0.524873 3.16459 272.051 
-1.26626e-05 -2.15025e-06 2.69246e+25 -1.29128 4.03553 271.913 
-1.07512e-05 -2.15025e-06 2.69501e+25 -1.86481 4.6284 271.581 
-8.83992e-06 -2.15025e-06 2.69526e+25 -2.83114 4.59073 271.613 
-6.92858e-06 -2.15025e-06 2.68999e+25 -4.15478 4.45594 272.201 
-5.01725e-06 -2.15025e-06 2.69206e+25 -5.05557 3.64239 272.052 
-3.10592e-06 -2.15025e-06 2.69084e+25 -5.87493 3.10149 272.049 
-1.19458e-06 -2.15025e-06 2.68975e+25 -6.61831 1.83839 271.955 
-1.64852e-05 -1.67242e-06 2.68636e+25 0.0258857 1.39351 272.684 
-1.45739e-05 -1.67242e-06 2.69055e+25 -0.24864 3.484 272.012 
-1.26626e-05 -1.67242e-06 2.69547e+25 -1.01309 4.1833 271.673 
-1.07512e-05 -1.67242e-06 2.69322e+25 -1.99346 4.8989 271.569 
-8.83992e-06 -1.67242e-06 2.69383e+25 -2.99773 4.86997 271.66 
-6.92858e-06 -1.67242e-06 2.68834e+25 -4.172 4.78215 272.134 
-5.01725e-06 -1.67242e-06 2.69152e+25 -5.01748 3.91916 271.913 
-3.10592e-06 -1.67242e-06 2.69107e+25 -5.76172 3.25798 271.979 
-1.19458e-06 -1.67242e-06 2.69234e+25 -7.0085 2.14588 271.727 
-1.64852e-05 -1.19458e-06 2.68547e+25 -0.100861 1.23633 272.686 
-1.45739e-05 -1.19458e-06 2.69007e+25 -0.263028 3.61007 272.13 
-1.26626e-05 -1.19458e-06 2.69496e+25 -0.809537 4.26504 271.753 
-1.07512e-05 -1.19458e-06 2.69338e+25 -2.04824 5.05377 271.637 
-8.83992e-06 -1.19458e-06 2.6955e+25 -2.90788 5.12007 271.801 
-6.92858e-06 -1.19458e-06 2.69197e+25 -3.97458 5.12111 271.894 
-5.01725e-06 -1.19458e-06 2.69135e+25 -5.16974 4.19638 271.982 
-3.10592e-06 -1.19458e-06 2.69124e+25 -5.70638 3.36222 271.78 
-1.19458e-06 -1.19458e-06 2.68939e+25 -7.05968 2.39443 271.999 
-1.64852e-05 -7.1675e-07 2.68473e+25 -0.0896983 1.24107 272.703 
-1.45739e-05 -7.1675e-07 2.68792e+25 -0.27405 3.63812 272.24 
-1.26626e-05 -7.1675e-07 2.69303e+25 -0.934824 4.37519 271.935 
-1.07512e-05 -7.1675e-07 2.6938e+25 -1.91077 5.28651 271.582 
-8.83992e-06 -7.1675e-07 2.69254e+25 -2.89085 5.38336 271.831 
-6.92858e-06 -7.1675e-07 2.69145e+25 -4.00996 5.4316 271.767 
-5.01725e-06 -7.1675e-07 2.68869e+25 -5.1958 4.35391 272.009 
-3.10592e-06 -7.1675e-07 2.69182e+25 -6.05305 3.40943 271.79 
-1.19458e-06 -7.1675e-07 2.68827e+25 -7.13138 2.65065 271.983 
-1.64852e-05 -2.38917e-07 2.68111e+25 0.0171988 1.2641 272.755 
-1.45739e-05 -2.38917e-07 2.6897e+25 -0.119371 3.61296 272.087 
-1.26626e-05 -2.38917e-07 2.68913e+25 -0.833443 4.61347 272.055 
-1.07512e-05 -2.38917e-07 2.69274e+25 -1.83862 5.61276 271.631 
-8.83992e-06 -2.38917e-07 2.69034e+25 -2.97142 5.724 271.751 
-6.92858e-06 -2.38917e-07 2.69038e+25 -3.88882 5.73535 271.722 
-5.01725e-06 -2.38917e-07 2.69103e+25 -4.99116 4.66306 271.738 
-3.10592e-06 -2.38917e-07 2.68853e+25 -6.33476 3.69788 271.929 
-1.19458e-06 -2.38917e-07 2.68838e+25 -6.97861 2.9254 272.038 
-1.60074e-05 -1.69631e-05 2.68518e+25 0.0191536 -0.0323827 272.857 
-1.40961e-05 -1.69631e-05 2.68303e+25 0.00348939 0.0392993 272.785 
-1.21847e-05 -1.69631e-05 2.68201e+25 -0.11993 -0.0092001 272.828 
-1.02734e-05 -1.69631e-05 2.68302e+25 -0.127006 -0.01686 272.792 
-8.36208e-06 -1.69631e-05 2.68538e+25 -0.0350173 -0.00965961 272.715 
-6.45075e-06 -1.69631e-05 2.68789e+25 0.0172119 0.0487273 272.631 
-4.53942e-06 -1.69631e-05 2.68409e+25 -0.200532 -0.0664803 272.95 
-2.62808e-06 -1.69631e-05 2.68093e+25 -0.15665 0.0187585 272.977 
-7.1675e-07 -1.69631e-05 2.68592e+25 -0.217344 -0.037541 272.769 
-1.60074e-05 -1.64852e-05 2.68892e+25 -0.172252 -0.0262552 272.329 
-1.40961e-05 -1.64852e-05 2.68536e+25 -0.05077 0.0578903 272.626 
-1.21847e-05 -1.64852e-05 2.68478e+25 -0.32423 -0.000914375 272.651 
-1.02734e-05 -1.64852e-05 2.68623e+25 -0.078406 0.0406104 272.712 
-8.36208e-06 -1.64852e-05 2.68896e+25 -0.0704184 -0.0225034 272.303 
-6.45075e-06 -1.64852e-05 2.68962e+25 -0.186742 0.209777 272.251 
-4.53942e-06 -1.64852e-05 2.6862e+25 -0.319474 -0.179524 272.538 
-2.62808e-06 -1.64852e-05 2.68431e+25 -0.277781 0.123572 272.586 
-7.1675e-07 -1.64852e-05 2.68715e+25 -0.40653 -0.0740758 272.505 
-1.60074e-05 -1.60074e-05 2.6936e+25 0.0953663 0.020432 272.136 
-1.40961e-05 -1.60074e-05 2.68905e+25 -0.102123 0.0285364 272.4 
-1.21847e-05 -1.60074e-05 2.68671e+25 -0.146953 0.114366 272.487 
-1.02734e-05 -1.60074e-05 2.68625e+25 -0.0337563 0.138492 272.596 
-8.36208e-06 -1.60074e-05 2.68985e+25 0.00280121 -0.121303 272.299 
-6.45075e-06 -1.60074e-05 2.69205e+25 -0.294484 0.282614 272.004 
-4.53942e-06 -1.60074e-05 2.6889e+25 -0.501777 -0.289117 272.274 
-2.62808e-06 -1.60074e-05 2.68558e+25 -0.454029 0.1983 272.537 
-7.1675e-07 -1.60074e-05 2.68777e+25 -0.710651 -0.041573 272.523 
-1.60074e-05 -1.55296e-05 2.69116e+25 0.0594362 -0.174158 272.168 
-1.40961e-05 -1.55296e-05 2.69088e+25 -0.142691 -0.0315182 272.135 
-1.21847e-05 -1.55296e-05 2.6863e+25 -0.191536 0.121326 272.579 
-1.02734e-05 -1.55296e-05 2.68626e+25 0.0105024 0.156854 272.497 
-8.36208e-06 -1.55296e-05 2.69099e+25 -0.271281 -0.137804 272.149 
-6.45075e-06 -1.55296e-05 2.69262e+25 -0.444457 0.455166 271.94 
-4.53942e-06 -1.55296e-05 2.69057e+25 -0.693853 -0.30589 272.284 
-2.62808e-06 -1.55296e-05 2.68762e+25 -0.664992 0.36489 272.333 
-7.1675e-07 -1.55296e-05 2.68744e+25 -1.15851 0.0834158 272.451 
-1.60074e-05 -1.50517e-05 2.69283e+25 -0.0894316 -0.108316 272.09 
-1.40961e-05 -1.50517e-05 2.6896e+25 0.050976 0.0142646 272.354 
-1.21847e-05 -1.50517e-05 2.68641e+25 -0.142657 0.182631 272.49 
-1.02734e-05 -1.50517e-05 2.68927e+25 -0.0289061 0.181915 272.262 
-8.36208e-06 -1.50517e-05 2.69058e+25 -0.502304 -0.0403524 272.018 
-6.45075e-06 -1.50517e-05 2.69083e+25 -0.561357 0.521735 272.1 
-4.53942e-06 -1.50517e-05 2.68968e+25 -0.697499 -0.195423 272.326 
-2.62808e-06 -1.50517e-05 2.68769e+25 -0.951075 0.341751 272.436 
-7.1675e-07 -1.50517e-05 2.68829e+25 -1.44181 0.201619 272.349 
-1.60074e-05 -1.45739e-05 2.69227e+25 0.0446853 -0.242516 271.994 
-1.40961e-05 -1.45739e-05 2.69001e+25 0.144482 0.0876932 272.163 
-1.21847e-05 -1.45739e-05 2.6856e+25 -0.0393 0.357635 272.784 
-1.02734e-05 -1.45739e-05 2.6918e+25 -0.261563 0.0634223 272.026 
-8.36208e-06 -1.45739e-05 2.69179e+25 -0.771886 0.0727272 271.974 
-6.45075e-06 -1.45739e-05 2.68916e+25 -0.419938 0.415497 272.082 
-4.53942e-06 -1.45739e-05 2.68669e+25 -0.926184 -0.115483 272.454 
-2.62808e-06 -1.45739e-05 2.6883e+25 -1.16898 0.375503 272.397 
-7.1675e-07 -1.45739e-05 2.68588e+25 -1.50219 0.222045 272.531 
-1.60074e-05 -1.40961e-05 2.692e+25 -0.0420687 -0.121341 272.168 
-1.40961e-05 -1.40961e-05 2.69145e+25 0.0872588 0.0738259 272.066 
-1.21847e-05 -1.40961e-05 2.68959e+25 -0.264035 0.482094 272.409 
-1.02734e-05 -1.40961e-05 2.69215e+25 -0.512769 -0.0629065 271.903 
-8.36208e-06 -1.40961e-05 2.68951e+25 -0.815887 0.215095 272.06 
-6.45075e-06 -1.40961e-05 2.69161e+25 -0.947081 0.168152 272.112 
-4.53942e-06 -1.40961e-05 2.68823e+25 -1.31245 0.123763 272.268 
-2.62808e-06 -1.40961e-05 2.68439e+25 -1.44873 0.421215 272.611 
-7.1675e-07 -1.40961e-05 2.69056e+25 -1.50653 0.248809 272.093 
-1.60074e-05 -1.36182e-05 2.68979e+25 0.124043 0.0373651 272.197 
-1.40961e-05 -1.36182e-05 2.69117e+25 -0.247413 0.140315 271.994 
-1.21847e-05 -1.36182e-05 2.6943e+25 -0.494293 0.480421 271.983 
-1.02734e-05 -1.36182e-05 2.69257e+25 -0.938863 -0.000830871 271.992 
-8.36208e-06 -1.36182e-05 2.69308e+25 -1.16647 0.437542 271.781 
-6.45075e-06 -1.36182e-05 2.68964e+25 -1.54745 0.0272849 272.21 
-4.53942e-06 -1.36182e-05 2.68997e+25 -1.63904 0.329907 272.267 
-2.62808e-06 -1.36182e-05 2.68707e+25 -1.85205 0.433569 272.492 
-7.1675e-07 -1.36182e-05 2.68666e+25 -1.68823 0.317973 272.313 
-1.60074e-05 -1.31404e-05 2.68971e+25 0.230704 0.122958 272.157 
-1.40961e-05 -1.31404e-05 2.69345e+25 -0.279187 -0.00142098 271.793 
-1.21847e-05 -1.31404e-05 2.69209e+25 -0.203391 0.48454 271.962 
-1.02734e-05 -1.31404e-05 2.69504e+25 -0.908501 0.406454 271.726 
-8.36208e-06 -1.31404e-05 2.69422e+25 -1.6206 0.61346 271.799 
-6.45075e-06 -1.31404e-05 2.69131e+25 -1.90576 0.0489516 271.998 
-4.53942e-06 -1.31404e-05 2.69297e+25 -1.76545 0.525694 272.006 
-2.62808e-06 -1.31404e-05 2.69079e+25 -2.13181 0.276036 272.339 
-7.1675e-07 -1.31404e-05 2.68767e+25 -2.02948 0.28775 272.515 
-1.60074e-05 -1.26626e-05 2.69503e+25 0.0105864 0.133464 271.698 
-1.40961e-05 -1.26626e-05 2.69338e+25 -0.246954 0.0383918 271.887 
-1.21847e-05 -1.26626e-05 2.69251e+25 -0.546749 0.38331 272.03 
-1.02734e-05 -1.26626e-05 2.69375e+25 -1.31553 0.665869 271.83 
-8.36208e-06 -1.26626e-05 2.69177e+25 -1.70293 0.705286 271.952 
-6.45075e-06 -1.26626e-05 2.69252e+25 -2.30592 0.176154 271.891 
-4.53942e-06 -1.26626e-05 2.69035e+25 -2.13598 0.658089 272.021 
-2.62808e-06 -1.26626e-05 2.69008e+25 -2.38016 0.224364 272.168 
-7.1675e-07 -1.26626e-05 2.68985e+25 -2.08576 0.238529 272.205 
-1.60074e-05 -1.21847e-05 2.69155e+25 -0.156974 0.141605 271.987 
-1.40961e-05 -1.21847e-05 2.69283e+25 -0.558706 0.211184 271.929 
-1.21847e-05 -1.21847e-05 2.69192e+25 -0.690612 0.407628 271.952 
-1.02734e-05 -1.21847e-05 2.69354e+25 -1.3871 0.913204 271.833 
-8.36208e-06 -1.21847e-05 2.69146e+25 -1.96738 0.746297 271.901 
-6.45075e-06 -1.21847e-05 2.69244e+25 -2.35694 0.308696 271.996 
-4.53942e-06 -1.21847e-05 2.68958e+25 -2.44147 0.664902 272.247 
-2.62808e-06 -1.21847e-05 2.69224e+25 -2.63863 0.2916 271.978 
-7.1675e-07 -1.21847e-05 2.69102e+25 -2.35052 0.129814 271.965 
-1.60074e-05 -1.17069e-05 2.69293e+25 -0.157484 0.107334 271.913 
-1.40961e-05 -1.17069e-05 2.69208e+25 -0.611405 0.295088 271.936 
-1.21847e-05 -1.17069e-05 2.69027e+25 -0.994013 0.499547 272.183 
-1.02734e-05 -1.17069e-05 2.69206e+25 -1.49457 1.01039 271.905 
-8.36208e-06 -1.17069e-05 2.69292e+25 -1.98412 0.708509 271.859 
-6.45075e-06 -1.17069e-05 2.69246e+25 -2.25207 0.479297 272.06 
-4.53942e-06 -1.17069e-05 2.69138e+25 -2.69513 0.649912 272.04 
-2.62808e-06 -1.17069e-05 2.69227e+25 -2.7051 0.231092 272.026 
-7.1675e-07 -1.17069e-05 2.69262e+25 -2.47961 0.234504 271.948 
-1.60074e-05 -1.12291e-05 2.68968e+25 -0.130006 0.276965 272.199 
-1.40961e-05 -1.12291e-05 2.69223e+25 -0.589019 0.452786 271.863 
-1.21847e-05 -1.12291e-05 2.68798e+25 -0.923165 0.716531 272.289 
-1.02734e-05 -1.12291e-05 2.6925e+25 -1.27428 1.07719 272.018 
-8.36208e-06 -1.12291e-05 2.69022e+25 -2.02524 0.873241 271.992 
-6.45075e-06 -1.12291e-05 2.69347e+25 -2.22355 0.605263 271.833 
-4.53942e-06 -1.12291e-05 2.69405e+25 -3.02523 0.596065 271.728 
-2.62808e-06 -1.12291e-05 2.68967e+25 -3.12142 0.17719 272.231 
-7.1675e-07 -1.12291e-05 2.69416e+25 -3.09025 0.269416 271.913 
-1.60074e-05 -1.07512e-05 2.6921e+25 -0.0296642 0.421728 272.188 
-1.40961e-05 -1.07512e-05 2.69161e+25 -0.482334 0.617405 271.956 
-1.21847e-05 -1.07512e-05 2.69174e+25 -0.935035 0.894641 272.096 
-1.02734e-05 -1.07512e-05 2.69336e+25 -1.78713 1.22177 271.882 
-8.36208e-06 -1.07512e-05 2.6897e+25 -2.0367 1.05161 272.067 
-6.45075e-06 -1.07512e-05 2.69228e+25 -2.35246 0.702229 272.016 
-4.53942e-06 -1.07512e-05 2.69439e+25 -3.0281 0.616881 271.679 
-2.62808e-06 -1.07512e-05 2.68873e+25 -3.42609 0.224233 272.281 
-7.1675e-07 -1.07512e-05 2.69127e+25 -3.76051 0.214104 271.857 
-1.60074e-05 -1.02734e-05 2.69087e+25 -0.26154 0.491897 272.141 
-1.40961e-05 -1.02734e-05 2.69292e+25 -0.511669 0.830463 271.873 
-1.21847e-05 -1.02734e-05 2.69435e+25 -1.10193 0.923146 271.86 
-1.02734e-05 -1.02734e-05 2.69324e+25 -1.77525 1.33981 271.94 
-8.36208e-06 -1.02734e-05 2.69414e+25 -2.17448 1.11723 271.909 
-6.45075e-06 -1.02734e-05 2.69231e+25 -2.75351 0.914755 271.827 
-4.53942e-06 -1.02734e-05 2.69645e+25 -3.04975 0.604071 271.482 
-2.62808e-06 -1.02734e-05 2.68795e+25 -3.75181 0.423808 272.38 
-7.1675e-07 -1.02734e-05 2.69068e+25 -4.30477 0.327734 272.13 
-1.60074e-05 -9.79558e-06 2.68973e+25 0.0190726 0.627226 272.158 
-1.40961e-05 -9.79558e-06 2.69495e+25 -0.325809 0.890079 271.764 
-1.21847e-05 -9.79558e-06 2.69351e+25 -1.10079 1.22072 271.625 
-1.02734e-05 -9.79558e-06 2.69223e+25 -1.58332 1.48089 272.133 
-8.36208e-06 -9.79558e-06 2.69201e+25 -2.19991 1.18532 271.774 
-6.45075e-06 -9.79558e-06 2.69344e+25 -3.14306 1.16924 271.641 
-4.53942e-06 -9.79558e-06 2.6967e+25 -3.38866 0.650366 271.39 
-2.62808e-06 -9.79558e-06 2.68803e+25 -3.97625 0.73124 272.262 
-7.1675e-07 -9.79558e-06 2.6899e+25 -4.50738 0.312078 271.989 
-1.60074e-05 -9.31775e-06 2.68642e+25 -0.0735444 0.69607 272.458 
-1.40961e-05 -9.31775e-06 2.69546e+25 -0.288299 1.03876 271.519 
-1.21847e-05 -9.31775e-06 2.69789e+25 -0.843025 1.47601 271.48 
-1.02734e-05 -9.31775e-06 2.69254e+25 -1.65918 1.65768 271.953 
-8.36208e-06 -9.31775e-06 2.69539e+25 -2.23453 1.2473 271.78 
-6.45075e-06 -9.31775e-06 2.69494e+25 -3.04408 1.29295 271.61 
-4.53942e-06 -9.31775e-06 2.69614e+25 -3.58639 0.71192 271.392 
-2.62808e-06 -9.31775e-06 2.69034e+25 -4.19566 0.945324 272.162 
-7.1675e-07 -9.31775e-06 2.6931e+25 -4.36522 0.156371 271.979 
-1.60074e-05 -8.83992e-06 2.68688e+25 -0.170655 0.625152 272.451 
-1.40961e-05 -8.83992e-06 2.69554e+25 -0.193146 1.26661 271.625 
-1.21847e-05 -8.83992e-06 2.69647e+25 -0.677675 1.6272 271.436 
-1.02734e-05 -8.83992e-06 2.69291e+25 -1.6849 1.81065 271.942 
-8.36208e-06 -8.83992e-06 2.69404e+25 -2.20334 1.55693 271.776 
-6.45075e-06 -8.83992e-06 2.69493e+25 -3.42938 1.41436 271.741 
-4.53942e-06 -8.83992e-06 2.69722e+25 -3.64699 0.843704 271.501 
-2.62808e-06 -8.83992e-06 2.69083e+25 -4.41672 1.1062 272.207 
-7.1675e-07 -8.83992e-06 2.69211e+25 -4.46529 0.0319786 272.203 
-1.60074e-05 -8.36208e-06 2.6894e+25 -0.174333 0.628854 272.292 
-1.40961e-05 -8.36208e-06 2.69287e+25 -0.412456 1.42113 271.988 
-1.21847e-05 -8.36208e-06 2.6958e+25 -1.0005 1.79546 271.548 
-1.02734e-05 -8.36208e-06 2.69197e+25 -1.58148 1.89379 271.916 
-8.36208e-06 -8.36208e-06 2.695e+25 -2.21362 1.8405 271.671 
-6.45075e-06 -8.36208e-06 2.69522e+25 -3.46952 1.58138 271.67 
-4.53942e-06 -8.36208e-06 2.69671e+25 -3.89309 0.984482 271.511 
-2.62808e-06 -8.36208e-06 2.69066e+25 -4.50993 1.22784 272.18 
-7.1675e-07 -8.36208e-06 2.69153e+25 -4.61904 0.0637384 272.113 
-1.60074e-05 -7.88425e-06 2.68979e+25 -0.0765772 0.475836 272.173 
-1.40961e-05 -7.88425e-06 2.69157e+25 -0.463213 1.67722 271.974 
-1.21847e-05 -7.88425e-06 2.69263e+25 -1.26711 1.77844 271.587 
-1.02734e-05 -7.88425e-06 2.6916e+25 -1.47769 2.04169 272.015 
-8.36208e-06 -7.88425e-06 2.69502e+25 -2.23584 2.08519 271.677 
-6.45075e-06 -7.88425e-06 2.69479e+25 -3.55832 1.85284 271.67 
-4.53942e-06 -7.88425e-06 2.69294e+25 -4.0169 1.04555 271.795 
-2.62808e-06 -7.88425e-06 2.69266e+25 -4.38841 1.29308 272.02 
-7.1675e-07 -7.88425e-06 2.69147e+25 -4.82545 0.144776 272.007 
-1.60074e-05 -7.40642e-06 2.69218e+25 0.14277 0.464006 271.863 
-1.40961e-05 -7.40642e-06 2.69111e+25 -0.830695 1.84853 271.998 
-1.21847e-05 -7.40642e-06 2.69327e+25 -1.20841 1.79768 271.739 
-1.02734e-05 -7.40642e-06 2.69008e+25 -1.62376 2.08369 271.982 
-8.36208e-06 -7.40642e-06 2.69751e+25 -2.41535 2.24947 271.366 
-6.45075e-06 -7.40642e-06 2.69552e+25 -3.43979 2.09318 271.533 
-4.53942e-06 -7.40642e-06 2.69097e+25 -3.96959 1.20952 271.864 
-2.62808e-06 -7.40642e-06 2.69219e+25 -4.51501 1.26721 271.983 
-7.1675e-07 -7.40642e-06 2.69027e+25 -5.10374 0.28235 271.99 
-1.60074e-05 -6.92858e-06 2.69495e+25 0.01163 0.520779 271.831 
-1.40961e-05 -6.92858e-06 2.69268e+25 -0.610242 2.09961 271.895 
-1.21847e-05 -6.92858e-06 2.69275e+25 -1.04137 2.0484 271.763 
-1.02734e-05 -6.92858e-06 2.69252e+25 -1.85225 2.22855 271.874 
-8.36208e-06 -6.92858e-06 2.69624e+25 -2.44153 2.60513 271.458 
-6.45075e-06 -6.92858e-06 2.69277e+25 -3.45994 2.15917 271.819 
-4.53942e-06 -6.92858e-06 2.69483e+25 -4.12553 1.42157 271.509 
-2.62808e-06 -6.92858e-06 2.69019e+25 -4.69795 1.32404 272.029 
-7.1675e-07 -6.92858e-06 2.68716e+25 -5.25513 0.483664 272.249 
-1.60074e-05 -6.45075e-06 2.69536e+25 -0.146479 0.610929 271.752 
-1.40961e-05 -6.45075e-06 2.69145e+25 -0.292099 2.22864 271.948 
-1.21847e-05 -6.45075e-06 2.69414e+25 -1.12265 2.24569 271.728 
-1.02734e-05 -6.45075e-06 2.6925e+25 -1.97064 2.44075 271.789 
-8.36208e-06 -6.45075e-06 2.6975e+25 -2.83935 2.71464 271.416 
-6.45075e-06 -6.45075e-06 2.69413e+25 -3.47059 2.2514 271.719 
-4.53942e-06 -6.45075e-06 2.69552e+25 -4.29754 1.72746 271.558 
-2.62808e-06 -6.45075e-06 2.69003e+25 -4.95332 1.4875 271.997 
-7.1675e-07 -6.45075e-06 2.6905e+25 -5.30686 0.548892 272.145 
-1.60074e-05 -5.97292e-06 2.69376e+25 -0.163229 0.668328 271.936 
-1.40961e-05 -5.97292e-06 2.69103e+25 -0.496833 2.29971 271.983 
-1.21847e-05 -5.97292e-06 2.69293e+25 -1.31623 2.41676 271.874 
-1.02734e-05 -5.97292e-06 2.69402e+25 -2.26912 2.82897 271.728 
-8.36208e-06 -5.97292e-06 2.69595e+25 -3.09345 2.81602 271.391 
-6.45075e-06 -5.97292e-06 2.69528e+25 -3.82787 2.51664 271.588 
-4.53942e-06 -5.97292e-06 2.69287e+25 -4.46084 1.85579 271.805 
-2.62808e-06 -5.97292e-06 2.68982e+25 -5.25571 1.69469 271.965 
-7.1675e-07 -5.97292e-06 2.68977e+25 -5.50619 0.526313 272.085 
-1.60074e-05 -5.49508e-06 2.68892e+25 -0.234772 0.80485 272.213 
-1.40961e-05 -5.49508e-06 2.6927e+25 -0.682641 2.25872 271.943 
-1.21847e-05 -5.49508e-06 2.69349e+25 -1.56018 2.69951 271.979 
-1.02734e-05 -5.49508e-06 2.69604e+25 -2.47007 2.9023 271.533 
-8.36208e-06 -5.49508e-06 2.69985e+25 -3.31691 3.11154 271.158 
-6.45075e-06 -5.49508e-06 2.69501e+25 -4.0794 2.7729 271.576 
-4.53942e-06 -5.49508e-06 2.69666e+25 -4.71886 1.97307 271.513 
-2.62808e-06 -5.49508e-06 2.69188e+25 -5.49733 1.84621 271.929 
-7.1675e-07 -5.49508e-06 2.69043e+25 -5.82287 0.531368 272.211 
-1.60074e-05 -5.01725e-06 2.69014e+25 -0.177555 1.02934 272.098 
-1.40961e-05 -5.01725e-06 2.69493e+25 -0.602306 2.19709 271.856 
-1.21847e-05 -5.01725e-06 2.69117e+25 -1.46477 3.03339 271.98 
-1.02734e-05 -5.01725e-06 2.69813e+25 -2.68065 3.09196 271.48 
-8.36208e-06 -5.01725e-06 2.69631e+25 -3.55741 3.33704 271.469 
-6.45075e-06 -5.01725e-06 2.69467e+25 -4.18431 2.95677 271.662 
-4.53942e-06 -5.01725e-06 2.69527e+25 -5.15566 2.22378 271.695 
-2.62808e-06 -5.01725e-06 2.69116e+25 -5.69738 1.84009 271.981 
-7.1675e-07 -5.01725e-06 2.69193e+25 -6.22048 0.766887 272.001 
-1.60074e-05 -4.53942e-06 2.69287e+25 -0.157247 1.26777 271.98 
-1.40961e-05 -4.53942e-06 2.69183e+25 -0.632082 2.3445 272.036 
-1.21847e-05 -4.53942e-06 2.69144e+25 -1.30952 3.27975 271.941 
-1.02734e-05 -4.53942e-06 2.69561e+25 -2.75084 3.43084 271.523 
-8.36208e-06 -4.53942e-06 2.69492e+25 -3.56342 3.55898 271.689 
-6.45075e-06 -4.53942e-06 2.69234e+25 -4.15305 3.09204 271.936 
-4.53942e-06 -4.53942e-06 2.69548e+25 -5.38897 2.51443 271.622 
-2.62808e-06 -4.53942e-06 2.69049e+25 -5.83299 1.81046 271.975 
-7.1675e-07 -4.53942e-06 2.68974e+25 -6.28352 0.975422 272.064 
-1.60074e-05 -4.06158e-06 2.6885e+25 -0.311387 1.41916 272.267 
-1.40961e-05 -4.06158e-06 2.69145e+25 -0.814639 2.49814 272.047 
-1.21847e-05 -4.06158e-06 2.69134e+25 -1.66861 3.47953 271.982 
-1.02734e-05 -4.06158e-06 2.69535e+25 -2.71352 3.78104 271.607 
-8.36208e-06 -4.06158e-06 2.69606e+25 -3.58098 3.6298 271.591 
-6.45075e-06 -4.06158e-06 2.6896e+25 -3.92012 3.27624 272.071 
-4.53942e-06 -4.06158e-06 2.69283e+25 -5.11028 2.79766 271.812 
-2.62808e-06 -4.06158e-06 2.69304e+25 -5.75407 1.97011 271.901 
-7.1675e-07 -4.06158e-06 2.68984e+25 -6.34468 1.05754 272.162 
-1.60074e-05 -3.58375e-06 2.68995e+25 -0.294604 1.48865 272.163 
-1.40961e-05 -3.58375e-06 2.69234e+25 -0.888567 2.56444 271.874 
-1.21847e-05 -3.58375e-06 2.69034e+25 -1.62632 3.66414 271.937 
-1.02734e-05 -3.58375e-06 2.69244e+25 -2.42754 3.9795 271.83 
-8.36208e-06 -3.58375e-06 2.69688e+25 -3.45681 3.70194 271.439 
-6.45075e-06 -3.58375e-06 2.69098e+25 -4.17354 3.54399 271.985 
-4.53942e-06 -3.58375e-06 2.69292e+25 -5.15842 3.01119 271.892 
-2.62808e-06 -3.58375e-06 2.69399e+25 -5.85472 2.22413 271.805 
-7.1675e-07 -3.58375e-06 2.69015e+25 -6.45721 1.14307 272.03 
-1.60074e-05 -3.10592e-06 2.68977e+25 -0.207303 1.53819 272.203 
-1.40961e-05 -3.10592e-06 2.69199e+25 -1.17953 2.75916 271.936 
-1.21847e-05 -3.10592e-06 2.6921e+25 -1.8332 3.89326 271.879 
-1.02734e-05 -3.10592e-06 2.69219e+25 -2.04644 4.2285 271.803 
-8.36208e-06 -3.10592e-06 2.69635e+25 -3.34695 3.92645 271.489 
-6.45075e-06 -3.10592e-06 2.69125e+25 -4.35864 3.8898 271.984 
-4.53942e-06 -3.10592e-06 2.68924e+25 -5.29441 3.20749 272.18 
-2.62808e-06 -3.10592e-06 2.69214e+25 -6.071 2.36797 271.871 
-7.1675e-07 -3.10592e-06 2.68941e+25 -6.46916 1.09161 272.113 
-1.60074e-05 -2.62808e-06 2.68884e+25 -0.315352 1.73893 272.315 
-1.40961e-05 -2.62808e-06 2.69215e+25 -1.18752 2.98318 271.964 
-1.21847e-05 -2.62808e-06 2.69205e+25 -1.71277 3.94741 271.84 
-1.02734e-05 -2.62808e-06 2.69241e+25 -2.12611 4.39882 271.956 
-8.36208e-06 -2.62808e-06 2.69281e+25 -3.15721 4.11753 271.806 
-6.45075e-06 -2.62808e-06 2.6899e+25 -4.29429 4.20646 272.154 
-4.53942e-06 -2.62808e-06 2.69018e+25 -5.2482 3.4426 272.245 
-2.62808e-06 -2.62808e-06 2.69292e+25 -6.21479 2.62929 271.893 
-7.1675e-07 -2.62808e-06 2.69154e+25 -6.68405 1.25107 271.999 
-1.60074e-05 -2.15025e-06 2.68478e+25 -0.110512 2.01075 272.609 
-1.40961e-05 -2.15025e-06 2.68964e+25 -0.857163 3.29353 272.111 
-1.21847e-05 -2.15025e-06 2.6925e+25 -1.45334 4.15163 271.857 
-1.02734e-05 -2.15025e-06 2.69376e+25 -2.15786 4.57184 271.783 
-8.36208e-06 -2.15025e-06 2.69338e+25 -3.19129 4.4945 271.749 
-6.45075e-06 -2.15025e-06 2.68835e+25 -4.4631 4.50002 272.346 
-4.53942e-06 -2.15025e-06 2.68859e+25 -5.30139 3.63307 272.254 
-2.62808e-06 -2.15025e-06 2.69279e+25 -6.00025 2.83998 271.772 
-7.1675e-07 -2.15025e-06 2.69205e+25 -6.89198 1.56514 271.939 
-1.60074e-05 -1.67242e-06 2.68691e+25 0.141974 2.17469 272.371 
-1.40961e-05 -1.67242e-06 2.69237e+25 -0.383623 3.43554 271.927 
-1.21847e-05 -1.67242e-06 2.69178e+25 -1.22004 4.43901 271.851 
-1.02734e-05 -1.67242e-06 2.69266e+25 -2.25884 4.89285 271.883 
-8.36208e-06 -1.67242e-06 2.69329e+25 -3.27874 4.95049 271.82 
-6.45075e-06 -1.67242e-06 2.68582e+25 -4.38941 4.71639 272.294 
-4.53942e-06 -1.67242e-06 2.68953e+25 -5.31083 3.87174 272.052 
-2.62808e-06 -1.67242e-06 2.69252e+25 -5.97499 2.97787 271.693 
-7.1675e-07 -1.67242e-06 2.6901e+25 -7.13807 1.7296 271.922 
-1.60074e-05 -1.19458e-06 2.6859e+25 0.0191324 2.1359 272.446 
-1.40961e-05 -1.19458e-06 2.68971e+25 -0.337176 3.61081 272.065 
-1.21847e-05 -1.19458e-06 2.69284e+25 -0.867012 4.60935 271.789 
-1.02734e-05 -1.19458e-06 2.6935e+25 -2.23666 5.2173 271.622 
-8.36208e-06 -1.19458e-06 2.69574e+25 -3.16947 5.12455 271.662 
-6.45075e-06 -1.19458e-06 2.68989e+25 -4.32704 4.94609 272.06 
-4.53942e-06 -1.19458e-06 2.69102e+25 -5.32367 3.98869 271.947 
-2.62808e-06 -1.19458e-06 2.69456e+25 -5.7178 3.17864 271.609 
-7.1675e-07 -1.19458e-06 2.691e+25 -7.37898 1.98686 271.945 
-1.60074e-05 -7.1675e-07 2.68671e+25 -0.0767862 2.03348 272.481 
-1.40961e-05 -7.1675e-07 2.68808e+25 -0.308599 3.74989 272.171 
-1.21847e-05 -7.1675e-07 2.69169e+25 -1.09102 4.78001 271.992 
-1.02734e-05 -7.1675e-07 2.69609e+25 -2.12098 5.41542 271.634 
-8.36208e-06 -7.1675e-07 2.69057e+25 -3.14876 5.39714 271.761 
-6.45075e-06 -7.1675e-07 2.6902e+25 -4.25209 5.24151 271.979 
-4.53942e-06 -7.1675e-07 2.69002e+25 -5.42354 4.18683 271.894 
-2.62808e-06 -7.1675e-07 2.69641e+25 -6.23696 3.36751 271.477 
-7.1675e-07 -7.1675e-07 2.69146e+25 -7.27555 2.29286 271.838 
-1.60074e-05 -2.38917e-07 2.6817e+25 -0.0605918 2.14572 272.55 
-1.40961e-05 -2.38917e-07 2.68786e+25 -0.267707 3.88166 272.045 
-1.21847e-05 -2.38917e-07 2.68937e+25 -1.11043 4.97512 272.029 
-1.02734e-05 -2.38917e-07 2.69168e+25 -2.05859 5.50487 271.758 
-8.36208e-06 -2.38917e-07 2.69109e+25 -3.27596 5.62551 271.765 
-6.45075e-06 -2.38917e-07 2.68701e+25 -4.08903 5.39578 271.934 
-4.53942e-06 -2.38917e-07 2.69211e+25 -5.34854 4.49429 271.842 
-2.62808e-06 -2.38917e-07 2.6896e+25 -6.60457 3.64281 271.757 
-7.1675e-07 -2.38917e-07 2.68792e+25 -7.26792 2.45721 272.064 
-1.55296e-05 -1.69631e-05 2.68444e+25 0.0266503 9.48007e-05 272.79 
-1.36182e-05 -1.69631e-05 2.6832e+25 -0.0247434 -0.00371244 272.855 
-1.17069e-05 -1.69631e-05 2.68508e+25 -0.133297 0.0569426 272.767 
-9.79558e-06 -1.69631e-05 2.68411e+25 -0.173177 -0.00455347 272.767 
-7.88425e-06 -1.69631e-05 2.68191e+25 -0.0208567 0.0252007 272.833 
-5.97292e-06 -1.69631e-05 2.68463e+25 -0.215931 0.156695 272.705 
-4.06158e-06 -1.69631e-05 2.68469e+25 -0.0954097 -0.062853 272.873 
-2.15025e-06 -1.69631e-05 2.68244e+25 -0.240994 0.0278236 272.898 
-2.38917e-07 -1.69631e-05 2.68076e+25 -0.132896 -0.0356845 272.794 
-1.55296e-05 -1.64852e-05 2.68662e+25 -0.198771 0.00724941 272.574 
-1.36182e-05 -1.64852e-05 2.68554e+25 0.0298371 -0.0488754 272.755 
-1.17069e-05 -1.64852e-05 2.686e+25 -0.315399 0.0522489 272.572 
-9.79558e-06 -1.64852e-05 2.68599e+25 -0.132977 0.0632482 272.649 
-7.88425e-06 -1.64852e-05 2.68637e+25 0.0712562 -0.127569 272.472 
-5.97292e-06 -1.64852e-05 2.68734e+25 -0.250937 0.241429 272.431 
-4.06158e-06 -1.64852e-05 2.68821e+25 -0.212473 -0.208277 272.48 
-2.15025e-06 -1.64852e-05 2.68393e+25 -0.292256 0.0481796 272.785 
-2.38917e-07 -1.64852e-05 2.68276e+25 -0.449268 0.0126321 272.534 
-1.55296e-05 -1.60074e-05 2.6882e+25 0.0392293 0.113832 272.367 
-1.36182e-05 -1.60074e-05 2.68741e+25 -0.0700321 -0.0663991 272.471 
-1.17069e-05 -1.60074e-05 2.68722e+25 -0.13573 -0.0354251 272.475 
-9.79558e-06 -1.60074e-05 2.68731e+25 -0.113736 0.102387 272.6 
-7.88425e-06 -1.60074e-05 2.68994e+25 -0.0801174 -0.0840658 272.214 
-5.97292e-06 -1.60074e-05 2.68975e+25 -0.376863 0.398011 272.157 
-4.06158e-06 -1.60074e-05 2.6873e+25 -0.339709 -0.298212 272.447 
-2.15025e-06 -1.60074e-05 2.68495e+25 -0.538139 0.172882 272.631 
-2.38917e-07 -1.60074e-05 2.68416e+25 -0.812759 0.117442 272.521 
-1.55296e-05 -1.55296e-05 2.69059e+25 0.117481 0.162282 272.108 
-1.36182e-05 -1.55296e-05 2.68744e+25 -0.114747 0.0185166 272.286 
-1.17069e-05 -1.55296e-05 2.68688e+25 -0.124083 -0.225363 272.51 
-9.79558e-06 -1.55296e-05 2.68776e+25 -0.0920009 0.0884769 272.468 
-7.88425e-06 -1.55296e-05 2.69083e+25 -0.298528 0.0400558 272.137 
-5.97292e-06 -1.55296e-05 2.69122e+25 -0.609556 0.49257 272.039 
-4.06158e-06 -1.55296e-05 2.69022e+25 -0.760202 -0.333404 272.202 
-2.15025e-06 -1.55296e-05 2.68667e+25 -0.72868 0.147273 272.413 
-2.38917e-07 -1.55296e-05 2.68487e+25 -1.21852 0.101599 272.365 
-1.55296e-05 -1.50517e-05 2.69136e+25 0.0295136 0.0765099 272.091 
-1.36182e-05 -1.50517e-05 2.68942e+25 0.00468509 -0.0478434 272.238 
-1.17069e-05 -1.50517e-05 2.68816e+25 -0.341383 -0.131329 272.431 
-9.79558e-06 -1.50517e-05 2.69181e+25 0.0117472 0.197713 272.102 
-7.88425e-06 -1.50517e-05 2.6905e+25 -0.528708 -0.0354088 272.037 
-5.97292e-06 -1.50517e-05 2.68955e+25 -0.401295 0.465673 272.245 
-4.06158e-06 -1.50517e-05 2.69183e+25 -0.754363 -0.346015 272.056 
-2.15025e-06 -1.50517e-05 2.68765e+25 -1.04189 0.26727 272.447 
-2.38917e-07 -1.50517e-05 2.68687e+25 -1.45972 0.0948682 272.343 
-1.55296e-05 -1.45739e-05 2.68964e+25 0.151864 0.0978228 272.083 
-1.36182e-05 -1.45739e-05 2.68956e+25 0.185653 -0.0418511 272.164 
-1.17069e-05 -1.45739e-05 2.68653e+25 -0.244069 0.0670019 272.479 
-9.79558e-06 -1.45739e-05 2.69561e+25 -0.162152 0.186521 271.805 
-7.88425e-06 -1.45739e-05 2.68972e+25 -0.834366 -0.0750415 272.135 
-5.97292e-06 -1.45739e-05 2.69012e+25 -0.44295 0.436593 272.189 
-4.06158e-06 -1.45739e-05 2.68881e+25 -1.10126 -0.180427 272.384 
-2.15025e-06 -1.45739e-05 2.6862e+25 -1.31027 0.520247 272.6 
-2.38917e-07 -1.45739e-05 2.68492e+25 -1.57013 0.0664924 272.467 
-1.55296e-05 -1.40961e-05 2.69161e+25 -0.172623 -0.045802 272.077 
-1.36182e-05 -1.40961e-05 2.69128e+25 -0.107251 0.0883517 271.95 
-1.17069e-05 -1.40961e-05 2.68908e+25 -0.34293 0.160303 272.359 
-9.79558e-06 -1.40961e-05 2.69281e+25 -0.520138 0.248063 271.757 
-7.88425e-06 -1.40961e-05 2.68992e+25 -1.03452 0.0423382 271.992 
-5.97292e-06 -1.40961e-05 2.6874e+25 -0.868256 0.597013 272.328 
-4.06158e-06 -1.40961e-05 2.68814e+25 -1.51 -0.0331736 272.347 
-2.15025e-06 -1.40961e-05 2.68627e+25 -1.43687 0.607634 272.424 
-2.38917e-07 -1.40961e-05 2.68677e+25 -1.52304 0.124381 272.184 
-1.55296e-05 -1.36182e-05 2.69289e+25 -0.0659704 0.00312301 271.869 
-1.36182e-05 -1.36182e-05 2.69429e+25 -0.171858 0.230815 271.887 
-1.17069e-05 -1.36182e-05 2.692e+25 -0.465526 0.147546 272.022 
-9.79558e-06 -1.36182e-05 2.69362e+25 -1.07101 0.253165 271.803 
-7.88425e-06 -1.36182e-05 2.69568e+25 -1.42051 0.313313 271.829 
-5.97292e-06 -1.36182e-05 2.68816e+25 -1.31204 0.501517 272.174 
-4.06158e-06 -1.36182e-05 2.68845e+25 -1.83778 0.098192 272.326 
-2.15025e-06 -1.36182e-05 2.68558e+25 -1.82255 0.631316 272.583 
-2.38917e-07 -1.36182e-05 2.68674e+25 -1.69179 0.182144 272.15 
-1.55296e-05 -1.31404e-05 2.691e+25 0.0759827 0.200689 272.081 
-1.36182e-05 -1.31404e-05 2.69294e+25 -0.206964 0.179507 271.943 
-1.17069e-05 -1.31404e-05 2.69299e+25 -0.29907 0.214102 271.903 
-9.79558e-06 -1.31404e-05 2.69436e+25 -1.29971 0.41446 271.738 
-7.88425e-06 -1.31404e-05 2.69595e+25 -1.72655 0.505825 271.718 
-5.97292e-06 -1.31404e-05 2.69178e+25 -2.0248 0.377648 272.021 
-4.06158e-06 -1.31404e-05 2.69062e+25 -1.96566 0.24347 272.275 
-2.15025e-06 -1.31404e-05 2.68969e+25 -2.00839 0.539756 272.331 
-2.38917e-07 -1.31404e-05 2.68537e+25 -1.89482 0.116393 272.471 
-1.55296e-05 -1.26626e-05 2.69246e+25 -0.0897424 0.451832 272.029 
-1.36182e-05 -1.26626e-05 2.6919e+25 -0.443785 0.288391 271.887 
-1.17069e-05 -1.26626e-05 2.69032e+25 -0.499268 0.385336 271.966 
-9.79558e-06 -1.26626e-05 2.69316e+25 -1.52915 0.725081 271.756 
-7.88425e-06 -1.26626e-05 2.69452e+25 -1.76465 0.545339 271.799 
-5.97292e-06 -1.26626e-05 2.69344e+25 -2.19626 0.218547 271.977 
-4.06158e-06 -1.26626e-05 2.68881e+25 -2.12763 0.40956 272.22 
-2.15025e-06 -1.26626e-05 2.69114e+25 -2.4453 0.520216 272.193 
-2.38917e-07 -1.26626e-05 2.6865e+25 -1.98335 -0.0624208 272.372 
-1.55296e-05 -1.21847e-05 2.69359e+25 -0.0549296 0.413238 271.845 
-1.36182e-05 -1.21847e-05 2.69369e+25 -0.655276 0.364395 271.796 
-1.17069e-05 -1.21847e-05 2.69111e+25 -0.826985 0.459677 271.969 
-9.79558e-06 -1.21847e-05 2.69334e+25 -1.58456 0.846718 271.795 
-7.88425e-06 -1.21847e-05 2.69312e+25 -1.90715 0.552546 271.775 
-5.97292e-06 -1.21847e-05 2.69045e+25 -2.48875 0.125704 271.904 
-4.06158e-06 -1.21847e-05 2.69133e+25 -2.52447 0.485681 272.14 
-2.15025e-06 -1.21847e-05 2.6952e+25 -2.52144 0.373982 271.838 
-2.38917e-07 -1.21847e-05 2.69001e+25 -2.29101 -0.0375491 272.096 
-1.55296e-05 -1.17069e-05 2.6918e+25 -0.114628 0.301654 271.942 
-1.36182e-05 -1.17069e-05 2.69148e+25 -0.688396 0.430535 271.916 
-1.17069e-05 -1.17069e-05 2.68996e+25 -1.07222 0.532473 272.087 
-9.79558e-06 -1.17069e-05 2.69503e+25 -1.63699 0.977072 271.652 
-7.88425e-06 -1.17069e-05 2.69276e+25 -2.15343 0.675902 271.87 
-5.97292e-06 -1.17069e-05 2.69206e+25 -2.47748 0.279151 272.077 
-4.06158e-06 -1.17069e-05 2.69301e+25 -2.66551 0.481992 271.904 
-2.15025e-06 -1.17069e-05 2.69155e+25 -2.56659 0.244122 271.9 
-2.38917e-07 -1.17069e-05 2.69099e+25 -2.61336 0.0179878 271.811 
-1.55296e-05 -1.12291e-05 2.68933e+25 -0.328032 0.307088 272.029 
-1.36182e-05 -1.12291e-05 2.69286e+25 -0.75493 0.500936 272.062 
-1.17069e-05 -1.12291e-05 2.6916e+25 -1.20373 0.714471 272.001 
-9.79558e-06 -1.12291e-05 2.6939e+25 -1.46056 1.17766 271.908 
-7.88425e-06 -1.12291e-05 2.69116e+25 -2.1651 0.857284 272.031 
-5.97292e-06 -1.12291e-05 2.69408e+25 -2.33518 0.507956 271.764 
-4.06158e-06 -1.12291e-05 2.69223e+25 -3.09668 0.525342 271.91 
-2.15025e-06 -1.12291e-05 2.68869e+25 -3.06248 0.0821173 272.163 
-2.38917e-07 -1.12291e-05 2.69262e+25 -3.16777 0.179207 271.638 
-1.55296e-05 -1.07512e-05 2.69321e+25 -0.218562 0.54484 271.999 
-1.36182e-05 -1.07512e-05 2.69153e+25 -0.636409 0.599898 271.996 
-1.17069e-05 -1.07512e-05 2.68957e+25 -1.01925 0.892242 272.117 
-9.79558e-06 -1.07512e-05 2.69394e+25 -1.88253 1.39778 271.781 
-7.88425e-06 -1.07512e-05 2.69192e+25 -2.12886 0.997443 272.073 
-5.97292e-06 -1.07512e-05 2.69516e+25 -2.65655 0.863504 271.731 
-4.06158e-06 -1.07512e-05 2.69311e+25 -3.01183 0.597695 271.9 
-2.15025e-06 -1.07512e-05 2.68752e+25 -3.55352 0.0476853 272.386 
-2.38917e-07 -1.07512e-05 2.69291e+25 -3.78174 0.356573 271.775 
-1.55296e-05 -1.02734e-05 2.69441e+25 -0.169437 0.558763 271.787 
-1.36182e-05 -1.02734e-05 2.69057e+25 -0.679703 0.769782 272.036 
-1.17069e-05 -1.02734e-05 2.6933e+25 -1.24339 1.03938 271.982 
-9.79558e-06 -1.02734e-05 2.6944e+25 -1.7637 1.32635 271.776 
-7.88425e-06 -1.02734e-05 2.68929e+25 -2.11761 0.849805 272.083 
-5.97292e-06 -1.02734e-05 2.69702e+25 -2.86241 1.06224 271.453 
-4.06158e-06 -1.02734e-05 2.69367e+25 -3.11744 0.73415 271.755 
-2.15025e-06 -1.02734e-05 2.68702e+25 -4.04538 0.210602 272.352 
-2.38917e-07 -1.02734e-05 2.68707e+25 -4.28406 0.249382 272.086 
-1.55296e-05 -9.79558e-06 2.69323e+25 -0.157275 0.590909 271.817 
-1.36182e-05 -9.79558e-06 2.69096e+25 -0.406618 0.900402 272.079 
-1.17069e-05 -9.79558e-06 2.69557e+25 -1.32092 1.11426 271.57 
-9.79558e-06 -9.79558e-06 2.69122e+25 -1.8421 1.42869 272.031 
-7.88425e-06 -9.79558e-06 2.69256e+25 -2.30024 0.897799 271.897 
-5.97292e-06 -9.79558e-06 2.69734e+25 -3.24119 1.16245 271.662 
-4.06158e-06 -9.79558e-06 2.69456e+25 -3.35643 0.796016 271.691 
-2.15025e-06 -9.79558e-06 2.68671e+25 -4.17782 0.454532 272.348 
-2.38917e-07 -9.79558e-06 2.68621e+25 -4.26003 0.0615846 272.146 
-1.55296e-05 -9.31775e-06 2.68879e+25 -0.127185 0.76159 272.106 
-1.36182e-05 -9.31775e-06 2.693e+25 -0.498203 1.02487 271.878 
-1.17069e-05 -9.31775e-06 2.69737e+25 -1.06406 1.28894 271.398 
-9.79558e-06 -9.31775e-06 2.69069e+25 -1.77809 1.61749 271.911 
-7.88425e-06 -9.31775e-06 2.69609e+25 -2.41821 1.03309 271.774 
-5.97292e-06 -9.31775e-06 2.69885e+25 -3.3005 1.35111 271.35 
-4.06158e-06 -9.31775e-06 2.69203e+25 -3.64637 0.759391 271.853 
-2.15025e-06 -9.31775e-06 2.68777e+25 -4.48855 0.689099 272.339 
-2.38917e-07 -9.31775e-06 2.68637e+25 -4.29407 -0.0749329 272.251 
-1.55296e-05 -8.83992e-06 2.68925e+25 -0.0678007 0.65787 272.076 
-1.36182e-05 -8.83992e-06 2.69406e+25 -0.397383 1.21004 271.706 
-1.17069e-05 -8.83992e-06 2.69655e+25 -0.920105 1.5551 271.641 
-9.79558e-06 -8.83992e-06 2.69021e+25 -1.77439 1.72076 272.002 
-7.88425e-06 -8.83992e-06 2.69446e+25 -2.63626 1.4361 271.719 
-5.97292e-06 -8.83992e-06 2.69571e+25 -3.51074 1.57496 271.541 
-4.06158e-06 -8.83992e-06 2.69434e+25 -3.88957 0.921168 271.77 
-2.15025e-06 -8.83992e-06 2.69016e+25 -4.50276 0.897395 272.045 
-2.38917e-07 -8.83992e-06 2.68874e+25 -4.39228 -0.07141 272.156 
-1.55296e-05 -8.36208e-06 2.69018e+25 -0.11677 0.594632 272.122 
-1.36182e-05 -8.36208e-06 2.69502e+25 -0.580252 1.40867 271.829 
-1.17069e-05 -8.36208e-06 2.69603e+25 -1.1745 1.8328 271.776 
-9.79558e-06 -8.36208e-06 2.69213e+25 -1.62811 1.79616 271.991 
-7.88425e-06 -8.36208e-06 2.69403e+25 -2.49146 1.75413 271.602 
-5.97292e-06 -8.36208e-06 2.6961e+25 -3.57145 1.59248 271.698 
-4.06158e-06 -8.36208e-06 2.69341e+25 -4.10544 1.2417 271.87 
-2.15025e-06 -8.36208e-06 2.69043e+25 -4.56168 0.972827 272.186 
-2.38917e-07 -8.36208e-06 2.68707e+25 -4.7176 -0.0447104 272.156 
-1.55296e-05 -7.88425e-06 2.69051e+25 -0.0465998 0.699068 272.103 
-1.36182e-05 -7.88425e-06 2.69225e+25 -0.753979 1.6395 271.853 
-1.17069e-05 -7.88425e-06 2.69438e+25 -1.27863 1.9752 271.719 
-9.79558e-06 -7.88425e-06 2.69113e+25 -1.68314 1.89326 272.111 
-7.88425e-06 -7.88425e-06 2.69576e+25 -2.55679 2.15415 271.532 
-5.97292e-06 -7.88425e-06 2.69542e+25 -3.72476 1.57771 271.503 
-4.06158e-06 -7.88425e-06 2.69102e+25 -4.07571 1.36544 271.872 
-2.15025e-06 -7.88425e-06 2.68986e+25 -4.53401 1.1228 272.165 
-2.38917e-07 -7.88425e-06 2.68924e+25 -4.98945 0.0179795 272.004 
-1.55296e-05 -7.40642e-06 2.69252e+25 0.0645941 0.799045 271.813 
-1.36182e-05 -7.40642e-06 2.69501e+25 -0.874885 1.76737 271.801 
-1.17069e-05 -7.40642e-06 2.69253e+25 -1.36448 2.05257 271.876 
-9.79558e-06 -7.40642e-06 2.69172e+25 -1.71559 2.15377 271.96 
-7.88425e-06 -7.40642e-06 2.69622e+25 -2.70441 2.50896 271.505 
-5.97292e-06 -7.40642e-06 2.69528e+25 -3.54629 1.67755 271.57 
-4.06158e-06 -7.40642e-06 2.69419e+25 -4.1893 1.47041 271.756 
-2.15025e-06 -7.40642e-06 2.69084e+25 -4.49743 1.23684 271.99 
-2.38917e-07 -7.40642e-06 2.68524e+25 -5.18586 0.123613 272.265 
-1.55296e-05 -6.92858e-06 2.6959e+25 -0.0981797 0.861475 271.694 
-1.36182e-05 -6.92858e-06 2.69273e+25 -0.784925 1.70833 271.845 
-1.17069e-05 -6.92858e-06 2.69488e+25 -1.26007 2.20445 271.581 
-9.79558e-06 -6.92858e-06 2.69037e+25 -1.97984 2.23685 271.871 
-7.88425e-06 -6.92858e-06 2.69598e+25 -2.74793 2.74551 271.65 
-5.97292e-06 -6.92858e-06 2.69214e+25 -3.48897 1.80704 271.881 
-4.06158e-06 -6.92858e-06 2.69216e+25 -4.31546 1.63953 271.807 
-2.15025e-06 -6.92858e-06 2.69235e+25 -4.74973 1.24922 271.93 
-2.38917e-07 -6.92858e-06 2.68389e+25 -5.43098 0.231729 272.284 
-1.55296e-05 -6.45075e-06 2.69401e+25 -0.212286 0.953987 271.766 
-1.36182e-05 -6.45075e-06 2.69323e+25 -0.51593 1.95032 271.907 
-1.17069e-05 -6.45075e-06 2.69668e+25 -1.21007 2.23174 271.579 
-9.79558e-06 -6.45075e-06 2.69174e+25 -2.34912 2.55351 271.85 
-7.88425e-06 -6.45075e-06 2.69479e+25 -2.96356 3.03095 271.736 
-5.97292e-06 -6.45075e-06 2.69394e+25 -3.61469 2.03365 271.667 
-4.06158e-06 -6.45075e-06 2.69309e+25 -4.49563 1.81276 271.714 
-2.15025e-06 -6.45075e-06 2.69174e+25 -5.17059 1.41439 272.029 
-2.38917e-07 -6.45075e-06 2.68803e+25 -5.33872 0.332844 272.166 
-1.55296e-05 -5.97292e-06 2.69154e+25 -0.229164 1.0573 272.105 
-1.36182e-05 -5.97292e-06 2.69273e+25 -0.604878 2.11726 271.761 
-1.17069e-05 -5.97292e-06 2.69302e+25 -1.50252 2.40353 271.862 
-9.79558e-06 -5.97292e-06 2.69436e+25 -2.44026 2.68111 271.709 
-7.88425e-06 -5.97292e-06 2.69408e+25 -3.29245 3.1108 271.581 
-5.97292e-06 -5.97292e-06 2.69518e+25 -4.17141 2.28156 271.627 
-4.06158e-06 -5.97292e-06 2.69437e+25 -4.56886 1.91919 271.757 
-2.15025e-06 -5.97292e-06 2.69113e+25 -5.4344 1.5959 271.932 
-2.38917e-07 -5.97292e-06 2.68768e+25 -5.55502 0.397152 272.095 
-1.55296e-05 -5.49508e-06 2.69074e+25 -0.426341 1.12612 272.033 
-1.36182e-05 -5.49508e-06 2.69133e+25 -0.667785 2.36346 272.018 
-1.17069e-05 -5.49508e-06 2.69248e+25 -1.95473 2.67604 271.852 
-9.79558e-06 -5.49508e-06 2.69578e+25 -2.62708 2.80244 271.55 
-7.88425e-06 -5.49508e-06 2.69947e+25 -3.53277 3.27791 271.353 
-5.97292e-06 -5.49508e-06 2.69356e+25 -4.2845 2.49205 271.688 
-4.06158e-06 -5.49508e-06 2.69325e+25 -4.99524 2.17248 271.755 
-2.15025e-06 -5.49508e-06 2.69203e+25 -5.43106 1.63339 272.008 
-2.38917e-07 -5.49508e-06 2.68753e+25 -5.96181 0.55355 272.101 
-1.55296e-05 -5.01725e-06 2.6911e+25 -0.526474 1.45189 271.927 
-1.36182e-05 -5.01725e-06 2.69102e+25 -0.806401 2.5879 272.062 
-1.17069e-05 -5.01725e-06 2.69171e+25 -1.77185 3.09826 271.946 
-9.79558e-06 -5.01725e-06 2.69666e+25 -2.89183 3.04324 271.435 
-7.88425e-06 -5.01725e-06 2.69716e+25 -3.7471 3.45767 271.427 
-5.97292e-06 -5.01725e-06 2.69413e+25 -4.3587 2.68903 271.787 
-4.06158e-06 -5.01725e-06 2.69246e+25 -5.44826 2.46138 271.755 
-2.15025e-06 -5.01725e-06 2.69015e+25 -5.66435 1.52874 271.926 
-2.38917e-07 -5.01725e-06 2.68764e+25 -6.30516 0.61652 272.122 
-1.55296e-05 -4.53942e-06 2.69319e+25 -0.40629 1.81556 271.972 
-1.36182e-05 -4.53942e-06 2.68999e+25 -0.846761 2.78137 272.238 
-1.17069e-05 -4.53942e-06 2.69155e+25 -1.7212 3.4987 271.852 
-9.79558e-06 -4.53942e-06 2.69543e+25 -3.06521 3.21541 271.617 
-7.88425e-06 -4.53942e-06 2.6939e+25 -3.69667 3.57872 271.719 
-5.97292e-06 -4.53942e-06 2.69207e+25 -4.35017 2.90597 271.886 
-4.06158e-06 -4.53942e-06 2.69376e+25 -5.53668 2.57243 271.706 
-2.15025e-06 -4.53942e-06 2.68848e+25 -5.89666 1.53085 272.13 
-2.38917e-07 -4.53942e-06 2.68909e+25 -6.2987 0.522473 272.02 
-1.55296e-05 -4.06158e-06 2.69209e+25 -0.312024 1.90074 271.999 
-1.36182e-05 -4.06158e-06 2.6898e+25 -0.905539 2.94417 272.127 
-1.17069e-05 -4.06158e-06 2.69384e+25 -1.82163 3.83832 271.833 
-9.79558e-06 -4.06158e-06 2.6955e+25 -2.91643 3.41431 271.524 
-7.88425e-06 -4.06158e-06 2.69264e+25 -3.68666 3.68497 271.849 
-5.97292e-06 -4.06158e-06 2.69031e+25 -4.16618 3.14267 272.01 
-4.06158e-06 -4.06158e-06 2.69264e+25 -5.38616 2.66614 271.73 
-2.15025e-06 -4.06158e-06 2.6926e+25 -5.93336 1.65844 271.782 
-2.38917e-07 -4.06158e-06 2.69031e+25 -6.44008 0.598396 271.907 
-1.55296e-05 -3.58375e-06 2.69166e+25 -0.403261 1.96484 272.121 
-1.36182e-05 -3.58375e-06 2.69053e+25 -0.935693 3.07905 272.095 
-1.17069e-05 -3.58375e-06 2.69224e+25 -1.81519 4.02074 271.899 
-9.79558e-06 -3.58375e-06 2.69327e+25 -2.73057 3.6493 271.795 
-7.88425e-06 -3.58375e-06 2.69535e+25 -3.53335 3.7403 271.593 
-5.97292e-06 -3.58375e-06 2.69081e+25 -4.48902 3.4695 272.041 
-4.06158e-06 -3.58375e-06 2.69269e+25 -5.36755 2.89421 271.83 
-2.15025e-06 -3.58375e-06 2.69238e+25 -6.09643 1.81845 271.874 
-2.38917e-07 -3.58375e-06 2.68918e+25 -6.54504 0.628416 271.848 
-1.55296e-05 -3.10592e-06 2.68847e+25 -0.28453 2.06403 272.365 
-1.36182e-05 -3.10592e-06 2.6902e+25 -1.32625 3.13532 272.086 
-1.17069e-05 -3.10592e-06 2.69209e+25 -1.94636 4.14417 271.798 
-9.79558e-06 -3.10592e-06 2.69057e+25 -2.43027 4.14892 271.973 
-7.88425e-06 -3.10592e-06 2.69515e+25 -3.44382 3.78546 271.593 
-5.97292e-06 -3.10592e-06 2.68923e+25 -4.67354 3.76348 271.998 
-4.06158e-06 -3.10592e-06 2.69251e+25 -5.49977 3.11342 272.023 
-2.15025e-06 -3.10592e-06 2.69259e+25 -6.35768 2.13305 271.73 
-2.38917e-07 -3.10592e-06 2.69075e+25 -6.66652 0.840297 271.966 
-1.55296e-05 -2.62808e-06 2.68884e+25 -0.522881 2.26278 272.34 
-1.36182e-05 -2.62808e-06 2.68947e+25 -1.4129 3.24351 272.131 
-1.17069e-05 -2.62808e-06 2.69372e+25 -1.68334 4.11063 271.725 
-9.79558e-06 -2.62808e-06 2.69355e+25 -2.32429 4.52181 271.78 
-7.88425e-06 -2.62808e-06 2.69153e+25 -3.59314 4.1212 271.942 
-5.97292e-06 -2.62808e-06 2.69026e+25 -4.57578 4.03123 272.191 
-4.06158e-06 -2.62808e-06 2.68905e+25 -5.48258 3.34185 272.068 
-2.15025e-06 -2.62808e-06 2.69197e+25 -6.3895 2.30578 271.773 
-2.38917e-07 -2.62808e-06 2.68992e+25 -6.83902 0.98176 271.873 
-1.55296e-05 -2.15025e-06 2.68826e+25 -0.246641 2.3289 272.385 
-1.36182e-05 -2.15025e-06 2.68838e+25 -1.05696 3.32208 272.198 
-1.17069e-05 -2.15025e-06 2.69151e+25 -1.72812 4.04897 271.902 
-9.79558e-06 -2.15025e-06 2.69256e+25 -2.42641 4.78047 271.833 
-7.88425e-06 -2.15025e-06 2.6918e+25 -3.65549 4.6518 272.011 
-5.97292e-06 -2.15025e-06 2.68626e+25 -4.69945 4.26668 272.224 
-4.06158e-06 -2.15025e-06 2.69015e+25 -5.49694 3.57241 272.079 
-2.15025e-06 -2.15025e-06 2.69252e+25 -6.22096 2.47725 271.608 
-2.38917e-07 -2.15025e-06 2.68899e+25 -7.02615 1.15239 271.81 
-1.55296e-05 -1.67242e-06 2.68847e+25 -0.0170166 2.42141 272.331 
-1.36182e-05 -1.67242e-06 2.69178e+25 -0.60963 3.57252 271.799 
-1.17069e-05 -1.67242e-06 2.69273e+25 -1.48111 4.29854 271.711 
-9.79558e-06 -1.67242e-06 2.69279e+25 -2.50353 4.99478 271.866 
-7.88425e-06 -1.67242e-06 2.69075e+25 -3.56462 4.93963 271.972 
-5.97292e-06 -1.67242e-06 2.68579e+25 -4.61574 4.48542 272.464 
-4.06158e-06 -1.67242e-06 2.68897e+25 -5.46789 3.73229 272.078 
-2.15025e-06 -1.67242e-06 2.69233e+25 -6.19922 2.76529 271.724 
-2.38917e-07 -1.67242e-06 2.69108e+25 -7.35074 1.33512 271.867 
-1.55296e-05 -1.19458e-06 2.68701e+25 -0.0186751 2.59777 272.274 
-1.36182e-05 -1.19458e-06 2.69027e+25 -0.608977 3.84399 271.98 
-1.17069e-05 -1.19458e-06 2.69363e+25 -1.18682 4.63134 271.773 
-9.79558e-06 -1.19458e-06 2.69272e+25 -2.42368 5.09358 271.68 
-7.88425e-06 -1.19458e-06 2.69475e+25 -3.37634 5.26949 271.497 
-5.97292e-06 -1.19458e-06 2.68917e+25 -4.63014 4.8096 272.146 
-4.06158e-06 -1.19458e-06 2.69045e+25 -5.4705 3.8219 272.025 
-2.15025e-06 -1.19458e-06 2.69622e+25 -6.01814 3.15157 271.656 
-2.38917e-07 -1.19458e-06 2.68914e+25 -7.64316 1.50212 271.883 
-1.55296e-05 -7.1675e-07 2.69043e+25 -0.0907338 2.70464 272.018 
-1.36182e-05 -7.1675e-07 2.68999e+25 -0.554264 4.15908 272.031 
-1.17069e-05 -7.1675e-07 2.69183e+25 -1.29592 5.08322 271.922 
-9.79558e-06 -7.1675e-07 2.69537e+25 -2.33498 5.3448 271.584 
-7.88425e-06 -7.1675e-07 2.69557e+25 -3.32162 5.43265 271.686 
-5.97292e-06 -7.1675e-07 2.69106e+25 -4.53776 5.11713 271.997 
-4.06158e-06 -7.1675e-07 2.69304e+25 -5.67483 4.11926 271.799 
-2.15025e-06 -7.1675e-07 2.69434e+25 -6.56127 3.56114 271.608 
-2.38917e-07 -7.1675e-07 2.687e+25 -7.58108 1.73119 271.927 
-1.55296e-05 -2.38917e-07 2.6878e+25 -0.146068 2.75957 272.261 
-1.36182e-05 -2.38917e-07 2.69059e+25 -0.290821 4.37593 271.881 
-1.17069e-05 -2.38917e-07 2.68982e+25 -1.43619 5.36347 271.953 
-9.79558e-06 -2.38917e-07 2.69064e+25 -2.35687 5.68305 271.828 
-7.88425e-06 -2.38917e-07 2.69195e+25 -3.5351 5.7001 271.691 
-5.97292e-06 -2.38917e-07 2.69007e+25 -4.2478 5.44269 271.82 
-4.06158e-06 -2.38917e-07 2.68887e+25 -5.68943 4.35859 271.814 
-2.15025e-06 -2.38917e-07 2.6883e+25 -6.64399 3.67321 271.895 
-2.38917e-07 -2.38917e-07 2.68435e+25 -7.4596 2.03833 272.169 
-1.64852e-05 2.38917e-07 2.68352e+25 -0.0318024 1.36559 272.497 
-1.45739e-05 2.38917e-07 2.6879e+25 -0.156914 3.70297 272.057 
-1.26626e-05 2.38917e-07 2.6906e+25 -0.937764 4.96008 271.828 
-1.07512e-05 2.38917e-07 2.69437e+25 -2.20104 5.80729 271.62 
-8.83992e-06 2.38917e-07 2.68897e+25 -3.08497 6.12188 271.84 
-6.92858e-06 2.38917e-07 2.69257e+25 -3.79561 5.83647 271.727 
-5.01725e-06 2.38917e-07 2.69143e+25 -5.01539 5.06452 271.619 
-3.10592e-06 2.38917e-07 2.68705e+25 -6.24751 4.02942 272.024 
-1.19458e-06 2.38917e-07 2.68804e+25 -7.07485 3.13499 272.1 
-1.64852e-05 7.1675e-07 2.68709e+25 0.0487699 1.41033 272.284 
-1.45739e-05 7.1675e-07 2.69191e+25 -0.209655 3.77426 271.764 
-1.26626e-05 7.1675e-07 2.6906e+25 -0.912791 5.35603 271.853 
-1.07512e-05 7.1675e-07 2.69632e+25 -2.57184 6.10167 271.437 
-8.83992e-06 7.1675e-07 2.6927e+25 -2.93991 6.37238 271.75 
-6.92858e-06 7.1675e-07 2.6933e+25 -3.83389 6.06943 271.645 
-5.01725e-06 7.1675e-07 2.69498e+25 -4.69106 5.39639 271.445 
-3.10592e-06 7.1675e-07 2.69016e+25 -5.98854 4.51294 271.958 
-1.19458e-06 7.1675e-07 2.68744e+25 -6.81022 3.25133 272.283 
-1.64852e-05 1.19458e-06 2.69022e+25 -0.106287 1.49754 272.158 
-1.45739e-05 1.19458e-06 2.69312e+25 -0.248479 3.87661 271.853 
-1.26626e-05 1.19458e-06 2.69211e+25 -1.19695 5.79114 271.841 
-1.07512e-05 1.19458e-06 2.69358e+25 -2.30497 6.34711 271.476 
-8.83992e-06 1.19458e-06 2.69387e+25 -2.96545 6.35722 271.634 
-6.92858e-06 1.19458e-06 2.69272e+25 -3.76679 6.2958 271.596 
-5.01725e-06 1.19458e-06 2.69412e+25 -4.61967 5.77144 271.602 
-3.10592e-06 1.19458e-06 2.6886e+25 -5.86729 4.87564 272.007 
-1.19458e-06 1.19458e-06 2.68516e+25 -6.66211 3.42807 272.423 
-1.64852e-05 1.67242e-06 2.68613e+25 -0.00569749 1.49014 272.418 
-1.45739e-05 1.67242e-06 2.68825e+25 -0.370025 4.07846 272.241 
-1.26626e-05 1.67242e-06 2.69144e+25 -1.23702 6.15751 271.667 
-1.07512e-05 1.67242e-06 2.69608e+25 -2.32559 6.6287 271.548 
-8.83992e-06 1.67242e-06 2.69341e+25 -3.18415 6.36507 271.781 
-6.92858e-06 1.67242e-06 2.69168e+25 -3.80388 6.42154 271.819 
-5.01725e-06 1.67242e-06 2.69195e+25 -4.56108 5.9016 271.699 
-3.10592e-06 1.67242e-06 2.68639e+25 -5.54355 5.08816 272.228 
-1.19458e-06 1.67242e-06 2.68448e+25 -6.36199 3.5892 272.378 
-1.64852e-05 2.15025e-06 2.68666e+25 0.155276 1.34188 272.357 
-1.45739e-05 2.15025e-06 2.68707e+25 -0.279964 4.28 272.262 
-1.26626e-05 2.15025e-06 2.69697e+25 -1.27915 6.23343 271.359 
-1.07512e-05 2.15025e-06 2.69337e+25 -2.26567 6.89564 271.578 
-8.83992e-06 2.15025e-06 2.69358e+25 -3.20777 6.48752 271.613 
-6.92858e-06 2.15025e-06 2.69574e+25 -3.74597 6.59725 271.414 
-5.01725e-06 2.15025e-06 2.69257e+25 -4.44531 6.0226 271.621 
-3.10592e-06 2.15025e-06 2.68849e+25 -5.39525 5.20212 272.149 
-1.19458e-06 2.15025e-06 2.68396e+25 -5.93833 3.68749 272.422 
-1.64852e-05 2.62808e-06 2.68434e+25 0.163896 1.20135 272.424 
-1.45739e-05 2.62808e-06 2.68908e+25 -0.171212 4.54712 272.101 
-1.26626e-05 2.62808e-06 2.69586e+25 -1.32908 6.28617 271.355 
-1.07512e-05 2.62808e-06 2.69207e+25 -2.08397 7.07836 271.682 
-8.83992e-06 2.62808e-06 2.69274e+25 -3.13298 6.66704 271.564 
-6.92858e-06 2.62808e-06 2.69414e+25 -3.81545 6.81281 271.618 
-5.01725e-06 2.62808e-06 2.69166e+25 -4.34976 6.18411 271.814 
-3.10592e-06 2.62808e-06 2.68679e+25 -5.15969 5.50695 272.176 
-1.19458e-06 2.62808e-06 2.68301e+25 -5.56741 3.78043 272.504 
-1.64852e-05 3.10592e-06 2.68457e+25 -0.10777 1.25776 272.613 
-1.45739e-05 3.10592e-06 2.68952e+25 -0.328215 4.78016 272.031 
-1.26626e-05 3.10592e-06 2.69487e+25 -1.33896 6.70927 271.438 
-1.07512e-05 3.10592e-06 2.69531e+25 -2.09151 7.22237 271.487 
-8.83992e-06 3.10592e-06 2.69689e+25 -2.79486 6.77267 271.293 
-6.92858e-06 3.10592e-06 2.69104e+25 -3.63829 6.93448 271.825 
-5.01725e-06 3.10592e-06 2.69153e+25 -4.29695 6.38841 271.808 
-3.10592e-06 3.10592e-06 2.6857e+25 -4.83261 5.61564 272.307 
-1.19458e-06 3.10592e-06 2.68433e+25 -5.37738 3.94139 272.28 
-1.64852e-05 3.58375e-06 2.68541e+25 -0.0625187 1.25463 272.435 
-1.45739e-05 3.58375e-06 2.69364e+25 -0.292523 4.86924 271.856 
-1.26626e-05 3.58375e-06 2.69428e+25 -1.19323 7.07173 271.503 
-1.07512e-05 3.58375e-06 2.693e+25 -1.68819 7.47388 271.769 
-8.83992e-06 3.58375e-06 2.69346e+25 -2.58397 6.99583 271.628 
-6.92858e-06 3.58375e-06 2.68807e+25 -3.44632 7.06623 271.928 
-5.01725e-06 3.58375e-06 2.68993e+25 -4.15585 6.57891 271.846 
-3.10592e-06 3.58375e-06 2.68386e+25 -4.56749 5.66185 272.556 
-1.19458e-06 3.58375e-06 2.6853e+25 -5.08301 4.11031 272.209 
-1.64852e-05 4.06158e-06 2.68478e+25 -0.0365469 1.33694 272.384 
-1.45739e-05 4.06158e-06 2.69093e+25 -0.285739 5.09077 271.821 
-1.26626e-05 4.06158e-06 2.69269e+25 -1.21569 7.259 271.571 
-1.07512e-05 4.06158e-06 2.69272e+25 -1.41143 7.56543 271.69 
-8.83992e-06 4.06158e-06 2.69434e+25 -2.32914 7.246 271.501 
-6.92858e-06 4.06158e-06 2.69152e+25 -3.04761 7.25882 272.017 
-5.01725e-06 4.06158e-06 2.68852e+25 -3.73496 6.78073 271.883 
-3.10592e-06 4.06158e-06 2.6844e+25 -4.22443 5.74353 272.511 
-1.19458e-06 4.06158e-06 2.68494e+25 -4.72561 4.32024 272.386 
-1.64852e-05 4.53942e-06 2.68548e+25 -0.0916973 1.46181 272.479 
-1.45739e-05 4.53942e-06 2.69036e+25 -0.61469 5.29758 272.008 
-1.26626e-05 4.53942e-06 2.69102e+25 -0.971791 7.39472 271.793 
-1.07512e-05 4.53942e-06 2.69211e+25 -1.45023 7.61131 271.891 
-8.83992e-06 4.53942e-06 2.69546e+25 -1.96549 7.5479 271.447 
-6.92858e-06 4.53942e-06 2.69079e+25 -2.7148 7.44093 271.826 
-5.01725e-06 4.53942e-06 2.68653e+25 -3.41023 7.01104 272.203 
-3.10592e-06 4.53942e-06 2.68245e+25 -3.74685 5.90784 272.466 
-1.19458e-06 4.53942e-06 2.68362e+25 -4.22571 4.28786 272.583 
-1.64852e-05 5.01725e-06 2.68659e+25 -0.0453279 1.56239 272.374 
-1.45739e-05 5.01725e-06 2.69151e+25 -0.629329 5.43805 272.056 
-1.26626e-05 5.01725e-06 2.68837e+25 -0.756292 7.39317 271.959 
-1.07512e-05 5.01725e-06 2.69054e+25 -1.48053 7.64275 271.756 
-8.83992e-06 5.01725e-06 2.69505e+25 -1.73338 7.67284 271.365 
-6.92858e-06 5.01725e-06 2.69183e+25 -2.64278 7.57133 271.691 
-5.01725e-06 5.01725e-06 2.68789e+25 -3.15267 7.12905 272.105 
-3.10592e-06 5.01725e-06 2.68671e+25 -3.48143 5.9714 272.263 
-1.19458e-06 5.01725e-06 2.68832e+25 -4.03043 4.39782 272.019 
-1.64852e-05 5.49508e-06 2.68593e+25 -0.0219822 1.48228 272.383 
-1.45739e-05 5.49508e-06 2.68697e+25 -0.658723 5.45266 272.143 
-1.26626e-05 5.49508e-06 2.6927e+25 -0.621984 7.4736 271.817 
-1.07512e-05 5.49508e-06 2.69007e+25 -1.44833 7.75531 271.641 
-8.83992e-06 5.49508e-06 2.69558e+25 -2.01511 7.74977 271.342 
-6.92858e-06 5.49508e-06 2.69661e+25 -2.59699 7.68988 271.475 
-5.01725e-06 5.49508e-06 2.69017e+25 -3.00395 7.17016 271.845 
-3.10592e-06 5.49508e-06 2.68502e+25 -2.98592 6.08129 272.132 
-1.19458e-06 5.49508e-06 2.68893e+25 -3.45324 4.60517 271.849 
-1.64852e-05 5.97292e-06 2.68675e+25 -0.0810361 1.56273 272.17 
-1.45739e-05 5.97292e-06 2.68803e+25 -0.451738 5.44237 272.056 
-1.26626e-05 5.97292e-06 2.69087e+25 -0.758639 7.46159 271.882 
-1.07512e-05 5.97292e-06 2.69411e+25 -1.646 7.98203 271.46 
-8.83992e-06 5.97292e-06 2.6952e+25 -2.28661 7.99645 271.259 
-6.92858e-06 5.97292e-06 2.6955e+25 -2.72853 7.71837 271.296 
-5.01725e-06 5.97292e-06 2.68964e+25 -2.69462 7.28608 271.821 
-3.10592e-06 5.97292e-06 2.68828e+25 -2.71892 6.20792 271.999 
-1.19458e-06 5.97292e-06 2.68711e+25 -2.92241 4.79311 271.975 
-1.64852e-05 6.45075e-06 2.68591e+25 -0.0113927 1.6385 272.37 
-1.45739e-05 6.45075e-06 2.68882e+25 -0.525637 5.72003 271.875 
-1.26626e-05 6.45075e-06 2.69226e+25 -0.930786 7.43898 271.689 
-1.07512e-05 6.45075e-06 2.69345e+25 -1.35426 8.25611 271.358 
-8.83992e-06 6.45075e-06 2.69357e+25 -2.3817 8.30391 271.586 
-6.92858e-06 6.45075e-06 2.69367e+25 -2.47095 7.68375 271.598 
-5.01725e-06 6.45075e-06 2.68918e+25 -2.48859 7.32964 271.777 
-3.10592e-06 6.45075e-06 2.68949e+25 -2.44404 6.36157 272.008 
-1.19458e-06 6.45075e-06 2.69053e+25 -2.43803 4.85879 271.729 
-1.64852e-05 6.92858e-06 2.68449e+25 0.033329 1.58162 272.609 
-1.45739e-05 6.92858e-06 2.68865e+25 -0.466252 6.00503 271.983 
-1.26626e-05 6.92858e-06 2.69113e+25 -1.01884 7.49075 271.702 
-1.07512e-05 6.92858e-06 2.69535e+25 -1.29196 8.51123 271.338 
-8.83992e-06 6.92858e-06 2.6896e+25 -1.90392 8.44247 271.831 
-6.92858e-06 6.92858e-06 2.69091e+25 -2.16869 7.7803 271.524 
-5.01725e-06 6.92858e-06 2.68769e+25 -1.94566 7.25188 271.94 
-3.10592e-06 6.92858e-06 2.69127e+25 -2.03095 6.29157 271.783 
-1.19458e-06 6.92858e-06 2.68859e+25 -2.27347 4.87384 272.028 
-1.64852e-05 7.40642e-06 2.68681e+25 -0.188732 1.68998 272.523 
-1.45739e-05 7.40642e-06 2.69331e+25 -0.5152 6.15291 271.777 
-1.26626e-05 7.40642e-06 2.69081e+25 -0.963126 7.62774 271.887 
-1.07512e-05 7.40642e-06 2.69509e+25 -1.16828 8.5797 271.425 
-8.83992e-06 7.40642e-06 2.68767e+25 -1.65842 8.42667 271.978 
-6.92858e-06 7.40642e-06 2.69564e+25 -2.07092 7.74169 271.507 
-5.01725e-06 7.40642e-06 2.68922e+25 -1.70787 7.08942 271.879 
-3.10592e-06 7.40642e-06 2.69088e+25 -1.71496 6.13075 271.703 
-1.19458e-06 7.40642e-06 2.69071e+25 -1.84406 4.89353 271.716 
-1.64852e-05 7.88425e-06 2.68375e+25 -0.080672 1.73234 272.521 
-1.45739e-05 7.88425e-06 2.69045e+25 -0.597643 6.15451 271.796 
-1.26626e-05 7.88425e-06 2.69112e+25 -1.23861 7.70446 271.857 
-1.07512e-05 7.88425e-06 2.69087e+25 -1.26534 8.65837 271.651 
-8.83992e-06 7.88425e-06 2.68874e+25 -1.70807 8.5743 272.007 
-6.92858e-06 7.88425e-06 2.69232e+25 -1.70878 7.75677 271.761 
-5.01725e-06 7.88425e-06 2.69017e+25 -1.36384 7.01267 271.735 
-3.10592e-06 7.88425e-06 2.68926e+25 -1.31344 6.07144 271.967 
-1.19458e-06 7.88425e-06 2.69084e+25 -0.955211 5.00825 271.739 
-1.64852e-05 8.36208e-06 2.68773e+25 0.00670001 1.83379 272.243 
-1.45739e-05 8.36208e-06 2.68821e+25 -0.492527 6.14303 272.077 
-1.26626e-05 8.36208e-06 2.69063e+25 -1.44774 7.97035 271.791 
-1.07512e-05 8.36208e-06 2.69009e+25 -1.45649 8.66522 271.829 
-8.83992e-06 8.36208e-06 2.69057e+25 -1.41657 8.60621 271.902 
-6.92858e-06 8.36208e-06 2.69082e+25 -1.22486 7.78396 271.834 
-5.01725e-06 8.36208e-06 2.6906e+25 -1.25375 6.94861 271.779 
-3.10592e-06 8.36208e-06 2.6874e+25 -0.858503 6.0615 271.968 
-1.19458e-06 8.36208e-06 2.69013e+25 -0.323665 4.90495 271.847 
-1.64852e-05 8.83992e-06 2.68322e+25 0.0114537 1.9445 272.422 
-1.45739e-05 8.83992e-06 2.68915e+25 -0.459618 6.22064 272.106 
-1.26626e-05 8.83992e-06 2.68909e+25 -1.50497 8.34251 271.715 
-1.07512e-05 8.83992e-06 2.69106e+25 -1.84571 8.67318 271.786 
-8.83992e-06 8.83992e-06 2.68983e+25 -1.71901 8.50264 271.825 
-6.92858e-06 8.83992e-06 2.68837e+25 -1.24043 7.79537 272.148 
-5.01725e-06 8.83992e-06 2.68914e+25 -0.759876 6.69044 271.971 
-3.10592e-06 8.83992e-06 2.68667e+25 -0.0799538 5.97392 272.169 
-1.19458e-06 8.83992e-06 2.69008e+25 0.394408 4.64091 271.669 
-1.64852e-05 9.31775e-06 2.68159e+25 -0.211022 2.13907 272.56 
-1.45739e-05 9.31775e-06 2.68605e+25 -0.736602 6.49454 272.103 
-1.26626e-05 9.31775e-06 2.68822e+25 -1.81576 8.51745 271.808 
-1.07512e-05 9.31775e-06 2.6916e+25 -1.9574 8.84858 271.541 
-8.83992e-06 9.31775e-06 2.69075e+25 -1.60504 8.37498 271.899 
-6.92858e-06 9.31775e-06 2.68596e+25 -1.30672 7.67038 272.222 
-5.01725e-06 9.31775e-06 2.68921e+25 -0.372942 6.28055 271.832 
-3.10592e-06 9.31775e-06 2.68686e+25 0.675487 5.85093 272.049 
-1.19458e-06 9.31775e-06 2.69009e+25 1.21921 4.4772 271.795 
-1.64852e-05 9.79558e-06 2.67913e+25 -0.2093 2.3331 272.645 
-1.45739e-05 9.79558e-06 2.6867e+25 -0.970063 6.68869 272.049 
-1.26626e-05 9.79558e-06 2.6894e+25 -2.15543 8.62914 271.841 
-1.07512e-05 9.79558e-06 2.69446e+25 -2.42049 8.85449 271.471 
-8.83992e-06 9.79558e-06 2.6887e+25 -1.72551 8.3203 272.101 
-6.92858e-06 9.79558e-06 2.68831e+25 -1.34333 7.62301 272.117 
-5.01725e-06 9.79558e-06 2.68976e+25 0.0374153 5.90324 271.805 
-3.10592e-06 9.79558e-06 2.68889e+25 1.44343 5.6385 271.901 
-1.19458e-06 9.79558e-06 2.68789e+25 1.9436 4.44723 271.843 
-1.64852e-05 1.02734e-05 2.68178e+25 -0.283066 2.50698 272.551 
-1.45739e-05 1.02734e-05 2.68808e+25 -1.36658 7.03817 271.955 
-1.26626e-05 1.02734e-05 2.69081e+25 -2.15716 8.77149 271.729 
-1.07512e-05 1.02734e-05 2.69267e+25 -2.36284 8.62978 271.736 
-8.83992e-06 1.02734e-05 2.68852e+25 -1.50836 8.17885 272.043 
-6.92858e-06 1.02734e-05 2.68582e+25 -1.02947 7.53043 272.215 
-5.01725e-06 1.02734e-05 2.6918e+25 0.377257 5.5633 271.808 
-3.10592e-06 1.02734e-05 2.6886e+25 1.92852 5.43339 271.83 
-1.19458e-06 1.02734e-05 2.68707e+25 2.95987 4.37111 271.962 
-1.64852e-05 1.07512e-05 2.68007e+25 -0.149269 2.67459 272.665 
-1.45739e-05 1.07512e-05 2.68989e+25 -1.34977 7.34412 271.772 
-1.26626e-05 1.07512e-05 2.68996e+25 -2.1478 8.84072 271.821 
-1.07512e-05 1.07512e-05 2.69251e+25 -2.00303 8.47129 271.659 
-8.83992e-06 1.07512e-05 2.69014e+25 -1.23005 7.89237 271.87 
-6.92858e-06 1.07512e-05 2.68475e+25 -0.353671 7.12322 272.31 
-5.01725e-06 1.07512e-05 2.69082e+25 1.04302 5.11066 271.794 
-3.10592e-06 1.07512e-05 2.68711e+25 2.69378 5.0485 271.988 
-1.19458e-06 1.07512e-05 2.68665e+25 3.9041 4.02293 271.917 
-1.64852e-05 1.12291e-05 2.68186e+25 -0.234697 3.03094 272.436 
-1.45739e-05 1.12291e-05 2.68802e+25 -1.7462 7.59171 271.957 
-1.26626e-05 1.12291e-05 2.68818e+25 -2.19707 8.91897 271.764 
-1.07512e-05 1.12291e-05 2.69439e+25 -1.998 8.12831 271.502 
-8.83992e-06 1.12291e-05 2.69086e+25 -0.651085 7.6049 271.744 
-6.92858e-06 1.12291e-05 2.687e+25 0.666834 6.69776 272.163 
-5.01725e-06 1.12291e-05 2.68666e+25 1.85261 4.74502 271.975 
-3.10592e-06 1.12291e-05 2.68999e+25 3.39503 4.60358 271.939 
-1.19458e-06 1.12291e-05 2.68779e+25 4.93778 3.68414 271.989 
-1.64852e-05 1.17069e-05 2.68226e+25 -0.245402 3.32331 272.43 
-1.45739e-05 1.17069e-05 2.68648e+25 -1.85613 7.95544 272.07 
-1.26626e-05 1.17069e-05 2.68676e+25 -2.30551 8.96958 271.92 
-1.07512e-05 1.17069e-05 2.69534e+25 -2.07785 7.9533 271.45 
-8.83992e-06 1.17069e-05 2.68903e+25 -0.401476 7.27227 271.861 
-6.92858e-06 1.17069e-05 2.68752e+25 1.72301 6.26373 272.085 
-5.01725e-06 1.17069e-05 2.68398e+25 2.99174 4.40907 272.194 
-3.10592e-06 1.17069e-05 2.68761e+25 4.50209 4.18512 271.923 
-1.19458e-06 1.17069e-05 2.68908e+25 6.16239 3.47702 271.766 
-1.64852e-05 1.21847e-05 2.68063e+25 -0.317331 3.63083 272.524 
-1.45739e-05 1.21847e-05 2.68455e+25 -2.08965 8.18749 272.007 
-1.26626e-05 1.21847e-05 2.68619e+25 -2.58077 8.86148 271.982 
-1.07512e-05 1.21847e-05 2.69225e+25 -1.75416 7.69822 271.625 
-8.83992e-06 1.21847e-05 2.69079e+25 -0.0508821 6.89472 271.979 
-6.92858e-06 1.21847e-05 2.68666e+25 2.46431 5.80651 272.084 
-5.01725e-06 1.21847e-05 2.68648e+25 4.17896 4.26885 271.972 
-3.10592e-06 1.21847e-05 2.68634e+25 5.67043 3.77242 272.071 
-1.19458e-06 1.21847e-05 2.68579e+25 7.54288 3.17611 272.013 
-1.64852e-05 1.26626e-05 2.68046e+25 -0.344848 3.95369 272.551 
-1.45739e-05 1.26626e-05 2.68127e+25 -2.32758 8.3999 272.34 
-1.26626e-05 1.26626e-05 2.6868e+25 -2.71587 8.55048 272.038 
-1.07512e-05 1.26626e-05 2.6887e+25 -1.298 7.4757 271.896 
-8.83992e-06 1.26626e-05 2.68954e+25 0.885779 6.1798 271.851 
-6.92858e-06 1.26626e-05 2.68705e+25 3.35148 5.18547 272.089 
-5.01725e-06 1.26626e-05 2.68557e+25 5.63308 4.06736 272.165 
-3.10592e-06 1.26626e-05 2.68627e+25 7.17643 3.24401 272.133 
-1.19458e-06 1.26626e-05 2.68792e+25 9.14522 2.75165 271.898 
-1.64852e-05 1.31404e-05 2.68073e+25 -0.469762 4.40777 272.524 
-1.45739e-05 1.31404e-05 2.68057e+25 -3.12916 8.66714 272.339 
-1.26626e-05 1.31404e-05 2.69e+25 -2.53854 8.29045 271.804 
-1.07512e-05 1.31404e-05 2.69087e+25 -0.586448 6.87532 271.883 
-8.83992e-06 1.31404e-05 2.68835e+25 2.0575 5.58828 271.933 
-6.92858e-06 1.31404e-05 2.68806e+25 4.72092 4.55804 272.213 
-5.01725e-06 1.31404e-05 2.68554e+25 7.13408 3.58813 272.199 
-3.10592e-06 1.31404e-05 2.68792e+25 9.18438 2.82576 272.077 
-1.19458e-06 1.31404e-05 2.68634e+25 11.116 2.26994 272.127 
-1.64852e-05 1.36182e-05 2.67891e+25 -0.902863 5.23992 272.468 
-1.45739e-05 1.36182e-05 2.68179e+25 -3.55548 8.97627 272.256 
-1.26626e-05 1.36182e-05 2.68665e+25 -2.21228 7.88609 272.055 
-1.07512e-05 1.36182e-05 2.68763e+25 0.553061 6.11455 271.922 
-8.83992e-06 1.36182e-05 2.6907e+25 3.75934 4.79953 271.927 
-6.92858e-06 1.36182e-05 2.68832e+25 6.54429 3.96154 272.076 
-5.01725e-06 1.36182e-05 2.68508e+25 9.08626 2.98699 272.37 
-3.10592e-06 1.36182e-05 2.68587e+25 11.4184 2.28437 272.209 
-1.19458e-06 1.36182e-05 2.68527e+25 12.9053 1.76675 272.262 
-1.64852e-05 1.40961e-05 2.67643e+25 -0.947006 6.04742 272.52 
-1.45739e-05 1.40961e-05 2.68246e+25 -3.3759 9.14421 272.144 
-1.26626e-05 1.40961e-05 2.68754e+25 -1.12267 7.28766 272.004 
-1.07512e-05 1.40961e-05 2.68779e+25 2.43774 5.22384 272.071 
-8.83992e-06 1.40961e-05 2.69342e+25 5.41829 4.02892 271.831 
-6.92858e-06 1.40961e-05 2.68842e+25 8.82992 3.21565 272.09 
-5.01725e-06 1.40961e-05 2.68449e+25 11.4721 2.36984 272.431 
-3.10592e-06 1.40961e-05 2.68677e+25 13.4812 1.9823 272.171 
-1.19458e-06 1.40961e-05 2.68577e+25 14.7552 1.27175 272.163 
-1.64852e-05 1.45739e-05 2.67431e+25 -1.37014 7.03647 272.595 
-1.45739e-05 1.45739e-05 2.68019e+25 -2.98389 8.87592 272.278 
-1.26626e-05 1.45739e-05 2.68532e+25 0.520344 6.32663 272.13 
-1.07512e-05 1.45739e-05 2.68753e+25 4.68119 4.21211 272.24 
-8.83992e-06 1.45739e-05 2.69138e+25 7.99603 3.21516 271.909 
-6.92858e-06 1.45739e-05 2.68821e+25 11.5282 2.4465 272.199 
-5.01725e-06 1.45739e-05 2.68607e+25 14.0442 1.7018 272.263 
-3.10592e-06 1.45739e-05 2.68456e+25 15.9832 1.49663 272.209 
-1.19458e-06 1.45739e-05 2.68488e+25 17.2101 1.00628 272.24 
-1.64852e-05 1.50518e-05 2.66825e+25 -1.76905 8.31729 272.738 
-1.45739e-05 1.50518e-05 2.676e+25 -1.97403 8.25537 272.397 
-1.26626e-05 1.50518e-05 2.68309e+25 3.15466 5.04394 272.326 
-1.07512e-05 1.50518e-05 2.68428e+25 7.93237 3.26297 272.532 
-8.83992e-06 1.50518e-05 2.68922e+25 11.6053 2.28918 272.198 
-6.92858e-06 1.50518e-05 2.68664e+25 14.5006 1.85914 272.209 
-5.01725e-06 1.50518e-05 2.68471e+25 16.8223 1.20037 272.388 
-3.10592e-06 1.50518e-05 2.68389e+25 18.7822 1.13609 272.417 
-1.19458e-06 1.50518e-05 2.68563e+25 19.9981 0.678657 272.274 
-1.64852e-05 1.55296e-05 2.66401e+25 -2.1396 9.74317 272.68 
-1.45739e-05 1.55296e-05 2.67483e+25 0.706526 6.92322 272.492 
-1.26626e-05 1.55296e-05 2.68072e+25 7.3165 3.68327 272.528 
-1.07512e-05 1.55296e-05 2.68063e+25 12.2473 2.30857 272.806 
-8.83992e-06 1.55296e-05 2.68579e+25 15.8842 1.38624 272.283 
-6.92858e-06 1.55296e-05 2.68692e+25 18.5216 1.36327 272.363 
-5.01725e-06 1.55296e-05 2.68505e+25 20.4099 0.714266 272.504 
-3.10592e-06 1.55296e-05 2.68491e+25 21.8848 0.717519 272.441 
-1.19458e-06 1.55296e-05 2.68352e+25 23.2533 0.502354 272.548 
-1.64852e-05 1.60074e-05 2.65887e+25 -1.82716 10.6511 272.666 
-1.45739e-05 1.60074e-05 2.67765e+25 6.08522 5.00231 272.458 
-1.26626e-05 1.60074e-05 2.67914e+25 13.1579 2.2709 272.829 
-1.07512e-05 1.60074e-05 2.68019e+25 17.7223 1.27737 272.919 
-8.83992e-06 1.60074e-05 2.68626e+25 20.748 0.703932 272.425 
-6.92858e-06 1.60074e-05 2.68382e+25 22.8901 0.8378 272.647 
-5.01725e-06 1.60074e-05 2.6838e+25 24.5047 0.358648 272.536 
-3.10592e-06 1.60074e-05 2.68324e+25 25.5285 0.331486 272.56 
-1.19458e-06 1.60074e-05 2.68348e+25 26.4995 0.256927 272.496 
-1.64852e-05 1.64852e-05 2.64563e+25 0.865432 9.36065 272.954 
-1.45739e-05 1.64852e-05 2.67349e+25 14.51 2.47602 272.783 
-1.26626e-05 1.64852e-05 2.67922e+25 20.7769 1.03084 272.943 
-1.07512e-05 1.64852e-05 2.68263e+25 24.0647 0.51364 272.911 
-8.83992e-06 1.64852e-05 2.68362e+25 26.2244 0.220298 272.759 
-6.92858e-06 1.64852e-05 2.68282e+25 27.6724 0.413495 272.953 
-5.01725e-06 1.64852e-05 2.68221e+25 28.5614 0.0838241 272.677 
-3.10592e-06 1.64852e-05 2.6829e+25 29.0531 0.196221 272.601 
-1.19458e-06 1.64852e-05 2.68339e+25 29.9345 0.162762 272.597 
-1.64852e-05 1.69631e-05 2.62037e+25 12.4052 3.55093 273.696 
-1.45739e-05 1.69631e-05 2.67238e+25 25.9377 0.590921 273.159 
-1.26626e-05 1.69631e-05 2.68163e+25 29.0668 0.201217 272.933 
-1.07512e-05 1.69631e-05 2.6835e+25 30.6357 0.069976 272.882 
-8.83992e-06 1.69631e-05 2.6827e+25 31.2243 0.0546237 272.866 
-6.92858e-06 1.69631e-05 2.68324e+25 31.8649 0.0571776 273.05 
-5.01725e-06 1.69631e-05 2.68133e+25 32.2153 0.00747247 272.799 
-3.10592e-06 1.69631e-05 2.68116e+25 32.4568 0.0707705 272.768 
-1.19458e-06 1.69631e-05 2.68104e+25 32.8903 0.0643076 272.827 
-1.69631e-05 2.38917e-07 2.68013e+25 0.0394857 0.493762 272.713 
-1.50517e-05 2.38917e-07 2.68774e+25 -0.050885 3.27197 271.959 
-1.31404e-05 2.38917e-07 2.68941e+25 -0.50454 4.7149 271.832 
-1.12291e-05 2.38917e-07 2.69207e+25 -1.94927 5.54647 271.727 
-9.31775e-06 2.38917e-07 2.68827e+25 -2.76331 6.07809 271.941 
-7.40642e-06 2.38917e-07 2.69194e+25 -3.71007 5.65895 271.656 
-5.49508e-06 2.38917e-07 2.69123e+25 -4.57591 5.43443 271.652 
-3.58375e-06 2.38917e-07 2.68948e+25 -5.88087 4.42153 271.76 
-1.67242e-06 2.38917e-07 2.68471e+25 -6.95251 3.71417 272.241 
-1.69631e-05 7.1675e-07 2.68384e+25 -0.0172003 0.452651 272.765 
-1.50517e-05 7.1675e-07 2.68972e+25 -0.214207 3.29557 272.031 
-1.31404e-05 7.1675e-07 2.6908e+25 -0.597557 5.01163 271.857 
-1.12291e-05 7.1675e-07 2.69526e+25 -2.17217 5.94202 271.618 
-9.31775e-06 7.1675e-07 2.69062e+25 -2.93402 6.14609 271.868 
-7.40642e-06 7.1675e-07 2.69427e+25 -3.55757 5.77269 271.536 
-5.49508e-06 7.1675e-07 2.69151e+25 -4.47052 5.68432 271.661 
-3.58375e-06 7.1675e-07 2.69033e+25 -5.69401 4.6829 271.901 
-1.67242e-06 7.1675e-07 2.68761e+25 -6.82371 3.71294 272.175 
-1.69631e-05 1.19458e-06 2.68645e+25 0.0245792 0.467762 272.682 
-1.50517e-05 1.19458e-06 2.6899e+25 -0.121496 3.28562 272.131 
-1.31404e-05 1.19458e-06 2.69212e+25 -0.815404 5.33182 271.976 
-1.12291e-05 1.19458e-06 2.69303e+25 -2.01271 6.41243 271.699 
-9.31775e-06 1.19458e-06 2.6913e+25 -3.01622 6.09527 271.853 
-7.40642e-06 1.19458e-06 2.69305e+25 -3.54662 6.03857 271.696 
-5.49508e-06 1.19458e-06 2.69285e+25 -4.43112 5.7755 271.572 
-3.58375e-06 1.19458e-06 2.69178e+25 -5.51071 4.95926 271.87 
-1.67242e-06 1.19458e-06 2.68763e+25 -6.53603 3.64186 272.211 
-1.69631e-05 1.67242e-06 2.68481e+25 -0.0495195 0.522787 272.663 
-1.50517e-05 1.67242e-06 2.68665e+25 -0.123728 3.45327 272.241 
-1.31404e-05 1.67242e-06 2.68918e+25 -1.07352 5.53029 271.86 
-1.12291e-05 1.67242e-06 2.69427e+25 -1.9717 6.7552 271.594 
-9.31775e-06 1.67242e-06 2.69236e+25 -3.08667 6.1667 271.801 
-7.40642e-06 1.67242e-06 2.69396e+25 -3.41635 6.48874 271.539 
-5.49508e-06 1.67242e-06 2.6932e+25 -4.3351 6.1164 271.764 
-3.58375e-06 1.67242e-06 2.68878e+25 -5.40595 5.24766 272.14 
-1.67242e-06 1.67242e-06 2.68308e+25 -6.16841 3.8879 272.46 
-1.69631e-05 2.15025e-06 2.68265e+25 0.0349195 0.508086 272.71 
-1.50517e-05 2.15025e-06 2.68787e+25 -0.0218406 3.7777 272.304 
-1.31404e-05 2.15025e-06 2.69535e+25 -1.25415 5.71174 271.589 
-1.12291e-05 2.15025e-06 2.69338e+25 -1.98371 7.08494 271.542 
-9.31775e-06 2.15025e-06 2.6926e+25 -3.02384 6.32065 271.764 
-7.40642e-06 2.15025e-06 2.6943e+25 -3.69716 6.69482 271.56 
-5.49508e-06 2.15025e-06 2.6934e+25 -4.32487 6.2798 271.658 
-3.58375e-06 2.15025e-06 2.68709e+25 -5.10172 5.52023 272.115 
-1.67242e-06 2.15025e-06 2.68591e+25 -5.85038 4.00743 272.341 
-1.69631e-05 2.62808e-06 2.68468e+25 0.0488449 0.424365 272.636 
-1.50517e-05 2.62808e-06 2.68967e+25 -0.0963592 3.73323 272.161 
-1.31404e-05 2.62808e-06 2.69695e+25 -1.04358 5.92764 271.349 
-1.12291e-05 2.62808e-06 2.69512e+25 -1.96921 7.30755 271.534 
-9.31775e-06 2.62808e-06 2.69291e+25 -2.94555 6.54299 271.67 
-7.40642e-06 2.62808e-06 2.69585e+25 -3.63223 6.75745 271.369 
-5.49508e-06 2.62808e-06 2.69244e+25 -4.1679 6.46524 271.802 
-3.58375e-06 2.62808e-06 2.68761e+25 -4.92539 5.68891 272.212 
-1.67242e-06 2.62808e-06 2.68527e+25 -5.40884 4.11975 272.233 
-1.69631e-05 3.10592e-06 2.68237e+25 -0.0499263 0.378895 272.949 
-1.50517e-05 3.10592e-06 2.68828e+25 -0.159981 3.85049 272.249 
-1.31404e-05 3.10592e-06 2.69593e+25 -0.863378 6.2795 271.392 
-1.12291e-05 3.10592e-06 2.69421e+25 -2.04433 7.37335 271.537 
-9.31775e-06 3.10592e-06 2.6958e+25 -2.6573 6.81539 271.481 
-7.40642e-06 3.10592e-06 2.69584e+25 -3.54034 6.96917 271.543 
-5.49508e-06 3.10592e-06 2.69043e+25 -4.12232 6.56592 271.79 
-3.58375e-06 3.10592e-06 2.68733e+25 -4.78503 5.88485 272.199 
-1.67242e-06 3.10592e-06 2.68856e+25 -5.29211 4.28638 272.072 
-1.69631e-05 3.58375e-06 2.682e+25 -0.00554913 0.453688 272.817 
-1.50517e-05 3.58375e-06 2.6894e+25 -0.0771543 4.10699 272.095 
-1.31404e-05 3.58375e-06 2.69516e+25 -0.964258 6.57509 271.437 
-1.12291e-05 3.58375e-06 2.69124e+25 -1.45994 7.37678 271.73 
-9.31775e-06 3.58375e-06 2.69449e+25 -2.30167 7.04869 271.525 
-7.40642e-06 3.58375e-06 2.69389e+25 -3.22506 7.09039 271.787 
-5.49508e-06 3.58375e-06 2.69062e+25 -3.99516 6.73235 271.844 
-3.58375e-06 3.58375e-06 2.6849e+25 -4.5285 5.8986 272.224 
-1.67242e-06 3.58375e-06 2.68617e+25 -4.87521 4.42156 272.233 
-1.69631e-05 4.06158e-06 2.68338e+25 0.0380317 0.463767 272.6 
-1.50517e-05 4.06158e-06 2.69003e+25 -0.173742 4.11783 271.947 
-1.31404e-05 4.06158e-06 2.69407e+25 -1.04412 6.82214 271.607 
-1.12291e-05 4.06158e-06 2.69095e+25 -1.42117 7.47721 271.912 
-9.31775e-06 4.06158e-06 2.69372e+25 -2.0668 7.35268 271.546 
-7.40642e-06 4.06158e-06 2.68901e+25 -2.91607 7.29193 271.989 
-5.49508e-06 4.06158e-06 2.69056e+25 -3.43573 6.9355 271.917 
-3.58375e-06 4.06158e-06 2.68688e+25 -4.1091 5.94319 272.27 
-1.67242e-06 4.06158e-06 2.68684e+25 -4.68722 4.5146 271.97 
-1.69631e-05 4.53942e-06 2.68045e+25 -0.0583179 0.465736 272.946 
-1.50517e-05 4.53942e-06 2.68911e+25 -0.448982 4.2484 272.095 
-1.31404e-05 4.53942e-06 2.69266e+25 -0.990855 6.88029 271.622 
-1.12291e-05 4.53942e-06 2.6903e+25 -1.33916 7.57028 271.819 
-9.31775e-06 4.53942e-06 2.69554e+25 -1.60034 7.64012 271.447 
-7.40642e-06 4.53942e-06 2.68944e+25 -2.56004 7.46034 271.91 
-5.49508e-06 4.53942e-06 2.68978e+25 -3.23546 7.11475 271.878 
-3.58375e-06 4.53942e-06 2.68629e+25 -3.7128 6.03194 272.236 
-1.67242e-06 4.53942e-06 2.68651e+25 -4.13173 4.68619 272.098 
-1.69631e-05 5.01725e-06 2.67952e+25 -0.0240934 0.532119 272.86 
-1.50517e-05 5.01725e-06 2.68814e+25 -0.466239 4.42699 272.216 
-1.31404e-05 5.01725e-06 2.69207e+25 -0.682479 6.9513 271.892 
-1.12291e-05 5.01725e-06 2.6926e+25 -1.39495 7.75142 271.776 
-9.31775e-06 5.01725e-06 2.69356e+25 -1.80402 7.87621 271.641 
-7.40642e-06 5.01725e-06 2.6923e+25 -2.4828 7.69561 271.697 
-5.49508e-06 5.01725e-06 2.68847e+25 -3.04327 7.32134 271.937 
-3.58375e-06 5.01725e-06 2.68726e+25 -3.35118 6.11264 272.018 
-1.67242e-06 5.01725e-06 2.68659e+25 -3.75771 4.88 272.084 
-1.69631e-05 5.49508e-06 2.68488e+25 2.1554e-05 0.563601 272.609 
-1.50517e-05 5.49508e-06 2.68772e+25 -0.544388 4.69498 272.274 
-1.31404e-05 5.49508e-06 2.6899e+25 -0.665731 6.89747 271.896 
-1.12291e-05 5.49508e-06 2.69139e+25 -1.27644 7.91463 271.786 
-9.31775e-06 5.49508e-06 2.69483e+25 -1.85441 7.89762 271.437 
-7.40642e-06 5.49508e-06 2.69471e+25 -2.49804 7.73981 271.517 
-5.49508e-06 5.49508e-06 2.68807e+25 -2.9815 7.43165 271.928 
-3.58375e-06 5.49508e-06 2.68828e+25 -2.9093 6.19131 271.982 
-1.67242e-06 5.49508e-06 2.68507e+25 -3.27547 5.10135 272.096 
-1.69631e-05 5.97292e-06 2.68545e+25 -0.0149415 0.598078 272.481 
-1.50517e-05 5.97292e-06 2.68736e+25 -0.31073 4.89906 272.241 
-1.31404e-05 5.97292e-06 2.69126e+25 -0.723007 6.83464 271.888 
-1.12291e-05 5.97292e-06 2.69357e+25 -1.33113 8.21954 271.573 
-9.31775e-06 5.97292e-06 2.69581e+25 -1.98356 8.14312 271.43 
-7.40642e-06 5.97292e-06 2.69524e+25 -2.65054 7.83336 271.262 
-5.49508e-06 5.97292e-06 2.68873e+25 -2.57539 7.41792 271.868 
-3.58375e-06 5.97292e-06 2.68867e+25 -2.58863 6.23766 272.044 
-1.67242e-06 5.97292e-06 2.68853e+25 -2.88714 5.15725 271.846 
-1.69631e-05 6.45075e-06 2.68139e+25 0.00699193 0.613675 272.818 
-1.50517e-05 6.45075e-06 2.6878e+25 -0.216689 5.11471 272.134 
-1.31404e-05 6.45075e-06 2.69122e+25 -0.921134 6.86136 271.877 
-1.12291e-05 6.45075e-06 2.69519e+25 -1.0815 8.51532 271.384 
-9.31775e-06 6.45075e-06 2.6958e+25 -2.11308 8.43914 271.515 
-7.40642e-06 6.45075e-06 2.69359e+25 -2.51286 7.95656 271.492 
-5.49508e-06 6.45075e-06 2.6893e+25 -2.55348 7.42384 271.838 
-3.58375e-06 6.45075e-06 2.68885e+25 -2.35861 6.26727 271.946 
-1.67242e-06 6.45075e-06 2.69031e+25 -2.39968 5.13719 271.701 
-1.69631e-05 6.92858e-06 2.68286e+25 -0.0422283 0.590965 272.811 
-1.50517e-05 6.92858e-06 2.68942e+25 -0.338551 5.19404 271.953 
-1.31404e-05 6.92858e-06 2.68816e+25 -0.867294 7.06492 272.027 
-1.12291e-05 6.92858e-06 2.6963e+25 -1.11277 8.65595 271.257 
-9.31775e-06 6.92858e-06 2.6924e+25 -1.89579 8.57473 271.638 
-7.40642e-06 6.92858e-06 2.69275e+25 -2.1986 7.85992 271.444 
-5.49508e-06 6.92858e-06 2.68731e+25 -2.09987 7.30439 271.98 
-3.58375e-06 6.92858e-06 2.68969e+25 -1.97993 6.40588 271.67 
-1.67242e-06 6.92858e-06 2.69069e+25 -2.25559 5.25323 271.618 
-1.69631e-05 7.40642e-06 2.68288e+25 3.88962e-05 0.672076 272.785 
-1.50517e-05 7.40642e-06 2.68985e+25 -0.395262 5.31347 272.053 
-1.31404e-05 7.40642e-06 2.69135e+25 -0.923786 7.16961 271.882 
-1.12291e-05 7.40642e-06 2.69734e+25 -1.24588 8.59499 271.07 
-9.31775e-06 7.40642e-06 2.68999e+25 -1.69298 8.55497 271.838 
-7.40642e-06 7.40642e-06 2.6945e+25 -1.91928 8.03183 271.416 
-5.49508e-06 7.40642e-06 2.69011e+25 -1.84549 7.22901 271.708 
-3.58375e-06 7.40642e-06 2.68874e+25 -1.87916 6.45797 271.761 
-1.67242e-06 7.40642e-06 2.69207e+25 -1.70677 5.36347 271.622 
-1.69631e-05 7.88425e-06 2.68151e+25 -0.0117559 0.747508 272.842 
-1.50517e-05 7.88425e-06 2.6888e+25 -0.531845 5.51189 272.05 
-1.31404e-05 7.88425e-06 2.69038e+25 -1.01123 7.33242 271.875 
-1.12291e-05 7.88425e-06 2.69326e+25 -1.27894 8.49464 271.469 
-9.31775e-06 7.88425e-06 2.68869e+25 -1.48555 8.67277 271.877 
-7.40642e-06 7.88425e-06 2.69235e+25 -1.68497 8.13293 271.708 
-5.49508e-06 7.88425e-06 2.68896e+25 -1.52135 6.99304 271.776 
-3.58375e-06 7.88425e-06 2.68855e+25 -1.3215 6.4055 271.882 
-1.67242e-06 7.88425e-06 2.6922e+25 -1.04805 5.2737 271.666 
-1.69631e-05 8.36208e-06 2.68221e+25 0.0211511 0.734196 272.748 
-1.50517e-05 8.36208e-06 2.68843e+25 -0.495197 5.66195 271.965 
-1.31404e-05 8.36208e-06 2.68957e+25 -1.07818 7.6966 272.042 
-1.12291e-05 8.36208e-06 2.69002e+25 -1.51694 8.49009 271.713 
-9.31775e-06 8.36208e-06 2.68877e+25 -1.51858 8.71005 271.82 
-7.40642e-06 8.36208e-06 2.68927e+25 -1.35919 8.03783 271.867 
-5.49508e-06 8.36208e-06 2.68885e+25 -1.38812 6.74685 271.772 
-3.58375e-06 8.36208e-06 2.68892e+25 -0.83717 6.49222 271.961 
-1.67242e-06 8.36208e-06 2.69016e+25 -0.578913 5.13708 271.729 
-1.69631e-05 8.83992e-06 2.68122e+25 0.019134 0.678841 272.707 
-1.50517e-05 8.83992e-06 2.68525e+25 -0.381883 5.62406 272.209 
-1.31404e-05 8.83992e-06 2.68753e+25 -1.29187 7.94376 272.061 
-1.12291e-05 8.83992e-06 2.69094e+25 -1.72918 8.44334 271.76 
-9.31775e-06 8.83992e-06 2.6917e+25 -1.73362 8.63915 271.704 
-7.40642e-06 8.83992e-06 2.68786e+25 -1.34081 7.80908 272.029 
-5.49508e-06 8.83992e-06 2.68684e+25 -0.99242 6.63338 272.092 
-3.58375e-06 8.83992e-06 2.6893e+25 -0.130278 6.44086 271.916 
-1.67242e-06 8.83992e-06 2.69165e+25 0.295422 5.03453 271.673 
-1.69631e-05 9.31775e-06 2.6814e+25 -0.043151 0.711686 272.592 
-1.50517e-05 9.31775e-06 2.68414e+25 -0.559723 5.58394 272.153 
-1.31404e-05 9.31775e-06 2.68922e+25 -1.60795 8.15767 271.889 
-1.12291e-05 9.31775e-06 2.69187e+25 -1.88959 8.40204 271.548 
-9.31775e-06 9.31775e-06 2.68754e+25 -1.77221 8.58373 271.92 
-7.40642e-06 9.31775e-06 2.68779e+25 -1.44484 7.63913 271.978 
-5.49508e-06 9.31775e-06 2.68829e+25 -0.594732 6.55733 271.977 
-3.58375e-06 9.31775e-06 2.68918e+25 0.393808 6.22195 271.849 
-1.67242e-06 9.31775e-06 2.68928e+25 1.0836 4.94978 271.717 
-1.69631e-05 9.79558e-06 2.68134e+25 -0.0817759 0.844573 272.803 
-1.50517e-05 9.79558e-06 2.68614e+25 -0.74102 5.76163 272.111 
-1.31404e-05 9.79558e-06 2.68972e+25 -1.93632 8.49104 271.837 
-1.12291e-05 9.79558e-06 2.69264e+25 -2.44586 8.47658 271.57 
-9.31775e-06 9.79558e-06 2.68832e+25 -1.75407 8.44013 271.861 
-7.40642e-06 9.79558e-06 2.68741e+25 -1.27829 7.64828 272.164 
-5.49508e-06 9.79558e-06 2.69109e+25 -0.387006 6.27938 271.97 
-3.58375e-06 9.79558e-06 2.69083e+25 1.13841 5.84089 271.77 
-1.67242e-06 9.79558e-06 2.6914e+25 1.85691 4.75004 271.584 
-1.69631e-05 1.02734e-05 2.67814e+25 -0.0294688 1.0042 272.886 
-1.50517e-05 1.02734e-05 2.6862e+25 -1.07396 6.04277 272.084 
-1.31404e-05 1.02734e-05 2.69015e+25 -2.03813 8.65383 271.712 
-1.12291e-05 1.02734e-05 2.69042e+25 -2.45638 8.56632 271.72 
-9.31775e-06 1.02734e-05 2.68933e+25 -1.67906 8.33794 271.923 
-7.40642e-06 1.02734e-05 2.68593e+25 -1.26024 7.67202 272.226 
-5.49508e-06 1.02734e-05 2.68983e+25 0.0103375 5.79009 271.968 
-3.58375e-06 1.02734e-05 2.68953e+25 1.64882 5.48815 271.792 
-1.67242e-06 1.02734e-05 2.689e+25 2.66046 4.53644 271.868 
-1.69631e-05 1.07512e-05 2.68039e+25 -0.0483983 1.12101 272.818 
-1.50517e-05 1.07512e-05 2.68829e+25 -1.11064 6.29182 271.858 
-1.31404e-05 1.07512e-05 2.69033e+25 -2.02116 8.8418 271.853 
-1.12291e-05 1.07512e-05 2.6902e+25 -2.16798 8.47966 271.686 
-9.31775e-06 1.07512e-05 2.6907e+25 -1.5103 8.22923 271.789 
-7.40642e-06 1.07512e-05 2.68369e+25 -0.626128 7.57552 272.378 
-5.49508e-06 1.07512e-05 2.68925e+25 0.646436 5.4867 271.968 
-3.58375e-06 1.07512e-05 2.69083e+25 2.14742 5.23762 271.786 
-1.67242e-06 1.07512e-05 2.68921e+25 3.58369 4.30588 271.831 
-1.69631e-05 1.12291e-05 2.68066e+25 0.0104552 1.15879 272.736 
-1.50517e-05 1.12291e-05 2.68892e+25 -1.37984 6.57806 271.854 
-1.31404e-05 1.12291e-05 2.68745e+25 -2.0973 8.96733 272.085 
-1.12291e-05 1.12291e-05 2.69214e+25 -2.12899 8.40787 271.661 
-9.31775e-06 1.12291e-05 2.6923e+25 -0.993632 7.78283 271.621 
-7.40642e-06 1.12291e-05 2.68689e+25 0.323653 7.31718 272.19 
-5.49508e-06 1.12291e-05 2.6897e+25 1.60192 5.18551 271.79 
-3.58375e-06 1.12291e-05 2.68998e+25 3.08291 4.76029 271.867 
-1.67242e-06 1.12291e-05 2.68807e+25 4.61289 4.02508 271.834 
-1.69631e-05 1.17069e-05 2.67833e+25 -0.0798473 1.26658 272.795 
-1.50517e-05 1.17069e-05 2.68681e+25 -1.50296 6.99136 272.089 
-1.31404e-05 1.17069e-05 2.68461e+25 -2.31033 9.02757 272.223 
-1.12291e-05 1.17069e-05 2.69228e+25 -2.20807 8.37201 271.563 
-9.31775e-06 1.17069e-05 2.69054e+25 -0.761578 7.36863 271.756 
-7.40642e-06 1.17069e-05 2.68864e+25 1.17253 6.92783 272.164 
-5.49508e-06 1.17069e-05 2.68899e+25 2.77395 5.11901 271.967 
-3.58375e-06 1.17069e-05 2.68998e+25 4.00259 4.22801 271.871 
-1.67242e-06 1.17069e-05 2.68901e+25 5.78288 3.60476 271.846 
-1.69631e-05 1.21847e-05 2.67734e+25 -0.0543399 1.40825 273.083 
-1.50517e-05 1.21847e-05 2.68676e+25 -1.76544 7.49489 272.046 
-1.31404e-05 1.21847e-05 2.68403e+25 -2.78065 9.07293 272.289 
-1.12291e-05 1.21847e-05 2.6892e+25 -2.00415 8.21588 271.695 
-9.31775e-06 1.21847e-05 2.69239e+25 -0.55591 6.9035 271.617 
-7.40642e-06 1.21847e-05 2.68825e+25 1.80815 6.2138 272.088 
-5.49508e-06 1.21847e-05 2.68771e+25 3.90882 4.77558 272.085 
-3.58375e-06 1.21847e-05 2.68861e+25 5.18969 3.7348 272.069 
-1.67242e-06 1.21847e-05 2.68884e+25 7.17824 3.13837 271.896 
-1.69631e-05 1.26626e-05 2.6795e+25 -0.0903932 1.56684 272.824 
-1.50517e-05 1.26626e-05 2.68064e+25 -2.06138 7.98958 272.449 
-1.31404e-05 1.26626e-05 2.6857e+25 -2.82469 9.03228 272.114 
-1.12291e-05 1.26626e-05 2.68834e+25 -1.63681 7.89546 271.814 
-9.31775e-06 1.26626e-05 2.69037e+25 0.19176 6.40777 271.804 
-7.40642e-06 1.26626e-05 2.68671e+25 2.70663 5.5839 272.191 
-5.49508e-06 1.26626e-05 2.68771e+25 5.21217 4.25475 272.128 
-3.58375e-06 1.26626e-05 2.68834e+25 6.68232 3.31872 272.081 
-1.67242e-06 1.26626e-05 2.68723e+25 8.72924 2.71134 272.031 
-1.69631e-05 1.31404e-05 2.67988e+25 -0.0468464 1.78786 272.611 
-1.50517e-05 1.31404e-05 2.68077e+25 -2.55374 8.56004 272.238 
-1.31404e-05 1.31404e-05 2.68513e+25 -2.94777 8.83272 271.967 
-1.12291e-05 1.31404e-05 2.68742e+25 -1.2193 7.46993 271.968 
-9.31775e-06 1.31404e-05 2.69257e+25 1.47095 5.73831 271.743 
-7.40642e-06 1.31404e-05 2.68466e+25 4.20272 5.00264 272.183 
-5.49508e-06 1.31404e-05 2.68703e+25 6.49809 3.60312 272.248 
-3.58375e-06 1.31404e-05 2.68802e+25 8.74122 2.77617 272.024 
-1.67242e-06 1.31404e-05 2.68663e+25 10.706 2.32115 272.124 
-1.69631e-05 1.36182e-05 2.67819e+25 -0.186403 2.06727 272.665 
-1.50517e-05 1.36182e-05 2.6806e+25 -3.24077 9.13456 272.191 
-1.31404e-05 1.36182e-05 2.68595e+25 -2.69144 8.34461 272.094 
-1.12291e-05 1.36182e-05 2.68754e+25 -0.157845 6.77539 272.096 
-9.31775e-06 1.36182e-05 2.69099e+25 2.89748 5.09388 271.713 
-7.40642e-06 1.36182e-05 2.69014e+25 5.92463 4.45594 271.957 
-5.49508e-06 1.36182e-05 2.68806e+25 8.50102 2.95656 272.271 
-3.58375e-06 1.36182e-05 2.68613e+25 10.9706 2.31248 272.337 
-1.67242e-06 1.36182e-05 2.68533e+25 12.2835 1.76548 272.235 
-1.69631e-05 1.40961e-05 2.67284e+25 -0.283963 2.6305 272.906 
-1.50517e-05 1.40961e-05 2.67722e+25 -3.2338 9.46069 272.441 
-1.31404e-05 1.40961e-05 2.68723e+25 -1.90929 7.74573 271.82 
-1.12291e-05 1.40961e-05 2.68619e+25 1.27636 5.88299 272.163 
-9.31775e-06 1.40961e-05 2.6902e+25 4.72483 4.26818 271.844 
-7.40642e-06 1.40961e-05 2.69048e+25 8.08874 3.80693 271.971 
-5.49508e-06 1.40961e-05 2.68785e+25 10.8089 2.40594 272.374 
-3.58375e-06 1.40961e-05 2.68509e+25 13.0632 1.85071 272.409 
-1.67242e-06 1.40961e-05 2.68602e+25 14.472 1.47558 272.315 
-1.69631e-05 1.45739e-05 2.67097e+25 -0.319997 3.29884 272.868 
-1.50517e-05 1.45739e-05 2.67669e+25 -3.1895 9.62295 272.559 
-1.31404e-05 1.45739e-05 2.68572e+25 -0.592296 6.82874 272.024 
-1.12291e-05 1.45739e-05 2.68563e+25 3.64628 4.68371 272.26 
-9.31775e-06 1.45739e-05 2.68933e+25 7.14315 3.5232 271.912 
-7.40642e-06 1.45739e-05 2.68848e+25 10.8112 3.06984 272.093 
-5.49508e-06 1.45739e-05 2.68607e+25 13.3944 1.78477 272.271 
-3.58375e-06 1.45739e-05 2.68254e+25 15.629 1.48713 272.47 
-1.67242e-06 1.45739e-05 2.68378e+25 16.9733 1.25604 272.382 
-1.69631e-05 1.50518e-05 2.66664e+25 -0.416631 4.2094 273.055 
-1.50517e-05 1.50518e-05 2.67321e+25 -2.7943 9.35182 272.599 
-1.31404e-05 1.50518e-05 2.68699e+25 1.7731 5.67274 272.111 
-1.12291e-05 1.50518e-05 2.68496e+25 6.91898 3.66496 272.284 
-9.31775e-06 1.50518e-05 2.68626e+25 10.6442 2.66571 272.21 
-7.40642e-06 1.50518e-05 2.68806e+25 13.8452 2.32034 272.258 
-5.49508e-06 1.50518e-05 2.68505e+25 16.3527 1.15257 272.409 
-3.58375e-06 1.50518e-05 2.68099e+25 18.3099 1.04977 272.601 
-1.67242e-06 1.50518e-05 2.68433e+25 19.7718 1.0581 272.447 
-1.69631e-05 1.55296e-05 2.6591e+25 -0.668826 5.47062 272.949 
-1.50517e-05 1.55296e-05 2.6729e+25 -0.915788 8.25222 272.61 
-1.31404e-05 1.55296e-05 2.68157e+25 5.73682 4.05957 272.52 
-1.12291e-05 1.55296e-05 2.68055e+25 11.284 2.64455 272.801 
-9.31775e-06 1.55296e-05 2.68707e+25 15.0273 1.63724 272.361 
-7.40642e-06 1.55296e-05 2.68637e+25 17.9574 1.56751 272.346 
-5.49508e-06 1.55296e-05 2.68383e+25 20.0757 0.726649 272.505 
-3.58375e-06 1.55296e-05 2.68442e+25 21.5283 0.563657 272.528 
-1.67242e-06 1.55296e-05 2.6848e+25 22.971 0.761645 272.533 
-1.69631e-05 1.60074e-05 2.64699e+25 -0.820729 7.03062 273.094 
-1.50517e-05 1.60074e-05 2.67361e+25 3.6908 6.19406 272.674 
-1.31404e-05 1.60074e-05 2.68009e+25 11.7614 2.42087 272.737 
-1.12291e-05 1.60074e-05 2.67819e+25 16.7019 1.63204 273.124 
-9.31775e-06 1.60074e-05 2.68357e+25 20.1486 0.875017 272.619 
-7.40642e-06 1.60074e-05 2.6847e+25 22.2948 0.93066 272.484 
-5.49508e-06 1.60074e-05 2.6829e+25 24.1122 0.385576 272.704 
-3.58375e-06 1.60074e-05 2.68421e+25 25.3993 0.346455 272.587 
-1.67242e-06 1.60074e-05 2.68522e+25 26.2935 0.471771 272.547 
-1.69631e-05 1.64852e-05 2.62612e+25 -0.370627 8.48375 273.042 
-1.50517e-05 1.64852e-05 2.67104e+25 11.8238 3.48805 272.956 
-1.31404e-05 1.64852e-05 2.6803e+25 19.6048 1.03956 272.725 
-1.12291e-05 1.64852e-05 2.68152e+25 23.3793 0.651543 272.934 
-9.31775e-06 1.64852e-05 2.68287e+25 25.8383 0.287564 272.697 
-7.40642e-06 1.64852e-05 2.68217e+25 27.2298 0.350899 272.813 
-5.49508e-06 1.64852e-05 2.68064e+25 28.3748 0.118383 272.903 
-3.58375e-06 1.64852e-05 2.68241e+25 28.8117 0.179159 272.853 
-1.67242e-06 1.64852e-05 2.68521e+25 29.7852 0.286996 272.555 
-1.69631e-05 1.69631e-05 2.55298e+25 4.0123 6.18582 273.169 
-1.50517e-05 1.69631e-05 2.6701e+25 24.337 0.848299 273.266 
-1.31404e-05 1.69631e-05 2.67864e+25 28.6268 0.179675 273.17 
-1.12291e-05 1.69631e-05 2.68034e+25 30.4097 0.127976 273.058 
-9.31775e-06 1.69631e-05 2.68338e+25 31.1492 -0.0012007 272.884 
-7.40642e-06 1.69631e-05 2.68228e+25 31.7472 0.0450363 272.942 
-5.49508e-06 1.69631e-05 2.67904e+25 32.2655 -0.018429 273.013 
-3.58375e-06 1.69631e-05 2.68005e+25 32.3837 -0.0293956 272.96 
-1.67242e-06 1.69631e-05 2.68316e+25 32.7014 0.0502275 272.719 
-1.60074e-05 2.38917e-07 2.68527e+25 -0.0510097 2.12724 272.218 
-1.40961e-05 2.38917e-07 2.68879e+25 -0.277276 3.98809 271.975 
-1.21847e-05 2.38917e-07 2.68575e+25 -1.33145 5.21286 272.244 
-1.02734e-05 2.38917e-07 2.69132e+25 -2.52853 5.83127 271.717 
-8.36208e-06 2.38917e-07 2.69116e+25 -3.44592 5.84337 271.844 
-6.45075e-06 2.38917e-07 2.68892e+25 -4.06498 5.59879 271.941 
-4.53942e-06 2.38917e-07 2.68961e+25 -5.36437 4.79238 271.801 
-2.62808e-06 2.38917e-07 2.68844e+25 -6.67177 3.85782 272.009 
-7.1675e-07 2.38917e-07 2.6862e+25 -7.27895 2.64429 272.309 
-1.60074e-05 7.1675e-07 2.68964e+25 -0.0368986 2.16118 272.178 
-1.40961e-05 7.1675e-07 2.69077e+25 -0.316378 4.14255 271.941 
-1.21847e-05 7.1675e-07 2.68938e+25 -1.3539 5.72201 272.014 
-1.02734e-05 7.1675e-07 2.69152e+25 -2.84128 6.01434 271.626 
-8.36208e-06 7.1675e-07 2.69089e+25 -3.21639 6.17656 271.783 
-6.45075e-06 7.1675e-07 2.69195e+25 -4.13954 5.88769 271.829 
-4.53942e-06 7.1675e-07 2.6912e+25 -5.07533 5.12006 271.729 
-2.62808e-06 7.1675e-07 2.68866e+25 -6.43269 4.24075 272.028 
-7.1675e-07 7.1675e-07 2.68712e+25 -7.04727 2.91112 272.293 
-1.60074e-05 1.19458e-06 2.69061e+25 -0.170619 2.3322 272.027 
-1.40961e-05 1.19458e-06 2.69085e+25 -0.369251 4.29996 272.019 
-1.21847e-05 1.19458e-06 2.69332e+25 -1.59517 6.05132 271.72 
-1.02734e-05 1.19458e-06 2.69472e+25 -2.56682 6.37598 271.503 
-8.36208e-06 1.19458e-06 2.69281e+25 -2.97767 6.46018 271.818 
-6.45075e-06 1.19458e-06 2.69456e+25 -3.90224 6.13006 271.571 
-4.53942e-06 1.19458e-06 2.69351e+25 -4.88797 5.47847 271.707 
-2.62808e-06 1.19458e-06 2.68986e+25 -6.13532 4.59846 271.938 
-7.1675e-07 1.19458e-06 2.68772e+25 -6.79008 3.10301 272.203 
-1.60074e-05 1.67242e-06 2.68709e+25 0.134688 2.25665 272.263 
-1.40961e-05 1.67242e-06 2.6903e+25 -0.603365 4.3814 272.019 
-1.21847e-05 1.67242e-06 2.6936e+25 -1.4373 6.28297 271.632 
-1.02734e-05 1.67242e-06 2.69416e+25 -2.5707 6.60223 271.569 
-8.36208e-06 1.67242e-06 2.69357e+25 -3.11179 6.44327 271.52 
-6.45075e-06 1.67242e-06 2.69389e+25 -3.8898 6.34583 271.499 
-4.53942e-06 1.67242e-06 2.69237e+25 -4.76613 5.72718 271.719 
-2.62808e-06 1.67242e-06 2.68774e+25 -5.73026 4.84214 272.055 
-7.1675e-07 1.67242e-06 2.68752e+25 -6.44227 3.16405 272.211 
-1.60074e-05 2.15025e-06 2.68599e+25 0.29536 2.17055 272.456 
-1.40961e-05 2.15025e-06 2.68934e+25 -0.531687 4.71976 272.074 
-1.21847e-05 2.15025e-06 2.69645e+25 -1.3655 6.46284 271.309 
-1.02734e-05 2.15025e-06 2.69301e+25 -2.48138 6.85496 271.609 
-8.36208e-06 2.15025e-06 2.69481e+25 -3.35897 6.42995 271.549 
-6.45075e-06 2.15025e-06 2.6965e+25 -3.98347 6.52898 271.401 
-4.53942e-06 2.15025e-06 2.69189e+25 -4.57695 5.9572 271.691 
-2.62808e-06 2.15025e-06 2.68765e+25 -5.59166 5.08656 272.118 
-7.1675e-07 2.15025e-06 2.68569e+25 -5.97193 3.21223 272.287 
-1.60074e-05 2.62808e-06 2.68789e+25 0.0900743 2.25709 272.299 
-1.40961e-05 2.62808e-06 2.69169e+25 -0.530785 5.08565 272.024 
-1.21847e-05 2.62808e-06 2.69765e+25 -1.50249 6.65413 271.279 
-1.02734e-05 2.62808e-06 2.69387e+25 -2.34065 7.17862 271.532 
-8.36208e-06 2.62808e-06 2.69518e+25 -3.27054 6.60331 271.48 
-6.45075e-06 2.62808e-06 2.69422e+25 -3.96567 6.64549 271.547 
-4.53942e-06 2.62808e-06 2.69116e+25 -4.50638 6.15453 271.831 
-2.62808e-06 2.62808e-06 2.68815e+25 -5.21611 5.2006 272.191 
-7.1675e-07 2.62808e-06 2.68602e+25 -5.77767 3.36591 272.281 
-1.60074e-05 3.10592e-06 2.69006e+25 -0.106687 2.29796 272.134 
-1.40961e-05 3.10592e-06 2.69182e+25 -0.500154 5.35415 271.726 
-1.21847e-05 3.10592e-06 2.69652e+25 -1.66517 6.8407 271.465 
-1.02734e-05 3.10592e-06 2.69439e+25 -2.2427 7.35941 271.572 
-8.36208e-06 3.10592e-06 2.69462e+25 -3.06378 6.89098 271.492 
-6.45075e-06 3.10592e-06 2.6919e+25 -3.78665 6.74591 271.701 
-4.53942e-06 3.10592e-06 2.69109e+25 -4.58 6.36197 271.787 
-2.62808e-06 3.10592e-06 2.68514e+25 -4.93423 5.17057 272.297 
-7.1675e-07 3.10592e-06 2.68513e+25 -5.57295 3.70763 272.388 
-1.60074e-05 3.58375e-06 2.68749e+25 -0.200319 2.39215 272.189 
-1.40961e-05 3.58375e-06 2.69206e+25 -0.401238 5.46843 271.744 
-1.21847e-05 3.58375e-06 2.69465e+25 -1.50678 7.11246 271.48 
-1.02734e-05 3.58375e-06 2.6944e+25 -1.94873 7.55016 271.493 
-8.36208e-06 3.58375e-06 2.69458e+25 -2.81843 7.16059 271.509 
-6.45075e-06 3.58375e-06 2.68928e+25 -3.62163 7.03002 271.9 
-4.53942e-06 3.58375e-06 2.68976e+25 -4.2782 6.6053 271.887 
-2.62808e-06 3.58375e-06 2.68372e+25 -4.6511 5.36207 272.293 
-7.1675e-07 3.58375e-06 2.68438e+25 -5.23441 3.84297 272.356 
-1.60074e-05 4.06158e-06 2.68951e+25 -0.0759906 2.53549 271.987 
-1.40961e-05 4.06158e-06 2.69396e+25 -0.536766 5.705 271.652 
-1.21847e-05 4.06158e-06 2.69343e+25 -1.42389 7.36282 271.51 
-1.02734e-05 4.06158e-06 2.69238e+25 -1.42478 7.74776 271.533 
-8.36208e-06 4.06158e-06 2.6939e+25 -2.47809 7.30629 271.487 
-6.45075e-06 4.06158e-06 2.69192e+25 -3.26525 7.16442 271.851 
-4.53942e-06 4.06158e-06 2.68928e+25 -3.88781 6.71374 272.08 
-2.62808e-06 4.06158e-06 2.68585e+25 -4.34451 5.47111 272.254 
-7.1675e-07 4.06158e-06 2.68381e+25 -4.83417 3.92245 272.556 
-1.60074e-05 4.53942e-06 2.68809e+25 -0.222942 2.51423 272.205 
-1.40961e-05 4.53942e-06 2.68925e+25 -0.877164 5.95919 271.879 
-1.21847e-05 4.53942e-06 2.69279e+25 -1.05597 7.43058 271.75 
-1.02734e-05 4.53942e-06 2.69257e+25 -1.49999 7.77819 271.602 
-8.36208e-06 4.53942e-06 2.69669e+25 -2.23025 7.45283 271.26 
-6.45075e-06 4.53942e-06 2.69214e+25 -2.89153 7.38879 271.711 
-4.53942e-06 4.53942e-06 2.68574e+25 -3.45778 6.78127 272.38 
-2.62808e-06 4.53942e-06 2.68566e+25 -3.88338 5.60297 272.253 
-7.1675e-07 4.53942e-06 2.68318e+25 -4.3423 4.04645 272.471 
-1.60074e-05 5.01725e-06 2.69088e+25 0.0187418 2.5157 271.943 
-1.40961e-05 5.01725e-06 2.69068e+25 -0.596353 6.02953 271.922 
-1.21847e-05 5.01725e-06 2.69153e+25 -0.832341 7.56896 271.86 
-1.02734e-05 5.01725e-06 2.69127e+25 -1.56201 7.79867 271.575 
-8.36208e-06 5.01725e-06 2.69343e+25 -1.94003 7.76898 271.493 
-6.45075e-06 5.01725e-06 2.69017e+25 -2.73492 7.43047 271.804 
-4.53942e-06 5.01725e-06 2.68878e+25 -3.31481 6.83195 272.159 
-2.62808e-06 5.01725e-06 2.68716e+25 -3.57755 5.73273 272.205 
-7.1675e-07 5.01725e-06 2.68586e+25 -4.08841 4.14118 272.213 
-1.60074e-05 5.49508e-06 2.68973e+25 -0.00727671 2.59037 272.044 
-1.40961e-05 5.49508e-06 2.68807e+25 -0.662213 6.03786 272.036 
-1.21847e-05 5.49508e-06 2.69174e+25 -0.797734 7.77854 271.699 
-1.02734e-05 5.49508e-06 2.69311e+25 -1.65536 7.99709 271.602 
-8.36208e-06 5.49508e-06 2.69503e+25 -2.17652 8.0177 271.307 
-6.45075e-06 5.49508e-06 2.69083e+25 -2.74133 7.57463 271.834 
-4.53942e-06 5.49508e-06 2.68977e+25 -3.03663 6.92082 271.931 
-2.62808e-06 5.49508e-06 2.68787e+25 -3.04985 5.73406 272.072 
-7.1675e-07 5.49508e-06 2.68722e+25 -3.74253 4.32217 271.906 
-1.60074e-05 5.97292e-06 2.68944e+25 -0.204281 2.58159 272.177 
-1.40961e-05 5.97292e-06 2.68627e+25 -0.659029 6.21777 272.155 
-1.21847e-05 5.97292e-06 2.68884e+25 -0.760535 8.01723 271.867 
-1.02734e-05 5.97292e-06 2.69375e+25 -1.7178 8.00866 271.597 
-8.36208e-06 5.97292e-06 2.69363e+25 -2.51202 8.20036 271.518 
-6.45075e-06 5.97292e-06 2.69205e+25 -2.6674 7.6284 271.513 
-4.53942e-06 5.97292e-06 2.69084e+25 -2.7688 6.84947 271.861 
-2.62808e-06 5.97292e-06 2.68977e+25 -2.82133 5.82373 271.851 
-7.1675e-07 5.97292e-06 2.68632e+25 -3.13487 4.58534 272.15 
-1.60074e-05 6.45075e-06 2.68775e+25 -0.0589209 2.61729 272.169 
-1.40961e-05 6.45075e-06 2.68816e+25 -0.71191 6.33181 271.996 
-1.21847e-05 6.45075e-06 2.69074e+25 -0.907664 8.00546 271.841 
-1.02734e-05 6.45075e-06 2.69493e+25 -1.67571 8.08915 271.339 
-8.36208e-06 6.45075e-06 2.69606e+25 -2.49578 8.19858 271.513 
-6.45075e-06 6.45075e-06 2.69297e+25 -2.53551 7.6051 271.637 
-4.53942e-06 6.45075e-06 2.68989e+25 -2.37811 6.77892 271.847 
-2.62808e-06 6.45075e-06 2.6905e+25 -2.4738 5.80704 271.806 
-7.1675e-07 6.45075e-06 2.68586e+25 -2.45021 4.71648 272.064 
-1.60074e-05 6.92858e-06 2.68577e+25 -0.143746 2.865 272.401 
-1.40961e-05 6.92858e-06 2.69162e+25 -0.608373 6.39366 271.832 
-1.21847e-05 6.92858e-06 2.69025e+25 -1.06423 7.9951 271.801 
-1.02734e-05 6.92858e-06 2.6939e+25 -1.48293 8.40284 271.433 
-8.36208e-06 6.92858e-06 2.69096e+25 -1.95806 8.32345 271.67 
-6.45075e-06 6.92858e-06 2.68929e+25 -2.1851 7.58804 271.811 
-4.53942e-06 6.92858e-06 2.69043e+25 -1.91037 6.74603 271.884 
-2.62808e-06 6.92858e-06 2.69083e+25 -1.95172 5.87753 271.777 
-7.1675e-07 6.92858e-06 2.68763e+25 -2.33381 4.80222 271.873 
-1.60074e-05 7.40642e-06 2.68712e+25 -0.195909 2.96706 272.213 
-1.40961e-05 7.40642e-06 2.69068e+25 -0.588683 6.4401 271.804 
-1.21847e-05 7.40642e-06 2.69141e+25 -1.2257 8.11328 271.614 
-1.02734e-05 7.40642e-06 2.69376e+25 -1.27274 8.68555 271.621 
-8.36208e-06 7.40642e-06 2.691e+25 -1.84861 8.49534 271.766 
-6.45075e-06 7.40642e-06 2.69119e+25 -1.97189 7.59875 271.595 
-4.53942e-06 7.40642e-06 2.68933e+25 -1.6745 6.83599 271.961 
-2.62808e-06 7.40642e-06 2.68927e+25 -1.59832 5.92357 271.894 
-7.1675e-07 7.40642e-06 2.68765e+25 -1.79329 4.7245 271.829 
-1.60074e-05 7.88425e-06 2.68558e+25 -0.131947 2.95771 272.255 
-1.40961e-05 7.88425e-06 2.6911e+25 -0.640903 6.59252 271.702 
-1.21847e-05 7.88425e-06 2.69305e+25 -1.20459 8.29677 271.481 
-1.02734e-05 7.88425e-06 2.68988e+25 -1.39162 8.8095 271.822 
-8.36208e-06 7.88425e-06 2.68863e+25 -1.65588 8.51807 271.847 
-6.45075e-06 7.88425e-06 2.69234e+25 -1.72998 7.47585 271.68 
-4.53942e-06 7.88425e-06 2.68868e+25 -1.36264 6.84525 271.897 
-2.62808e-06 7.88425e-06 2.69014e+25 -1.28765 5.82404 271.836 
-7.1675e-07 7.88425e-06 2.68695e+25 -0.98819 4.56777 271.857 
-1.60074e-05 8.36208e-06 2.68665e+25 -0.17642 3.12311 272.082 
-1.40961e-05 8.36208e-06 2.68843e+25 -0.45845 6.69605 271.848 
-1.21847e-05 8.36208e-06 2.6943e+25 -1.72399 8.19186 271.438 
-1.02734e-05 8.36208e-06 2.69177e+25 -1.44466 8.90169 271.781 
-8.36208e-06 8.36208e-06 2.68689e+25 -1.50174 8.5601 271.977 
-6.45075e-06 8.36208e-06 2.68971e+25 -1.38686 7.64903 271.833 
-4.53942e-06 8.36208e-06 2.69151e+25 -0.980851 6.60953 271.796 
-2.62808e-06 8.36208e-06 2.68752e+25 -0.836824 5.75729 271.901 
-7.1675e-07 8.36208e-06 2.68721e+25 -0.223366 4.53753 272.055 
-1.60074e-05 8.83992e-06 2.68467e+25 -0.211479 3.36953 272.291 
-1.40961e-05 8.83992e-06 2.68765e+25 -0.655976 6.82713 272.038 
-1.21847e-05 8.83992e-06 2.69179e+25 -1.7413 8.33654 271.642 
-1.02734e-05 8.83992e-06 2.69064e+25 -1.8438 8.87587 271.765 
-8.36208e-06 8.83992e-06 2.68644e+25 -1.53758 8.61869 272.06 
-6.45075e-06 8.83992e-06 2.68704e+25 -1.1967 7.76948 272.052 
-4.53942e-06 8.83992e-06 2.68826e+25 -0.470539 6.3553 272.027 
-2.62808e-06 8.83992e-06 2.68605e+25 0.0488386 5.67874 272.074 
-7.1675e-07 8.83992e-06 2.68759e+25 0.569953 4.4307 272.076 
-1.60074e-05 9.31775e-06 2.68778e+25 -0.444118 3.55489 272.256 
-1.40961e-05 9.31775e-06 2.68526e+25 -1.02204 7.13745 272.07 
-1.21847e-05 9.31775e-06 2.69126e+25 -1.96018 8.48289 271.68 
-1.02734e-05 9.31775e-06 2.69086e+25 -2.04724 8.86613 271.814 
-8.36208e-06 9.31775e-06 2.68718e+25 -1.63905 8.54544 272.187 
-6.45075e-06 9.31775e-06 2.68777e+25 -1.02945 7.53774 272.119 
-4.53942e-06 9.31775e-06 2.69044e+25 0.0361933 6.11782 271.772 
-2.62808e-06 9.31775e-06 2.68739e+25 0.860718 5.53723 271.86 
-7.1675e-07 9.31775e-06 2.68678e+25 1.35175 4.27712 272.174 
-1.60074e-05 9.79558e-06 2.68677e+25 -0.367224 3.69529 272.195 
-1.40961e-05 9.79558e-06 2.68562e+25 -1.33538 7.53782 272.126 
-1.21847e-05 9.79558e-06 2.69008e+25 -2.12666 8.51367 271.806 
-1.02734e-05 9.79558e-06 2.69249e+25 -2.18853 8.7166 271.597 
-8.36208e-06 9.79558e-06 2.68673e+25 -1.55488 8.49813 272.117 
-6.45075e-06 9.79558e-06 2.68749e+25 -1.24677 7.18931 271.972 
-4.53942e-06 9.79558e-06 2.69078e+25 0.358828 5.7916 271.81 
-2.62808e-06 9.79558e-06 2.68865e+25 1.59062 5.42283 271.865 
-7.1675e-07 9.79558e-06 2.68893e+25 2.02355 4.12663 271.778 
-1.60074e-05 1.02734e-05 2.68591e+25 -0.422005 3.88458 272.234 
-1.40961e-05 1.02734e-05 2.68752e+25 -1.73041 7.85844 272.069 
-1.21847e-05 1.02734e-05 2.69217e+25 -2.32135 8.52241 271.654 
-1.02734e-05 1.02734e-05 2.69055e+25 -2.10439 8.37589 271.77 
-8.36208e-06 1.02734e-05 2.68572e+25 -1.24699 8.22777 272.255 
-6.45075e-06 1.02734e-05 2.68922e+25 -0.756295 6.96546 271.875 
-4.53942e-06 1.02734e-05 2.69142e+25 0.738549 5.42116 271.668 
-2.62808e-06 1.02734e-05 2.68761e+25 2.13847 5.20825 271.851 
-7.1675e-07 1.02734e-05 2.68806e+25 3.18236 3.88675 271.927 
-1.60074e-05 1.07512e-05 2.68326e+25 -0.500184 4.16112 272.304 
-1.40961e-05 1.07512e-05 2.6894e+25 -1.60001 8.19544 271.834 
-1.21847e-05 1.07512e-05 2.69047e+25 -2.19578 8.67566 271.755 
-1.02734e-05 1.07512e-05 2.69329e+25 -1.81631 8.14066 271.564 
-8.36208e-06 1.07512e-05 2.68879e+25 -0.94326 7.99085 272.093 
-6.45075e-06 1.07512e-05 2.68844e+25 0.119759 6.66175 271.964 
-4.53942e-06 1.07512e-05 2.69084e+25 1.41987 5.06849 271.719 
-2.62808e-06 1.07512e-05 2.68957e+25 3.09491 4.94201 271.87 
-7.1675e-07 1.07512e-05 2.68699e+25 4.24919 3.67943 272.033 
-1.60074e-05 1.12291e-05 2.68452e+25 -0.571881 4.58106 272.205 
-1.40961e-05 1.12291e-05 2.68484e+25 -1.8871 8.35574 272.021 
-1.21847e-05 1.12291e-05 2.6902e+25 -2.19524 8.70331 271.722 
-1.02734e-05 1.12291e-05 2.69423e+25 -1.7541 8.01157 271.406 
-8.36208e-06 1.12291e-05 2.68846e+25 -0.360876 7.66697 272.024 
-6.45075e-06 1.12291e-05 2.68991e+25 1.08001 6.24473 272.072 
-4.53942e-06 1.12291e-05 2.6897e+25 2.24825 4.69649 271.78 
-2.62808e-06 1.12291e-05 2.68698e+25 3.82787 4.57597 271.994 
-7.1675e-07 1.12291e-05 2.68448e+25 5.10435 3.52036 272.094 
-1.60074e-05 1.17069e-05 2.68215e+25 -0.627422 4.99557 272.372 
-1.40961e-05 1.17069e-05 2.6838e+25 -2.18788 8.44166 272.263 
-1.21847e-05 1.17069e-05 2.68765e+25 -2.25926 8.66255 271.946 
-1.02734e-05 1.17069e-05 2.69224e+25 -1.63938 7.56136 271.643 
-8.36208e-06 1.17069e-05 2.68771e+25 0.063625 7.30314 271.914 
-6.45075e-06 1.17069e-05 2.68837e+25 2.08681 5.84499 272.01 
-4.53942e-06 1.17069e-05 2.68805e+25 3.23954 4.42779 271.906 
-2.62808e-06 1.17069e-05 2.68745e+25 4.95715 4.18085 271.877 
-7.1675e-07 1.17069e-05 2.68886e+25 6.3863 3.32913 271.994 
-1.60074e-05 1.21847e-05 2.68035e+25 -0.640784 5.42817 272.494 
-1.40961e-05 1.21847e-05 2.68654e+25 -2.27538 8.67641 272.052 
-1.21847e-05 1.21847e-05 2.68802e+25 -2.35608 8.46261 271.949 
-1.02734e-05 1.21847e-05 2.69222e+25 -1.42064 7.12596 271.737 
-8.36208e-06 1.21847e-05 2.691e+25 0.502286 6.70325 271.94 
-6.45075e-06 1.21847e-05 2.6895e+25 2.91926 5.3929 271.859 
-4.53942e-06 1.21847e-05 2.69104e+25 4.35026 4.09627 271.796 
-2.62808e-06 1.21847e-05 2.68846e+25 6.13755 3.6934 272.09 
-7.1675e-07 1.21847e-05 2.68646e+25 7.8914 2.99521 272.002 
-1.60074e-05 1.26626e-05 2.68113e+25 -0.88039 5.89532 272.455 
-1.40961e-05 1.26626e-05 2.68434e+25 -2.54043 8.9206 272.287 
-1.21847e-05 1.26626e-05 2.6885e+25 -2.36415 8.18267 271.887 
-1.02734e-05 1.26626e-05 2.68717e+25 -0.836904 6.64367 272.004 
-8.36208e-06 1.26626e-05 2.6865e+25 1.50289 6.1931 272.116 
-6.45075e-06 1.26626e-05 2.68755e+25 3.972 4.93731 271.98 
-4.53942e-06 1.26626e-05 2.6864e+25 5.97766 3.82167 272.124 
-2.62808e-06 1.26626e-05 2.68622e+25 7.76802 3.10131 272.122 
-7.1675e-07 1.26626e-05 2.68397e+25 9.78194 2.4924 272.156 
-1.60074e-05 1.31404e-05 2.68147e+25 -1.14334 6.61155 272.376 
-1.40961e-05 1.31404e-05 2.68463e+25 -3.42699 9.13707 272.118 
-1.21847e-05 1.31404e-05 2.68793e+25 -2.26379 7.8562 271.935 
-1.02734e-05 1.31404e-05 2.6888e+25 0.0948651 6.08477 271.849 
-8.36208e-06 1.31404e-05 2.68528e+25 2.84933 5.41283 272.303 
-6.45075e-06 1.31404e-05 2.68695e+25 5.33286 4.29395 272.208 
-4.53942e-06 1.31404e-05 2.68394e+25 7.67411 3.40274 272.412 
-2.62808e-06 1.31404e-05 2.68853e+25 9.58805 2.53146 272.085 
-7.1675e-07 1.31404e-05 2.68584e+25 11.5344 1.99139 272.161 
-1.60074e-05 1.36182e-05 2.6785e+25 -1.86886 7.36447 272.403 
-1.40961e-05 1.36182e-05 2.68648e+25 -3.54206 9.11544 271.915 
-1.21847e-05 1.36182e-05 2.68619e+25 -1.71504 7.46815 272.232 
-1.02734e-05 1.36182e-05 2.68817e+25 1.40812 5.38944 271.926 
-8.36208e-06 1.36182e-05 2.68867e+25 4.53946 4.65328 272.166 
-6.45075e-06 1.36182e-05 2.6856e+25 7.26864 3.65175 272.212 
-4.53942e-06 1.36182e-05 2.68434e+25 9.72567 2.85923 272.453 
-2.62808e-06 1.36182e-05 2.68723e+25 11.7594 2.34171 272.068 
-7.1675e-07 1.36182e-05 2.68515e+25 13.414 1.6225 272.169 
-1.60074e-05 1.40961e-05 2.67907e+25 -1.87988 8.32937 272.142 
-1.40961e-05 1.40961e-05 2.68569e+25 -3.18678 8.82004 271.899 
-1.21847e-05 1.40961e-05 2.68379e+25 -0.429644 6.82166 272.274 
-1.02734e-05 1.40961e-05 2.68659e+25 3.18582 4.64381 272.173 
-8.36208e-06 1.40961e-05 2.69419e+25 6.29256 3.78225 271.778 
-6.45075e-06 1.40961e-05 2.68851e+25 9.51243 2.9986 272.226 
-4.53942e-06 1.40961e-05 2.68336e+25 12.1382 2.1472 272.538 
-2.62808e-06 1.40961e-05 2.68862e+25 13.9577 1.87787 272.08 
-7.1675e-07 1.40961e-05 2.68461e+25 15.1006 1.24521 272.352 
-1.60074e-05 1.45739e-05 2.67485e+25 -2.29608 9.25914 272.19 
-1.40961e-05 1.45739e-05 2.68232e+25 -2.34243 8.31025 272.157 
-1.21847e-05 1.45739e-05 2.68386e+25 1.6313 6.02136 272.248 
-1.02734e-05 1.45739e-05 2.68733e+25 5.56737 3.91242 272.175 
-8.36208e-06 1.45739e-05 2.69107e+25 8.88352 2.78769 271.923 
-6.45075e-06 1.45739e-05 2.68968e+25 12.1626 2.4104 272.101 
-4.53942e-06 1.45739e-05 2.68271e+25 14.7244 1.53104 272.443 
-2.62808e-06 1.45739e-05 2.68651e+25 16.381 1.46256 272.155 
-7.1675e-07 1.45739e-05 2.68658e+25 17.4808 0.908126 272.121 
-1.60074e-05 1.50518e-05 2.66928e+25 -2.92618 10.1029 272.561 
-1.40961e-05 1.50518e-05 2.67895e+25 -0.818812 7.27919 272.316 
-1.21847e-05 1.50518e-05 2.68292e+25 4.5278 4.79519 272.474 
-1.02734e-05 1.50518e-05 2.68683e+25 8.85137 3.10337 272.329 
-8.36208e-06 1.50518e-05 2.68658e+25 12.4559 1.98223 272.236 
-6.45075e-06 1.50518e-05 2.68706e+25 15.0564 1.80108 272.23 
-4.53942e-06 1.50518e-05 2.68313e+25 17.3345 0.9308 272.501 
-2.62808e-06 1.50518e-05 2.686e+25 19.0736 1.13439 272.363 
-7.1675e-07 1.50518e-05 2.68661e+25 20.2728 0.607054 272.147 
-1.60074e-05 1.55296e-05 2.6689e+25 -2.8689 10.5976 272.536 
-1.40961e-05 1.55296e-05 2.67929e+25 2.31958 5.81631 272.408 
-1.21847e-05 1.55296e-05 2.67912e+25 8.73715 3.33745 272.856 
-1.02734e-05 1.55296e-05 2.68489e+25 13.1757 2.21247 272.491 
-8.36208e-06 1.55296e-05 2.68699e+25 16.6926 1.25723 272.322 
-6.45075e-06 1.55296e-05 2.68297e+25 19.1173 1.14153 272.562 
-4.53942e-06 1.55296e-05 2.68312e+25 20.8105 0.558777 272.463 
-2.62808e-06 1.55296e-05 2.68323e+25 22.3431 0.771964 272.573 
-7.1675e-07 1.55296e-05 2.68352e+25 23.4766 0.243041 272.431 
-1.60074e-05 1.60074e-05 2.6636e+25 -0.941796 9.831 272.851 
-1.40961e-05 1.60074e-05 2.67842e+25 8.25354 3.91402 272.442 
-1.21847e-05 1.60074e-05 2.68019e+25 14.3831 2.0496 272.909 
-1.02734e-05 1.60074e-05 2.68155e+25 18.6505 1.31399 272.723 
-8.36208e-06 1.60074e-05 2.6851e+25 21.2532 0.664539 272.599 
-6.45075e-06 1.60074e-05 2.68107e+25 23.4235 0.628444 272.87 
-4.53942e-06 1.60074e-05 2.68303e+25 24.7723 0.196729 272.695 
-2.62808e-06 1.60074e-05 2.68234e+25 25.8216 0.52319 272.512 
-7.1675e-07 1.60074e-05 2.68523e+25 26.6037 0.136602 272.499 
-1.60074e-05 1.64852e-05 2.65327e+25 4.78974 6.95944 273.343 
-1.40961e-05 1.64852e-05 2.67921e+25 16.6378 1.94451 272.517 
-1.21847e-05 1.64852e-05 2.681e+25 21.7844 0.934303 273.085 
-1.02734e-05 1.64852e-05 2.68005e+25 24.7279 0.519411 272.98 
-8.36208e-06 1.64852e-05 2.68398e+25 26.4215 0.359366 272.58 
-6.45075e-06 1.64852e-05 2.68168e+25 28.0487 0.256944 272.956 
-4.53942e-06 1.64852e-05 2.68311e+25 28.6284 0.0808683 272.676 
-2.62808e-06 1.64852e-05 2.68445e+25 29.2008 0.160138 272.509 
-7.1675e-07 1.64852e-05 2.68226e+25 30.0462 0.0616785 272.576 
-1.60074e-05 1.69631e-05 2.64907e+25 18.2458 2.15338 273.572 
-1.40961e-05 1.69631e-05 2.67698e+25 27.062 0.45153 272.955 
-1.21847e-05 1.69631e-05 2.67929e+25 29.6496 0.233345 273.059 
-1.02734e-05 1.69631e-05 2.67937e+25 30.8895 0.0867552 273.093 
-8.36208e-06 1.69631e-05 2.68254e+25 31.4556 0.108091 272.877 
-6.45075e-06 1.69631e-05 2.68318e+25 32.0347 0.0716364 273.074 
-4.53942e-06 1.69631e-05 2.68069e+25 32.3191 0.113753 272.912 
-2.62808e-06 1.69631e-05 2.68142e+25 32.5427 -0.0291141 272.667 
-7.1675e-07 1.69631e-05 2.68052e+25 32.952 0.0114395 272.806 
-1.55296e-05 2.38917e-07 2.68654e+25 -0.0477154 2.78887 272.144 
-1.36182e-05 2.38917e-07 2.68783e+25 -0.372668 4.37671 271.969 
-1.17069e-05 2.38917e-07 2.68665e+25 -1.68054 5.69268 272.047 
-9.79558e-06 2.38917e-07 2.68954e+25 -2.62566 5.80171 271.892 
-7.88425e-06 2.38917e-07 2.69318e+25 -3.6554 5.87132 271.765 
-5.97292e-06 2.38917e-07 2.69068e+25 -4.25873 5.62879 271.703 
-4.06158e-06 2.38917e-07 2.6898e+25 -5.58538 4.60608 271.774 
-2.15025e-06 2.38917e-07 2.68572e+25 -6.9197 3.7253 272.301 
-2.38917e-07 2.38917e-07 2.6836e+25 -7.48812 2.2979 272.276 
-1.55296e-05 7.1675e-07 2.69174e+25 -0.197141 2.79914 271.987 
-1.36182e-05 7.1675e-07 2.68939e+25 -0.382972 4.42196 272.051 
-1.17069e-05 7.1675e-07 2.69163e+25 -1.72344 6.03096 271.825 
-9.79558e-06 7.1675e-07 2.68977e+25 -2.98511 5.86973 271.957 
-7.88425e-06 7.1675e-07 2.69163e+25 -3.4832 5.962 271.793 
-5.97292e-06 7.1675e-07 2.6934e+25 -4.32289 5.80461 271.76 
-4.06158e-06 7.1675e-07 2.69035e+25 -5.44121 4.86922 271.868 
-2.15025e-06 7.1675e-07 2.68768e+25 -6.73512 3.91541 272.11 
-2.38917e-07 7.1675e-07 2.68282e+25 -7.23116 2.47032 272.274 
-1.55296e-05 1.19458e-06 2.69114e+25 -0.156357 2.80777 271.948 
-1.36182e-05 1.19458e-06 2.69127e+25 -0.611768 4.54894 271.986 
-1.17069e-05 1.19458e-06 2.69197e+25 -1.77288 6.23863 271.777 
-9.79558e-06 1.19458e-06 2.69368e+25 -2.91086 5.96319 271.708 
-7.88425e-06 1.19458e-06 2.69325e+25 -3.15872 6.19873 271.853 
-5.97292e-06 1.19458e-06 2.69465e+25 -4.2218 6.0715 271.594 
-4.06158e-06 1.19458e-06 2.69084e+25 -5.21264 5.14792 271.938 
-2.15025e-06 1.19458e-06 2.68845e+25 -6.38639 4.12296 272.139 
-2.38917e-07 1.19458e-06 2.68335e+25 -6.85949 2.58007 272.199 
-1.55296e-05 1.67242e-06 2.6899e+25 0.137855 2.8662 272.142 
-1.36182e-05 1.67242e-06 2.69091e+25 -0.776723 4.8739 271.9 
-1.17069e-05 1.67242e-06 2.68875e+25 -1.64409 6.45499 271.848 
-9.79558e-06 1.67242e-06 2.69234e+25 -2.83775 6.30003 271.705 
-7.88425e-06 1.67242e-06 2.69382e+25 -3.18981 6.36862 271.683 
-5.97292e-06 1.67242e-06 2.69484e+25 -4.09219 6.22978 271.477 
-4.06158e-06 1.67242e-06 2.69086e+25 -5.08713 5.52732 271.861 
-2.15025e-06 1.67242e-06 2.68698e+25 -6.01437 4.32606 272.246 
-2.38917e-07 1.67242e-06 2.68576e+25 -6.43186 2.56202 272.042 
-1.55296e-05 2.15025e-06 2.68569e+25 0.163894 3.08528 272.338 
-1.36182e-05 2.15025e-06 2.68731e+25 -0.9731 5.14733 272.018 
-1.17069e-05 2.15025e-06 2.69431e+25 -1.67841 6.74192 271.415 
-9.79558e-06 2.15025e-06 2.694e+25 -2.79261 6.57315 271.615 
-7.88425e-06 2.15025e-06 2.69455e+25 -3.48793 6.59848 271.668 
-5.97292e-06 2.15025e-06 2.69319e+25 -4.1871 6.45329 271.626 
-4.06158e-06 2.15025e-06 2.68919e+25 -4.85042 5.85445 271.882 
-2.15025e-06 2.15025e-06 2.68442e+25 -5.71712 4.52842 272.3 
-2.38917e-07 2.15025e-06 2.68545e+25 -6.24026 2.72597 272.144 
-1.55296e-05 2.62808e-06 2.68658e+25 -0.126684 3.28822 272.34 
-1.36182e-05 2.62808e-06 2.69422e+25 -0.771116 5.48655 271.723 
-1.17069e-05 2.62808e-06 2.69525e+25 -1.76701 7.07265 271.388 
-9.79558e-06 2.62808e-06 2.69644e+25 -2.61031 6.88915 271.568 
-7.88425e-06 2.62808e-06 2.69396e+25 -3.54648 6.78472 271.459 
-5.97292e-06 2.62808e-06 2.69279e+25 -4.01076 6.55248 271.783 
-4.06158e-06 2.62808e-06 2.68925e+25 -4.69043 6.12146 272.048 
-2.15025e-06 2.62808e-06 2.68704e+25 -5.28013 4.62038 272.373 
-2.38917e-07 2.62808e-06 2.68348e+25 -6.00104 3.01345 272.25 
-1.55296e-05 3.10592e-06 2.68885e+25 0.00195259 3.27066 272.209 
-1.36182e-05 3.10592e-06 2.69415e+25 -0.61071 5.62144 271.71 
-1.17069e-05 3.10592e-06 2.69483e+25 -1.89638 7.34501 271.413 
-9.79558e-06 3.10592e-06 2.69574e+25 -2.4046 7.14442 271.52 
-7.88425e-06 3.10592e-06 2.69564e+25 -3.29811 6.93769 271.459 
-5.97292e-06 3.10592e-06 2.6926e+25 -4.01532 6.7532 271.698 
-4.06158e-06 3.10592e-06 2.69234e+25 -4.76549 6.25064 271.9 
-2.15025e-06 3.10592e-06 2.68761e+25 -5.06934 4.7525 272.215 
-2.38917e-07 3.10592e-06 2.68126e+25 -5.85928 3.20803 272.32 
-1.55296e-05 3.58375e-06 2.69011e+25 -0.197681 3.11693 272.147 
-1.36182e-05 3.58375e-06 2.69388e+25 -0.668644 5.88768 271.698 
-1.17069e-05 3.58375e-06 2.69438e+25 -1.56338 7.40893 271.546 
-9.79558e-06 3.58375e-06 2.69454e+25 -2.12308 7.28071 271.505 
-7.88425e-06 3.58375e-06 2.69368e+25 -3.08843 7.21942 271.642 
-5.97292e-06 3.58375e-06 2.69179e+25 -3.73588 6.9277 271.658 
-4.06158e-06 3.58375e-06 2.6886e+25 -4.41147 6.3309 272.026 
-2.15025e-06 3.58375e-06 2.68632e+25 -4.78145 4.89582 272.159 
-2.38917e-07 3.58375e-06 2.67921e+25 -5.37799 3.46722 272.496 
-1.55296e-05 4.06158e-06 2.68964e+25 -0.131658 3.04416 271.942 
-1.36182e-05 4.06158e-06 2.69388e+25 -0.832784 6.20639 271.706 
-1.17069e-05 4.06158e-06 2.69229e+25 -1.38789 7.23523 271.813 
-9.79558e-06 4.06158e-06 2.69447e+25 -1.66395 7.54842 271.555 
-7.88425e-06 4.06158e-06 2.69412e+25 -2.6318 7.43618 271.613 
-5.97292e-06 4.06158e-06 2.69084e+25 -3.37185 6.99904 271.979 
-4.06158e-06 4.06158e-06 2.69014e+25 -3.95029 6.39974 271.867 
-2.15025e-06 4.06158e-06 2.6872e+25 -4.50411 5.07376 272.124 
-2.38917e-07 4.06158e-06 2.6803e+25 -4.98196 3.75355 272.426 
-1.55296e-05 4.53942e-06 2.68745e+25 -0.266947 3.1363 272.062 
-1.36182e-05 4.53942e-06 2.68946e+25 -1.05397 6.37722 271.931 
-1.17069e-05 4.53942e-06 2.69146e+25 -1.1856 7.2892 271.817 
-9.79558e-06 4.53942e-06 2.69252e+25 -1.44705 7.75323 271.601 
-7.88425e-06 4.53942e-06 2.69214e+25 -2.41234 7.60538 271.704 
-5.97292e-06 4.53942e-06 2.69104e+25 -3.01796 7.08423 271.795 
-4.06158e-06 4.53942e-06 2.68435e+25 -3.60463 6.62538 272.131 
-2.15025e-06 4.53942e-06 2.68481e+25 -4.02864 5.19286 272.169 
-2.38917e-07 4.53942e-06 2.68171e+25 -4.46683 3.92952 272.447 
-1.55296e-05 5.01725e-06 2.6899e+25 -0.248306 3.39651 272.015 
-1.36182e-05 5.01725e-06 2.68871e+25 -0.58669 6.4087 272.03 
-1.17069e-05 5.01725e-06 2.69164e+25 -1.04478 7.54457 271.802 
-9.79558e-06 5.01725e-06 2.69277e+25 -1.64013 7.79935 271.658 
-7.88425e-06 5.01725e-06 2.69119e+25 -2.26589 7.80035 271.809 
-5.97292e-06 5.01725e-06 2.68885e+25 -2.87974 7.31797 271.878 
-4.06158e-06 5.01725e-06 2.68663e+25 -3.33974 6.68543 272.244 
-2.15025e-06 5.01725e-06 2.68576e+25 -3.61806 5.30398 272.229 
-2.38917e-07 5.01725e-06 2.68595e+25 -4.19313 4.06185 272.161 
-1.55296e-05 5.49508e-06 2.68927e+25 -0.168309 3.71299 272.091 
-1.36182e-05 5.49508e-06 2.69219e+25 -0.712073 6.44059 271.738 
-1.17069e-05 5.49508e-06 2.69038e+25 -1.11447 7.87137 271.78 
-9.79558e-06 5.49508e-06 2.69416e+25 -1.78225 7.90611 271.485 
-7.88425e-06 5.49508e-06 2.69205e+25 -2.41427 8.1087 271.603 
-5.97292e-06 5.49508e-06 2.68937e+25 -2.90788 7.43305 272.009 
-4.06158e-06 5.49508e-06 2.68777e+25 -2.90762 6.58468 272.042 
-2.15025e-06 5.49508e-06 2.68608e+25 -3.14889 5.36763 272.15 
-2.38917e-07 5.49508e-06 2.6848e+25 -3.90711 4.1604 272.056 
-1.55296e-05 5.97292e-06 2.68655e+25 -0.229731 3.96717 272.144 
-1.36182e-05 5.97292e-06 2.69212e+25 -0.729439 6.46257 271.775 
-1.17069e-05 5.97292e-06 2.69181e+25 -0.997407 8.16609 271.738 
-9.79558e-06 5.97292e-06 2.69232e+25 -1.73552 7.9549 271.562 
-7.88425e-06 5.97292e-06 2.6931e+25 -2.54172 8.21258 271.556 
-5.97292e-06 5.97292e-06 2.68895e+25 -2.61628 7.49019 271.854 
-4.06158e-06 5.97292e-06 2.6888e+25 -2.63628 6.45907 271.978 
-2.15025e-06 5.97292e-06 2.6884e+25 -2.85841 5.47165 271.912 
-2.38917e-07 5.97292e-06 2.68228e+25 -3.2636 4.21214 272.13 
-1.55296e-05 6.45075e-06 2.68452e+25 -0.124295 3.94647 272.168 
-1.36182e-05 6.45075e-06 2.6898e+25 -0.769329 6.52971 271.924 
-1.17069e-05 6.45075e-06 2.69255e+25 -0.902071 8.36018 271.655 
-9.79558e-06 6.45075e-06 2.69291e+25 -1.82998 8.15276 271.617 
-7.88425e-06 6.45075e-06 2.69639e+25 -2.55024 8.21027 271.462 
-5.97292e-06 6.45075e-06 2.69079e+25 -2.60133 7.50901 271.819 
-4.06158e-06 6.45075e-06 2.68778e+25 -2.30071 6.37769 271.989 
-2.15025e-06 6.45075e-06 2.69048e+25 -2.43359 5.43917 271.708 
-2.38917e-07 6.45075e-06 2.68624e+25 -2.60894 4.39685 271.942 
-1.55296e-05 6.92858e-06 2.68578e+25 -0.260907 4.04582 272.403 
-1.36182e-05 6.92858e-06 2.69218e+25 -0.74605 6.634 271.85 
-1.17069e-05 6.92858e-06 2.6942e+25 -1.08221 8.3865 271.409 
-9.79558e-06 6.92858e-06 2.69445e+25 -1.85064 8.43074 271.41 
-7.88425e-06 6.92858e-06 2.69322e+25 -2.0887 8.26046 271.429 
-5.97292e-06 6.92858e-06 2.68664e+25 -2.09845 7.52128 272.042 
-4.06158e-06 6.92858e-06 2.69073e+25 -1.99193 6.3679 271.63 
-2.15025e-06 6.92858e-06 2.69166e+25 -2.06785 5.4332 271.669 
-2.38917e-07 6.92858e-06 2.68495e+25 -2.27567 4.42016 271.841 
-1.55296e-05 7.40642e-06 2.68704e+25 -0.247509 4.08759 272.27 
-1.36182e-05 7.40642e-06 2.69084e+25 -0.752042 6.80669 271.768 
-1.17069e-05 7.40642e-06 2.69589e+25 -1.38428 8.41372 271.403 
-9.79558e-06 7.40642e-06 2.69036e+25 -1.52808 8.67222 271.759 
-7.88425e-06 7.40642e-06 2.69277e+25 -1.83147 8.26513 271.521 
-5.97292e-06 7.40642e-06 2.69134e+25 -1.94835 7.39332 271.725 
-4.06158e-06 7.40642e-06 2.68972e+25 -1.75531 6.39845 271.902 
-2.15025e-06 7.40642e-06 2.68932e+25 -1.62947 5.54996 271.773 
-2.38917e-07 7.40642e-06 2.68471e+25 -1.58988 4.22147 271.905 
-1.55296e-05 7.88425e-06 2.68813e+25 -0.27798 4.32715 272.109 
-1.36182e-05 7.88425e-06 2.69134e+25 -0.803178 6.97016 271.784 
-1.17069e-05 7.88425e-06 2.69338e+25 -1.24525 8.42824 271.445 
-9.79558e-06 7.88425e-06 2.68926e+25 -1.43879 8.83771 271.918 
-7.88425e-06 7.88425e-06 2.69165e+25 -1.70748 8.27968 271.708 
-5.97292e-06 7.88425e-06 2.69014e+25 -1.71251 7.3851 271.734 
-4.06158e-06 7.88425e-06 2.68657e+25 -1.304 6.50142 271.975 
-2.15025e-06 7.88425e-06 2.69093e+25 -1.22193 5.60346 271.676 
-2.38917e-07 7.88425e-06 2.68459e+25 -0.870182 4.11078 272.011 
-1.55296e-05 8.36208e-06 2.68623e+25 -0.378578 4.48783 272.224 
-1.36182e-05 8.36208e-06 2.68921e+25 -0.684101 7.2543 272.073 
-1.17069e-05 8.36208e-06 2.69175e+25 -1.59048 8.41127 271.556 
-9.79558e-06 8.36208e-06 2.69142e+25 -1.54401 8.82418 271.694 
-7.88425e-06 8.36208e-06 2.69023e+25 -1.57721 8.29599 271.834 
-5.97292e-06 8.36208e-06 2.69106e+25 -1.49576 7.38918 271.888 
-4.06158e-06 8.36208e-06 2.68812e+25 -0.787061 6.49089 271.944 
-2.15025e-06 8.36208e-06 2.68799e+25 -0.670478 5.42722 271.81 
-2.38917e-07 8.36208e-06 2.68465e+25 -0.156268 4.06961 272.074 
-1.55296e-05 8.83992e-06 2.68479e+25 -0.340424 4.64011 272.292 
-1.36182e-05 8.83992e-06 2.68984e+25 -1.06629 7.66203 271.953 
-1.17069e-05 8.83992e-06 2.69461e+25 -1.82401 8.32579 271.566 
-9.79558e-06 8.83992e-06 2.69313e+25 -1.74781 8.88252 271.589 
-7.88425e-06 8.83992e-06 2.6884e+25 -1.44261 8.20532 271.964 
-5.97292e-06 8.83992e-06 2.68586e+25 -1.11913 7.27269 272.241 
-4.06158e-06 8.83992e-06 2.69078e+25 -0.279548 6.45334 271.711 
-2.15025e-06 8.83992e-06 2.68945e+25 0.180551 5.28467 271.823 
-2.38917e-07 8.83992e-06 2.6834e+25 0.797283 3.94201 272.154 
-1.55296e-05 9.31775e-06 2.68677e+25 -0.538299 4.69986 272.193 
-1.36182e-05 9.31775e-06 2.68917e+25 -1.2639 7.9774 271.971 
-1.17069e-05 9.31775e-06 2.68997e+25 -1.91504 8.23595 271.694 
-9.79558e-06 9.31775e-06 2.69441e+25 -1.90493 8.71306 271.453 
-7.88425e-06 9.31775e-06 2.68712e+25 -1.58429 8.14234 272.107 
-5.97292e-06 9.31775e-06 2.68798e+25 -0.742896 7.14821 272.28 
-4.06158e-06 9.31775e-06 2.69184e+25 0.179433 6.28999 271.626 
-2.15025e-06 9.31775e-06 2.68746e+25 0.914495 5.20947 271.899 
-2.38917e-07 9.31775e-06 2.68551e+25 1.49481 3.77956 271.865 
-1.55296e-05 9.79558e-06 2.68635e+25 -0.520655 4.82394 272.056 
-1.36182e-05 9.79558e-06 2.68795e+25 -1.66773 8.23223 271.922 
-1.17069e-05 9.79558e-06 2.691e+25 -2.26408 8.30358 271.822 
-9.79558e-06 9.79558e-06 2.69106e+25 -1.91858 8.52513 271.528 
-7.88425e-06 9.79558e-06 2.68857e+25 -1.36435 7.92084 272.22 
-5.97292e-06 9.79558e-06 2.68769e+25 -0.878535 6.80884 272.043 
-4.06158e-06 9.79558e-06 2.69135e+25 0.72311 6.04825 271.71 
-2.15025e-06 9.79558e-06 2.68875e+25 1.76191 5.071 271.804 
-2.38917e-07 9.79558e-06 2.68478e+25 2.25034 3.55133 271.774 
-1.55296e-05 1.02734e-05 2.68799e+25 -0.718818 5.05685 272.082 
-1.36182e-05 1.02734e-05 2.68827e+25 -1.94614 8.42987 271.917 
-1.17069e-05 1.02734e-05 2.6911e+25 -2.38377 8.50546 271.758 
-9.79558e-06 1.02734e-05 2.69097e+25 -1.84904 8.31009 271.746 
-7.88425e-06 1.02734e-05 2.68608e+25 -1.11869 7.87752 272.224 
-5.97292e-06 1.02734e-05 2.68722e+25 -0.451017 6.27874 272.098 
-4.06158e-06 1.02734e-05 2.69233e+25 1.28824 5.59474 271.512 
-2.15025e-06 1.02734e-05 2.68763e+25 2.3674 4.92698 271.82 
-2.38917e-07 1.02734e-05 2.68531e+25 3.22141 3.48788 271.903 
-1.55296e-05 1.07512e-05 2.68734e+25 -0.863069 5.4044 272.113 
-1.36182e-05 1.07512e-05 2.68987e+25 -1.85057 8.53635 271.882 
-1.17069e-05 1.07512e-05 2.69037e+25 -2.28322 8.55205 271.739 
-9.79558e-06 1.07512e-05 2.69244e+25 -1.66948 8.10373 271.549 
-7.88425e-06 1.07512e-05 2.68369e+25 -0.744168 7.91232 272.225 
-5.97292e-06 1.07512e-05 2.68861e+25 0.432784 6.01023 272.055 
-4.06158e-06 1.07512e-05 2.69153e+25 1.76232 5.0609 271.514 
-2.15025e-06 1.07512e-05 2.68606e+25 3.42762 4.62861 272.008 
-2.38917e-07 1.07512e-05 2.6849e+25 4.51236 3.4086 271.825 
-1.55296e-05 1.12291e-05 2.69024e+25 -1.06142 5.73481 271.886 
-1.36182e-05 1.12291e-05 2.68792e+25 -1.9467 8.70277 272.153 
-1.17069e-05 1.12291e-05 2.69162e+25 -2.17616 8.51413 271.736 
-9.79558e-06 1.12291e-05 2.6925e+25 -1.45096 7.88487 271.35 
-7.88425e-06 1.12291e-05 2.68576e+25 -0.0263044 7.69833 272.229 
-5.97292e-06 1.12291e-05 2.68948e+25 1.42772 5.78574 271.933 
-4.06158e-06 1.12291e-05 2.68966e+25 2.57893 4.67623 271.686 
-2.15025e-06 1.12291e-05 2.68831e+25 4.2406 4.23629 271.905 
-2.38917e-07 1.12291e-05 2.68767e+25 5.22401 3.27931 271.84 
-1.55296e-05 1.17069e-05 2.68634e+25 -0.965061 6.13856 272.021 
-1.36182e-05 1.17069e-05 2.68388e+25 -2.29091 8.82282 272.364 
-1.17069e-05 1.17069e-05 2.69136e+25 -2.1864 8.46389 271.761 
-9.79558e-06 1.17069e-05 2.69483e+25 -1.18676 7.54066 271.473 
-7.88425e-06 1.17069e-05 2.68713e+25 0.611701 7.17248 272.102 
-5.97292e-06 1.17069e-05 2.6854e+25 2.50508 5.42665 272.137 
-4.06158e-06 1.17069e-05 2.68977e+25 3.53241 4.34841 271.893 
-2.15025e-06 1.17069e-05 2.68832e+25 5.35518 3.8963 271.806 
-2.38917e-07 1.17069e-05 2.68475e+25 6.77693 2.958 272.09 
-1.55296e-05 1.21847e-05 2.68252e+25 -1.24077 6.65063 272.304 
-1.36182e-05 1.21847e-05 2.6874e+25 -2.56058 8.96425 272.141 
-1.17069e-05 1.21847e-05 2.69028e+25 -2.16223 8.46501 271.81 
-9.79558e-06 1.21847e-05 2.69e+25 -1.03788 7.05424 271.768 
-7.88425e-06 1.21847e-05 2.68837e+25 1.11313 6.57182 272.032 
-5.97292e-06 1.21847e-05 2.68883e+25 3.40101 5.03829 272.008 
-4.06158e-06 1.21847e-05 2.68935e+25 4.78643 3.94952 271.857 
-2.15025e-06 1.21847e-05 2.68719e+25 6.64057 3.377 272.099 
-2.38917e-07 1.21847e-05 2.68397e+25 8.36454 2.63341 272.119 
-1.55296e-05 1.26626e-05 2.68187e+25 -1.47816 7.30019 272.415 
-1.36182e-05 1.26626e-05 2.68552e+25 -2.79791 9.26975 272.15 
-1.17069e-05 1.26626e-05 2.68742e+25 -2.0157 8.24896 271.966 
-9.79558e-06 1.26626e-05 2.68883e+25 -0.307127 6.68057 271.989 
-7.88425e-06 1.26626e-05 2.6868e+25 2.12738 5.89708 272.167 
-5.97292e-06 1.26626e-05 2.68625e+25 4.56143 4.40117 272.165 
-4.06158e-06 1.26626e-05 2.68837e+25 6.22176 3.54113 272.05 
-2.15025e-06 1.26626e-05 2.68765e+25 8.36664 2.91419 272.131 
-2.38917e-07 1.26626e-05 2.6811e+25 10.1641 2.3125 272.32 
-1.55296e-05 1.31404e-05 2.68277e+25 -1.83654 7.92825 272.166 
-1.36182e-05 1.31404e-05 2.68489e+25 -3.28775 9.18839 271.954 
-1.17069e-05 1.31404e-05 2.6858e+25 -1.85979 7.75497 272.165 
-9.79558e-06 1.31404e-05 2.6921e+25 0.753676 6.01623 271.69 
-7.88425e-06 1.31404e-05 2.68646e+25 3.57962 5.32576 272.342 
-5.97292e-06 1.31404e-05 2.68739e+25 5.9174 3.90454 272.196 
-4.06158e-06 1.31404e-05 2.68473e+25 8.22961 3.15128 272.269 
-2.15025e-06 1.31404e-05 2.68648e+25 10.0509 2.34965 272.066 
-2.38917e-07 1.31404e-05 2.68223e+25 11.9483 2.00393 272.201 
-1.55296e-05 1.36182e-05 2.68281e+25 -2.69951 8.68642 272.121 
-1.36182e-05 1.36182e-05 2.68578e+25 -3.22551 8.79328 271.989 
-1.17069e-05 1.36182e-05 2.68503e+25 -0.976192 7.00017 272.262 
-9.79558e-06 1.36182e-05 2.69081e+25 2.1535 5.26472 271.711 
-7.88425e-06 1.36182e-05 2.68784e+25 5.2949 4.56501 272.242 
-5.97292e-06 1.36182e-05 2.68959e+25 7.9059 3.27535 272.14 
-4.06158e-06 1.36182e-05 2.68375e+25 10.3967 2.5178 272.471 
-2.15025e-06 1.36182e-05 2.68561e+25 11.979 1.92713 272.172 
-2.38917e-07 1.36182e-05 2.68216e+25 13.7068 1.75512 272.255 
-1.55296e-05 1.40961e-05 2.67863e+25 -2.76313 9.4659 272.397 
-1.36182e-05 1.40961e-05 2.68678e+25 -2.57501 8.17319 271.92 
-1.17069e-05 1.40961e-05 2.68291e+25 0.309209 6.20021 272.412 
-9.79558e-06 1.40961e-05 2.68882e+25 3.92958 4.49541 271.895 
-7.88425e-06 1.40961e-05 2.68898e+25 7.3372 3.77414 272.083 
-5.97292e-06 1.40961e-05 2.68774e+25 10.1861 2.63726 272.201 
-4.06158e-06 1.40961e-05 2.68498e+25 12.7009 1.89774 272.5 
-2.15025e-06 1.40961e-05 2.68625e+25 14.3389 1.73507 272.274 
-2.38917e-07 1.40961e-05 2.68182e+25 15.6391 1.30928 272.265 
-1.55296e-05 1.45739e-05 2.67723e+25 -2.98352 10.033 272.311 
-1.36182e-05 1.45739e-05 2.68291e+25 -1.5644 7.44083 272.136 
-1.17069e-05 1.45739e-05 2.68468e+25 2.60027 5.30993 272.51 
-9.79558e-06 1.45739e-05 2.68865e+25 6.35877 3.70219 272.085 
-7.88425e-06 1.45739e-05 2.6909e+25 9.84424 2.7863 272.08 
-5.97292e-06 1.45739e-05 2.68818e+25 12.7366 1.98193 272.103 
-4.06158e-06 1.45739e-05 2.68438e+25 15.2037 1.51963 272.401 
-2.15025e-06 1.45739e-05 2.6873e+25 16.7431 1.50443 272.23 
-2.38917e-07 1.45739e-05 2.68381e+25 17.8233 0.84475 272.197 
-1.55296e-05 1.50518e-05 2.67496e+25 -3.2104 10.2065 272.518 
-1.36182e-05 1.50518e-05 2.68331e+25 0.473761 6.36998 272.209 
-1.17069e-05 1.50518e-05 2.68056e+25 5.88616 4.26429 272.641 
-9.79558e-06 1.50518e-05 2.68582e+25 9.69271 2.8337 272.329 
-7.88425e-06 1.50518e-05 2.6874e+25 13.1362 1.88254 272.252 
-5.97292e-06 1.50518e-05 2.68795e+25 15.7517 1.30344 272.207 
-4.06158e-06 1.50518e-05 2.68576e+25 17.7739 1.05407 272.336 
-2.15025e-06 1.50518e-05 2.68406e+25 19.47 1.13548 272.53 
-2.38917e-07 1.50518e-05 2.68472e+25 20.7503 0.422395 272.196 
-1.55296e-05 1.55296e-05 2.67024e+25 -2.30992 9.60258 272.823 
-1.36182e-05 1.55296e-05 2.68204e+25 3.98912 4.92666 272.474 
-1.17069e-05 1.55296e-05 2.67848e+25 10.0538 2.95165 272.978 
-9.79558e-06 1.55296e-05 2.68423e+25 14.0627 1.92069 272.5 
-7.88425e-06 1.55296e-05 2.68658e+25 17.3241 1.33018 272.379 
-5.97292e-06 1.55296e-05 2.68508e+25 19.6187 0.789755 272.509 
-4.06158e-06 1.55296e-05 2.68394e+25 21.1577 0.637293 272.396 
-2.15025e-06 1.55296e-05 2.6839e+25 22.5727 0.805649 272.599 
-2.38917e-07 1.55296e-05 2.6794e+25 23.6731 0.190269 272.491 
-1.55296e-05 1.60074e-05 2.66787e+25 1.24862 7.90237 272.756 
-1.36182e-05 1.60074e-05 2.67956e+25 10.0961 3.1662 272.572 
-1.17069e-05 1.60074e-05 2.6808e+25 15.612 1.70553 272.979 
-9.79558e-06 1.60074e-05 2.68262e+25 19.4784 1.07106 272.813 
-7.88425e-06 1.60074e-05 2.68441e+25 21.7279 0.713048 272.424 
-5.97292e-06 1.60074e-05 2.68474e+25 23.7943 0.333892 272.582 
-4.06158e-06 1.60074e-05 2.6851e+25 25.1192 0.264728 272.488 
-2.15025e-06 1.60074e-05 2.68268e+25 26.1332 0.496601 272.605 
-2.38917e-07 1.60074e-05 2.68122e+25 26.7917 0.000518376 272.527 
-1.55296e-05 1.64852e-05 2.66164e+25 8.5803 4.79408 273.186 
-1.36182e-05 1.64852e-05 2.67853e+25 18.2776 1.50015 272.859 
-1.17069e-05 1.64852e-05 2.67997e+25 22.6358 0.735541 272.987 
-9.79558e-06 1.64852e-05 2.6803e+25 25.2739 0.414238 272.855 
-7.88425e-06 1.64852e-05 2.68311e+25 26.7631 0.307982 272.586 
-5.97292e-06 1.64852e-05 2.68215e+25 28.245 0.133391 272.748 
-4.06158e-06 1.64852e-05 2.68143e+25 28.6249 -0.00789018 272.942 
-2.15025e-06 1.64852e-05 2.6832e+25 29.551 0.229949 272.63 
-2.38917e-07 1.64852e-05 2.67975e+25 30.0672 -0.0521292 272.65 
-1.55296e-05 1.69631e-05 2.66513e+25 21.9258 1.34603 273.258 
-1.36182e-05 1.69631e-05 2.67948e+25 27.9897 0.298748 272.914 
-1.17069e-05 1.69631e-05 2.67948e+25 30.0713 0.173198 273.2 
-9.79558e-06 1.69631e-05 2.68252e+25 31.0981 0.0295818 272.959 
-7.88425e-06 1.69631e-05 2.68353e+25 31.5951 0.0435756 272.923 
-5.97292e-06 1.69631e-05 2.68047e+25 32.1425 0.0263413 273.037 
-4.06158e-06 1.69631e-05 2.67807e+25 32.3984 -0.0157868 273.069 
-2.15025e-06 1.69631e-05 2.67929e+25 32.5686 0.0717856 272.872 
-2.38917e-07 1.69631e-05 2.68072e+25 32.9747 -0.0540844 272.638 
1.19458e-06 -1.69631e-05 2.68176e+25 -0.239911 -0.00677797 272.992 
3.10592e-06 -1.69631e-05 2.6826e+25 -0.231616 -0.107992 272.95 
5.01725e-06 -1.69631e-05 2.68604e+25 -0.232121 0.0978711 272.73 
6.92858e-06 -1.69631e-05 2.68418e+25 -0.38479 -0.0244153 272.791 
8.83992e-06 -1.69631e-05 2.68528e+25 -0.355767 -0.0141463 272.874 
1.07512e-05 -1.69631e-05 2.68535e+25 -0.0509796 -0.0813961 272.796 
1.26626e-05 -1.69631e-05 2.68443e+25 -0.0967969 -0.0180831 272.75 
1.45739e-05 -1.69631e-05 2.6828e+25 0.0853559 0.025633 272.915 
1.64852e-05 -1.69631e-05 2.68139e+25 -0.0585404 0.0168734 272.986 
1.19458e-06 -1.64852e-05 2.68418e+25 -0.511683 -0.0339615 272.769 
3.10592e-06 -1.64852e-05 2.68721e+25 -0.316651 -0.285706 272.645 
5.01725e-06 -1.64852e-05 2.68433e+25 -0.486439 0.3143 272.745 
6.92858e-06 -1.64852e-05 2.6885e+25 -0.665316 -0.06408 272.488 
8.83992e-06 -1.64852e-05 2.68723e+25 -0.461054 -0.0346113 272.53 
1.07512e-05 -1.64852e-05 2.68872e+25 -0.302226 -0.256901 272.423 
1.26626e-05 -1.64852e-05 2.68577e+25 -0.136355 -0.0013944 272.602 
1.45739e-05 -1.64852e-05 2.68797e+25 -0.118347 -0.0209858 272.693 
1.64852e-05 -1.64852e-05 2.68552e+25 0.0308089 -0.0283077 272.711 
1.19458e-06 -1.60074e-05 2.68838e+25 -0.867016 -0.156176 272.317 
3.10592e-06 -1.60074e-05 2.69145e+25 -0.56965 -0.13617 272.06 
5.01725e-06 -1.60074e-05 2.6871e+25 -0.943545 0.374463 272.655 
6.92858e-06 -1.60074e-05 2.69166e+25 -0.831056 -0.120155 272.255 
8.83992e-06 -1.60074e-05 2.68685e+25 -0.729691 -0.181938 272.537 
1.07512e-05 -1.60074e-05 2.69229e+25 -0.512414 -0.207308 272.072 
1.26626e-05 -1.60074e-05 2.68868e+25 -0.126093 0.0273357 272.338 
1.45739e-05 -1.60074e-05 2.68818e+25 0.00776988 -0.00380437 272.391 
1.64852e-05 -1.60074e-05 2.6878e+25 0.123622 0.00943472 272.568 
1.19458e-06 -1.55296e-05 2.68935e+25 -1.07315 -0.234829 272.302 
3.10592e-06 -1.55296e-05 2.68973e+25 -0.766506 0.0587278 272.095 
5.01725e-06 -1.55296e-05 2.68906e+25 -1.13998 0.381137 272.369 
6.92858e-06 -1.55296e-05 2.68908e+25 -1.11317 -0.158207 272.497 
8.83992e-06 -1.55296e-05 2.6871e+25 -0.776241 -0.316345 272.496 
1.07512e-05 -1.55296e-05 2.69079e+25 -0.487503 -0.33886 272.321 
1.26626e-05 -1.55296e-05 2.68825e+25 -0.163303 0.0566112 272.283 
1.45739e-05 -1.55296e-05 2.68913e+25 -0.113053 -0.0870455 272.439 
1.64852e-05 -1.55296e-05 2.68939e+25 0.125683 0.196675 272.422 
1.19458e-06 -1.50517e-05 2.68919e+25 -1.26592 -0.304802 272.099 
3.10592e-06 -1.50517e-05 2.69295e+25 -1.04582 0.0129176 271.883 
5.01725e-06 -1.50517e-05 2.68908e+25 -1.26006 0.316291 272.165 
6.92858e-06 -1.50517e-05 2.68854e+25 -1.11537 -0.141628 272.318 
8.83992e-06 -1.50517e-05 2.68645e+25 -0.803903 -0.493447 272.506 
1.07512e-05 -1.50517e-05 2.68756e+25 -0.545957 -0.312293 272.462 
1.26626e-05 -1.50517e-05 2.68965e+25 -0.233821 -0.0734503 272.181 
1.45739e-05 -1.50517e-05 2.68733e+25 0.112877 -0.141723 272.394 
1.64852e-05 -1.50517e-05 2.68734e+25 0.0364973 0.294767 272.353 
1.19458e-06 -1.45739e-05 2.69509e+25 -1.29065 -0.243473 271.739 
3.10592e-06 -1.45739e-05 2.69235e+25 -1.25168 -0.0248859 271.945 
5.01725e-06 -1.45739e-05 2.6914e+25 -1.16114 0.189739 272.044 
6.92858e-06 -1.45739e-05 2.68894e+25 -1.04952 -0.129203 272.424 
8.83992e-06 -1.45739e-05 2.68592e+25 -0.769626 -0.35255 272.477 
1.07512e-05 -1.45739e-05 2.68752e+25 -0.473942 -0.418768 272.432 
1.26626e-05 -1.45739e-05 2.69043e+25 0.0773575 -0.21228 272.136 
1.45739e-05 -1.45739e-05 2.69003e+25 0.0980816 -0.263063 272.434 
1.64852e-05 -1.45739e-05 2.68626e+25 0.122268 0.406355 272.534 
1.19458e-06 -1.40961e-05 2.6938e+25 -1.42728 -0.299762 271.824 
3.10592e-06 -1.40961e-05 2.69257e+25 -1.62119 0.0893021 271.954 
5.01725e-06 -1.40961e-05 2.69392e+25 -1.24982 0.103267 271.869 
6.92858e-06 -1.40961e-05 2.69005e+25 -1.20301 -0.255449 272.312 
8.83992e-06 -1.40961e-05 2.68481e+25 -0.778776 -0.147094 272.615 
1.07512e-05 -1.40961e-05 2.68961e+25 -0.335287 -0.465386 272.265 
1.26626e-05 -1.40961e-05 2.6888e+25 -0.226267 -0.260062 272.195 
1.45739e-05 -1.40961e-05 2.6884e+25 0.245366 -0.38207 272.333 
1.64852e-05 -1.40961e-05 2.68499e+25 -0.0792437 0.471896 272.82 
1.19458e-06 -1.36182e-05 2.69206e+25 -1.64892 -0.247151 271.841 
3.10592e-06 -1.36182e-05 2.69524e+25 -1.84263 0.151276 271.797 
5.01725e-06 -1.36182e-05 2.69221e+25 -1.24329 0.252529 272.016 
6.92858e-06 -1.36182e-05 2.68965e+25 -1.38062 -0.318608 272.249 
8.83992e-06 -1.36182e-05 2.68607e+25 -0.924667 -0.260827 272.546 
1.07512e-05 -1.36182e-05 2.68968e+25 -0.319777 -0.580109 272.399 
1.26626e-05 -1.36182e-05 2.68891e+25 -0.420072 -0.375252 272.329 
1.45739e-05 -1.36182e-05 2.68776e+25 0.333823 -0.30574 272.38 
1.64852e-05 -1.36182e-05 2.68458e+25 -0.173696 0.543459 272.67 
1.19458e-06 -1.31404e-05 2.69201e+25 -1.87609 -0.126618 271.984 
3.10592e-06 -1.31404e-05 2.69363e+25 -1.84659 0.00793118 271.787 
5.01725e-06 -1.31404e-05 2.69048e+25 -1.45313 0.229285 272.138 
6.92858e-06 -1.31404e-05 2.69007e+25 -1.51099 -0.243793 272.222 
8.83992e-06 -1.31404e-05 2.689e+25 -0.896892 -0.581403 272.45 
1.07512e-05 -1.31404e-05 2.68692e+25 -0.513683 -0.647462 272.531 
1.26626e-05 -1.31404e-05 2.68684e+25 -0.521822 -0.610255 272.428 
1.45739e-05 -1.31404e-05 2.68537e+25 -0.151183 -0.207479 272.667 
1.64852e-05 -1.31404e-05 2.68575e+25 -0.132283 0.25568 272.597 
1.19458e-06 -1.26626e-05 2.69207e+25 -2.24274 -0.0760895 272.022 
3.10592e-06 -1.26626e-05 2.69285e+25 -2.10685 -0.117092 271.776 
5.01725e-06 -1.26626e-05 2.69184e+25 -1.61074 -0.0267031 272.026 
6.92858e-06 -1.26626e-05 2.69002e+25 -1.27953 -0.344061 272.332 
8.83992e-06 -1.26626e-05 2.68976e+25 -0.961109 -0.888387 272.448 
1.07512e-05 -1.26626e-05 2.68854e+25 -0.492513 -0.694138 272.398 
1.26626e-05 -1.26626e-05 2.68773e+25 -0.559468 -0.692638 272.455 
1.45739e-05 -1.26626e-05 2.68377e+25 -0.406143 -0.146233 272.694 
1.64852e-05 -1.26626e-05 2.6868e+25 -0.162991 -0.0621705 272.454 
1.19458e-06 -1.21847e-05 2.69071e+25 -2.50228 -0.112854 272.055 
3.10592e-06 -1.21847e-05 2.69487e+25 -2.14753 -0.178142 271.82 
5.01725e-06 -1.21847e-05 2.69364e+25 -1.80021 -0.224559 271.951 
6.92858e-06 -1.21847e-05 2.6918e+25 -1.31247 -0.480667 272.04 
8.83992e-06 -1.21847e-05 2.68885e+25 -1.34582 -0.965169 272.365 
1.07512e-05 -1.21847e-05 2.68847e+25 -0.819678 -0.742104 272.277 
1.26626e-05 -1.21847e-05 2.68939e+25 -0.564041 -0.68488 272.243 
1.45739e-05 -1.21847e-05 2.68626e+25 -0.579803 -0.0993761 272.654 
1.64852e-05 -1.21847e-05 2.68718e+25 -0.149793 -0.269285 272.389 
1.19458e-06 -1.17069e-05 2.69204e+25 -2.84851 -0.246316 271.971 
3.10592e-06 -1.17069e-05 2.69344e+25 -2.69638 -0.301393 271.959 
5.01725e-06 -1.17069e-05 2.69377e+25 -1.8389 -0.423701 271.814 
6.92858e-06 -1.17069e-05 2.69108e+25 -1.46158 -0.567002 272.064 
8.83992e-06 -1.17069e-05 2.6895e+25 -1.58288 -0.933962 272.322 
1.07512e-05 -1.17069e-05 2.68817e+25 -1.38215 -0.931984 272.447 
1.26626e-05 -1.17069e-05 2.68999e+25 -0.622498 -0.841604 272.215 
1.45739e-05 -1.17069e-05 2.68651e+25 -0.656681 -0.0663371 272.524 
1.64852e-05 -1.17069e-05 2.69025e+25 -0.133371 -0.416172 272.2 
1.19458e-06 -1.12291e-05 2.69069e+25 -3.30527 -0.130952 272.164 
3.10592e-06 -1.12291e-05 2.69413e+25 -2.92017 -0.537729 271.717 
5.01725e-06 -1.12291e-05 2.69357e+25 -2.48382 -0.485847 271.785 
6.92858e-06 -1.12291e-05 2.69176e+25 -1.77056 -0.462898 272.201 
8.83992e-06 -1.12291e-05 2.69106e+25 -1.42461 -0.969387 272.31 
1.07512e-05 -1.12291e-05 2.69096e+25 -1.52329 -1.0906 272.062 
1.26626e-05 -1.12291e-05 2.69232e+25 -0.376219 -1.14028 271.946 
1.45739e-05 -1.12291e-05 2.68821e+25 -0.527563 -0.184097 272.273 
1.64852e-05 -1.12291e-05 2.68815e+25 -0.0237398 -0.42628 272.401 
1.19458e-06 -1.07512e-05 2.69345e+25 -3.6006 -0.252797 271.851 
3.10592e-06 -1.07512e-05 2.69403e+25 -3.06634 -0.721253 271.649 
5.01725e-06 -1.07512e-05 2.69484e+25 -3.01257 -0.644191 271.97 
6.92858e-06 -1.07512e-05 2.69134e+25 -2.03508 -0.600557 272.11 
8.83992e-06 -1.07512e-05 2.69005e+25 -1.78052 -1.00035 272.312 
1.07512e-05 -1.07512e-05 2.69092e+25 -1.72256 -1.21699 271.865 
1.26626e-05 -1.07512e-05 2.69092e+25 -0.399777 -1.23865 271.882 
1.45739e-05 -1.07512e-05 2.69136e+25 -0.110356 -0.198544 272.178 
1.64852e-05 -1.07512e-05 2.68677e+25 0.0644098 -0.441085 272.544 
1.19458e-06 -1.02734e-05 2.69166e+25 -3.82266 -0.367033 271.82 
3.10592e-06 -1.02734e-05 2.69336e+25 -3.52037 -0.859094 271.937 
5.01725e-06 -1.02734e-05 2.69287e+25 -3.25901 -0.692874 271.942 
6.92858e-06 -1.02734e-05 2.69006e+25 -2.24548 -0.833544 272.256 
8.83992e-06 -1.02734e-05 2.68556e+25 -1.93287 -0.966912 272.459 
1.07512e-05 -1.02734e-05 2.69619e+25 -1.56582 -1.38857 271.589 
1.26626e-05 -1.02734e-05 2.69288e+25 -0.408972 -1.33211 271.886 
1.45739e-05 -1.02734e-05 2.68998e+25 -0.368148 -0.376808 272.203 
1.64852e-05 -1.02734e-05 2.68572e+25 0.113412 -0.409374 272.613 
1.19458e-06 -9.79558e-06 2.69416e+25 -3.97676 -0.336118 271.838 
3.10592e-06 -9.79558e-06 2.69175e+25 -4.09568 -1.01847 272.103 
5.01725e-06 -9.79558e-06 2.69287e+25 -3.43262 -0.853857 272.054 
6.92858e-06 -9.79558e-06 2.69033e+25 -2.52652 -1.18582 272.124 
8.83992e-06 -9.79558e-06 2.68858e+25 -1.70282 -1.02905 272.343 
1.07512e-05 -9.79558e-06 2.69618e+25 -1.08781 -1.67732 271.745 
1.26626e-05 -9.79558e-06 2.69155e+25 -0.600111 -1.28309 272.068 
1.45739e-05 -9.79558e-06 2.69291e+25 -0.339919 -0.675619 272.007 
1.64852e-05 -9.79558e-06 2.68577e+25 0.068898 -0.337092 272.621 
1.19458e-06 -9.31775e-06 2.69265e+25 -4.21626 -0.254781 271.962 
3.10592e-06 -9.31775e-06 2.69329e+25 -4.33403 -1.11552 271.804 
5.01725e-06 -9.31775e-06 2.69143e+25 -3.45135 -1.08858 271.982 
6.92858e-06 -9.31775e-06 2.69144e+25 -2.77222 -1.39857 272.062 
8.83992e-06 -9.31775e-06 2.68953e+25 -1.90814 -1.37674 272.271 
1.07512e-05 -9.31775e-06 2.69143e+25 -1.01754 -1.78618 271.77 
1.26626e-05 -9.31775e-06 2.68992e+25 -0.696576 -1.49947 272.141 
1.45739e-05 -9.31775e-06 2.69181e+25 -0.254351 -0.622594 272.028 
1.64852e-05 -9.31775e-06 2.68533e+25 0.0550126 -0.340048 272.584 
1.19458e-06 -8.83992e-06 2.68951e+25 -4.65799 -0.330997 272.227 
3.10592e-06 -8.83992e-06 2.69034e+25 -4.25728 -1.27039 271.938 
5.01725e-06 -8.83992e-06 2.68923e+25 -3.63272 -1.28565 272.201 
6.92858e-06 -8.83992e-06 2.69068e+25 -2.93484 -1.38421 272.269 
8.83992e-06 -8.83992e-06 2.69214e+25 -2.01621 -1.56932 272.057 
1.07512e-05 -8.83992e-06 2.69305e+25 -1.29031 -1.78013 271.902 
1.26626e-05 -8.83992e-06 2.69266e+25 -0.994297 -1.74807 271.888 
1.45739e-05 -8.83992e-06 2.6914e+25 -0.345351 -0.758688 271.985 
1.64852e-05 -8.83992e-06 2.68503e+25 0.0189104 -0.431801 272.484 
1.19458e-06 -8.36208e-06 2.6885e+25 -5.15445 -0.193182 272.225 
3.10592e-06 -8.36208e-06 2.68954e+25 -4.44658 -1.43851 272.17 
5.01725e-06 -8.36208e-06 2.68736e+25 -3.91553 -1.41265 272.363 
6.92858e-06 -8.36208e-06 2.69135e+25 -2.87338 -1.62257 272.068 
8.83992e-06 -8.36208e-06 2.69111e+25 -2.26139 -1.65518 271.968 
1.07512e-05 -8.36208e-06 2.69261e+25 -1.443 -1.947 271.809 
1.26626e-05 -8.36208e-06 2.692e+25 -1.00289 -1.76605 271.997 
1.45739e-05 -8.36208e-06 2.69383e+25 -0.0777516 -1.00199 271.917 
1.64852e-05 -8.36208e-06 2.68779e+25 -0.0677124 -0.366802 272.401 
1.19458e-06 -7.88425e-06 2.69062e+25 -5.3272 -0.138885 272.081 
3.10592e-06 -7.88425e-06 2.69026e+25 -4.5169 -1.58297 272.027 
5.01725e-06 -7.88425e-06 2.69227e+25 -3.90429 -1.65387 271.996 
6.92858e-06 -7.88425e-06 2.69339e+25 -3.47064 -1.90004 271.987 
8.83992e-06 -7.88425e-06 2.69086e+25 -2.69808 -1.92372 271.923 
1.07512e-05 -7.88425e-06 2.69283e+25 -1.64932 -2.17602 271.815 
1.26626e-05 -7.88425e-06 2.69411e+25 -1.17296 -1.79597 271.842 
1.45739e-05 -7.88425e-06 2.69215e+25 -0.0998369 -1.16049 271.852 
1.64852e-05 -7.88425e-06 2.68667e+25 -0.0706559 -0.247897 272.531 
1.19458e-06 -7.40642e-06 2.69187e+25 -5.16985 -0.0699479 271.97 
3.10592e-06 -7.40642e-06 2.68986e+25 -4.92361 -1.81218 272.295 
5.01725e-06 -7.40642e-06 2.69276e+25 -4.2197 -1.80509 271.995 
6.92858e-06 -7.40642e-06 2.6919e+25 -3.84705 -2.13794 272.085 
8.83992e-06 -7.40642e-06 2.69426e+25 -3.04516 -2.07705 271.778 
1.07512e-05 -7.40642e-06 2.69531e+25 -1.75492 -2.54757 271.608 
1.26626e-05 -7.40642e-06 2.69526e+25 -0.955465 -1.81257 271.723 
1.45739e-05 -7.40642e-06 2.69291e+25 -0.264676 -1.38202 271.948 
1.64852e-05 -7.40642e-06 2.68375e+25 0.0841178 -0.181923 272.624 
1.19458e-06 -6.92858e-06 2.69422e+25 -5.50258 -0.193673 271.851 
3.10592e-06 -6.92858e-06 2.68978e+25 -5.4372 -2.03857 272.252 
5.01725e-06 -6.92858e-06 2.69103e+25 -4.64641 -1.90736 272.046 
6.92858e-06 -6.92858e-06 2.69243e+25 -4.24157 -2.16069 271.908 
8.83992e-06 -6.92858e-06 2.69262e+25 -3.49742 -2.24979 271.846 
1.07512e-05 -6.92858e-06 2.69546e+25 -2.0321 -2.91188 271.768 
1.26626e-05 -6.92858e-06 2.69501e+25 -1.00214 -1.88429 271.664 
1.45739e-05 -6.92858e-06 2.69228e+25 -0.183846 -1.55426 272.055 
1.64852e-05 -6.92858e-06 2.68719e+25 0.0565785 -0.338022 272.507 
1.19458e-06 -6.45075e-06 2.69166e+25 -5.55313 -0.216601 271.899 
3.10592e-06 -6.45075e-06 2.69115e+25 -5.45087 -2.02781 272.102 
5.01725e-06 -6.45075e-06 2.69396e+25 -5.3974 -2.04561 271.84 
6.92858e-06 -6.45075e-06 2.69258e+25 -4.65221 -2.30935 272.035 
8.83992e-06 -6.45075e-06 2.69305e+25 -3.50241 -2.54944 271.874 
1.07512e-05 -6.45075e-06 2.69568e+25 -2.27584 -3.17992 271.684 
1.26626e-05 -6.45075e-06 2.69266e+25 -1.33161 -2.11142 271.83 
1.45739e-05 -6.45075e-06 2.69108e+25 -0.308715 -1.67087 272.119 
1.64852e-05 -6.45075e-06 2.68628e+25 -0.0536608 -0.396548 272.686 
1.19458e-06 -5.97292e-06 2.69394e+25 -5.50007 -0.151357 271.958 
3.10592e-06 -5.97292e-06 2.69461e+25 -5.78168 -1.86475 271.897 
5.01725e-06 -5.97292e-06 2.69149e+25 -5.65076 -2.11939 272.083 
6.92858e-06 -5.97292e-06 2.69286e+25 -5.01282 -2.54245 271.976 
8.83992e-06 -5.97292e-06 2.69198e+25 -3.89831 -2.99674 271.886 
1.07512e-05 -5.97292e-06 2.69346e+25 -2.54986 -3.47903 271.785 
1.26626e-05 -5.97292e-06 2.69148e+25 -1.22586 -2.27852 272.038 
1.45739e-05 -5.97292e-06 2.69092e+25 -0.616421 -1.60881 272.208 
1.64852e-05 -5.97292e-06 2.68367e+25 -0.160725 -0.361681 272.839 
1.19458e-06 -5.49508e-06 2.69105e+25 -5.83173 -0.232247 272.005 
3.10592e-06 -5.49508e-06 2.6927e+25 -5.80929 -1.64584 271.918 
5.01725e-06 -5.49508e-06 2.69128e+25 -5.94978 -2.30534 271.989 
6.92858e-06 -5.49508e-06 2.68942e+25 -5.21907 -2.72689 272.103 
8.83992e-06 -5.49508e-06 2.69232e+25 -4.12423 -3.48834 271.827 
1.07512e-05 -5.49508e-06 2.69301e+25 -2.77485 -3.80132 272.019 
1.26626e-05 -5.49508e-06 2.69164e+25 -1.31088 -2.59429 272.26 
1.45739e-05 -5.49508e-06 2.6921e+25 -0.773018 -1.71583 272.076 
1.64852e-05 -5.49508e-06 2.68637e+25 -0.00414952 -0.530648 272.543 
1.19458e-06 -5.01725e-06 2.68776e+25 -6.16447 -0.273652 272.209 
3.10592e-06 -5.01725e-06 2.69185e+25 -6.19579 -1.59905 271.896 
5.01725e-06 -5.01725e-06 2.68865e+25 -5.8473 -2.51507 272.158 
6.92858e-06 -5.01725e-06 2.69026e+25 -5.42091 -2.84022 272.22 
8.83992e-06 -5.01725e-06 2.69479e+25 -4.13771 -3.72957 271.83 
1.07512e-05 -5.01725e-06 2.6938e+25 -3.01427 -4.07693 271.918 
1.26626e-05 -5.01725e-06 2.69152e+25 -1.50226 -2.92484 272.074 
1.45739e-05 -5.01725e-06 2.69135e+25 -0.667485 -1.91261 272.092 
1.64852e-05 -5.01725e-06 2.69029e+25 -0.0543849 -0.618694 272.224 
1.19458e-06 -4.53942e-06 2.6902e+25 -6.33257 -0.375807 271.97 
3.10592e-06 -4.53942e-06 2.69066e+25 -6.52698 -1.69994 272.011 
5.01725e-06 -4.53942e-06 2.69332e+25 -6.28836 -2.59471 271.97 
6.92858e-06 -4.53942e-06 2.69019e+25 -5.32828 -3.1873 272.206 
8.83992e-06 -4.53942e-06 2.69284e+25 -4.33371 -4.04131 271.923 
1.07512e-05 -4.53942e-06 2.68928e+25 -3.29001 -4.2709 272.177 
1.26626e-05 -4.53942e-06 2.68968e+25 -1.50476 -3.35566 272.139 
1.45739e-05 -4.53942e-06 2.69174e+25 -0.369866 -1.97134 271.917 
1.64852e-05 -4.53942e-06 2.68842e+25 -0.0836992 -0.665189 272.295 
1.19458e-06 -4.06158e-06 2.69029e+25 -6.42332 -0.428325 272.148 
3.10592e-06 -4.06158e-06 2.69118e+25 -7.01801 -1.69135 272.003 
5.01725e-06 -4.06158e-06 2.69195e+25 -6.6401 -2.71647 271.979 
6.92858e-06 -4.06158e-06 2.69472e+25 -6.01218 -3.52708 271.922 
8.83992e-06 -4.06158e-06 2.69122e+25 -4.66209 -4.19405 272.065 
1.07512e-05 -4.06158e-06 2.69078e+25 -3.09299 -4.56622 272.227 
1.26626e-05 -4.06158e-06 2.68968e+25 -1.65774 -3.88877 272.324 
1.45739e-05 -4.06158e-06 2.68895e+25 -0.239653 -2.30647 272.186 
1.64852e-05 -4.06158e-06 2.6915e+25 -0.103653 -0.686722 272.271 
1.19458e-06 -3.58375e-06 2.69131e+25 -6.72237 -0.490793 271.984 
3.10592e-06 -3.58375e-06 2.68848e+25 -7.38388 -1.63443 272.085 
5.01725e-06 -3.58375e-06 2.69334e+25 -6.92646 -2.84037 271.881 
6.92858e-06 -3.58375e-06 2.69335e+25 -6.15086 -3.5594 271.819 
8.83992e-06 -3.58375e-06 2.69156e+25 -4.9339 -4.56557 272.082 
1.07512e-05 -3.58375e-06 2.69044e+25 -3.07273 -4.99427 272.074 
1.26626e-05 -3.58375e-06 2.68872e+25 -1.66692 -4.2001 272.304 
1.45739e-05 -3.58375e-06 2.68646e+25 -0.384294 -2.70108 272.34 
1.64852e-05 -3.58375e-06 2.68985e+25 -0.12205 -0.669467 272.396 
1.19458e-06 -3.10592e-06 2.68947e+25 -7.18169 -0.351959 272.038 
3.10592e-06 -3.10592e-06 2.69208e+25 -7.68057 -1.50744 272.032 
5.01725e-06 -3.10592e-06 2.6921e+25 -7.41871 -2.89262 271.743 
6.92858e-06 -3.10592e-06 2.69226e+25 -6.88742 -3.83783 271.778 
8.83992e-06 -3.10592e-06 2.69202e+25 -5.27691 -5.07254 271.922 
1.07512e-05 -3.10592e-06 2.69249e+25 -3.41121 -5.47411 272.154 
1.26626e-05 -3.10592e-06 2.68724e+25 -1.75077 -4.58937 272.337 
1.45739e-05 -3.10592e-06 2.69042e+25 -0.478805 -2.88431 272.185 
1.64852e-05 -3.10592e-06 2.68694e+25 0.0121916 -0.657645 272.29 
1.19458e-06 -2.62808e-06 2.68993e+25 -7.56762 -0.132458 272.082 
3.10592e-06 -2.62808e-06 2.68801e+25 -7.83641 -1.51595 272.123 
5.01725e-06 -2.62808e-06 2.69183e+25 -7.54941 -2.9708 271.891 
6.92858e-06 -2.62808e-06 2.69212e+25 -7.32043 -4.15368 271.84 
8.83992e-06 -2.62808e-06 2.69538e+25 -5.6073 -5.62368 271.811 
1.07512e-05 -2.62808e-06 2.69118e+25 -4.04216 -5.99236 272.063 
1.26626e-05 -2.62808e-06 2.68936e+25 -2.12964 -4.96214 272.18 
1.45739e-05 -2.62808e-06 2.68833e+25 -0.690368 -3.09682 272.195 
1.64852e-05 -2.62808e-06 2.68303e+25 0.0595816 -0.610466 272.568 
1.19458e-06 -2.15025e-06 2.69189e+25 -7.77937 0.186341 271.899 
3.10592e-06 -2.15025e-06 2.68711e+25 -7.89838 -1.6882 272.307 
5.01725e-06 -2.15025e-06 2.68975e+25 -7.83242 -3.02831 271.912 
6.92858e-06 -2.15025e-06 2.69268e+25 -7.44617 -4.34692 271.961 
8.83992e-06 -2.15025e-06 2.69114e+25 -6.10178 -6.07342 271.933 
1.07512e-05 -2.15025e-06 2.68941e+25 -4.34693 -6.41323 272.087 
1.26626e-05 -2.15025e-06 2.6899e+25 -2.28622 -5.43061 272.229 
1.45739e-05 -2.15025e-06 2.68987e+25 -0.63745 -3.46778 272.262 
1.64852e-05 -2.15025e-06 2.68487e+25 -0.00267606 -0.71148 272.498 
1.19458e-06 -1.67242e-06 2.69199e+25 -8.09566 0.394235 271.8 
3.10592e-06 -1.67242e-06 2.68901e+25 -7.89777 -1.83074 272.331 
5.01725e-06 -1.67242e-06 2.68999e+25 -7.94676 -2.97191 272.025 
6.92858e-06 -1.67242e-06 2.69026e+25 -7.41628 -4.595 272.092 
8.83992e-06 -1.67242e-06 2.68978e+25 -6.18733 -6.58732 272.139 
1.07512e-05 -1.67242e-06 2.68943e+25 -4.72063 -6.88491 272.203 
1.26626e-05 -1.67242e-06 2.69005e+25 -2.77275 -6.04968 272.253 
1.45739e-05 -1.67242e-06 2.68945e+25 -0.891163 -3.94848 272.225 
1.64852e-05 -1.67242e-06 2.68797e+25 0.0321505 -0.770605 272.458 
1.19458e-06 -1.19458e-06 2.69196e+25 -8.15157 0.506638 271.891 
3.10592e-06 -1.19458e-06 2.68905e+25 -7.78468 -1.85245 272.074 
5.01725e-06 -1.19458e-06 2.68941e+25 -7.82321 -3.03336 272.183 
6.92858e-06 -1.19458e-06 2.68987e+25 -7.10946 -4.85299 272.102 
8.83992e-06 -1.19458e-06 2.69118e+25 -6.25683 -6.94573 271.826 
1.07512e-05 -1.19458e-06 2.69101e+25 -4.68688 -7.36732 272.021 
1.26626e-05 -1.19458e-06 2.6897e+25 -3.13233 -6.47948 272.248 
1.45739e-05 -1.19458e-06 2.68846e+25 -1.22164 -4.31899 272.255 
1.64852e-05 -1.19458e-06 2.68583e+25 0.0306214 -0.847389 272.497 
1.19458e-06 -7.1675e-07 2.69211e+25 -7.88884 0.525673 271.769 
3.10592e-06 -7.1675e-07 2.69055e+25 -7.89344 -1.76762 271.984 
5.01725e-06 -7.1675e-07 2.68898e+25 -7.69511 -3.12492 272.298 
6.92858e-06 -7.1675e-07 2.69484e+25 -7.18653 -5.21827 271.837 
8.83992e-06 -7.1675e-07 2.6921e+25 -6.36467 -7.10808 271.841 
1.07512e-05 -7.1675e-07 2.69179e+25 -4.74693 -7.75874 271.975 
1.26626e-05 -7.1675e-07 2.68764e+25 -3.32728 -6.84001 272.174 
1.45739e-05 -7.1675e-07 2.69e+25 -1.48328 -4.60503 272.278 
1.64852e-05 -7.1675e-07 2.68694e+25 -0.0748293 -0.956299 272.446 
1.19458e-06 -2.38917e-07 2.68847e+25 -7.91578 0.474409 271.796 
3.10592e-06 -2.38917e-07 2.68748e+25 -7.97206 -1.85401 272.045 
5.01725e-06 -2.38917e-07 2.68385e+25 -7.56485 -3.25978 272.194 
6.92858e-06 -2.38917e-07 2.69122e+25 -6.90038 -5.31032 271.709 
8.83992e-06 -2.38917e-07 2.68882e+25 -6.41467 -7.31898 272.088 
1.07512e-05 -2.38917e-07 2.692e+25 -4.65317 -8.05521 271.858 
1.26626e-05 -2.38917e-07 2.68711e+25 -3.61842 -7.2387 272.073 
1.45739e-05 -2.38917e-07 2.6879e+25 -1.66895 -5.03958 272.235 
1.64852e-05 -2.38917e-07 2.68482e+25 -0.189768 -1.07057 272.475 
2.38917e-07 -1.69631e-05 2.68223e+25 -0.229238 0.0817949 272.798 
2.15025e-06 -1.69631e-05 2.68396e+25 -0.306173 0.0378489 273.049 
4.06158e-06 -1.69631e-05 2.6813e+25 -0.00603877 0.0627042 272.912 
5.97292e-06 -1.69631e-05 2.68419e+25 -0.483778 -0.0273788 272.961 
7.88425e-06 -1.69631e-05 2.68211e+25 -0.402823 -0.023983 272.914 
9.79558e-06 -1.69631e-05 2.68581e+25 -0.174245 0.0439425 272.659 
1.17069e-05 -1.69631e-05 2.68641e+25 0.125688 0.0529694 272.605 
1.36182e-05 -1.69631e-05 2.68445e+25 0.1039 -0.0368782 272.88 
1.55296e-05 -1.69631e-05 2.68362e+25 0.0191176 0.0496897 272.85 
2.38917e-07 -1.64852e-05 2.68314e+25 -0.587973 0.252497 272.639 
2.15025e-06 -1.64852e-05 2.68541e+25 -0.290467 -0.00220317 272.766 
4.06158e-06 -1.64852e-05 2.68515e+25 -0.255339 0.0862197 272.703 
5.97292e-06 -1.64852e-05 2.68548e+25 -0.852142 0.050831 272.548 
7.88425e-06 -1.64852e-05 2.68595e+25 -0.491085 -0.113344 272.74 
9.79558e-06 -1.64852e-05 2.68781e+25 -0.43316 -0.0137973 272.453 
1.17069e-05 -1.64852e-05 2.689e+25 -0.192029 0.20969 272.301 
1.36182e-05 -1.64852e-05 2.68558e+25 -0.127376 -0.113735 272.671 
1.55296e-05 -1.64852e-05 2.68816e+25 -0.0127772 -0.0185281 272.527 
2.38917e-07 -1.60074e-05 2.68607e+25 -0.843847 0.256998 272.459 
2.15025e-06 -1.60074e-05 2.6896e+25 -0.622567 -0.193085 272.235 
4.06158e-06 -1.60074e-05 2.68769e+25 -0.832265 0.114382 272.517 
5.97292e-06 -1.60074e-05 2.68816e+25 -0.963719 0.0224734 272.509 
7.88425e-06 -1.60074e-05 2.68707e+25 -0.928791 -0.148697 272.493 
9.79558e-06 -1.60074e-05 2.68597e+25 -0.577101 0.00686377 272.51 
1.17069e-05 -1.60074e-05 2.69034e+25 -0.321342 0.0717906 272.228 
1.36182e-05 -1.60074e-05 2.68515e+25 -0.244045 -0.0930427 272.749 
1.55296e-05 -1.60074e-05 2.68903e+25 0.108298 -0.126434 272.217 
2.38917e-07 -1.55296e-05 2.68739e+25 -1.1859 0.259317 272.3 
2.15025e-06 -1.55296e-05 2.69263e+25 -0.967753 -0.230871 271.943 
4.06158e-06 -1.55296e-05 2.68902e+25 -1.04773 0.104277 272.236 
5.97292e-06 -1.55296e-05 2.69108e+25 -1.032 -0.0250585 272.27 
7.88425e-06 -1.55296e-05 2.68394e+25 -1.01084 -0.109678 272.807 
9.79558e-06 -1.55296e-05 2.68632e+25 -0.626606 -0.00672811 272.463 
1.17069e-05 -1.55296e-05 2.6923e+25 -0.503322 -0.126618 272.058 
1.36182e-05 -1.55296e-05 2.68954e+25 -0.239303 -0.130781 272.297 
1.55296e-05 -1.55296e-05 2.69178e+25 0.119989 -0.119452 271.869 
2.38917e-07 -1.50517e-05 2.6861e+25 -1.34967 0.13742 272.225 
2.15025e-06 -1.50517e-05 2.69357e+25 -1.03379 -0.253994 271.741 
4.06158e-06 -1.50517e-05 2.69106e+25 -1.17339 0.198135 272.04 
5.97292e-06 -1.50517e-05 2.69224e+25 -1.11065 0.00196601 271.979 
7.88425e-06 -1.50517e-05 2.68661e+25 -0.892472 -0.293231 272.705 
9.79558e-06 -1.50517e-05 2.68528e+25 -0.51822 -0.0593053 272.519 
1.17069e-05 -1.50517e-05 2.68949e+25 -0.349607 -0.255051 272.153 
1.36182e-05 -1.50517e-05 2.69183e+25 -0.0363994 -0.104094 272.17 
1.55296e-05 -1.50517e-05 2.69315e+25 0.246476 -0.225074 272.023 
2.38917e-07 -1.45739e-05 2.68948e+25 -1.46061 -0.0822294 272.069 
2.15025e-06 -1.45739e-05 2.69341e+25 -1.24414 -0.419187 271.76 
4.06158e-06 -1.45739e-05 2.69189e+25 -1.35283 0.312959 272.001 
5.97292e-06 -1.45739e-05 2.69199e+25 -0.956644 -0.0420807 271.884 
7.88425e-06 -1.45739e-05 2.68462e+25 -0.852821 -0.428742 272.606 
9.79558e-06 -1.45739e-05 2.68559e+25 -0.747815 -0.196423 272.667 
1.17069e-05 -1.45739e-05 2.6898e+25 -0.101067 -0.378315 272.34 
1.36182e-05 -1.45739e-05 2.6941e+25 0.0609601 -0.065381 272.029 
1.55296e-05 -1.45739e-05 2.68794e+25 0.213768 -0.298401 272.457 
2.38917e-07 -1.40961e-05 2.68898e+25 -1.66075 -0.216179 271.991 
2.15025e-06 -1.40961e-05 2.69371e+25 -1.42265 -0.385832 271.747 
4.06158e-06 -1.40961e-05 2.69179e+25 -1.36512 0.175469 272.166 
5.97292e-06 -1.40961e-05 2.69244e+25 -1.39647 0.0101732 271.827 
7.88425e-06 -1.40961e-05 2.68533e+25 -0.96715 -0.558457 272.553 
9.79558e-06 -1.40961e-05 2.68775e+25 -0.81256 -0.416271 272.467 
1.17069e-05 -1.40961e-05 2.68926e+25 -0.248524 -0.43539 272.289 
1.36182e-05 -1.40961e-05 2.68957e+25 0.109107 -0.26656 272.239 
1.55296e-05 -1.40961e-05 2.68914e+25 0.125848 -0.0373219 272.448 
2.38917e-07 -1.36182e-05 2.68871e+25 -1.69301 -0.210559 272.021 
2.15025e-06 -1.36182e-05 2.69439e+25 -1.88103 -0.241318 271.677 
4.06158e-06 -1.36182e-05 2.69241e+25 -1.54502 -0.0243533 271.895 
5.97292e-06 -1.36182e-05 2.69191e+25 -1.2848 -0.121545 271.979 
7.88425e-06 -1.36182e-05 2.68788e+25 -1.05947 -0.576822 272.461 
9.79558e-06 -1.36182e-05 2.68985e+25 -0.679112 -0.590265 272.336 
1.17069e-05 -1.36182e-05 2.68818e+25 -0.603847 -0.423911 272.336 
1.36182e-05 -1.36182e-05 2.68749e+25 0.0694178 -0.544682 272.561 
1.55296e-05 -1.36182e-05 2.68777e+25 -0.221963 0.029063 272.488 
2.38917e-07 -1.31404e-05 2.68731e+25 -1.78597 -0.272402 272.241 
2.15025e-06 -1.31404e-05 2.69493e+25 -2.12066 -0.159517 271.807 
4.06158e-06 -1.31404e-05 2.69542e+25 -1.62895 -0.103324 271.911 
5.97292e-06 -1.31404e-05 2.69067e+25 -1.13716 -0.0492443 272.135 
7.88425e-06 -1.31404e-05 2.68679e+25 -1.44534 -0.71908 272.44 
9.79558e-06 -1.31404e-05 2.68893e+25 -0.562687 -0.735266 272.517 
1.17069e-05 -1.31404e-05 2.68947e+25 -0.518032 -0.214398 272.318 
1.36182e-05 -1.31404e-05 2.68675e+25 -0.162205 -0.79547 272.593 
1.55296e-05 -1.31404e-05 2.68876e+25 -0.372663 0.154036 272.341 
2.38917e-07 -1.26626e-05 2.68765e+25 -2.08742 -0.228829 272.282 
2.15025e-06 -1.26626e-05 2.69182e+25 -2.1294 -0.295038 272.036 
4.06158e-06 -1.26626e-05 2.69389e+25 -1.89017 -0.191201 271.712 
5.97292e-06 -1.26626e-05 2.6911e+25 -1.42917 -0.0659245 272.17 
7.88425e-06 -1.26626e-05 2.68952e+25 -1.23902 -0.802804 272.448 
9.79558e-06 -1.26626e-05 2.68142e+25 -0.647279 -0.796704 272.824 
1.17069e-05 -1.26626e-05 2.68784e+25 -0.487881 -0.131718 272.395 
1.36182e-05 -1.26626e-05 2.68555e+25 -0.313267 -0.739295 272.536 
1.55296e-05 -1.26626e-05 2.68594e+25 -0.511043 0.331121 272.438 
2.38917e-07 -1.21847e-05 2.68928e+25 -2.48545 -0.0147565 272.087 
2.15025e-06 -1.21847e-05 2.69206e+25 -2.3592 -0.482634 272.023 
4.06158e-06 -1.21847e-05 2.69075e+25 -2.10241 -0.176367 271.936 
5.97292e-06 -1.21847e-05 2.69207e+25 -1.49184 -0.0411091 271.908 
7.88425e-06 -1.21847e-05 2.68719e+25 -1.32176 -0.758544 272.276 
9.79558e-06 -1.21847e-05 2.68488e+25 -1.09997 -0.812844 272.593 
1.17069e-05 -1.21847e-05 2.68949e+25 -0.657211 -0.065342 272.24 
1.36182e-05 -1.21847e-05 2.68689e+25 -0.337046 -0.839112 272.414 
1.55296e-05 -1.21847e-05 2.68824e+25 -0.491705 0.129114 272.257 
2.38917e-07 -1.17069e-05 2.69292e+25 -2.66473 0.0523287 271.811 
2.15025e-06 -1.17069e-05 2.6928e+25 -2.97424 -0.468506 271.98 
4.06158e-06 -1.17069e-05 2.69311e+25 -2.17525 -0.444573 271.988 
5.97292e-06 -1.17069e-05 2.69256e+25 -1.59156 -0.0948423 271.908 
7.88425e-06 -1.17069e-05 2.6902e+25 -1.37678 -0.834127 272.239 
9.79558e-06 -1.17069e-05 2.68592e+25 -1.44689 -0.973992 272.668 
1.17069e-05 -1.17069e-05 2.68974e+25 -1.0536 -0.21852 272.206 
1.36182e-05 -1.17069e-05 2.69013e+25 -0.605172 -0.795882 272.264 
1.55296e-05 -1.17069e-05 2.68717e+25 -0.333317 -0.0193753 272.39 
2.38917e-07 -1.12291e-05 2.69258e+25 -3.33622 0.137403 271.747 
2.15025e-06 -1.12291e-05 2.69187e+25 -3.15398 -0.395703 271.956 
4.06158e-06 -1.12291e-05 2.69512e+25 -2.5495 -0.554934 271.73 
5.97292e-06 -1.12291e-05 2.69143e+25 -2.09529 -0.358016 272.192 
7.88425e-06 -1.12291e-05 2.68954e+25 -1.65892 -0.817347 272.1 
9.79558e-06 -1.12291e-05 2.68566e+25 -1.59391 -1.01744 272.635 
1.17069e-05 -1.12291e-05 2.6918e+25 -0.893834 -0.455657 271.888 
1.36182e-05 -1.12291e-05 2.69056e+25 -0.361653 -0.635614 272.163 
1.55296e-05 -1.12291e-05 2.68874e+25 -0.157209 -0.19336 272.288 
2.38917e-07 -1.07512e-05 2.69095e+25 -3.83417 0.118151 271.882 
2.15025e-06 -1.07512e-05 2.6926e+25 -3.4124 -0.393956 271.782 
4.06158e-06 -1.07512e-05 2.69413e+25 -3.09721 -0.646937 271.879 
5.97292e-06 -1.07512e-05 2.69047e+25 -2.68728 -0.613919 272.163 
7.88425e-06 -1.07512e-05 2.68967e+25 -1.75425 -0.828307 272.218 
9.79558e-06 -1.07512e-05 2.68588e+25 -1.85067 -0.970614 272.4 
1.17069e-05 -1.07512e-05 2.69444e+25 -0.94395 -0.883011 271.846 
1.36182e-05 -1.07512e-05 2.6912e+25 -0.259225 -0.601815 272.223 
1.55296e-05 -1.07512e-05 2.69093e+25 -0.0017301 -0.286025 272.132 
2.38917e-07 -1.02734e-05 2.68835e+25 -4.03598 0.0118861 272.055 
2.15025e-06 -1.02734e-05 2.69379e+25 -3.81164 -0.420819 271.778 
4.06158e-06 -1.02734e-05 2.69412e+25 -3.32051 -0.642007 271.847 
5.97292e-06 -1.02734e-05 2.68949e+25 -2.81396 -0.794234 272.103 
7.88425e-06 -1.02734e-05 2.68899e+25 -2.07402 -0.876631 272.297 
9.79558e-06 -1.02734e-05 2.69036e+25 -1.81013 -0.99553 272.12 
1.17069e-05 -1.02734e-05 2.69335e+25 -0.918377 -1.28741 271.851 
1.36182e-05 -1.02734e-05 2.69065e+25 -0.625265 -0.562854 272.082 
1.55296e-05 -1.02734e-05 2.69013e+25 0.0923343 -0.4645 272.019 
2.38917e-07 -9.79558e-06 2.68861e+25 -4.13983 -0.195054 272.094 
2.15025e-06 -9.79558e-06 2.69222e+25 -4.23767 -0.521967 272.031 
4.06158e-06 -9.79558e-06 2.6921e+25 -3.68537 -0.728577 271.998 
5.97292e-06 -9.79558e-06 2.68787e+25 -3.00654 -1.04248 272.265 
7.88425e-06 -9.79558e-06 2.68999e+25 -2.06499 -0.834134 272.162 
9.79558e-06 -9.79558e-06 2.69104e+25 -1.45981 -1.11889 272.077 
1.17069e-05 -9.79558e-06 2.69071e+25 -0.894104 -1.57156 272.014 
1.36182e-05 -9.79558e-06 2.69209e+25 -0.561824 -0.468144 271.972 
1.55296e-05 -9.79558e-06 2.6924e+25 -0.0288244 -0.52533 272.011 
2.38917e-07 -9.31775e-06 2.68952e+25 -4.27748 -0.304324 272.11 
2.15025e-06 -9.31775e-06 2.6923e+25 -4.23729 -0.618533 271.978 
4.06158e-06 -9.31775e-06 2.69278e+25 -3.97914 -0.885573 271.995 
5.97292e-06 -9.31775e-06 2.6903e+25 -2.94625 -1.28386 272.168 
7.88425e-06 -9.31775e-06 2.69296e+25 -2.38022 -1.02759 271.99 
9.79558e-06 -9.31775e-06 2.6899e+25 -1.37461 -1.30148 272.153 
1.17069e-05 -9.31775e-06 2.69296e+25 -1.09917 -1.75323 271.759 
1.36182e-05 -9.31775e-06 2.69128e+25 -0.338228 -0.561455 272.054 
1.55296e-05 -9.31775e-06 2.69275e+25 -0.266947 -0.699162 272.016 
2.38917e-07 -8.83992e-06 2.68677e+25 -4.59829 -0.167982 272.124 
2.15025e-06 -8.83992e-06 2.68934e+25 -4.56067 -0.633377 272.203 
4.06158e-06 -8.83992e-06 2.69206e+25 -4.06076 -1.05993 272.037 
5.97292e-06 -8.83992e-06 2.6884e+25 -3.2659 -1.5178 272.21 
7.88425e-06 -8.83992e-06 2.69173e+25 -2.41375 -1.39677 272.02 
9.79558e-06 -8.83992e-06 2.69164e+25 -1.65257 -1.54195 272.135 
1.17069e-05 -8.83992e-06 2.6945e+25 -1.25423 -1.8019 271.693 
1.36182e-05 -8.83992e-06 2.69302e+25 -0.694103 -0.73895 271.892 
1.55296e-05 -8.83992e-06 2.69144e+25 -0.09858 -0.847776 272.041 
2.38917e-07 -8.36208e-06 2.68717e+25 -4.80914 0.050444 272.317 
2.15025e-06 -8.36208e-06 2.69088e+25 -4.83242 -0.829733 272.081 
4.06158e-06 -8.36208e-06 2.69155e+25 -4.18863 -1.20097 271.962 
5.97292e-06 -8.36208e-06 2.68937e+25 -3.54925 -1.84279 272.334 
7.88425e-06 -8.36208e-06 2.68906e+25 -2.53046 -1.69563 272.043 
9.79558e-06 -8.36208e-06 2.68962e+25 -1.90956 -1.71293 272.144 
1.17069e-05 -8.36208e-06 2.69234e+25 -1.02734 -1.91636 271.866 
1.36182e-05 -8.36208e-06 2.69377e+25 -0.778873 -0.895687 271.761 
1.55296e-05 -8.36208e-06 2.69202e+25 0.233631 -0.797991 271.995 
2.38917e-07 -7.88425e-06 2.68628e+25 -5.03112 0.107559 272.169 
2.15025e-06 -7.88425e-06 2.68923e+25 -5.196 -1.1651 272.206 
4.06158e-06 -7.88425e-06 2.69134e+25 -4.23339 -1.32815 272.115 
5.97292e-06 -7.88425e-06 2.6894e+25 -3.70678 -1.91996 272.115 
7.88425e-06 -7.88425e-06 2.69181e+25 -3.14614 -1.78317 272.018 
9.79558e-06 -7.88425e-06 2.69156e+25 -2.19206 -1.91335 271.875 
1.17069e-05 -7.88425e-06 2.69144e+25 -1.18708 -1.92317 272.053 
1.36182e-05 -7.88425e-06 2.69355e+25 -0.747499 -1.23863 271.767 
1.55296e-05 -7.88425e-06 2.69285e+25 0.168965 -0.723653 271.965 
2.38917e-07 -7.40642e-06 2.68749e+25 -5.26051 0.136977 272.156 
2.15025e-06 -7.40642e-06 2.69178e+25 -5.20555 -1.23421 271.999 
4.06158e-06 -7.40642e-06 2.68721e+25 -4.48766 -1.42637 272.259 
5.97292e-06 -7.40642e-06 2.69015e+25 -4.02149 -1.9084 272.169 
7.88425e-06 -7.40642e-06 2.69488e+25 -3.47279 -1.97625 271.896 
9.79558e-06 -7.40642e-06 2.69102e+25 -2.4718 -2.16666 272.017 
1.17069e-05 -7.40642e-06 2.69148e+25 -1.18933 -2.07582 271.937 
1.36182e-05 -7.40642e-06 2.69292e+25 -0.658554 -1.67014 271.996 
1.55296e-05 -7.40642e-06 2.69033e+25 0.0468804 -0.783684 272.147 
2.38917e-07 -6.92858e-06 2.68414e+25 -5.47737 0.142342 272.334 
2.15025e-06 -6.92858e-06 2.69043e+25 -5.41457 -1.15164 272.088 
4.06158e-06 -6.92858e-06 2.69134e+25 -5.02179 -1.59773 272.094 
5.97292e-06 -6.92858e-06 2.69123e+25 -4.46259 -2.02411 271.987 
7.88425e-06 -6.92858e-06 2.6941e+25 -3.8282 -2.21566 271.821 
9.79558e-06 -6.92858e-06 2.68877e+25 -2.76904 -2.60792 272.261 
1.17069e-05 -6.92858e-06 2.69502e+25 -1.43887 -2.30238 271.696 
1.36182e-05 -6.92858e-06 2.69194e+25 -0.769935 -1.92291 271.892 
1.55296e-05 -6.92858e-06 2.6895e+25 -0.270755 -0.814269 272.273 
2.38917e-07 -6.45075e-06 2.68704e+25 -5.41602 0.168655 272.294 
2.15025e-06 -6.45075e-06 2.69143e+25 -5.38985 -1.14654 272.101 
4.06158e-06 -6.45075e-06 2.6939e+25 -5.61632 -1.79306 271.914 
5.97292e-06 -6.45075e-06 2.69479e+25 -5.07957 -2.13705 271.758 
7.88425e-06 -6.45075e-06 2.692e+25 -4.14004 -2.51568 271.909 
9.79558e-06 -6.45075e-06 2.69102e+25 -2.94113 -2.99739 272.143 
1.17069e-05 -6.45075e-06 2.69281e+25 -1.90663 -2.50778 271.667 
1.36182e-05 -6.45075e-06 2.69351e+25 -0.75997 -2.23002 271.871 
1.55296e-05 -6.45075e-06 2.68878e+25 -0.217849 -0.921008 272.303 
2.38917e-07 -5.97292e-06 2.68693e+25 -5.62137 0.0703911 272.171 
2.15025e-06 -5.97292e-06 2.69248e+25 -5.43436 -1.18475 271.949 
4.06158e-06 -5.97292e-06 2.68937e+25 -5.90003 -1.87595 272.287 
5.97292e-06 -5.97292e-06 2.69237e+25 -5.2219 -2.31105 271.847 
7.88425e-06 -5.97292e-06 2.69034e+25 -4.54732 -2.71882 272.108 
9.79558e-06 -5.97292e-06 2.69356e+25 -3.03849 -3.37382 271.92 
1.17069e-05 -5.97292e-06 2.69402e+25 -1.80777 -2.91641 271.781 
1.36182e-05 -5.97292e-06 2.69259e+25 -0.806729 -2.39548 272.02 
1.55296e-05 -5.97292e-06 2.6885e+25 -0.410399 -0.997893 272.16 
2.38917e-07 -5.49508e-06 2.68579e+25 -6.06394 0.0919984 272.268 
2.15025e-06 -5.49508e-06 2.69226e+25 -5.64842 -1.29185 271.951 
4.06158e-06 -5.49508e-06 2.68766e+25 -5.85894 -1.81273 272.33 
5.97292e-06 -5.49508e-06 2.69058e+25 -5.53337 -2.49596 272.004 
7.88425e-06 -5.49508e-06 2.6916e+25 -4.76967 -3.04523 272.189 
9.79558e-06 -5.49508e-06 2.69363e+25 -3.10758 -3.56982 271.805 
1.17069e-05 -5.49508e-06 2.69186e+25 -1.97082 -3.2632 272.035 
1.36182e-05 -5.49508e-06 2.69073e+25 -1.00421 -2.55185 272.221 
1.55296e-05 -5.49508e-06 2.68991e+25 -0.585148 -1.30189 272.054 
2.38917e-07 -5.01725e-06 2.68729e+25 -6.25278 0.00665929 272.204 
2.15025e-06 -5.01725e-06 2.68982e+25 -6.17649 -1.27758 272.1 
4.06158e-06 -5.01725e-06 2.68839e+25 -6.22202 -1.86635 272.276 
5.97292e-06 -5.01725e-06 2.6917e+25 -5.68978 -2.62514 272.11 
7.88425e-06 -5.01725e-06 2.69107e+25 -4.84464 -3.32912 272.065 
9.79558e-06 -5.01725e-06 2.6921e+25 -3.64095 -3.76268 271.921 
1.17069e-05 -5.01725e-06 2.6922e+25 -2.21843 -3.68859 272.049 
1.36182e-05 -5.01725e-06 2.69121e+25 -0.86653 -2.61988 272.092 
1.55296e-05 -5.01725e-06 2.69181e+25 -0.402913 -1.42739 271.995 
2.38917e-07 -4.53942e-06 2.68917e+25 -6.38976 0.0873628 272.011 
2.15025e-06 -4.53942e-06 2.69131e+25 -6.46414 -1.1432 272.089 
4.06158e-06 -4.53942e-06 2.69191e+25 -6.495 -1.98208 271.769 
5.97292e-06 -4.53942e-06 2.69011e+25 -5.99156 -2.97921 271.99 
7.88425e-06 -4.53942e-06 2.69266e+25 -4.72267 -3.53367 271.828 
9.79558e-06 -4.53942e-06 2.69246e+25 -3.87812 -4.13525 272.017 
1.17069e-05 -4.53942e-06 2.69032e+25 -2.43175 -4.1771 272.166 
1.36182e-05 -4.53942e-06 2.69102e+25 -0.854185 -2.7955 272.034 
1.55296e-05 -4.53942e-06 2.69269e+25 -0.0271058 -1.58845 272.038 
2.38917e-07 -4.06158e-06 2.69103e+25 -6.54799 0.194657 271.86 
2.15025e-06 -4.06158e-06 2.68803e+25 -6.85951 -0.958778 272.291 
4.06158e-06 -4.06158e-06 2.69464e+25 -6.92461 -1.99882 271.68 
5.97292e-06 -4.06158e-06 2.6922e+25 -6.43468 -3.20576 271.888 
7.88425e-06 -4.06158e-06 2.69376e+25 -5.37753 -3.9463 271.817 
9.79558e-06 -4.06158e-06 2.69029e+25 -3.90408 -4.53545 272.339 
1.17069e-05 -4.06158e-06 2.69051e+25 -2.4175 -4.6182 272.223 
1.36182e-05 -4.06158e-06 2.6923e+25 -0.74978 -2.9861 271.955 
1.55296e-05 -4.06158e-06 2.6924e+25 0.133218 -1.59364 271.868 
2.38917e-07 -3.58375e-06 2.68856e+25 -6.56771 0.274072 271.898 
2.15025e-06 -3.58375e-06 2.68612e+25 -6.994 -0.779662 272.223 
4.06158e-06 -3.58375e-06 2.69379e+25 -7.12868 -2.15183 271.746 
5.97292e-06 -3.58375e-06 2.69383e+25 -6.70524 -3.41376 271.641 
7.88425e-06 -3.58375e-06 2.69184e+25 -5.72506 -4.31583 271.976 
9.79558e-06 -3.58375e-06 2.69243e+25 -4.11856 -4.95978 271.932 
1.17069e-05 -3.58375e-06 2.68902e+25 -2.34711 -4.94478 272.366 
1.36182e-05 -3.58375e-06 2.6905e+25 -1.03213 -3.28101 272.217 
1.55296e-05 -3.58375e-06 2.69167e+25 -0.116094 -1.54389 272.027 
2.38917e-07 -3.10592e-06 2.68869e+25 -6.87208 0.39367 271.995 
2.15025e-06 -3.10592e-06 2.68987e+25 -7.49743 -0.556244 272.06 
4.06158e-06 -3.10592e-06 2.69169e+25 -7.66858 -2.3481 271.824 
5.97292e-06 -3.10592e-06 2.69215e+25 -7.04378 -3.52128 271.734 
7.88425e-06 -3.10592e-06 2.68883e+25 -6.27921 -4.70278 272.072 
9.79558e-06 -3.10592e-06 2.69125e+25 -4.47018 -5.27136 272.007 
1.17069e-05 -3.10592e-06 2.68432e+25 -2.65431 -5.30628 272.451 
1.36182e-05 -3.10592e-06 2.68985e+25 -0.950363 -3.60839 272.132 
1.55296e-05 -3.10592e-06 2.69183e+25 -0.0792748 -1.66379 272.04 
2.38917e-07 -2.62808e-06 2.69031e+25 -7.06996 0.572564 271.852 
2.15025e-06 -2.62808e-06 2.68922e+25 -7.865 -0.267841 271.979 
4.06158e-06 -2.62808e-06 2.68851e+25 -7.70465 -2.36608 272.175 
5.97292e-06 -2.62808e-06 2.69069e+25 -7.44309 -3.51085 271.939 
7.88425e-06 -2.62808e-06 2.6889e+25 -6.60997 -5.14377 272.288 
9.79558e-06 -2.62808e-06 2.6921e+25 -4.79033 -5.75425 271.885 
1.17069e-05 -2.62808e-06 2.68824e+25 -3.08645 -5.79397 272.295 
1.36182e-05 -2.62808e-06 2.68661e+25 -1.21148 -4.01036 272.48 
1.55296e-05 -2.62808e-06 2.68931e+25 -0.0254036 -1.923 272.243 
2.38917e-07 -2.15025e-06 2.68914e+25 -7.34765 0.806862 271.908 
2.15025e-06 -2.15025e-06 2.68992e+25 -8.05054 -0.187986 271.935 
4.06158e-06 -2.15025e-06 2.6888e+25 -7.7127 -2.35048 272.307 
5.97292e-06 -2.15025e-06 2.69149e+25 -7.81542 -3.5287 271.906 
7.88425e-06 -2.15025e-06 2.68912e+25 -6.93929 -5.57872 272.244 
9.79558e-06 -2.15025e-06 2.69289e+25 -5.20232 -6.31565 271.936 
1.17069e-05 -2.15025e-06 2.69084e+25 -3.4032 -6.16 272.214 
1.36182e-05 -2.15025e-06 2.68792e+25 -1.43786 -4.41259 272.456 
1.55296e-05 -2.15025e-06 2.68923e+25 -0.0421367 -2.05951 272.277 
2.38917e-07 -1.67242e-06 2.69004e+25 -7.57676 1.16726 271.748 
2.15025e-06 -1.67242e-06 2.69103e+25 -8.04572 -0.299264 272.016 
4.06158e-06 -1.67242e-06 2.68778e+25 -7.76247 -2.34593 272.414 
5.97292e-06 -1.67242e-06 2.69347e+25 -7.81876 -3.58803 271.811 
7.88425e-06 -1.67242e-06 2.69028e+25 -6.83926 -5.93199 272.018 
9.79558e-06 -1.67242e-06 2.69276e+25 -5.40672 -6.71427 271.817 
1.17069e-05 -1.67242e-06 2.68946e+25 -3.70754 -6.60963 272.206 
1.36182e-05 -1.67242e-06 2.68869e+25 -1.9106 -4.90742 272.219 
1.55296e-05 -1.67242e-06 2.68892e+25 -0.15502 -2.06791 272.299 
2.38917e-07 -1.19458e-06 2.68787e+25 -7.85833 1.37248 271.932 
2.15025e-06 -1.19458e-06 2.6915e+25 -7.9896 -0.594711 271.889 
4.06158e-06 -1.19458e-06 2.68918e+25 -7.83288 -2.35411 272.189 
5.97292e-06 -1.19458e-06 2.6921e+25 -7.6593 -3.77797 271.84 
7.88425e-06 -1.19458e-06 2.69052e+25 -6.64225 -6.06155 272.196 
9.79558e-06 -1.19458e-06 2.69151e+25 -5.57327 -7.04116 271.976 
1.17069e-05 -1.19458e-06 2.68959e+25 -3.82532 -7.16332 272.186 
1.36182e-05 -1.19458e-06 2.69045e+25 -2.23539 -5.44487 272.108 
1.55296e-05 -1.19458e-06 2.68822e+25 -0.543241 -2.35177 272.208 
2.38917e-07 -7.1675e-07 2.68783e+25 -7.78103 1.47633 272.058 
2.15025e-06 -7.1675e-07 2.69041e+25 -7.83854 -0.798623 271.806 
4.06158e-06 -7.1675e-07 2.6864e+25 -7.9055 -2.39774 272.387 
5.97292e-06 -7.1675e-07 2.69216e+25 -7.53418 -3.94987 271.874 
7.88425e-06 -7.1675e-07 2.68983e+25 -6.6703 -6.05774 272.164 
9.79558e-06 -7.1675e-07 2.69083e+25 -5.56902 -7.47983 272.174 
1.17069e-05 -7.1675e-07 2.69169e+25 -4.03514 -7.55898 272.037 
1.36182e-05 -7.1675e-07 2.68959e+25 -2.36122 -5.92918 272.157 
1.55296e-05 -7.1675e-07 2.68792e+25 -0.803397 -2.73947 272.351 
2.38917e-07 -2.38917e-07 2.68364e+25 -7.77817 1.69673 272.055 
2.15025e-06 -2.38917e-07 2.68753e+25 -7.92681 -0.752023 271.898 
4.06158e-06 -2.38917e-07 2.68527e+25 -7.86985 -2.45305 272.326 
5.97292e-06 -2.38917e-07 2.68621e+25 -7.26447 -3.91509 272.221 
7.88425e-06 -2.38917e-07 2.6879e+25 -6.85828 -6.18726 272.099 
9.79558e-06 -2.38917e-07 2.69032e+25 -5.5261 -7.93654 272.076 
1.17069e-05 -2.38917e-07 2.68685e+25 -4.28075 -7.77292 272.179 
1.36182e-05 -2.38917e-07 2.68739e+25 -2.49664 -6.4153 272.118 
1.55296e-05 -2.38917e-07 2.68695e+25 -0.80583 -3.14097 272.269 
7.1675e-07 -1.69631e-05 2.68709e+25 -0.298441 -0.0393055 272.807 
2.62808e-06 -1.69631e-05 2.68448e+25 -0.344393 -0.00286322 272.859 
4.53942e-06 -1.69631e-05 2.6825e+25 -0.0623169 0.0400887 272.788 
6.45075e-06 -1.69631e-05 2.68402e+25 -0.394404 0.0312077 272.76 
8.36208e-06 -1.69631e-05 2.68393e+25 -0.358749 0.0402548 272.85 
1.02734e-05 -1.69631e-05 2.6844e+25 -0.12353 -0.0495231 272.847 
1.21847e-05 -1.69631e-05 2.68544e+25 -0.0580261 0.0725165 272.6 
1.40961e-05 -1.69631e-05 2.6844e+25 0.146842 0.0431951 272.808 
1.60074e-05 -1.69631e-05 2.68223e+25 -0.05392 0.0201193 273.045 
7.1675e-07 -1.64852e-05 2.68815e+25 -0.574259 -0.131487 272.539 
2.62808e-06 -1.64852e-05 2.68654e+25 -0.243202 0.0210298 272.513 
4.53942e-06 -1.64852e-05 2.68348e+25 -0.328546 0.149762 272.806 
6.45075e-06 -1.64852e-05 2.68602e+25 -0.824822 -0.182315 272.543 
8.36208e-06 -1.64852e-05 2.68704e+25 -0.485129 0.0510162 272.571 
1.02734e-05 -1.64852e-05 2.68661e+25 -0.394892 -0.0792422 272.5 
1.21847e-05 -1.64852e-05 2.687e+25 -0.177062 0.11984 272.505 
1.40961e-05 -1.64852e-05 2.68537e+25 -0.177703 0.0744131 272.765 
1.60074e-05 -1.64852e-05 2.68694e+25 0.0740912 0.0830503 272.643 
7.1675e-07 -1.60074e-05 2.68915e+25 -0.8954 -0.0687884 272.219 
2.62808e-06 -1.60074e-05 2.69032e+25 -0.466533 0.0378641 272.377 
4.53942e-06 -1.60074e-05 2.6858e+25 -0.936871 0.289879 272.499 
6.45075e-06 -1.60074e-05 2.69028e+25 -0.948411 -0.235131 272.427 
8.36208e-06 -1.60074e-05 2.68706e+25 -0.837965 0.00108393 272.578 
1.02734e-05 -1.60074e-05 2.68867e+25 -0.624184 -0.198431 272.284 
1.21847e-05 -1.60074e-05 2.68947e+25 -0.107812 0.0166573 272.414 
1.40961e-05 -1.60074e-05 2.68719e+25 -0.122558 -0.0835949 272.364 
1.60074e-05 -1.60074e-05 2.69092e+25 0.151004 0.0772817 272.183 
7.1675e-07 -1.55296e-05 2.6895e+25 -1.12396 -0.0676751 272.076 
2.62808e-06 -1.55296e-05 2.69089e+25 -0.858324 -0.107354 272.064 
4.53942e-06 -1.55296e-05 2.68958e+25 -1.10563 0.342891 272.218 
6.45075e-06 -1.55296e-05 2.68973e+25 -1.03488 -0.250691 272.41 
8.36208e-06 -1.55296e-05 2.68515e+25 -0.986041 -0.186179 272.641 
1.02734e-05 -1.55296e-05 2.68865e+25 -0.526758 -0.246247 272.344 
1.21847e-05 -1.55296e-05 2.69111e+25 -0.31873 -0.165835 272.11 
1.40961e-05 -1.55296e-05 2.68797e+25 -0.189076 -0.208886 272.434 
1.60074e-05 -1.55296e-05 2.69022e+25 0.136746 -0.0191357 272.232 
7.1675e-07 -1.50517e-05 2.69143e+25 -1.27693 -0.0890216 272.073 
2.62808e-06 -1.50517e-05 2.69384e+25 -1.07212 -0.200944 271.839 
4.53942e-06 -1.50517e-05 2.69259e+25 -1.2362 0.432482 271.937 
6.45075e-06 -1.50517e-05 2.69074e+25 -1.07733 -0.241386 272.301 
8.36208e-06 -1.50517e-05 2.68581e+25 -0.786857 -0.194484 272.628 
1.02734e-05 -1.50517e-05 2.68519e+25 -0.525602 -0.262654 272.733 
1.21847e-05 -1.50517e-05 2.68929e+25 -0.236707 -0.2571 272.242 
1.40961e-05 -1.50517e-05 2.68979e+25 -0.023387 -0.269207 272.31 
1.60074e-05 -1.50517e-05 2.69002e+25 0.203447 0.0497023 272.273 
7.1675e-07 -1.45739e-05 2.69296e+25 -1.30911 -0.102128 272.018 
2.62808e-06 -1.45739e-05 2.69182e+25 -1.2134 -0.112553 271.93 
4.53942e-06 -1.45739e-05 2.69366e+25 -1.33996 0.42707 271.997 
6.45075e-06 -1.45739e-05 2.69101e+25 -1.00173 -0.150075 272.166 
8.36208e-06 -1.45739e-05 2.68625e+25 -0.729715 -0.268115 272.564 
1.02734e-05 -1.45739e-05 2.68658e+25 -0.543341 -0.282636 272.513 
1.21847e-05 -1.45739e-05 2.68987e+25 -0.122996 -0.210327 272.183 
1.40961e-05 -1.45739e-05 2.6893e+25 0.0338191 -0.324872 272.383 
1.60074e-05 -1.45739e-05 2.68696e+25 0.202982 0.157712 272.465 
7.1675e-07 -1.40961e-05 2.69273e+25 -1.53044 -0.185732 271.901 
2.62808e-06 -1.40961e-05 2.69338e+25 -1.51192 -0.0642866 271.78 
4.53942e-06 -1.40961e-05 2.69394e+25 -1.2726 0.300253 271.767 
6.45075e-06 -1.40961e-05 2.69047e+25 -1.28622 -0.202534 272.187 
8.36208e-06 -1.40961e-05 2.68586e+25 -0.794988 -0.41632 272.67 
1.02734e-05 -1.40961e-05 2.68695e+25 -0.560874 -0.491113 272.485 
1.21847e-05 -1.40961e-05 2.69251e+25 -0.199598 -0.34141 272.118 
1.40961e-05 -1.40961e-05 2.68857e+25 0.261547 -0.251197 272.451 
1.60074e-05 -1.40961e-05 2.68732e+25 0.0255265 0.152904 272.591 
7.1675e-07 -1.36182e-05 2.6927e+25 -1.61926 -0.299734 271.936 
2.62808e-06 -1.36182e-05 2.69643e+25 -1.87996 -0.0568737 271.518 
4.53942e-06 -1.36182e-05 2.69407e+25 -1.24703 0.154671 271.843 
6.45075e-06 -1.36182e-05 2.69008e+25 -1.31048 -0.171871 272.068 
8.36208e-06 -1.36182e-05 2.68845e+25 -1.10549 -0.495528 272.511 
1.02734e-05 -1.36182e-05 2.68831e+25 -0.514914 -0.72277 272.506 
1.21847e-05 -1.36182e-05 2.68978e+25 -0.612894 -0.341184 272.341 
1.40961e-05 -1.36182e-05 2.68606e+25 0.306807 -0.390051 272.521 
1.60074e-05 -1.36182e-05 2.68616e+25 -0.163875 0.177225 272.544 
7.1675e-07 -1.31404e-05 2.69133e+25 -1.79867 -0.244598 272.032 
2.62808e-06 -1.31404e-05 2.69626e+25 -2.00483 -0.226799 271.554 
4.53942e-06 -1.31404e-05 2.6935e+25 -1.63356 -0.0316233 272.028 
6.45075e-06 -1.31404e-05 2.69079e+25 -1.35842 -0.0502908 272.121 
8.36208e-06 -1.31404e-05 2.68747e+25 -1.19178 -0.635126 272.441 
1.02734e-05 -1.31404e-05 2.68613e+25 -0.503413 -0.836178 272.599 
1.21847e-05 -1.31404e-05 2.68925e+25 -0.654827 -0.456671 272.303 
1.40961e-05 -1.31404e-05 2.68667e+25 -0.154393 -0.464133 272.481 
1.60074e-05 -1.31404e-05 2.68801e+25 -0.475331 0.135257 272.414 
7.1675e-07 -1.26626e-05 2.6893e+25 -2.18627 -0.177019 272.141 
2.62808e-06 -1.26626e-05 2.69238e+25 -2.10673 -0.268261 271.919 
4.53942e-06 -1.26626e-05 2.69351e+25 -1.82788 -0.111316 272.03 
6.45075e-06 -1.26626e-05 2.68962e+25 -1.36834 0.0949745 271.993 
8.36208e-06 -1.26626e-05 2.68965e+25 -1.15652 -0.893053 272.364 
1.02734e-05 -1.26626e-05 2.6874e+25 -0.599691 -0.844249 272.593 
1.21847e-05 -1.26626e-05 2.69078e+25 -0.517907 -0.397759 272.312 
1.40961e-05 -1.26626e-05 2.68495e+25 -0.278597 -0.466852 272.674 
1.60074e-05 -1.26626e-05 2.68761e+25 -0.398245 -0.0648555 272.318 
7.1675e-07 -1.21847e-05 2.68853e+25 -2.57421 -0.175898 272.177 
2.62808e-06 -1.21847e-05 2.69256e+25 -2.24279 -0.224678 271.878 
4.53942e-06 -1.21847e-05 2.69145e+25 -1.93601 -0.297987 271.877 
6.45075e-06 -1.21847e-05 2.69021e+25 -1.49351 0.0119962 272.05 
8.36208e-06 -1.21847e-05 2.6874e+25 -1.30338 -0.999351 272.414 
1.02734e-05 -1.21847e-05 2.68736e+25 -0.984518 -1.06503 272.662 
1.21847e-05 -1.21847e-05 2.69031e+25 -0.5554 -0.467756 272.276 
1.40961e-05 -1.21847e-05 2.68777e+25 -0.445368 -0.257929 272.458 
1.60074e-05 -1.21847e-05 2.68782e+25 -0.267325 -0.223431 272.4 
7.1675e-07 -1.17069e-05 2.6915e+25 -2.77387 -0.0312675 271.917 
2.62808e-06 -1.17069e-05 2.69335e+25 -2.88302 -0.389936 271.797 
4.53942e-06 -1.17069e-05 2.69512e+25 -2.02953 -0.388801 271.709 
6.45075e-06 -1.17069e-05 2.68896e+25 -1.47752 -0.0926134 272.167 
8.36208e-06 -1.17069e-05 2.68909e+25 -1.46817 -0.90204 272.368 
1.02734e-05 -1.17069e-05 2.6858e+25 -1.38747 -1.05241 272.425 
1.21847e-05 -1.17069e-05 2.68922e+25 -0.906123 -0.593616 272.077 
1.40961e-05 -1.17069e-05 2.68912e+25 -0.677899 -0.178357 272.323 
1.60074e-05 -1.17069e-05 2.69043e+25 -0.229594 -0.341325 272.299 
7.1675e-07 -1.12291e-05 2.69182e+25 -3.30591 -0.0125229 272.054 
2.62808e-06 -1.12291e-05 2.6927e+25 -3.15875 -0.608371 271.757 
4.53942e-06 -1.12291e-05 2.69343e+25 -2.50311 -0.544595 271.76 
6.45075e-06 -1.12291e-05 2.68891e+25 -1.81524 -0.238634 272.286 
8.36208e-06 -1.12291e-05 2.68885e+25 -1.56299 -0.909848 272.317 
1.02734e-05 -1.12291e-05 2.68966e+25 -1.62972 -1.1049 272.231 
1.21847e-05 -1.12291e-05 2.69258e+25 -0.651506 -0.79999 271.904 
1.40961e-05 -1.12291e-05 2.68731e+25 -0.504202 -0.14123 272.399 
1.60074e-05 -1.12291e-05 2.68643e+25 -0.0213236 -0.448926 272.448 
7.1675e-07 -1.07512e-05 2.69196e+25 -3.71243 -0.102925 271.921 
2.62808e-06 -1.07512e-05 2.69193e+25 -3.26166 -0.749738 271.741 
4.53942e-06 -1.07512e-05 2.69192e+25 -3.0929 -0.483644 271.967 
6.45075e-06 -1.07512e-05 2.68903e+25 -2.36754 -0.51445 272.233 
8.36208e-06 -1.07512e-05 2.69008e+25 -1.73514 -1.04045 272.263 
1.02734e-05 -1.07512e-05 2.6889e+25 -1.7879 -1.06825 272.061 
1.21847e-05 -1.07512e-05 2.69147e+25 -0.551642 -1.03784 271.953 
1.40961e-05 -1.07512e-05 2.68817e+25 -0.156364 -0.0839562 272.333 
1.60074e-05 -1.07512e-05 2.68963e+25 0.0694257 -0.463634 272.365 
7.1675e-07 -1.02734e-05 2.69148e+25 -3.96008 -0.214452 271.855 
2.62808e-06 -1.02734e-05 2.69349e+25 -3.66007 -0.952311 271.831 
4.53942e-06 -1.02734e-05 2.69058e+25 -3.29232 -0.565141 272.161 
6.45075e-06 -1.02734e-05 2.69022e+25 -2.54486 -0.91295 272.333 
8.36208e-06 -1.02734e-05 2.6878e+25 -2.03958 -1.0274 272.418 
1.02734e-05 -1.02734e-05 2.6914e+25 -1.76045 -1.18135 272.071 
1.21847e-05 -1.02734e-05 2.69324e+25 -0.586765 -1.34521 271.949 
1.40961e-05 -1.02734e-05 2.69032e+25 -0.668154 -0.268683 272.029 
1.60074e-05 -1.02734e-05 2.68929e+25 0.190644 -0.432068 272.268 
7.1675e-07 -9.79558e-06 2.69307e+25 -3.93304 -0.281015 271.859 
2.62808e-06 -9.79558e-06 2.6913e+25 -4.16738 -1.03659 271.923 
4.53942e-06 -9.79558e-06 2.6927e+25 -3.56312 -0.575559 272.092 
6.45075e-06 -9.79558e-06 2.69348e+25 -2.80905 -1.16014 272.11 
8.36208e-06 -9.79558e-06 2.6892e+25 -1.99256 -1.2301 272.187 
1.02734e-05 -9.79558e-06 2.69082e+25 -1.2777 -1.29068 272.023 
1.21847e-05 -9.79558e-06 2.69082e+25 -0.662405 -1.62646 272.013 
1.40961e-05 -9.79558e-06 2.6921e+25 -0.460444 -0.402789 272.03 
1.60074e-05 -9.79558e-06 2.68824e+25 0.073001 -0.492834 272.341 
7.1675e-07 -9.31775e-06 2.68851e+25 -4.30222 -0.321807 272.028 
2.62808e-06 -9.31775e-06 2.69235e+25 -4.30499 -0.980902 272.056 
4.53942e-06 -9.31775e-06 2.69232e+25 -3.75171 -0.786725 271.898 
6.45075e-06 -9.31775e-06 2.69297e+25 -2.79209 -1.23779 271.996 
8.36208e-06 -9.31775e-06 2.69238e+25 -2.13771 -1.41634 272.039 
1.02734e-05 -9.31775e-06 2.69085e+25 -1.14232 -1.50262 272.165 
1.21847e-05 -9.31775e-06 2.69203e+25 -1.00347 -1.76619 271.891 
1.40961e-05 -9.31775e-06 2.69137e+25 -0.225366 -0.537175 271.892 
1.60074e-05 -9.31775e-06 2.68919e+25 -0.0786226 -0.586661 272.339 
7.1675e-07 -8.83992e-06 2.69004e+25 -4.68073 -0.351776 272.194 
2.62808e-06 -8.83992e-06 2.69072e+25 -4.48793 -0.971121 272.012 
4.53942e-06 -8.83992e-06 2.69321e+25 -3.90063 -1.09019 272.059 
6.45075e-06 -8.83992e-06 2.68837e+25 -3.0184 -1.35684 272.269 
8.36208e-06 -8.83992e-06 2.69537e+25 -2.11097 -1.6126 271.907 
1.02734e-05 -8.83992e-06 2.69144e+25 -1.39429 -1.69091 272.266 
1.21847e-05 -8.83992e-06 2.69277e+25 -1.10277 -1.91264 271.85 
1.40961e-05 -8.83992e-06 2.6912e+25 -0.621577 -0.523347 271.987 
1.60074e-05 -8.83992e-06 2.69042e+25 -0.0637579 -0.676864 272.089 
7.1675e-07 -8.36208e-06 2.68945e+25 -4.96091 -0.260723 272.236 
2.62808e-06 -8.36208e-06 2.68741e+25 -4.54383 -1.13955 272.249 
4.53942e-06 -8.36208e-06 2.69022e+25 -4.05086 -1.32718 272.16 
6.45075e-06 -8.36208e-06 2.68826e+25 -3.17183 -1.61539 272.342 
8.36208e-06 -8.36208e-06 2.69165e+25 -2.33352 -1.76044 272.009 
1.02734e-05 -8.36208e-06 2.69439e+25 -1.74418 -1.9282 271.864 
1.21847e-05 -8.36208e-06 2.68856e+25 -1.02053 -1.97436 272.157 
1.40961e-05 -8.36208e-06 2.69284e+25 -0.394327 -0.835077 271.956 
1.60074e-05 -8.36208e-06 2.69246e+25 0.122951 -0.628247 272.091 
7.1675e-07 -7.88425e-06 2.68952e+25 -5.16707 0.00222907 272.258 
2.62808e-06 -7.88425e-06 2.69043e+25 -4.84383 -1.41465 272.031 
4.53942e-06 -7.88425e-06 2.69278e+25 -4.07553 -1.44046 271.991 
6.45075e-06 -7.88425e-06 2.6932e+25 -3.64602 -1.89329 272.057 
8.36208e-06 -7.88425e-06 2.69354e+25 -3.00756 -1.91829 271.949 
1.02734e-05 -7.88425e-06 2.69287e+25 -1.8559 -2.22237 271.901 
1.21847e-05 -7.88425e-06 2.69402e+25 -1.18717 -1.926 271.998 
1.40961e-05 -7.88425e-06 2.69354e+25 -0.334427 -1.29263 271.997 
1.60074e-05 -7.88425e-06 2.68738e+25 0.0823107 -0.48142 272.253 
7.1675e-07 -7.40642e-06 2.68983e+25 -5.25379 0.0205951 272.213 
2.62808e-06 -7.40642e-06 2.6916e+25 -5.16638 -1.78802 272.163 
4.53942e-06 -7.40642e-06 2.69079e+25 -4.34509 -1.60473 271.912 
6.45075e-06 -7.40642e-06 2.69295e+25 -4.06839 -1.94633 272.065 
8.36208e-06 -7.40642e-06 2.6914e+25 -3.25873 -2.20834 272.006 
1.02734e-05 -7.40642e-06 2.69257e+25 -2.19104 -2.54627 271.993 
1.21847e-05 -7.40642e-06 2.69599e+25 -1.05016 -1.96557 271.747 
1.40961e-05 -7.40642e-06 2.69185e+25 -0.414173 -1.43812 272.131 
1.60074e-05 -7.40642e-06 2.68829e+25 0.0600934 -0.375734 272.318 
7.1675e-07 -6.92858e-06 2.68898e+25 -5.56984 0.0547637 272.13 
2.62808e-06 -6.92858e-06 2.69081e+25 -5.47434 -1.82832 272.113 
4.53942e-06 -6.92858e-06 2.69228e+25 -4.86132 -1.79387 271.956 
6.45075e-06 -6.92858e-06 2.6909e+25 -4.24298 -2.04388 272.094 
8.36208e-06 -6.92858e-06 2.69203e+25 -3.59315 -2.38564 271.964 
1.02734e-05 -6.92858e-06 2.69063e+25 -2.3466 -2.92252 272.147 
1.21847e-05 -6.92858e-06 2.69327e+25 -1.17481 -2.16419 271.701 
1.40961e-05 -6.92858e-06 2.68969e+25 -0.456752 -1.75916 272.061 
1.60074e-05 -6.92858e-06 2.69033e+25 -0.127446 -0.459254 272.21 
7.1675e-07 -6.45075e-06 2.69202e+25 -5.38947 0.155772 272.005 
2.62808e-06 -6.45075e-06 2.6931e+25 -5.34613 -1.7929 271.886 
4.53942e-06 -6.45075e-06 2.69441e+25 -5.40938 -1.93001 271.857 
6.45075e-06 -6.45075e-06 2.69131e+25 -4.91866 -2.31753 271.992 
8.36208e-06 -6.45075e-06 2.69122e+25 -3.93563 -2.60064 271.948 
1.02734e-05 -6.45075e-06 2.6923e+25 -2.52953 -3.29319 271.942 
1.21847e-05 -6.45075e-06 2.69386e+25 -1.61935 -2.50135 271.645 
1.40961e-05 -6.45075e-06 2.69141e+25 -0.475228 -2.00058 271.959 
1.60074e-05 -6.45075e-06 2.68706e+25 -0.178573 -0.641401 272.494 
7.1675e-07 -5.97292e-06 2.68861e+25 -5.56148 0.225464 272.103 
2.62808e-06 -5.97292e-06 2.6945e+25 -5.45924 -1.62332 271.899 
4.53942e-06 -5.97292e-06 2.6908e+25 -5.81546 -2.05423 272.187 
6.45075e-06 -5.97292e-06 2.68985e+25 -5.16358 -2.44044 271.962 
8.36208e-06 -5.97292e-06 2.68809e+25 -4.30457 -2.90534 272.087 
1.02734e-05 -5.97292e-06 2.69253e+25 -2.86789 -3.5003 271.875 
1.21847e-05 -5.97292e-06 2.69152e+25 -1.49077 -2.73375 272.102 
1.40961e-05 -5.97292e-06 2.6897e+25 -0.646515 -2.25409 272.186 
1.60074e-05 -5.97292e-06 2.68446e+25 -0.170394 -0.82448 272.625 
7.1675e-07 -5.49508e-06 2.68985e+25 -5.91685 0.115392 272.252 
2.62808e-06 -5.49508e-06 2.69098e+25 -5.73543 -1.41226 272.099 
4.53942e-06 -5.49508e-06 2.68899e+25 -5.98624 -2.03311 272.255 
6.45075e-06 -5.49508e-06 2.69046e+25 -5.31278 -2.53 272.089 
8.36208e-06 -5.49508e-06 2.69385e+25 -4.42848 -3.16061 271.91 
1.02734e-05 -5.49508e-06 2.69131e+25 -2.9957 -3.6731 271.983 
1.21847e-05 -5.49508e-06 2.69039e+25 -1.6556 -3.08072 272.171 
1.40961e-05 -5.49508e-06 2.69269e+25 -0.962307 -2.31039 272.154 
1.60074e-05 -5.49508e-06 2.68818e+25 -0.302416 -0.99655 272.403 
7.1675e-07 -5.01725e-06 2.6897e+25 -6.24746 -0.0121634 272.169 
2.62808e-06 -5.01725e-06 2.69171e+25 -6.24857 -1.39402 272.012 
4.53942e-06 -5.01725e-06 2.68773e+25 -6.05759 -2.08924 272.242 
6.45075e-06 -5.01725e-06 2.69011e+25 -5.56968 -2.67414 272.158 
8.36208e-06 -5.01725e-06 2.69441e+25 -4.52135 -3.64861 271.786 
1.02734e-05 -5.01725e-06 2.68995e+25 -3.24137 -3.92862 271.951 
1.21847e-05 -5.01725e-06 2.69227e+25 -1.81018 -3.3626 272.052 
1.40961e-05 -5.01725e-06 2.69165e+25 -0.737758 -2.39507 272.088 
1.60074e-05 -5.01725e-06 2.68839e+25 -0.222721 -1.32771 272.18 
7.1675e-07 -4.53942e-06 2.69128e+25 -6.43643 -0.0146434 272.026 
2.62808e-06 -4.53942e-06 2.6921e+25 -6.46419 -1.35468 271.874 
4.53942e-06 -4.53942e-06 2.69005e+25 -6.36915 -2.24844 272.001 
6.45075e-06 -4.53942e-06 2.68906e+25 -5.66678 -2.79672 272.188 
8.36208e-06 -4.53942e-06 2.69423e+25 -4.47129 -3.8448 272.016 
1.02734e-05 -4.53942e-06 2.68886e+25 -3.57522 -4.23503 272.076 
1.21847e-05 -4.53942e-06 2.68962e+25 -2.00321 -3.77507 272.173 
1.40961e-05 -4.53942e-06 2.69261e+25 -0.675501 -2.62283 271.919 
1.60074e-05 -4.53942e-06 2.69055e+25 -0.0716302 -1.38474 272.058 
7.1675e-07 -4.06158e-06 2.6889e+25 -6.52654 -0.124965 272.162 
2.62808e-06 -4.06158e-06 2.69041e+25 -7.03832 -1.37888 272.088 
4.53942e-06 -4.06158e-06 2.69185e+25 -6.87848 -2.41769 271.952 
6.45075e-06 -4.06158e-06 2.69448e+25 -6.21142 -3.09651 271.854 
8.36208e-06 -4.06158e-06 2.69088e+25 -4.97879 -4.11446 271.937 
1.02734e-05 -4.06158e-06 2.68966e+25 -3.47687 -4.57366 272.247 
1.21847e-05 -4.06158e-06 2.68695e+25 -2.02517 -4.1614 272.467 
1.40961e-05 -4.06158e-06 2.69255e+25 -0.484319 -2.86668 272.054 
1.60074e-05 -4.06158e-06 2.69149e+25 -0.00136003 -1.17748 272.045 
7.1675e-07 -3.58375e-06 2.69001e+25 -6.70375 -0.100595 272.046 
2.62808e-06 -3.58375e-06 2.68656e+25 -7.20621 -1.17083 272.339 
4.53942e-06 -3.58375e-06 2.69319e+25 -6.92957 -2.48879 271.772 
6.45075e-06 -3.58375e-06 2.69442e+25 -6.3986 -3.40702 271.783 
8.36208e-06 -3.58375e-06 2.69124e+25 -5.32629 -4.51725 271.863 
1.02734e-05 -3.58375e-06 2.69034e+25 -3.616 -5.12377 272.14 
1.21847e-05 -3.58375e-06 2.68721e+25 -2.01217 -4.56349 272.555 
1.40961e-05 -3.58375e-06 2.68793e+25 -0.770673 -3.08948 272.404 
1.60074e-05 -3.58375e-06 2.68873e+25 -0.118659 -1.16923 272.131 
7.1675e-07 -3.10592e-06 2.68967e+25 -6.95368 -0.0116103 272.071 
2.62808e-06 -3.10592e-06 2.68776e+25 -7.64224 -1.05282 272.176 
4.53942e-06 -3.10592e-06 2.6905e+25 -7.54649 -2.64037 271.925 
6.45075e-06 -3.10592e-06 2.69378e+25 -7.04905 -3.60563 271.9 
8.36208e-06 -3.10592e-06 2.69171e+25 -5.83161 -4.96187 271.936 
1.02734e-05 -3.10592e-06 2.69063e+25 -3.94802 -5.73097 272.096 
1.21847e-05 -3.10592e-06 2.6876e+25 -2.21808 -4.93823 272.342 
1.40961e-05 -3.10592e-06 2.68768e+25 -0.611582 -3.40722 272.344 
1.60074e-05 -3.10592e-06 2.6889e+25 0.0262177 -1.15591 272.207 
7.1675e-07 -2.62808e-06 2.6916e+25 -7.26875 0.200773 272.046 
2.62808e-06 -2.62808e-06 2.6919e+25 -7.94693 -1.07176 272.072 
4.53942e-06 -2.62808e-06 2.69155e+25 -7.6473 -2.7753 272.063 
6.45075e-06 -2.62808e-06 2.69378e+25 -7.4715 -3.59833 271.842 
8.36208e-06 -2.62808e-06 2.69124e+25 -6.11759 -5.4756 272.127 
1.02734e-05 -2.62808e-06 2.69064e+25 -4.36284 -6.13246 272.055 
1.21847e-05 -2.62808e-06 2.68599e+25 -2.5446 -5.44271 272.349 
1.40961e-05 -2.62808e-06 2.68626e+25 -0.912797 -3.64414 272.402 
1.60074e-05 -2.62808e-06 2.69282e+25 0.10007 -1.15827 272.116 
7.1675e-07 -2.15025e-06 2.6914e+25 -7.61029 0.405025 271.993 
2.62808e-06 -2.15025e-06 2.69245e+25 -8.0339 -1.18541 271.982 
4.53942e-06 -2.15025e-06 2.69012e+25 -7.78342 -2.81445 272.074 
6.45075e-06 -2.15025e-06 2.69558e+25 -7.65797 -3.71944 271.71 
8.36208e-06 -2.15025e-06 2.69042e+25 -6.54726 -5.94775 272.149 
1.02734e-05 -2.15025e-06 2.69155e+25 -4.77575 -6.4257 271.978 
1.21847e-05 -2.15025e-06 2.68969e+25 -2.90872 -6.02619 272.301 
1.40961e-05 -2.15025e-06 2.68841e+25 -1.04307 -3.89943 272.297 
1.60074e-05 -2.15025e-06 2.68847e+25 -0.104803 -1.11063 272.173 
7.1675e-07 -1.67242e-06 2.69171e+25 -7.89528 0.669277 271.939 
2.62808e-06 -1.67242e-06 2.6892e+25 -7.93529 -1.21481 272.063 
4.53942e-06 -1.67242e-06 2.69021e+25 -7.84552 -2.66499 272.089 
6.45075e-06 -1.67242e-06 2.69172e+25 -7.75234 -3.97366 271.794 
8.36208e-06 -1.67242e-06 2.68966e+25 -6.5982 -6.27026 272.249 
1.02734e-05 -1.67242e-06 2.69518e+25 -5.11355 -6.79665 271.91 
1.21847e-05 -1.67242e-06 2.68884e+25 -3.23962 -6.55746 272.281 
1.40961e-05 -1.67242e-06 2.6913e+25 -1.34793 -4.30896 272.083 
1.60074e-05 -1.67242e-06 2.69099e+25 0.00526068 -1.20535 272.203 
7.1675e-07 -1.19458e-06 2.68801e+25 -7.96762 0.903238 272.134 
2.62808e-06 -1.19458e-06 2.6922e+25 -7.76325 -1.25871 271.87 
4.53942e-06 -1.19458e-06 2.68841e+25 -7.86718 -2.56694 272.151 
6.45075e-06 -1.19458e-06 2.69023e+25 -7.29591 -4.25142 271.895 
8.36208e-06 -1.19458e-06 2.69164e+25 -6.5537 -6.5496 272.006 
1.02734e-05 -1.19458e-06 2.69073e+25 -5.18511 -7.17135 271.995 
1.21847e-05 -1.19458e-06 2.69043e+25 -3.43419 -6.80586 272.212 
1.40961e-05 -1.19458e-06 2.69049e+25 -1.65676 -4.90213 272.015 
1.60074e-05 -1.19458e-06 2.68725e+25 -0.212089 -1.34233 272.414 
7.1675e-07 -7.1675e-07 2.69091e+25 -7.91509 1.08062 272.023 
2.62808e-06 -7.1675e-07 2.69033e+25 -7.84183 -1.25757 271.945 
4.53942e-06 -7.1675e-07 2.68675e+25 -7.85357 -2.62443 272.269 
6.45075e-06 -7.1675e-07 2.69331e+25 -7.48098 -4.44115 271.812 
8.36208e-06 -7.1675e-07 2.69118e+25 -6.55439 -6.77536 271.988 
1.02734e-05 -7.1675e-07 2.69046e+25 -5.06979 -7.63744 272.126 
1.21847e-05 -7.1675e-07 2.69082e+25 -3.69391 -7.19558 272.19 
1.40961e-05 -7.1675e-07 2.68966e+25 -1.90496 -5.40133 272.158 
1.60074e-05 -7.1675e-07 2.68689e+25 -0.323713 -1.76297 272.365 
7.1675e-07 -2.38917e-07 2.68719e+25 -7.93211 1.15382 271.945 
2.62808e-06 -2.38917e-07 2.68661e+25 -7.97677 -1.1817 271.908 
4.53942e-06 -2.38917e-07 2.68475e+25 -7.70164 -2.7447 272.27 
6.45075e-06 -2.38917e-07 2.68921e+25 -7.05015 -4.70887 272.118 
8.36208e-06 -2.38917e-07 2.69031e+25 -6.5909 -6.96829 271.958 
1.02734e-05 -2.38917e-07 2.69197e+25 -5.04826 -8.06287 271.876 
1.21847e-05 -2.38917e-07 2.68702e+25 -4.03006 -7.55007 272.236 
1.40961e-05 -2.38917e-07 2.68847e+25 -2.08219 -5.81756 272.203 
1.60074e-05 -2.38917e-07 2.68685e+25 -0.518713 -2.18767 272.452 
1.67242e-06 -1.69631e-05 2.68196e+25 -0.24135 0.038123 273.031 
3.58375e-06 -1.69631e-05 2.68527e+25 0.0161216 -0.0840562 272.783 
5.49508e-06 -1.69631e-05 2.68443e+25 -0.412195 0.0602214 272.866 
7.40642e-06 -1.69631e-05 2.68394e+25 -0.34003 0.0269506 272.779 
9.31775e-06 -1.69631e-05 2.68507e+25 -0.291142 -0.0701059 272.743 
1.12291e-05 -1.69631e-05 2.68425e+25 0.147396 -0.0732791 272.708 
1.31404e-05 -1.69631e-05 2.68322e+25 -0.0633838 -0.0820001 272.852 
1.50518e-05 -1.69631e-05 2.68374e+25 0.0846217 -0.0196308 272.902 
1.69631e-05 -1.69631e-05 2.68295e+25 -0.0288864 -0.0562912 272.921 
1.67242e-06 -1.64852e-05 2.685e+25 -0.487919 0.00863625 272.761 
3.58375e-06 -1.64852e-05 2.6861e+25 -0.285588 -0.156315 272.503 
5.49508e-06 -1.64852e-05 2.68423e+25 -0.726461 0.232152 272.662 
7.40642e-06 -1.64852e-05 2.68668e+25 -0.639734 0.0119401 272.578 
9.31775e-06 -1.64852e-05 2.68795e+25 -0.413036 -0.196077 272.411 
1.12291e-05 -1.64852e-05 2.68675e+25 -0.239108 -0.157609 272.309 
1.31404e-05 -1.64852e-05 2.68493e+25 -0.148947 -0.145972 272.733 
1.50518e-05 -1.64852e-05 2.68758e+25 -0.112933 -0.00893095 272.541 
1.69631e-05 -1.64852e-05 2.68221e+25 0.00655641 -0.0362401 272.959 
1.67242e-06 -1.60074e-05 2.69037e+25 -0.714146 -0.0990939 272.242 
3.58375e-06 -1.60074e-05 2.69139e+25 -0.755663 -0.0950511 272.219 
5.49508e-06 -1.60074e-05 2.68706e+25 -0.965872 0.379842 272.536 
7.40642e-06 -1.60074e-05 2.68575e+25 -0.856727 -0.00926202 272.557 
9.31775e-06 -1.60074e-05 2.68928e+25 -0.577798 -0.180422 272.455 
1.12291e-05 -1.60074e-05 2.6902e+25 -0.470205 -0.282223 272.115 
1.31404e-05 -1.60074e-05 2.68686e+25 -0.183928 -0.0978398 272.541 
1.50518e-05 -1.60074e-05 2.69021e+25 0.0709302 -0.0393175 272.236 
1.69631e-05 -1.60074e-05 2.68377e+25 -0.0210523 0.0525508 272.961 
1.67242e-06 -1.55296e-05 2.68979e+25 -0.97323 -0.246899 272.215 
3.58375e-06 -1.55296e-05 2.68867e+25 -1.01943 0.0753091 272.348 
5.49508e-06 -1.55296e-05 2.68813e+25 -1.0787 0.349442 272.396 
7.40642e-06 -1.55296e-05 2.6841e+25 -1.0944 -0.0171971 272.585 
9.31775e-06 -1.55296e-05 2.68996e+25 -0.667543 -0.218475 272.397 
1.12291e-05 -1.55296e-05 2.69317e+25 -0.475139 -0.248559 271.988 
1.31404e-05 -1.55296e-05 2.69009e+25 -0.217795 -0.0162651 272.328 
1.50518e-05 -1.55296e-05 2.69248e+25 -0.00318171 -0.166431 272.078 
1.69631e-05 -1.55296e-05 2.68514e+25 0.0225805 0.0311129 272.82 
1.67242e-06 -1.50517e-05 2.69095e+25 -1.18826 -0.291492 272.085 
3.58375e-06 -1.50517e-05 2.68904e+25 -0.963199 0.254503 272.316 
5.49508e-06 -1.50517e-05 2.69258e+25 -1.16528 0.292825 272.111 
7.40642e-06 -1.50517e-05 2.68609e+25 -1.06251 -0.0537576 272.556 
9.31775e-06 -1.50517e-05 2.68581e+25 -0.706656 -0.32943 272.463 
1.12291e-05 -1.50517e-05 2.68921e+25 -0.503912 -0.26396 272.228 
1.31404e-05 -1.50517e-05 2.68958e+25 -0.0431285 -0.0357406 272.448 
1.50518e-05 -1.50517e-05 2.6891e+25 0.11517 -0.266234 272.212 
1.69631e-05 -1.50517e-05 2.68211e+25 0.00507667 0.0934581 272.976 
1.67242e-06 -1.45739e-05 2.69611e+25 -1.31974 -0.413223 271.68 
3.58375e-06 -1.45739e-05 2.69156e+25 -1.3605 0.304582 271.992 
5.49508e-06 -1.45739e-05 2.69492e+25 -0.992731 0.172957 271.699 
7.40642e-06 -1.45739e-05 2.68674e+25 -1.03826 -0.251149 272.459 
9.31775e-06 -1.45739e-05 2.68613e+25 -0.852179 -0.50438 272.451 
1.12291e-05 -1.45739e-05 2.69059e+25 -0.261229 -0.421499 272.322 
1.31404e-05 -1.45739e-05 2.69298e+25 0.0500217 -0.110245 272.088 
1.50518e-05 -1.45739e-05 2.68923e+25 0.232899 -0.325417 272.326 
1.69631e-05 -1.45739e-05 2.68557e+25 0.0666873 0.149838 272.804 
1.67242e-06 -1.40961e-05 2.69403e+25 -1.36193 -0.401725 271.782 
3.58375e-06 -1.40961e-05 2.69208e+25 -1.59553 0.245757 271.992 
5.49508e-06 -1.40961e-05 2.68914e+25 -1.34378 0.158951 272.109 
7.40642e-06 -1.40961e-05 2.68722e+25 -0.942936 -0.265851 272.466 
9.31775e-06 -1.40961e-05 2.68898e+25 -0.861128 -0.514673 272.285 
1.12291e-05 -1.40961e-05 2.68903e+25 -0.367169 -0.60986 272.268 
1.31404e-05 -1.40961e-05 2.68831e+25 -0.102834 -0.135806 272.275 
1.50518e-05 -1.40961e-05 2.68671e+25 0.29744 -0.384563 272.396 
1.69631e-05 -1.40961e-05 2.68372e+25 -0.0703263 0.146656 272.85 
1.67242e-06 -1.36182e-05 2.69317e+25 -1.77402 -0.388148 271.887 
3.58375e-06 -1.36182e-05 2.69193e+25 -1.72704 0.0780282 272.024 
5.49508e-06 -1.36182e-05 2.69154e+25 -1.3194 0.209873 272.044 
7.40642e-06 -1.36182e-05 2.68559e+25 -1.27495 -0.533631 272.363 
9.31775e-06 -1.36182e-05 2.68602e+25 -0.728049 -0.478715 272.504 
1.12291e-05 -1.36182e-05 2.68872e+25 -0.327585 -0.516496 272.362 
1.31404e-05 -1.36182e-05 2.68492e+25 -0.273579 -0.351654 272.63 
1.50518e-05 -1.36182e-05 2.6879e+25 0.0309922 -0.155937 272.447 
1.69631e-05 -1.36182e-05 2.68485e+25 -0.0681112 0.00601788 272.821 
1.67242e-06 -1.31404e-05 2.69191e+25 -2.01234 -0.313242 271.983 
3.58375e-06 -1.31404e-05 2.69371e+25 -1.73139 -0.0673572 271.867 
5.49508e-06 -1.31404e-05 2.68784e+25 -1.27824 0.0969707 272.296 
7.40642e-06 -1.31404e-05 2.68913e+25 -1.5291 -0.592468 272.343 
9.31775e-06 -1.31404e-05 2.68606e+25 -0.634241 -0.570538 272.525 
1.12291e-05 -1.31404e-05 2.68963e+25 -0.499578 -0.386092 272.306 
1.31404e-05 -1.31404e-05 2.68579e+25 -0.243251 -0.510902 272.626 
1.50518e-05 -1.31404e-05 2.68608e+25 -0.175395 0.122071 272.503 
1.69631e-05 -1.31404e-05 2.68265e+25 0.0123881 -0.0342473 272.822 
1.67242e-06 -1.26626e-05 2.69038e+25 -2.27643 -0.158538 271.986 
3.58375e-06 -1.26626e-05 2.69227e+25 -1.967 -0.188761 271.797 
5.49508e-06 -1.26626e-05 2.68923e+25 -1.4315 -0.00444846 272.034 
7.40642e-06 -1.26626e-05 2.69118e+25 -1.14627 -0.606497 272.208 
9.31775e-06 -1.26626e-05 2.68669e+25 -0.753576 -0.684266 272.454 
1.12291e-05 -1.26626e-05 2.69208e+25 -0.426971 -0.421789 272.274 
1.31404e-05 -1.26626e-05 2.68704e+25 -0.452448 -0.816855 272.429 
1.50518e-05 -1.26626e-05 2.6869e+25 -0.480861 0.180258 272.482 
1.69631e-05 -1.26626e-05 2.68355e+25 -0.00969517 -0.0459152 272.884 
1.67242e-06 -1.21847e-05 2.69118e+25 -2.33853 -0.20177 271.943 
3.58375e-06 -1.21847e-05 2.69312e+25 -2.14445 -0.250889 271.798 
5.49508e-06 -1.21847e-05 2.69193e+25 -1.55798 -0.153237 271.943 
7.40642e-06 -1.21847e-05 2.68969e+25 -1.33849 -0.597443 272.146 
9.31775e-06 -1.21847e-05 2.68925e+25 -1.24502 -0.908673 272.349 
1.12291e-05 -1.21847e-05 2.68917e+25 -0.750794 -0.508728 272.284 
1.31404e-05 -1.21847e-05 2.68769e+25 -0.449664 -0.946721 272.472 
1.50518e-05 -1.21847e-05 2.68781e+25 -0.606372 0.233342 272.436 
1.69631e-05 -1.21847e-05 2.68564e+25 -0.0188437 -0.0696338 272.778 
1.67242e-06 -1.17069e-05 2.6919e+25 -2.98124 -0.161431 272.038 
3.58375e-06 -1.17069e-05 2.69157e+25 -2.46989 -0.373992 271.855 
5.49508e-06 -1.17069e-05 2.6943e+25 -1.77355 -0.294247 271.777 
7.40642e-06 -1.17069e-05 2.69114e+25 -1.48084 -0.490309 272.146 
9.31775e-06 -1.17069e-05 2.68447e+25 -1.57718 -0.97041 272.709 
1.12291e-05 -1.17069e-05 2.68889e+25 -1.12231 -0.574822 272.191 
1.31404e-05 -1.17069e-05 2.6885e+25 -0.453792 -1.0441 272.395 
1.50518e-05 -1.17069e-05 2.68709e+25 -0.514884 0.132339 272.38 
1.69631e-05 -1.17069e-05 2.68537e+25 0.00325889 -0.127278 272.712 
1.67242e-06 -1.12291e-05 2.69061e+25 -3.1716 -0.210617 271.928 
3.58375e-06 -1.12291e-05 2.69417e+25 -2.70954 -0.659805 271.772 
5.49508e-06 -1.12291e-05 2.69449e+25 -2.31386 -0.454829 271.864 
7.40642e-06 -1.12291e-05 2.68902e+25 -1.65115 -0.644503 272.359 
9.31775e-06 -1.12291e-05 2.68608e+25 -1.42736 -0.932167 272.558 
1.12291e-05 -1.12291e-05 2.68973e+25 -1.31041 -0.775536 272.205 
1.31404e-05 -1.12291e-05 2.69361e+25 -0.329617 -0.944031 272.017 
1.50518e-05 -1.12291e-05 2.68775e+25 -0.333949 -0.0793334 272.197 
1.69631e-05 -1.12291e-05 2.68528e+25 -0.0256513 -0.208511 272.672 
1.67242e-06 -1.07512e-05 2.69231e+25 -3.35817 -0.357947 271.821 
3.58375e-06 -1.07512e-05 2.69713e+25 -3.09584 -0.669066 271.653 
5.49508e-06 -1.07512e-05 2.6917e+25 -2.86449 -0.621901 271.935 
7.40642e-06 -1.07512e-05 2.68943e+25 -1.88205 -0.782468 272.24 
9.31775e-06 -1.07512e-05 2.68608e+25 -1.81842 -0.804273 272.357 
1.12291e-05 -1.07512e-05 2.6908e+25 -1.44997 -1.26771 271.965 
1.31404e-05 -1.07512e-05 2.69133e+25 -0.2989 -1.03373 272.135 
1.50518e-05 -1.07512e-05 2.69161e+25 -0.134846 -0.272174 272.263 
1.69631e-05 -1.07512e-05 2.68678e+25 0.011969 -0.174645 272.729 
1.67242e-06 -1.02734e-05 2.69254e+25 -3.91367 -0.42871 271.873 
3.58375e-06 -1.02734e-05 2.69223e+25 -3.31766 -0.686422 271.951 
5.49508e-06 -1.02734e-05 2.69205e+25 -3.04869 -0.877344 272.066 
7.40642e-06 -1.02734e-05 2.69159e+25 -2.04392 -0.888461 272.28 
9.31775e-06 -1.02734e-05 2.68698e+25 -1.91699 -0.895608 272.31 
1.12291e-05 -1.02734e-05 2.69544e+25 -1.21832 -1.64122 271.698 
1.31404e-05 -1.02734e-05 2.69247e+25 -0.491448 -0.991534 272.165 
1.50518e-05 -1.02734e-05 2.69212e+25 -0.0521282 -0.354981 272.02 
1.69631e-05 -1.02734e-05 2.68649e+25 0.0180983 -0.0972949 272.649 
1.67242e-06 -9.79558e-06 2.69171e+25 -4.15595 -0.318044 272.021 
3.58375e-06 -9.79558e-06 2.69256e+25 -3.91858 -0.854916 271.934 
5.49508e-06 -9.79558e-06 2.69206e+25 -3.2198 -1.14603 271.977 
7.40642e-06 -9.79558e-06 2.69189e+25 -2.21398 -0.983946 272.153 
9.31775e-06 -9.79558e-06 2.68686e+25 -1.58938 -0.987746 272.471 
1.12291e-05 -9.79558e-06 2.6966e+25 -1.04829 -1.79844 271.639 
1.31404e-05 -9.79558e-06 2.68894e+25 -0.538259 -0.894424 272.177 
1.50518e-05 -9.79558e-06 2.69281e+25 -0.226526 -0.59687 272.005 
1.69631e-05 -9.79558e-06 2.6844e+25 0.0101375 -0.0546582 272.683 
1.67242e-06 -9.31775e-06 2.69235e+25 -4.25886 -0.169737 271.98 
3.58375e-06 -9.31775e-06 2.69378e+25 -4.13651 -1.11559 271.866 
5.49508e-06 -9.31775e-06 2.69016e+25 -3.15617 -1.3262 272.064 
7.40642e-06 -9.31775e-06 2.69427e+25 -2.7247 -1.22515 272.015 
9.31775e-06 -9.31775e-06 2.69048e+25 -1.56183 -1.13297 272.226 
1.12291e-05 -9.31775e-06 2.69226e+25 -1.10434 -1.6953 271.782 
1.31404e-05 -9.31775e-06 2.69031e+25 -0.539973 -0.992474 272.168 
1.50518e-05 -9.31775e-06 2.69274e+25 -0.277385 -0.672946 271.927 
1.69631e-05 -9.31775e-06 2.68527e+25 0.0247487 0.00727567 272.702 
1.67242e-06 -8.83992e-06 2.68907e+25 -4.62343 -0.161139 272.246 
3.58375e-06 -8.83992e-06 2.69322e+25 -4.15492 -1.21806 271.955 
5.49508e-06 -8.83992e-06 2.68872e+25 -3.5372 -1.59997 272.169 
7.40642e-06 -8.83992e-06 2.69128e+25 -2.69886 -1.50341 272.168 
9.31775e-06 -8.83992e-06 2.69145e+25 -1.82154 -1.39094 272.12 
1.12291e-05 -8.83992e-06 2.69357e+25 -1.2439 -1.66833 271.743 
1.31404e-05 -8.83992e-06 2.69165e+25 -0.777902 -1.10672 271.965 
1.50518e-05 -8.83992e-06 2.69275e+25 -0.204839 -0.703236 271.98 
1.69631e-05 -8.83992e-06 2.68384e+25 -0.0262819 0.0529586 272.955 
1.67242e-06 -8.36208e-06 2.69023e+25 -5.18007 -0.318441 272.14 
3.58375e-06 -8.36208e-06 2.69324e+25 -4.36187 -1.29901 272.07 
5.49508e-06 -8.36208e-06 2.68724e+25 -3.74076 -1.7615 272.392 
7.40642e-06 -8.36208e-06 2.69125e+25 -2.68975 -1.65538 272.034 
9.31775e-06 -8.36208e-06 2.69089e+25 -2.10551 -1.54969 272.023 
1.12291e-05 -8.36208e-06 2.69312e+25 -1.15933 -1.79688 271.902 
1.31404e-05 -8.36208e-06 2.69405e+25 -1.01087 -1.33809 271.77 
1.50518e-05 -8.36208e-06 2.69183e+25 0.153378 -0.89821 271.985 
1.69631e-05 -8.36208e-06 2.68719e+25 -0.0172143 -0.00492998 272.636 
1.67242e-06 -7.88425e-06 2.69084e+25 -5.26339 -0.438322 272.16 
3.58375e-06 -7.88425e-06 2.68919e+25 -4.33 -1.42985 272.244 
5.49508e-06 -7.88425e-06 2.69026e+25 -3.7637 -1.86275 272.201 
7.40642e-06 -7.88425e-06 2.69116e+25 -3.2385 -1.80661 272.04 
9.31775e-06 -7.88425e-06 2.6924e+25 -2.40569 -1.79243 271.959 
1.12291e-05 -7.88425e-06 2.69486e+25 -1.36586 -2.11557 271.833 
1.31404e-05 -7.88425e-06 2.69476e+25 -1.04345 -1.48835 271.854 
1.50518e-05 -7.88425e-06 2.6941e+25 0.133814 -1.08796 271.854 
1.69631e-05 -7.88425e-06 2.68782e+25 -0.0767387 -0.109732 272.742 
1.67242e-06 -7.40642e-06 2.6894e+25 -5.17087 -0.44763 272.054 
3.58375e-06 -7.40642e-06 2.68631e+25 -4.70871 -1.67939 272.432 
5.49508e-06 -7.40642e-06 2.69153e+25 -4.07739 -2.02757 271.971 
7.40642e-06 -7.40642e-06 2.69348e+25 -3.75033 -1.95554 271.987 
9.31775e-06 -7.40642e-06 2.69388e+25 -2.84247 -2.08079 271.822 
1.12291e-05 -7.40642e-06 2.69343e+25 -1.40425 -2.32989 271.795 
1.31404e-05 -7.40642e-06 2.69397e+25 -0.917882 -1.68373 271.777 
1.50518e-05 -7.40642e-06 2.69175e+25 -0.0939673 -1.25571 271.871 
1.69631e-05 -7.40642e-06 2.68592e+25 0.0471042 -0.173545 272.585 
1.67242e-06 -6.92858e-06 2.69057e+25 -5.41215 -0.482944 272.011 
3.58375e-06 -6.92858e-06 2.69055e+25 -5.19445 -1.87074 272.159 
5.49508e-06 -6.92858e-06 2.69278e+25 -4.5482 -2.07337 271.889 
7.40642e-06 -6.92858e-06 2.69256e+25 -4.06662 -2.1935 271.931 
9.31775e-06 -6.92858e-06 2.69383e+25 -3.22125 -2.40671 271.918 
1.12291e-05 -6.92858e-06 2.69585e+25 -1.69582 -2.60727 271.687 
1.31404e-05 -6.92858e-06 2.69447e+25 -0.940364 -1.7356 271.694 
1.50518e-05 -6.92858e-06 2.69003e+25 -0.216028 -1.26255 272.066 
1.69631e-05 -6.92858e-06 2.68527e+25 0.101605 0.0487169 272.616 
1.67242e-06 -6.45075e-06 2.69246e+25 -5.45432 -0.581324 272.017 
3.58375e-06 -6.45075e-06 2.69192e+25 -5.60685 -1.93572 271.894 
5.49508e-06 -6.45075e-06 2.6942e+25 -5.28059 -2.13875 271.839 
7.40642e-06 -6.45075e-06 2.69164e+25 -4.41103 -2.38433 272.035 
9.31775e-06 -6.45075e-06 2.69492e+25 -3.24302 -2.7321 271.917 
1.12291e-05 -6.45075e-06 2.69652e+25 -2.12072 -2.85446 271.508 
1.31404e-05 -6.45075e-06 2.69367e+25 -1.05836 -1.90405 271.918 
1.50518e-05 -6.45075e-06 2.68954e+25 -0.277198 -1.20974 272.128 
1.69631e-05 -6.45075e-06 2.68577e+25 -0.0324788 0.0400881 272.725 
1.67242e-06 -5.97292e-06 2.69278e+25 -5.50967 -0.715599 271.994 
3.58375e-06 -5.97292e-06 2.69115e+25 -5.91517 -1.79845 272.13 
5.49508e-06 -5.97292e-06 2.69575e+25 -5.53322 -2.44702 271.768 
7.40642e-06 -5.97292e-06 2.68966e+25 -4.79241 -2.64273 272.082 
9.31775e-06 -5.97292e-06 2.69302e+25 -3.38577 -3.03767 271.806 
1.12291e-05 -5.97292e-06 2.69524e+25 -2.25548 -3.05757 271.577 
1.31404e-05 -5.97292e-06 2.6929e+25 -0.975119 -2.23166 271.989 
1.50518e-05 -5.97292e-06 2.68974e+25 -0.604389 -1.3162 272.089 
1.69631e-05 -5.97292e-06 2.68144e+25 -0.0556555 -0.103039 273.073 
1.67242e-06 -5.49508e-06 2.69353e+25 -5.75832 -0.752603 271.925 
3.58375e-06 -5.49508e-06 2.69178e+25 -5.86235 -1.86584 272.107 
5.49508e-06 -5.49508e-06 2.69302e+25 -5.63425 -2.65872 271.966 
7.40642e-06 -5.49508e-06 2.69021e+25 -5.08986 -2.87082 272 
9.31775e-06 -5.49508e-06 2.69514e+25 -3.5365 -3.58622 271.704 
1.12291e-05 -5.49508e-06 2.69358e+25 -2.39619 -3.47496 271.743 
1.31404e-05 -5.49508e-06 2.69124e+25 -1.1255 -2.37403 272.089 
1.50518e-05 -5.49508e-06 2.6925e+25 -0.689791 -1.35321 271.979 
1.69631e-05 -5.49508e-06 2.68418e+25 0.0393292 -0.105368 272.865 
1.67242e-06 -5.01725e-06 2.69027e+25 -6.08618 -0.780531 272.042 
3.58375e-06 -5.01725e-06 2.69254e+25 -6.2155 -1.8251 271.895 
5.49508e-06 -5.01725e-06 2.69088e+25 -5.76382 -2.77743 271.992 
7.40642e-06 -5.01725e-06 2.68774e+25 -5.09149 -3.13686 272.278 
9.31775e-06 -5.01725e-06 2.69324e+25 -3.88803 -4.1133 271.934 
1.12291e-05 -5.01725e-06 2.69263e+25 -2.70787 -3.9116 271.983 
1.31404e-05 -5.01725e-06 2.69111e+25 -1.1033 -2.62216 272.103 
1.50518e-05 -5.01725e-06 2.69232e+25 -0.466902 -1.42777 271.918 
1.69631e-05 -5.01725e-06 2.68667e+25 -0.00653914 -0.0683596 272.644 
1.67242e-06 -4.53942e-06 2.69152e+25 -6.35039 -0.754805 272.234 
3.58375e-06 -4.53942e-06 2.69178e+25 -6.51022 -1.75768 271.835 
5.49508e-06 -4.53942e-06 2.68998e+25 -6.30853 -2.81365 272.081 
7.40642e-06 -4.53942e-06 2.68877e+25 -4.99745 -3.45674 272.121 
9.31775e-06 -4.53942e-06 2.69309e+25 -4.16282 -4.25295 271.898 
1.12291e-05 -4.53942e-06 2.69133e+25 -2.91033 -4.3985 272.007 
1.31404e-05 -4.53942e-06 2.69025e+25 -1.02367 -2.97215 272.187 
1.50518e-05 -4.53942e-06 2.69373e+25 -0.233044 -1.60323 271.836 
1.69631e-05 -4.53942e-06 2.68388e+25 -0.0704077 -0.143244 272.695 
1.67242e-06 -4.06158e-06 2.68985e+25 -6.52759 -0.546578 272.342 
3.58375e-06 -4.06158e-06 2.6929e+25 -6.98149 -1.7459 271.873 
5.49508e-06 -4.06158e-06 2.69209e+25 -6.5352 -2.89067 271.908 
7.40642e-06 -4.06158e-06 2.69326e+25 -5.75356 -3.7145 271.811 
9.31775e-06 -4.06158e-06 2.69238e+25 -4.3553 -4.57553 271.991 
1.12291e-05 -4.06158e-06 2.69024e+25 -2.70086 -4.85002 272.158 
1.31404e-05 -4.06158e-06 2.69122e+25 -1.16283 -3.36226 272.229 
1.50518e-05 -4.06158e-06 2.69033e+25 0.0537879 -1.80009 272.024 
1.69631e-05 -4.06158e-06 2.68687e+25 -0.0488534 -0.243059 272.581 
1.67242e-06 -3.58375e-06 2.69032e+25 -6.8235 -0.311661 271.991 
3.58375e-06 -3.58375e-06 2.69143e+25 -7.35021 -1.87545 271.822 
5.49508e-06 -3.58375e-06 2.69662e+25 -6.80102 -2.96996 271.6 
7.40642e-06 -3.58375e-06 2.69396e+25 -6.02008 -4.04417 271.717 
9.31775e-06 -3.58375e-06 2.69285e+25 -4.43539 -4.9797 271.914 
1.12291e-05 -3.58375e-06 2.6904e+25 -2.72189 -5.10041 272.261 
1.31404e-05 -3.58375e-06 2.6883e+25 -1.36464 -3.8066 272.435 
1.50518e-05 -3.58375e-06 2.68883e+25 -0.162495 -1.92758 272.131 
1.69631e-05 -3.58375e-06 2.6844e+25 -0.0493142 -0.355776 272.679 
1.67242e-06 -3.10592e-06 2.69169e+25 -7.28393 -0.19733 271.984 
3.58375e-06 -3.10592e-06 2.6902e+25 -7.69871 -1.98098 271.936 
5.49508e-06 -3.10592e-06 2.69368e+25 -7.18901 -3.15869 271.753 
7.40642e-06 -3.10592e-06 2.68902e+25 -6.58845 -4.22836 272.019 
9.31775e-06 -3.10592e-06 2.69186e+25 -4.8369 -5.40977 271.929 
1.12291e-05 -3.10592e-06 2.68764e+25 -2.97202 -5.45864 272.47 
1.31404e-05 -3.10592e-06 2.68729e+25 -1.37954 -4.15496 272.404 
1.50518e-05 -3.10592e-06 2.69143e+25 -0.323871 -2.1046 272.063 
1.69631e-05 -3.10592e-06 2.68299e+25 -0.0169323 -0.424224 272.734 
1.67242e-06 -2.62808e-06 2.6911e+25 -7.71312 -0.116637 271.967 
3.58375e-06 -2.62808e-06 2.68858e+25 -7.78035 -2.06529 272.231 
5.49508e-06 -2.62808e-06 2.69304e+25 -7.49594 -3.37991 271.785 
7.40642e-06 -2.62808e-06 2.69118e+25 -7.00529 -4.53443 272.048 
9.31775e-06 -2.62808e-06 2.69431e+25 -5.20415 -5.68314 271.702 
1.12291e-05 -2.62808e-06 2.68651e+25 -3.58893 -5.86596 272.416 
1.31404e-05 -2.62808e-06 2.69023e+25 -1.66464 -4.62682 272.226 
1.50518e-05 -2.62808e-06 2.69059e+25 -0.302536 -2.34583 272.015 
1.69631e-05 -2.62808e-06 2.68092e+25 0.00559836 -0.391716 273.001 
1.67242e-06 -2.15025e-06 2.68961e+25 -8.07 -0.00466581 271.904 
3.58375e-06 -2.15025e-06 2.68921e+25 -7.69522 -2.10559 272.18 
5.49508e-06 -2.15025e-06 2.69395e+25 -7.85588 -3.34532 271.938 
7.40642e-06 -2.15025e-06 2.68934e+25 -7.24432 -4.80996 272.236 
9.31775e-06 -2.15025e-06 2.69572e+25 -5.63377 -6.07561 271.826 
1.12291e-05 -2.15025e-06 2.68997e+25 -3.80951 -6.3745 272.226 
1.31404e-05 -2.15025e-06 2.69061e+25 -1.78447 -5.07373 272.166 
1.50518e-05 -2.15025e-06 2.68811e+25 -0.210065 -2.72093 272.285 
1.69631e-05 -2.15025e-06 2.68057e+25 0.0433207 -0.319384 272.948 
1.67242e-06 -1.67242e-06 2.69142e+25 -8.17701 0.00632219 271.899 
3.58375e-06 -1.67242e-06 2.68432e+25 -7.86078 -2.20172 272.521 
5.49508e-06 -1.67242e-06 2.69116e+25 -7.83242 -3.43603 271.846 
7.40642e-06 -1.67242e-06 2.68762e+25 -7.18372 -5.04473 272.291 
9.31775e-06 -1.67242e-06 2.69209e+25 -5.77297 -6.45927 271.87 
1.12291e-05 -1.67242e-06 2.68913e+25 -4.23395 -6.95266 272.327 
1.31404e-05 -1.67242e-06 2.68907e+25 -2.37845 -5.40619 272.157 
1.50518e-05 -1.67242e-06 2.69222e+25 -0.463744 -3.09743 272.013 
1.69631e-05 -1.67242e-06 2.68514e+25 0.0187185 -0.266766 272.747 
1.67242e-06 -1.19458e-06 2.69171e+25 -8.12606 0.0268891 271.721 
3.58375e-06 -1.19458e-06 2.68672e+25 -7.79677 -2.20339 272.386 
5.49508e-06 -1.19458e-06 2.69105e+25 -7.82356 -3.41046 271.943 
7.40642e-06 -1.19458e-06 2.68983e+25 -6.74579 -5.37549 271.968 
9.31775e-06 -1.19458e-06 2.69299e+25 -5.95565 -6.82163 272.005 
1.12291e-05 -1.19458e-06 2.69081e+25 -4.26835 -7.35443 272.048 
1.31404e-05 -1.19458e-06 2.69168e+25 -2.68564 -5.82314 272.073 
1.50518e-05 -1.19458e-06 2.68784e+25 -0.906904 -3.50417 272.22 
1.69631e-05 -1.19458e-06 2.68132e+25 0.0811156 -0.236222 272.885 
1.67242e-06 -7.1675e-07 2.69364e+25 -7.96045 -0.00921167 271.615 
3.58375e-06 -7.1675e-07 2.68955e+25 -7.9179 -2.16285 272.151 
5.49508e-06 -7.1675e-07 2.68924e+25 -7.54334 -3.43245 272.212 
7.40642e-06 -7.1675e-07 2.68804e+25 -6.86771 -5.68606 272.106 
9.31775e-06 -7.1675e-07 2.69186e+25 -6.02416 -7.25569 271.991 
1.12291e-05 -7.1675e-07 2.69281e+25 -4.33975 -7.72078 271.988 
1.31404e-05 -7.1675e-07 2.69058e+25 -2.85899 -6.29563 272.133 
1.50518e-05 -7.1675e-07 2.68891e+25 -1.16987 -3.83422 272.266 
1.69631e-05 -7.1675e-07 2.68395e+25 -0.0649085 -0.177152 272.89 
1.67242e-06 -2.38917e-07 2.68934e+25 -7.82602 0.025709 271.692 
3.58375e-06 -2.38917e-07 2.68741e+25 -7.87613 -2.17328 272.236 
5.49508e-06 -2.38917e-07 2.6859e+25 -7.39029 -3.60587 272.164 
7.40642e-06 -2.38917e-07 2.68825e+25 -7.00962 -5.83448 271.902 
9.31775e-06 -2.38917e-07 2.68869e+25 -5.98341 -7.79295 272.111 
1.12291e-05 -2.38917e-07 2.69055e+25 -4.46156 -8.00156 272.133 
1.31404e-05 -2.38917e-07 2.68904e+25 -3.05449 -6.84445 272.166 
1.50518e-05 -2.38917e-07 2.69013e+25 -1.19299 -4.1847 272.227 
1.69631e-05 -2.38917e-07 2.68174e+25 -0.0308628 -0.270682 272.797 
1.67242e-06 2.38917e-07 2.68756e+25 -8.05168 -0.0697441 271.944 
3.58375e-06 2.38917e-07 2.68819e+25 -8.1547 -2.34767 271.961 
5.49508e-06 2.38917e-07 2.68597e+25 -7.39255 -3.7562 272.066 
7.40642e-06 2.38917e-07 2.69117e+25 -6.95343 -5.85925 271.917 
9.31775e-06 2.38917e-07 2.68808e+25 -5.97714 -8.1766 272.102 
1.12291e-05 2.38917e-07 2.69127e+25 -4.62812 -8.109 271.916 
1.31404e-05 2.38917e-07 2.6854e+25 -3.02531 -7.53599 272.409 
1.50518e-05 2.38917e-07 2.68776e+25 -1.11149 -4.62923 272.278 
1.69631e-05 2.38917e-07 2.68026e+25 -0.0834497 -0.403533 272.908 
1.67242e-06 7.1675e-07 2.69233e+25 -7.83079 -0.141034 271.797 
3.58375e-06 7.1675e-07 2.69e+25 -8.33431 -2.3399 271.909 
5.49508e-06 7.1675e-07 2.68897e+25 -7.55464 -3.89749 271.995 
7.40642e-06 7.1675e-07 2.68956e+25 -6.86164 -5.79274 271.984 
9.31775e-06 7.1675e-07 2.69235e+25 -6.17225 -8.46865 272.03 
1.12291e-05 7.1675e-07 2.69048e+25 -4.93363 -8.47168 272.098 
1.31404e-05 7.1675e-07 2.68713e+25 -3.18708 -8.03587 272.438 
1.50518e-05 7.1675e-07 2.68746e+25 -1.20737 -4.89012 272.452 
1.69631e-05 7.1675e-07 2.68152e+25 -0.125879 -0.555417 272.889 
1.67242e-06 1.19458e-06 2.68989e+25 -7.57867 0.111157 271.756 
3.58375e-06 1.19458e-06 2.69058e+25 -8.13463 -2.25741 271.964 
5.49508e-06 1.19458e-06 2.68925e+25 -7.7271 -4.04772 272.136 
7.40642e-06 1.19458e-06 2.69015e+25 -6.93324 -5.96644 272.105 
9.31775e-06 1.19458e-06 2.69084e+25 -6.21032 -8.81408 272.082 
1.12291e-05 1.19458e-06 2.69149e+25 -5.13391 -8.80413 272.1 
1.31404e-05 1.19458e-06 2.68765e+25 -3.00493 -8.41908 272.417 
1.50518e-05 1.19458e-06 2.68836e+25 -1.21963 -5.13308 272.338 
1.69631e-05 1.19458e-06 2.68281e+25 -0.0405594 -0.752527 272.959 
1.67242e-06 1.67242e-06 2.68738e+25 -7.3182 0.325145 272.051 
3.58375e-06 1.67242e-06 2.69111e+25 -8.03933 -2.28835 271.949 
5.49508e-06 1.67242e-06 2.6914e+25 -7.78456 -4.37555 271.89 
7.40642e-06 1.67242e-06 2.68698e+25 -7.16307 -6.24288 272.133 
9.31775e-06 1.67242e-06 2.69026e+25 -6.43697 -8.98536 271.976 
1.12291e-05 1.67242e-06 2.68819e+25 -5.31419 -9.32162 272.277 
1.31404e-05 1.67242e-06 2.6859e+25 -3.02575 -8.87283 272.403 
1.50518e-05 1.67242e-06 2.68565e+25 -1.22447 -5.6971 272.566 
1.69631e-05 1.67242e-06 2.68291e+25 0.0402066 -0.806842 273.015 
1.67242e-06 2.15025e-06 2.68956e+25 -7.19751 0.762253 271.868 
3.58375e-06 2.15025e-06 2.69035e+25 -8.02334 -2.10227 271.808 
5.49508e-06 2.15025e-06 2.68868e+25 -8.1664 -4.58961 271.938 
7.40642e-06 2.15025e-06 2.68805e+25 -7.37299 -6.46761 272.075 
9.31775e-06 2.15025e-06 2.68703e+25 -6.5681 -8.99632 272.281 
1.12291e-05 2.15025e-06 2.69044e+25 -5.30673 -9.9825 272.027 
1.31404e-05 2.15025e-06 2.68852e+25 -3.09739 -9.40678 272.254 
1.50518e-05 2.15025e-06 2.6895e+25 -1.213 -6.36486 272.398 
1.69631e-05 2.15025e-06 2.683e+25 -0.0666714 -0.853261 272.894 
1.67242e-06 2.62808e-06 2.69015e+25 -6.93741 1.24128 271.834 
3.58375e-06 2.62808e-06 2.6917e+25 -7.82025 -1.91652 271.678 
5.49508e-06 2.62808e-06 2.69005e+25 -8.12267 -4.69057 271.971 
7.40642e-06 2.62808e-06 2.68851e+25 -7.53951 -6.66699 271.899 
9.31775e-06 2.62808e-06 2.68463e+25 -6.68898 -9.06799 272.405 
1.12291e-05 2.62808e-06 2.68923e+25 -5.63704 -10.4877 272.092 
1.31404e-05 2.62808e-06 2.68928e+25 -3.38888 -9.95043 272.073 
1.50518e-05 2.62808e-06 2.68865e+25 -1.37109 -6.92066 272.406 
1.69631e-05 2.62808e-06 2.6822e+25 0.0349526 -0.895343 272.879 
1.67242e-06 3.10592e-06 2.68887e+25 -6.45251 1.48089 271.821 
3.58375e-06 3.10592e-06 2.68862e+25 -7.47995 -1.74993 271.907 
5.49508e-06 3.10592e-06 2.69116e+25 -8.07161 -4.6906 271.814 
7.40642e-06 3.10592e-06 2.69098e+25 -7.60745 -6.72474 271.855 
9.31775e-06 3.10592e-06 2.68702e+25 -6.91827 -9.03559 272.341 
1.12291e-05 3.10592e-06 2.68897e+25 -5.79057 -11 272.069 
1.31404e-05 3.10592e-06 2.69056e+25 -3.69667 -10.5373 272.017 
1.50518e-05 3.10592e-06 2.68797e+25 -1.27403 -7.29694 272.397 
1.69631e-05 3.10592e-06 2.68223e+25 -0.0739177 -0.92602 272.927 
1.67242e-06 3.58375e-06 2.6905e+25 -6.10007 1.62464 271.855 
3.58375e-06 3.58375e-06 2.68918e+25 -6.99811 -1.54123 271.99 
5.49508e-06 3.58375e-06 2.68896e+25 -7.9904 -4.68017 272.083 
7.40642e-06 3.58375e-06 2.68552e+25 -7.36869 -6.98098 272.257 
9.31775e-06 3.58375e-06 2.69012e+25 -7.20817 -9.19111 272.102 
1.12291e-05 3.58375e-06 2.69012e+25 -5.85081 -11.4764 272.215 
1.31404e-05 3.58375e-06 2.69151e+25 -3.78604 -11.2484 272.001 
1.50518e-05 3.58375e-06 2.68919e+25 -1.38595 -7.89877 272.237 
1.69631e-05 3.58375e-06 2.68231e+25 -0.00994348 -1.00327 273.032 
1.67242e-06 4.06158e-06 2.68896e+25 -5.59783 1.75166 271.962 
3.58375e-06 4.06158e-06 2.68994e+25 -6.59127 -1.28819 272.028 
5.49508e-06 4.06158e-06 2.6878e+25 -7.50012 -4.70267 272.027 
7.40642e-06 4.06158e-06 2.68666e+25 -7.27759 -6.94721 272.251 
9.31775e-06 4.06158e-06 2.69051e+25 -7.20323 -9.44314 271.992 
1.12291e-05 4.06158e-06 2.69231e+25 -5.91957 -11.8041 271.983 
1.31404e-05 4.06158e-06 2.68964e+25 -3.86211 -11.8003 272.098 
1.50518e-05 4.06158e-06 2.68893e+25 -1.42516 -8.41175 272.175 
1.69631e-05 4.06158e-06 2.68509e+25 -0.0078256 -1.03807 272.974 
1.67242e-06 4.53942e-06 2.68639e+25 -5.19364 1.71544 271.989 
3.58375e-06 4.53942e-06 2.68669e+25 -5.85459 -0.873866 272.113 
5.49508e-06 4.53942e-06 2.6844e+25 -6.817 -4.59146 272.242 
7.40642e-06 4.53942e-06 2.68906e+25 -7.07607 -6.96703 272.081 
9.31775e-06 4.53942e-06 2.68799e+25 -7.03806 -9.76585 272.105 
1.12291e-05 4.53942e-06 2.68955e+25 -5.9153 -12.1117 272.048 
1.31404e-05 4.53942e-06 2.69316e+25 -3.99284 -12.5166 271.835 
1.50518e-05 4.53942e-06 2.69027e+25 -1.37708 -8.94085 272.187 
1.69631e-05 4.53942e-06 2.68412e+25 -0.050502 -1.12519 272.788 
1.67242e-06 5.01725e-06 2.68574e+25 -4.63943 1.75867 272.166 
3.58375e-06 5.01725e-06 2.68719e+25 -5.21553 -0.560451 272.054 
5.49508e-06 5.01725e-06 2.68951e+25 -6.25071 -4.47835 272.098 
7.40642e-06 5.01725e-06 2.68722e+25 -6.66212 -7.01365 272.223 
9.31775e-06 5.01725e-06 2.68495e+25 -6.67217 -10.0464 272.475 
1.12291e-05 5.01725e-06 2.68854e+25 -5.915 -12.4076 272.121 
1.31404e-05 5.01725e-06 2.69302e+25 -3.99022 -13.1989 271.871 
1.50518e-05 5.01725e-06 2.69019e+25 -1.49181 -9.36911 272.357 
1.69631e-05 5.01725e-06 2.6846e+25 -0.145268 -1.31023 272.779 
1.67242e-06 5.49508e-06 2.68827e+25 -4.16775 1.89951 272.026 
3.58375e-06 5.49508e-06 2.68655e+25 -4.59714 -0.565468 272.073 
5.49508e-06 5.49508e-06 2.68625e+25 -5.77868 -4.32504 272.196 
7.40642e-06 5.49508e-06 2.68709e+25 -6.49747 -7.00307 272.205 
9.31775e-06 5.49508e-06 2.68645e+25 -6.57892 -10.3225 272.389 
1.12291e-05 5.49508e-06 2.68896e+25 -5.42138 -12.7724 272.017 
1.31404e-05 5.49508e-06 2.68939e+25 -3.94747 -13.6508 272.041 
1.50518e-05 5.49508e-06 2.68912e+25 -1.53012 -9.76339 272.34 
1.69631e-05 5.49508e-06 2.685e+25 -0.00781637 -1.42681 272.677 
1.67242e-06 5.97292e-06 2.68742e+25 -3.47727 2.01758 271.944 
3.58375e-06 5.97292e-06 2.68505e+25 -4.01264 -0.473684 272.115 
5.49508e-06 5.97292e-06 2.68422e+25 -4.88995 -3.85792 272.18 
7.40642e-06 5.97292e-06 2.68967e+25 -5.90881 -6.96751 271.952 
9.31775e-06 5.97292e-06 2.68677e+25 -6.13553 -10.456 272.328 
1.12291e-05 5.97292e-06 2.69187e+25 -5.42704 -13.1412 271.987 
1.31404e-05 5.97292e-06 2.69042e+25 -3.54971 -14.1407 272.136 
1.50518e-05 5.97292e-06 2.68828e+25 -1.63151 -10.3256 272.195 
1.69631e-05 5.97292e-06 2.68544e+25 -0.0359982 -1.53887 272.649 
1.67242e-06 6.45075e-06 2.68535e+25 -2.9854 2.17008 272.132 
3.58375e-06 6.45075e-06 2.68503e+25 -3.31575 -0.215425 272.28 
5.49508e-06 6.45075e-06 2.68524e+25 -4.08186 -3.30507 272.169 
7.40642e-06 6.45075e-06 2.68712e+25 -5.39992 -6.88906 272.027 
9.31775e-06 6.45075e-06 2.68909e+25 -5.78992 -10.3936 271.96 
1.12291e-05 6.45075e-06 2.69067e+25 -5.33897 -13.3791 272.079 
1.31404e-05 6.45075e-06 2.69053e+25 -3.78515 -14.6066 272.219 
1.50518e-05 6.45075e-06 2.69058e+25 -1.50592 -10.8444 272.393 
1.69631e-05 6.45075e-06 2.68157e+25 0.00357294 -1.64164 272.874 
1.67242e-06 6.92858e-06 2.68894e+25 -2.10239 2.36239 272.043 
3.58375e-06 6.92858e-06 2.684e+25 -2.8182 0.0826018 272.27 
5.49508e-06 6.92858e-06 2.68754e+25 -3.31134 -2.92282 272.006 
7.40642e-06 6.92858e-06 2.68704e+25 -4.85498 -6.68744 271.952 
9.31775e-06 6.92858e-06 2.68719e+25 -5.39642 -10.2339 272.18 
1.12291e-05 6.92858e-06 2.68705e+25 -5.09755 -13.5327 272.451 
1.31404e-05 6.92858e-06 2.69163e+25 -4.04388 -15.087 272.112 
1.50518e-05 6.92858e-06 2.69329e+25 -1.42546 -11.405 272.002 
1.69631e-05 6.92858e-06 2.68391e+25 -0.10873 -1.76853 272.792 
1.67242e-06 7.40642e-06 2.68745e+25 -1.23736 2.35821 272.146 
3.58375e-06 7.40642e-06 2.68458e+25 -2.18434 0.244257 272.233 
5.49508e-06 7.40642e-06 2.6875e+25 -2.3453 -2.74409 272.074 
7.40642e-06 7.40642e-06 2.68746e+25 -3.90691 -6.4548 272.12 
9.31775e-06 7.40642e-06 2.68635e+25 -4.51944 -10.0074 272.304 
1.12291e-05 7.40642e-06 2.68765e+25 -4.97044 -13.5617 272.497 
1.31404e-05 7.40642e-06 2.69033e+25 -4.0163 -15.7672 272.189 
1.50518e-05 7.40642e-06 2.68935e+25 -1.57994 -12.0888 272.348 
1.69631e-05 7.40642e-06 2.68615e+25 -0.0719309 -1.96055 272.748 
1.67242e-06 7.88425e-06 2.68497e+25 -0.514068 2.35702 272.147 
3.58375e-06 7.88425e-06 2.68615e+25 -0.953613 0.367498 272.036 
5.49508e-06 7.88425e-06 2.68617e+25 -1.55887 -2.61037 272.208 
7.40642e-06 7.88425e-06 2.68251e+25 -2.72586 -6.19266 272.459 
9.31775e-06 7.88425e-06 2.68535e+25 -3.60336 -9.61681 272.39 
1.12291e-05 7.88425e-06 2.68972e+25 -4.72461 -13.6161 272.055 
1.31404e-05 7.88425e-06 2.69148e+25 -4.03893 -16.2924 272.168 
1.50518e-05 7.88425e-06 2.69181e+25 -1.61786 -12.7469 272.426 
1.69631e-05 7.88425e-06 2.68856e+25 0.00343105 -2.04652 272.641 
1.67242e-06 8.36208e-06 2.68892e+25 0.0287856 2.36404 271.82 
3.58375e-06 8.36208e-06 2.68537e+25 0.0806792 0.39198 272.109 
5.49508e-06 8.36208e-06 2.68426e+25 -0.761349 -2.48057 272.445 
7.40642e-06 8.36208e-06 2.68498e+25 -1.84481 -5.78137 272.279 
9.31775e-06 8.36208e-06 2.68564e+25 -3.16379 -9.27788 272.396 
1.12291e-05 8.36208e-06 2.69307e+25 -4.21706 -13.4335 272.005 
1.31404e-05 8.36208e-06 2.69162e+25 -4.18532 -16.5731 272.223 
1.50518e-05 8.36208e-06 2.69003e+25 -1.99598 -13.3063 272.301 
1.69631e-05 8.36208e-06 2.68448e+25 0.000226072 -2.07183 272.846 
1.67242e-06 8.83992e-06 2.68763e+25 0.787034 2.25071 271.907 
3.58375e-06 8.83992e-06 2.68773e+25 1.0966 0.473673 272.057 
5.49508e-06 8.83992e-06 2.68555e+25 0.307263 -2.33911 272.378 
7.40642e-06 8.83992e-06 2.68534e+25 -0.827814 -5.40044 272.343 
9.31775e-06 8.83992e-06 2.6872e+25 -2.49851 -8.94052 272.374 
1.12291e-05 8.83992e-06 2.68813e+25 -3.61215 -13.1702 272.207 
1.31404e-05 8.83992e-06 2.69278e+25 -4.01789 -16.7841 272.213 
1.50518e-05 8.83992e-06 2.6918e+25 -2.33416 -13.9267 272.416 
1.69631e-05 8.83992e-06 2.68581e+25 -0.0952215 -2.18326 272.75 
1.67242e-06 9.31775e-06 2.68784e+25 1.47938 2.27896 271.864 
3.58375e-06 9.31775e-06 2.68517e+25 1.81115 0.412463 272.198 
5.49508e-06 9.31775e-06 2.68413e+25 1.39312 -2.09163 272.217 
7.40642e-06 9.31775e-06 2.68176e+25 0.208991 -5.06442 272.462 
9.31775e-06 9.31775e-06 2.68546e+25 -1.53589 -8.6274 272.373 
1.12291e-05 9.31775e-06 2.69117e+25 -2.80738 -12.9215 272.097 
1.31404e-05 9.31775e-06 2.69016e+25 -3.83401 -16.7194 272.373 
1.50518e-05 9.31775e-06 2.69415e+25 -2.44165 -14.5547 272.338 
1.69631e-05 9.31775e-06 2.68735e+25 -0.128175 -2.47674 272.876 
1.67242e-06 9.79558e-06 2.68853e+25 2.77187 2.08296 271.745 
3.58375e-06 9.79558e-06 2.68382e+25 2.9985 0.381506 272.223 
5.49508e-06 9.79558e-06 2.68246e+25 2.47413 -1.78961 272.322 
7.40642e-06 9.79558e-06 2.68508e+25 1.51034 -4.67688 272.291 
9.31775e-06 9.79558e-06 2.68889e+25 -0.239077 -8.31179 272.14 
1.12291e-05 9.79558e-06 2.69396e+25 -2.11597 -12.3946 271.856 
1.31404e-05 9.79558e-06 2.68876e+25 -3.32343 -16.5726 272.563 
1.50518e-05 9.79558e-06 2.69087e+25 -2.27466 -15.2361 272.611 
1.69631e-05 9.79558e-06 2.68751e+25 -0.115017 -2.79927 272.807 
1.67242e-06 1.02734e-05 2.68839e+25 3.93976 1.8603 271.78 
3.58375e-06 1.02734e-05 2.68418e+25 4.20616 0.448116 272.292 
5.49508e-06 1.02734e-05 2.68264e+25 3.60905 -1.52535 272.35 
7.40642e-06 1.02734e-05 2.68473e+25 2.57317 -4.40066 272.285 
9.31775e-06 1.02734e-05 2.68657e+25 1.14648 -7.83227 272.292 
1.12291e-05 1.02734e-05 2.69201e+25 -1.26844 -11.8491 271.985 
1.31404e-05 1.02734e-05 2.69033e+25 -2.85675 -16.5713 272.61 
1.50518e-05 1.02734e-05 2.69081e+25 -1.85817 -15.9569 272.547 
1.69631e-05 1.02734e-05 2.68764e+25 -0.0442922 -2.92628 272.848 
1.67242e-06 1.07512e-05 2.68897e+25 5.03031 1.81474 271.661 
3.58375e-06 1.07512e-05 2.68669e+25 5.43607 0.448766 272.182 
5.49508e-06 1.07512e-05 2.68391e+25 4.79529 -1.21416 272.39 
7.40642e-06 1.07512e-05 2.68767e+25 3.83695 -3.97941 272.07 
9.31775e-06 1.07512e-05 2.68784e+25 2.32175 -7.36216 272.273 
1.12291e-05 1.07512e-05 2.69149e+25 -0.355819 -11.2274 272.093 
1.31404e-05 1.07512e-05 2.69054e+25 -2.4021 -16.3128 272.487 
1.50518e-05 1.07512e-05 2.69484e+25 -1.82606 -16.4708 272.305 
1.69631e-05 1.07512e-05 2.68912e+25 -0.118071 -3.11294 272.825 
1.67242e-06 1.12291e-05 2.68869e+25 6.27777 1.62751 271.883 
3.58375e-06 1.12291e-05 2.68618e+25 6.68054 0.580682 272.206 
5.49508e-06 1.12291e-05 2.68526e+25 6.33844 -1.11206 272.258 
7.40642e-06 1.12291e-05 2.68621e+25 5.45209 -3.60123 272.11 
9.31775e-06 1.12291e-05 2.68643e+25 3.70946 -6.87831 272.481 
1.12291e-05 1.12291e-05 2.69313e+25 0.53389 -10.5908 272.097 
1.31404e-05 1.12291e-05 2.69249e+25 -1.70956 -15.8885 272.344 
1.50518e-05 1.12291e-05 2.69445e+25 -2.02544 -17.0618 272.461 
1.69631e-05 1.12291e-05 2.69288e+25 -0.0622001 -3.31173 272.825 
1.67242e-06 1.17069e-05 2.6876e+25 7.51634 1.5212 271.912 
3.58375e-06 1.17069e-05 2.68499e+25 8.29225 0.567594 272.287 
5.49508e-06 1.17069e-05 2.68678e+25 7.80153 -1.15487 272.116 
7.40642e-06 1.17069e-05 2.69162e+25 6.75856 -3.29282 271.812 
9.31775e-06 1.17069e-05 2.68427e+25 4.8006 -6.28508 272.648 
1.12291e-05 1.17069e-05 2.69176e+25 1.43601 -9.77392 272.174 
1.31404e-05 1.17069e-05 2.69238e+25 -1.49429 -15.3569 272.299 
1.50518e-05 1.17069e-05 2.69528e+25 -2.1577 -17.4787 272.461 
1.69631e-05 1.17069e-05 2.69014e+25 -0.00305702 -3.44988 272.97 
1.67242e-06 1.21847e-05 2.68947e+25 9.07239 1.33471 271.762 
3.58375e-06 1.21847e-05 2.68598e+25 9.56916 0.52629 272.011 
5.49508e-06 1.21847e-05 2.68627e+25 9.35501 -1.09402 272.062 
7.40642e-06 1.21847e-05 2.69056e+25 8.16531 -2.80198 271.93 
9.31775e-06 1.21847e-05 2.68617e+25 6.49703 -5.48474 272.38 
1.12291e-05 1.21847e-05 2.69301e+25 2.93401 -8.89725 272.166 
1.31404e-05 1.21847e-05 2.69348e+25 -0.66866 -14.8654 272.418 
1.50518e-05 1.21847e-05 2.69862e+25 -2.12671 -17.6658 272.374 
1.69631e-05 1.21847e-05 2.69347e+25 -0.0987188 -3.58811 272.975 
1.67242e-06 1.26626e-05 2.6882e+25 10.8799 1.11038 271.862 
3.58375e-06 1.26626e-05 2.68607e+25 11.2014 0.552936 272.187 
5.49508e-06 1.26626e-05 2.68578e+25 11.288 -0.824936 272.157 
7.40642e-06 1.26626e-05 2.68767e+25 10.1236 -2.46052 272.002 
9.31775e-06 1.26626e-05 2.68994e+25 8.19453 -4.64806 272.219 
1.12291e-05 1.26626e-05 2.69144e+25 4.81581 -7.93762 272.295 
1.31404e-05 1.26626e-05 2.69493e+25 0.435568 -14.0011 272.331 
1.50518e-05 1.26626e-05 2.70057e+25 -1.97858 -17.8031 272.388 
1.69631e-05 1.26626e-05 2.69873e+25 -0.175855 -3.91478 272.76 
1.67242e-06 1.31404e-05 2.68697e+25 12.552 1.06673 272.034 
3.58375e-06 1.31404e-05 2.6835e+25 13.2761 0.508779 272.332 
5.49508e-06 1.31404e-05 2.68645e+25 13.2366 -0.637846 272.24 
7.40642e-06 1.31404e-05 2.68921e+25 12.1991 -2.1637 272.05 
9.31775e-06 1.31404e-05 2.68885e+25 10.1193 -3.98971 272.193 
1.12291e-05 1.31404e-05 2.69163e+25 6.827 -6.84949 272.41 
1.31404e-05 1.31404e-05 2.69509e+25 1.82606 -12.7691 272.491 
1.50518e-05 1.31404e-05 2.69938e+25 -1.88451 -17.8307 272.612 
1.69631e-05 1.31404e-05 2.69988e+25 -0.17683 -4.30257 272.859 
1.67242e-06 1.36182e-05 2.68657e+25 14.725 0.986145 272.095 
3.58375e-06 1.36182e-05 2.68545e+25 15.2882 0.361036 272.253 
5.49508e-06 1.36182e-05 2.68818e+25 15.3026 -0.412633 272.225 
7.40642e-06 1.36182e-05 2.68522e+25 14.2995 -1.74397 272.223 
9.31775e-06 1.36182e-05 2.69032e+25 12.2659 -3.35603 272.193 
1.12291e-05 1.36182e-05 2.69197e+25 8.95853 -5.84929 272.463 
1.31404e-05 1.36182e-05 2.69269e+25 3.29536 -11.2819 272.819 
1.50518e-05 1.36182e-05 2.70164e+25 -1.84123 -17.4894 272.472 
1.69631e-05 1.36182e-05 2.70071e+25 -0.193868 -4.68547 272.82 
1.67242e-06 1.40961e-05 2.68635e+25 16.8832 0.843077 272.297 
3.58375e-06 1.40961e-05 2.68197e+25 17.3705 0.0620085 272.417 
5.49508e-06 1.40961e-05 2.68364e+25 17.2252 -0.0496524 272.355 
7.40642e-06 1.40961e-05 2.68855e+25 16.5223 -1.51367 272.192 
9.31775e-06 1.40961e-05 2.69112e+25 14.5036 -2.8039 272.253 
1.12291e-05 1.40961e-05 2.68909e+25 11.2397 -4.74245 272.654 
1.31404e-05 1.40961e-05 2.69493e+25 5.40603 -9.60602 272.804 
1.50518e-05 1.40961e-05 2.7054e+25 -1.28163 -16.6116 272.474 
1.69631e-05 1.40961e-05 2.70536e+25 -0.198418 -5.19443 272.828 
1.67242e-06 1.45739e-05 2.68339e+25 19.1189 0.724124 272.299 
3.58375e-06 1.45739e-05 2.68485e+25 19.5526 -0.000452311 272.271 
5.49508e-06 1.45739e-05 2.68676e+25 19.7061 0.198551 272.207 
7.40642e-06 1.45739e-05 2.68599e+25 18.8706 -1.26408 272.322 
9.31775e-06 1.45739e-05 2.68767e+25 16.9428 -2.37582 272.366 
1.12291e-05 1.45739e-05 2.69031e+25 13.6283 -3.53292 272.661 
1.31404e-05 1.45739e-05 2.69491e+25 7.85932 -7.80831 272.731 
1.50518e-05 1.45739e-05 2.70617e+25 -0.306817 -15.3209 272.671 
1.69631e-05 1.45739e-05 2.70946e+25 -0.381095 -5.8705 272.891 
1.67242e-06 1.50518e-05 2.68446e+25 21.7175 0.605256 272.243 
3.58375e-06 1.50518e-05 2.68534e+25 22.0483 -0.101903 272.26 
5.49508e-06 1.50518e-05 2.6863e+25 21.8966 0.326211 272.273 
7.40642e-06 1.50518e-05 2.68792e+25 21.3615 -0.983485 272.244 
9.31775e-06 1.50518e-05 2.68867e+25 19.6807 -1.81577 272.443 
1.12291e-05 1.50518e-05 2.69074e+25 16.3724 -2.44267 272.74 
1.31404e-05 1.50518e-05 2.69376e+25 10.7609 -5.85258 273.017 
1.50518e-05 1.50518e-05 2.70811e+25 1.52171 -13.3317 272.647 
1.69631e-05 1.50518e-05 2.71725e+25 -0.442152 -6.76109 272.97 
1.67242e-06 1.55296e-05 2.68301e+25 24.5227 0.561464 272.479 
3.58375e-06 1.55296e-05 2.68626e+25 24.6455 -0.0998723 272.211 
5.49508e-06 1.55296e-05 2.68577e+25 24.4584 0.272401 272.414 
7.40642e-06 1.55296e-05 2.68896e+25 24.0765 -0.635065 272.118 
9.31775e-06 1.55296e-05 2.68838e+25 22.3524 -1.2878 272.514 
1.12291e-05 1.55296e-05 2.691e+25 19.6958 -1.44557 272.649 
1.31404e-05 1.55296e-05 2.69639e+25 14.5446 -3.86833 273.012 
1.50518e-05 1.55296e-05 2.71221e+25 4.39434 -10.5516 272.642 
1.69631e-05 1.55296e-05 2.7287e+25 -0.579966 -7.82241 273.031 
1.67242e-06 1.60074e-05 2.68156e+25 27.2395 0.423281 272.603 
3.58375e-06 1.60074e-05 2.68775e+25 27.4703 -0.042939 272.194 
5.49508e-06 1.60074e-05 2.68428e+25 27.4923 0.132165 272.498 
7.40642e-06 1.60074e-05 2.68544e+25 26.8499 -0.226417 272.438 
9.31775e-06 1.60074e-05 2.6852e+25 25.529 -0.713631 272.673 
1.12291e-05 1.60074e-05 2.68909e+25 23.5804 -0.733459 272.737 
1.31404e-05 1.60074e-05 2.69319e+25 19.1509 -2.16715 273.202 
1.50518e-05 1.60074e-05 2.70981e+25 9.40662 -7.1903 273.312 
1.69631e-05 1.60074e-05 2.74715e+25 -0.568751 -8.91732 272.888 
1.67242e-06 1.64852e-05 2.67931e+25 30.2305 0.293213 272.843 
3.58375e-06 1.64852e-05 2.68355e+25 30.1384 -0.0367315 272.431 
5.49508e-06 1.64852e-05 2.68242e+25 30.2429 0.0388048 272.537 
7.40642e-06 1.64852e-05 2.68278e+25 29.8907 -0.103865 272.653 
9.31775e-06 1.64852e-05 2.68415e+25 29.0252 -0.331381 272.71 
1.12291e-05 1.64852e-05 2.68862e+25 27.7772 -0.375004 272.83 
1.31404e-05 1.64852e-05 2.69247e+25 24.7893 -0.866931 273.207 
1.50518e-05 1.64852e-05 2.70762e+25 16.8388 -3.5996 273.485 
1.69631e-05 1.64852e-05 2.77141e+25 -0.0181436 -9.48205 273.241 
1.67242e-06 1.69631e-05 2.67839e+25 33.0335 0.142454 272.929 
3.58375e-06 1.69631e-05 2.68067e+25 32.8062 -0.0151251 272.789 
5.49508e-06 1.69631e-05 2.6816e+25 33.0447 -0.00644558 272.72 
7.40642e-06 1.69631e-05 2.68141e+25 32.8774 -0.0776302 272.879 
9.31775e-06 1.69631e-05 2.68386e+25 32.376 -0.0685852 272.976 
1.12291e-05 1.69631e-05 2.68902e+25 31.777 -0.101393 272.839 
1.31404e-05 1.69631e-05 2.69207e+25 30.824 -0.169375 273.284 
1.50518e-05 1.69631e-05 2.70714e+25 26.7211 -0.841537 273.252 
1.69631e-05 1.69631e-05 2.8521e+25 4.05171 -6.13365 273.911 
2.38917e-07 2.38917e-07 2.6864e+25 -7.75918 1.92437 271.971 
2.15025e-06 2.38917e-07 2.68952e+25 -8.09657 -0.616678 271.757 
4.06158e-06 2.38917e-07 2.68617e+25 -7.98139 -2.55551 272.187 
5.97292e-06 2.38917e-07 2.68723e+25 -7.17173 -4.10844 272.129 
7.88425e-06 2.38917e-07 2.68982e+25 -6.92069 -6.465 271.985 
9.79558e-06 2.38917e-07 2.68985e+25 -5.59581 -8.36501 272.036 
1.17069e-05 2.38917e-07 2.68642e+25 -4.40488 -8.15177 272.174 
1.36182e-05 2.38917e-07 2.68873e+25 -2.3575 -6.92099 272.016 
1.55296e-05 2.38917e-07 2.68518e+25 -0.861092 -3.40842 272.483 
2.38917e-07 7.1675e-07 2.68721e+25 -7.33581 2.06412 272.15 
2.15025e-06 7.1675e-07 2.69107e+25 -7.98558 -0.409996 271.845 
4.06158e-06 7.1675e-07 2.69019e+25 -8.2459 -2.79809 272.012 
5.97292e-06 7.1675e-07 2.68954e+25 -7.29473 -4.39637 272.108 
7.88425e-06 7.1675e-07 2.69106e+25 -6.78025 -6.61217 272.052 
9.79558e-06 7.1675e-07 2.69039e+25 -5.82663 -8.73643 272.039 
1.17069e-05 7.1675e-07 2.68938e+25 -4.49677 -8.41174 272.185 
1.36182e-05 7.1675e-07 2.69074e+25 -2.79957 -7.44276 272.244 
1.55296e-05 7.1675e-07 2.6874e+25 -0.843385 -3.7428 272.53 
2.38917e-07 1.19458e-06 2.68548e+25 -7.02934 2.28008 272.202 
2.15025e-06 1.19458e-06 2.69131e+25 -7.64039 -0.343664 271.797 
4.06158e-06 1.19458e-06 2.69021e+25 -8.05804 -2.97737 271.998 
5.97292e-06 1.19458e-06 2.68872e+25 -7.4771 -4.7369 272.169 
7.88425e-06 1.19458e-06 2.6911e+25 -6.74075 -6.64289 271.945 
9.79558e-06 1.19458e-06 2.68952e+25 -6.10231 -8.96 272.13 
1.17069e-05 1.19458e-06 2.69114e+25 -4.6251 -8.96257 271.995 
1.36182e-05 1.19458e-06 2.6902e+25 -2.49426 -8.02323 272.233 
1.55296e-05 1.19458e-06 2.68749e+25 -0.822935 -4.26702 272.44 
2.38917e-07 1.67242e-06 2.68513e+25 -6.45457 2.37571 272.045 
2.15025e-06 1.67242e-06 2.68904e+25 -7.66631 -0.189465 271.901 
4.06158e-06 1.67242e-06 2.69259e+25 -8.01492 -3.00932 271.723 
5.97292e-06 1.67242e-06 2.69131e+25 -7.52591 -4.97032 271.983 
7.88425e-06 1.67242e-06 2.68847e+25 -6.87988 -6.84245 272.145 
9.79558e-06 1.67242e-06 2.68818e+25 -6.28881 -9.08362 272.153 
1.17069e-05 1.67242e-06 2.69217e+25 -4.77136 -9.47121 272.032 
1.36182e-05 1.67242e-06 2.68755e+25 -2.54663 -8.52763 272.331 
1.55296e-05 1.67242e-06 2.68524e+25 -0.607338 -4.65207 272.574 
2.38917e-07 2.15025e-06 2.68724e+25 -6.45594 2.45012 271.899 
2.15025e-06 2.15025e-06 2.69019e+25 -7.53346 0.102921 271.907 
4.06158e-06 2.15025e-06 2.69099e+25 -8.21486 -2.90344 271.795 
5.97292e-06 2.15025e-06 2.68891e+25 -7.93485 -5.17556 272.081 
7.88425e-06 2.15025e-06 2.68894e+25 -7.16838 -7.05538 272.276 
9.79558e-06 2.15025e-06 2.68862e+25 -6.39535 -9.3606 272.287 
1.17069e-05 2.15025e-06 2.69119e+25 -4.71435 -10.0076 271.965 
1.36182e-05 2.15025e-06 2.69058e+25 -2.66241 -8.84735 272.302 
1.55296e-05 2.15025e-06 2.68902e+25 -0.716141 -5.07006 272.467 
2.38917e-07 2.62808e-06 2.68864e+25 -6.2967 2.64231 271.833 
2.15025e-06 2.62808e-06 2.6928e+25 -7.28757 0.362195 271.752 
4.06158e-06 2.62808e-06 2.69163e+25 -7.95844 -2.8213 271.802 
5.97292e-06 2.62808e-06 2.68825e+25 -8.11293 -5.32144 272.047 
7.88425e-06 2.62808e-06 2.68909e+25 -7.34955 -7.34348 272.033 
9.79558e-06 2.62808e-06 2.68748e+25 -6.65579 -9.58635 272.212 
1.17069e-05 2.62808e-06 2.692e+25 -5.10923 -10.4782 271.914 
1.36182e-05 2.62808e-06 2.69227e+25 -2.85843 -9.25558 272.017 
1.55296e-05 2.62808e-06 2.68739e+25 -0.907241 -5.57086 272.552 
2.38917e-07 3.10592e-06 2.68565e+25 -5.98419 2.82657 271.926 
2.15025e-06 3.10592e-06 2.6903e+25 -6.72123 0.692122 271.79 
4.06158e-06 3.10592e-06 2.69093e+25 -7.70748 -2.69396 271.887 
5.97292e-06 3.10592e-06 2.68791e+25 -8.12883 -5.30199 272.004 
7.88425e-06 3.10592e-06 2.68881e+25 -7.32122 -7.63281 272.05 
9.79558e-06 3.10592e-06 2.68948e+25 -6.9143 -9.64613 272.081 
1.17069e-05 3.10592e-06 2.69195e+25 -5.24388 -11.1504 271.977 
1.36182e-05 3.10592e-06 2.69169e+25 -3.08609 -9.88627 271.999 
1.55296e-05 3.10592e-06 2.68414e+25 -0.875433 -6.05668 272.775 
2.38917e-07 3.58375e-06 2.68658e+25 -5.61962 2.96062 271.977 
2.15025e-06 3.58375e-06 2.68958e+25 -6.18385 0.875514 272.094 
4.06158e-06 3.58375e-06 2.68834e+25 -7.2452 -2.32886 272.106 
5.97292e-06 3.58375e-06 2.68503e+25 -7.93711 -5.30364 272.416 
7.88425e-06 3.58375e-06 2.68732e+25 -7.3736 -7.80994 272.29 
9.79558e-06 3.58375e-06 2.69131e+25 -6.86529 -9.71339 272.093 
1.17069e-05 3.58375e-06 2.69195e+25 -5.4573 -11.5932 272.021 
1.36182e-05 3.58375e-06 2.6903e+25 -3.17415 -10.4038 272.196 
1.55296e-05 3.58375e-06 2.68769e+25 -0.928392 -6.35449 272.496 
2.38917e-07 4.06158e-06 2.68185e+25 -5.30274 3.21656 272.154 
2.15025e-06 4.06158e-06 2.68699e+25 -5.75311 0.966257 272.132 
4.06158e-06 4.06158e-06 2.68784e+25 -7.02769 -1.91309 271.981 
5.97292e-06 4.06158e-06 2.68509e+25 -7.53722 -5.34803 272.395 
7.88425e-06 4.06158e-06 2.68743e+25 -7.29114 -7.80528 272.206 
9.79558e-06 4.06158e-06 2.68833e+25 -6.96287 -10.1133 272.137 
1.17069e-05 4.06158e-06 2.69462e+25 -5.42838 -12.1043 271.722 
1.36182e-05 4.06158e-06 2.69198e+25 -3.14851 -11.0904 271.898 
1.55296e-05 4.06158e-06 2.68789e+25 -0.910961 -6.83631 272.419 
2.38917e-07 4.53942e-06 2.68017e+25 -4.59226 3.39728 272.46 
2.15025e-06 4.53942e-06 2.68784e+25 -5.21683 1.18855 271.988 
4.06158e-06 4.53942e-06 2.6865e+25 -6.28603 -1.50258 272.079 
5.97292e-06 4.53942e-06 2.68396e+25 -6.92007 -5.55182 272.439 
7.88425e-06 4.53942e-06 2.69013e+25 -6.9762 -7.80264 272.021 
9.79558e-06 4.53942e-06 2.68704e+25 -6.60966 -10.4471 272.293 
1.17069e-05 4.53942e-06 2.69387e+25 -5.62966 -12.5483 271.95 
1.36182e-05 4.53942e-06 2.69251e+25 -3.3366 -11.7478 271.921 
1.55296e-05 4.53942e-06 2.69006e+25 -0.823002 -7.30824 272.323 
2.38917e-07 5.01725e-06 2.68139e+25 -4.38661 3.5006 272.395 
2.15025e-06 5.01725e-06 2.68591e+25 -4.70775 1.24938 272.09 
4.06158e-06 5.01725e-06 2.69014e+25 -5.40361 -1.14432 271.824 
5.97292e-06 5.01725e-06 2.68701e+25 -6.29241 -5.41107 272.305 
7.88425e-06 5.01725e-06 2.68842e+25 -6.72608 -7.69946 272.036 
9.79558e-06 5.01725e-06 2.68476e+25 -6.46005 -10.8081 272.489 
1.17069e-05 5.01725e-06 2.69121e+25 -5.50015 -12.9045 271.979 
1.36182e-05 5.01725e-06 2.69206e+25 -3.23606 -12.4614 271.956 
1.55296e-05 5.01725e-06 2.69037e+25 -1.07379 -7.76968 272.166 
2.38917e-07 5.49508e-06 2.68219e+25 -3.94721 3.61923 272.245 
2.15025e-06 5.49508e-06 2.68741e+25 -4.37982 1.46633 271.943 
4.06158e-06 5.49508e-06 2.68721e+25 -4.64864 -0.98191 271.957 
5.97292e-06 5.49508e-06 2.68802e+25 -5.94539 -5.25878 272.041 
7.88425e-06 5.49508e-06 2.6863e+25 -6.54329 -7.59929 272.118 
9.79558e-06 5.49508e-06 2.68908e+25 -6.23503 -11.0744 272.232 
1.17069e-05 5.49508e-06 2.69237e+25 -5.08789 -13.3063 271.958 
1.36182e-05 5.49508e-06 2.69195e+25 -3.34674 -13.3069 272.021 
1.55296e-05 5.49508e-06 2.68969e+25 -1.08901 -8.26691 272.264 
2.38917e-07 5.97292e-06 2.68315e+25 -3.38468 3.66608 272.236 
2.15025e-06 5.97292e-06 2.68576e+25 -3.5909 1.60213 271.977 
4.06158e-06 5.97292e-06 2.68563e+25 -4.14704 -0.853383 272.184 
5.97292e-06 5.97292e-06 2.68867e+25 -5.50333 -4.98144 271.976 
7.88425e-06 5.97292e-06 2.68752e+25 -5.98588 -7.4957 272.114 
9.79558e-06 5.97292e-06 2.68709e+25 -6.10371 -11.3332 272.266 
1.17069e-05 5.97292e-06 2.6895e+25 -5.02687 -13.6791 271.966 
1.36182e-05 5.97292e-06 2.68998e+25 -3.12841 -13.7528 272.183 
1.55296e-05 5.97292e-06 2.68792e+25 -1.1154 -8.67319 272.48 
2.38917e-07 6.45075e-06 2.68628e+25 -2.65113 3.61348 271.804 
2.15025e-06 6.45075e-06 2.68836e+25 -2.96412 1.54493 271.834 
4.06158e-06 6.45075e-06 2.68503e+25 -3.59506 -0.69405 272.235 
5.97292e-06 6.45075e-06 2.68497e+25 -4.60214 -4.54211 272.12 
7.88425e-06 6.45075e-06 2.68748e+25 -5.5614 -7.39916 272.056 
9.79558e-06 6.45075e-06 2.68662e+25 -5.8805 -11.3483 272.339 
1.17069e-05 6.45075e-06 2.69081e+25 -5.06628 -14.0814 271.957 
1.36182e-05 6.45075e-06 2.69139e+25 -3.27837 -14.2455 272.155 
1.55296e-05 6.45075e-06 2.691e+25 -0.911791 -9.15521 272.247 
2.38917e-07 6.92858e-06 2.68861e+25 -2.17491 3.44049 271.72 
2.15025e-06 6.92858e-06 2.68641e+25 -2.17565 1.46953 272.033 
4.06158e-06 6.92858e-06 2.68529e+25 -2.97198 -0.613492 272.225 
5.97292e-06 6.92858e-06 2.68639e+25 -3.60157 -4.06391 272.003 
7.88425e-06 6.92858e-06 2.68372e+25 -5.02023 -7.30792 272.218 
9.79558e-06 6.92858e-06 2.68693e+25 -5.46994 -11.3574 272.378 
1.17069e-05 6.92858e-06 2.68524e+25 -5.14385 -14.2667 272.515 
1.36182e-05 6.92858e-06 2.69165e+25 -3.38914 -14.8871 272.069 
1.55296e-05 6.92858e-06 2.68973e+25 -0.93742 -9.6039 272.186 
2.38917e-07 7.40642e-06 2.68433e+25 -1.43511 3.40796 271.951 
2.15025e-06 7.40642e-06 2.68612e+25 -1.32189 1.58507 272.059 
4.06158e-06 7.40642e-06 2.68611e+25 -2.25419 -0.564784 272.201 
5.97292e-06 7.40642e-06 2.68771e+25 -2.67672 -3.67159 271.957 
7.88425e-06 7.40642e-06 2.68666e+25 -4.05816 -7.1739 272.061 
9.79558e-06 7.40642e-06 2.68588e+25 -4.83805 -11.2304 272.465 
1.17069e-05 7.40642e-06 2.68832e+25 -4.89342 -14.2185 272.491 
1.36182e-05 7.40642e-06 2.6871e+25 -3.42184 -15.5464 272.478 
1.55296e-05 7.40642e-06 2.69129e+25 -0.896144 -10.1255 272.126 
2.38917e-07 7.88425e-06 2.68221e+25 -0.924122 3.34832 272.046 
2.15025e-06 7.88425e-06 2.68688e+25 -0.615378 1.90121 272.01 
4.06158e-06 7.88425e-06 2.68612e+25 -1.08432 -0.448674 272.246 
5.97292e-06 7.88425e-06 2.68272e+25 -1.74062 -3.26415 272.327 
7.88425e-06 7.88425e-06 2.68661e+25 -3.09819 -7.03481 272.272 
9.79558e-06 7.88425e-06 2.68515e+25 -4.15994 -10.7812 272.351 
1.17069e-05 7.88425e-06 2.68597e+25 -4.69835 -14.2155 272.584 
1.36182e-05 7.88425e-06 2.69345e+25 -3.61713 -15.98 272.12 
1.55296e-05 7.88425e-06 2.68907e+25 -1.13215 -10.5979 272.308 
2.38917e-07 8.36208e-06 2.68292e+25 -0.122117 3.3878 272.042 
2.15025e-06 8.36208e-06 2.684e+25 -0.0528549 2.08515 272.11 
4.06158e-06 8.36208e-06 2.68629e+25 -0.0527281 -0.227083 272.15 
5.97292e-06 8.36208e-06 2.6831e+25 -0.898791 -3.01439 272.392 
7.88425e-06 8.36208e-06 2.68556e+25 -2.24219 -6.67302 272.214 
9.79558e-06 8.36208e-06 2.68702e+25 -3.48765 -10.2908 272.239 
1.17069e-05 8.36208e-06 2.68953e+25 -4.41212 -14.2566 272.213 
1.36182e-05 8.36208e-06 2.69015e+25 -3.8575 -16.4245 272.356 
1.55296e-05 8.36208e-06 2.68956e+25 -1.28937 -11.2202 272.335 
2.38917e-07 8.83992e-06 2.68594e+25 0.854108 3.3407 271.866 
2.15025e-06 8.83992e-06 2.68608e+25 0.921222 1.98279 271.994 
4.06158e-06 8.83992e-06 2.68491e+25 1.07988 -0.070503 272.119 
5.97292e-06 8.83992e-06 2.68321e+25 0.11396 -2.86747 272.338 
7.88425e-06 8.83992e-06 2.68826e+25 -1.24384 -6.21891 272.132 
9.79558e-06 8.83992e-06 2.68711e+25 -2.67493 -10.1375 272.214 
1.17069e-05 8.83992e-06 2.69059e+25 -3.86083 -14.21 272.228 
1.36182e-05 8.83992e-06 2.68866e+25 -3.80826 -16.8079 272.507 
1.55296e-05 8.83992e-06 2.69176e+25 -1.63838 -11.9035 272.377 
2.38917e-07 9.31775e-06 2.69032e+25 1.69557 3.25583 271.506 
2.15025e-06 9.31775e-06 2.68715e+25 1.58316 1.83345 271.938 
4.06158e-06 9.31775e-06 2.68534e+25 1.85934 -0.115137 272.194 
5.97292e-06 9.31775e-06 2.68451e+25 1.08148 -2.62727 272.219 
7.88425e-06 9.31775e-06 2.68687e+25 -0.154094 -5.84139 272.217 
9.79558e-06 9.31775e-06 2.68755e+25 -1.94495 -9.81476 272.23 
1.17069e-05 9.31775e-06 2.69117e+25 -3.18975 -13.8713 272.102 
1.36182e-05 9.31775e-06 2.6883e+25 -3.85057 -17.0525 272.528 
1.55296e-05 9.31775e-06 2.69521e+25 -1.87091 -12.5297 272.202 
2.38917e-07 9.79558e-06 2.68826e+25 2.40029 3.06145 271.767 
2.15025e-06 9.79558e-06 2.6861e+25 2.99622 1.78521 271.952 
4.06158e-06 9.79558e-06 2.68565e+25 2.97297 -0.129357 272.216 
5.97292e-06 9.79558e-06 2.68319e+25 2.18002 -2.28419 272.315 
7.88425e-06 9.79558e-06 2.68799e+25 1.18906 -5.49566 272.135 
9.79558e-06 9.79558e-06 2.68854e+25 -0.663405 -9.39975 272.228 
1.17069e-05 9.79558e-06 2.693e+25 -2.64415 -13.4785 272.22 
1.36182e-05 9.79558e-06 2.68885e+25 -3.29076 -17.2066 272.561 
1.55296e-05 9.79558e-06 2.69258e+25 -1.54385 -13.1976 272.507 
2.38917e-07 1.02734e-05 2.6859e+25 3.25716 2.92749 271.81 
2.15025e-06 1.02734e-05 2.68865e+25 4.13813 1.65151 271.879 
4.06158e-06 1.02734e-05 2.68161e+25 4.09043 -0.0646232 272.341 
5.97292e-06 1.02734e-05 2.68362e+25 3.22149 -1.90788 272.335 
7.88425e-06 1.02734e-05 2.68678e+25 2.22344 -5.14203 272.136 
9.79558e-06 1.02734e-05 2.687e+25 0.655668 -8.91236 272.209 
1.17069e-05 1.02734e-05 2.69182e+25 -1.76613 -13.0172 272.183 
1.36182e-05 1.02734e-05 2.68987e+25 -2.868 -17.3021 272.672 
1.55296e-05 1.02734e-05 2.6912e+25 -1.1619 -13.8664 272.533 
2.38917e-07 1.07512e-05 2.68753e+25 4.49578 2.93545 271.787 
2.15025e-06 1.07512e-05 2.68726e+25 5.08036 1.4381 271.866 
4.06158e-06 1.07512e-05 2.68326e+25 5.35834 0.150834 272.333 
5.97292e-06 1.07512e-05 2.68247e+25 4.65079 -1.6532 272.541 
7.88425e-06 1.07512e-05 2.68975e+25 3.42326 -4.76412 271.913 
9.79558e-06 1.07512e-05 2.68715e+25 1.76643 -8.42103 272.362 
1.17069e-05 1.07512e-05 2.69396e+25 -0.971521 -12.5136 272.144 
1.36182e-05 1.07512e-05 2.69061e+25 -2.65238 -17.3042 272.595 
1.55296e-05 1.07512e-05 2.69287e+25 -1.30946 -14.4425 272.636 
2.38917e-07 1.12291e-05 2.68776e+25 5.45121 2.76002 271.715 
2.15025e-06 1.12291e-05 2.68658e+25 6.35274 1.33078 272.026 
4.06158e-06 1.12291e-05 2.68593e+25 6.6162 0.216134 272.15 
5.97292e-06 1.12291e-05 2.68227e+25 6.25178 -1.57327 272.332 
7.88425e-06 1.12291e-05 2.68725e+25 4.94854 -4.2874 271.977 
9.79558e-06 1.12291e-05 2.68735e+25 2.98613 -7.61176 272.44 
1.17069e-05 1.12291e-05 2.69195e+25 -0.121712 -11.9558 272.203 
1.36182e-05 1.12291e-05 2.69365e+25 -2.17263 -16.9703 272.362 
1.55296e-05 1.12291e-05 2.69425e+25 -1.41969 -15.0329 272.512 
2.38917e-07 1.17069e-05 2.6837e+25 7.00516 2.61105 272.126 
2.15025e-06 1.17069e-05 2.68629e+25 7.67706 1.19842 271.984 
4.06158e-06 1.17069e-05 2.68587e+25 8.19305 0.36113 272.158 
5.97292e-06 1.17069e-05 2.68645e+25 7.84416 -1.42978 272.208 
7.88425e-06 1.17069e-05 2.68887e+25 6.42461 -3.83395 271.909 
9.79558e-06 1.17069e-05 2.6876e+25 4.23199 -6.89851 272.426 
1.17069e-05 1.17069e-05 2.69276e+25 0.749737 -11.3907 272.219 
1.36182e-05 1.17069e-05 2.69572e+25 -1.8665 -16.644 272.168 
1.55296e-05 1.17069e-05 2.69421e+25 -1.65597 -15.6125 272.544 
2.38917e-07 1.21847e-05 2.68513e+25 8.58997 2.34669 271.991 
2.15025e-06 1.21847e-05 2.68954e+25 9.29743 1.02944 271.815 
4.06158e-06 1.21847e-05 2.68689e+25 9.48003 0.55399 271.94 
5.97292e-06 1.21847e-05 2.68694e+25 9.13065 -1.32208 271.982 
7.88425e-06 1.21847e-05 2.68757e+25 7.95721 -3.56084 271.999 
9.79558e-06 1.21847e-05 2.68825e+25 5.54806 -6.23386 272.236 
1.17069e-05 1.21847e-05 2.69427e+25 1.9184 -10.5627 272.19 
1.36182e-05 1.21847e-05 2.69559e+25 -1.28587 -16.2101 272.219 
1.55296e-05 1.21847e-05 2.69953e+25 -1.75525 -16.2345 272.359 
2.38917e-07 1.26626e-05 2.68224e+25 10.3762 2.14329 272.158 
2.15025e-06 1.26626e-05 2.69007e+25 10.9398 0.877033 271.754 
4.06158e-06 1.26626e-05 2.68708e+25 11.3402 0.569978 272.048 
5.97292e-06 1.26626e-05 2.6885e+25 11.0392 -1.08154 272.089 
7.88425e-06 1.26626e-05 2.68697e+25 9.79545 -3.32981 272.148 
9.79558e-06 1.26626e-05 2.69008e+25 7.37638 -5.28013 272.245 
1.17069e-05 1.26626e-05 2.69454e+25 3.70197 -9.36885 272.181 
1.36182e-05 1.26626e-05 2.6996e+25 -0.637014 -15.356 272.215 
1.55296e-05 1.26626e-05 2.70268e+25 -1.80313 -16.6382 272.374 
2.38917e-07 1.31404e-05 2.68193e+25 12.1537 2.00158 272.299 
2.15025e-06 1.31404e-05 2.68752e+25 12.6804 0.763295 271.787 
4.06158e-06 1.31404e-05 2.68494e+25 13.3811 0.338047 272.189 
5.97292e-06 1.31404e-05 2.68637e+25 13.0869 -0.873089 272.305 
7.88425e-06 1.31404e-05 2.68972e+25 11.6816 -2.87721 272.081 
9.79558e-06 1.31404e-05 2.69093e+25 9.49149 -4.5594 272.089 
1.17069e-05 1.31404e-05 2.68961e+25 5.69075 -8.25097 272.636 
1.36182e-05 1.31404e-05 2.69766e+25 0.480899 -14.2003 272.308 
1.55296e-05 1.31404e-05 2.70309e+25 -1.8569 -16.8766 272.473 
2.38917e-07 1.36182e-05 2.68283e+25 14.0384 1.66725 272.295 
2.15025e-06 1.36182e-05 2.68678e+25 14.7476 0.721814 271.982 
4.06158e-06 1.36182e-05 2.68351e+25 15.541 0.200351 272.332 
5.97292e-06 1.36182e-05 2.68628e+25 15.0055 -0.707679 272.323 
7.88425e-06 1.36182e-05 2.69115e+25 13.898 -2.45223 271.948 
9.79558e-06 1.36182e-05 2.68906e+25 11.5182 -3.82877 272.183 
1.17069e-05 1.36182e-05 2.69052e+25 7.79297 -6.92748 272.649 
1.36182e-05 1.36182e-05 2.69897e+25 1.689 -12.8185 272.343 
1.55296e-05 1.36182e-05 2.70544e+25 -2.072 -16.9995 272.494 
2.38917e-07 1.40961e-05 2.6823e+25 16.1055 1.22305 272.204 
2.15025e-06 1.40961e-05 2.68665e+25 16.9633 0.671691 272.144 
4.06158e-06 1.40961e-05 2.68259e+25 17.5285 0.0656656 272.425 
5.97292e-06 1.40961e-05 2.68618e+25 16.9833 -0.588848 272.204 
7.88425e-06 1.40961e-05 2.68822e+25 16.1333 -1.89929 272.213 
9.79558e-06 1.40961e-05 2.69089e+25 13.9784 -3.09459 272.309 
1.17069e-05 1.40961e-05 2.6896e+25 9.97664 -5.57698 272.864 
1.36182e-05 1.40961e-05 2.69905e+25 3.58616 -10.9871 272.547 
1.55296e-05 1.40961e-05 2.70787e+25 -1.90457 -16.9452 272.344 
2.38917e-07 1.45739e-05 2.68322e+25 18.2516 0.817022 272.136 
2.15025e-06 1.45739e-05 2.68406e+25 19.3748 0.506378 272.17 
4.06158e-06 1.45739e-05 2.68357e+25 19.6892 -0.120635 272.226 
5.97292e-06 1.45739e-05 2.68258e+25 19.3701 -0.295014 272.502 
7.88425e-06 1.45739e-05 2.68575e+25 18.572 -1.37984 272.374 
9.79558e-06 1.45739e-05 2.69175e+25 16.3117 -2.35588 272.346 
1.17069e-05 1.45739e-05 2.69154e+25 12.4127 -4.24005 272.775 
1.36182e-05 1.45739e-05 2.70007e+25 5.88494 -9.01638 272.699 
1.55296e-05 1.45739e-05 2.70964e+25 -1.52936 -16.4718 272.556 
2.38917e-07 1.50518e-05 2.68124e+25 21.0941 0.445601 272.48 
2.15025e-06 1.50518e-05 2.68634e+25 21.7881 0.354285 272.144 
4.06158e-06 1.50518e-05 2.68503e+25 22.0231 -0.174693 272.199 
5.97292e-06 1.50518e-05 2.6823e+25 21.8953 -0.066373 272.406 
7.88425e-06 1.50518e-05 2.68771e+25 21.0526 -1.03303 272.436 
9.79558e-06 1.50518e-05 2.68887e+25 18.9947 -1.73643 272.491 
1.17069e-05 1.50518e-05 2.69334e+25 15.3825 -3.11364 272.703 
1.36182e-05 1.50518e-05 2.69786e+25 8.77507 -7.04174 272.967 
1.55296e-05 1.50518e-05 2.71293e+25 -0.522123 -15.3186 272.586 
2.38917e-07 1.55296e-05 2.6784e+25 23.9431 0.101235 272.564 
2.15025e-06 1.55296e-05 2.68379e+25 24.6075 0.211862 272.384 
4.06158e-06 1.55296e-05 2.68584e+25 24.5713 -0.0716015 272.226 
5.97292e-06 1.55296e-05 2.68339e+25 24.7095 -0.146603 272.476 
7.88425e-06 1.55296e-05 2.68779e+25 23.7392 -0.707193 272.305 
9.79558e-06 1.55296e-05 2.68839e+25 21.8471 -1.11427 272.479 
1.17069e-05 1.55296e-05 2.69445e+25 18.8054 -2.17027 272.681 
1.36182e-05 1.55296e-05 2.69589e+25 12.5189 -4.90359 273.223 
1.55296e-05 1.55296e-05 2.71712e+25 1.36245 -13.0843 272.791 
2.38917e-07 1.60074e-05 2.68036e+25 26.9254 -0.0972624 272.622 
2.15025e-06 1.60074e-05 2.68068e+25 27.2699 0.151704 272.58 
4.06158e-06 1.60074e-05 2.68655e+25 27.2756 0.173573 272.216 
5.97292e-06 1.60074e-05 2.68721e+25 27.4778 -0.290721 272.282 
7.88425e-06 1.60074e-05 2.68685e+25 26.6158 -0.499274 272.333 
9.79558e-06 1.60074e-05 2.6873e+25 25.0088 -0.65655 272.727 
1.17069e-05 1.60074e-05 2.69451e+25 22.8319 -1.25894 272.574 
1.36182e-05 1.60074e-05 2.69772e+25 17.3956 -2.92439 272.999 
1.55296e-05 1.60074e-05 2.71821e+25 5.63471 -9.7133 273.131 
2.38917e-07 1.64852e-05 2.67926e+25 29.9777 -0.143338 272.611 
2.15025e-06 1.64852e-05 2.68093e+25 30.3965 0.0494596 272.6 
4.06158e-06 1.64852e-05 2.6828e+25 30.2601 0.222054 272.497 
5.97292e-06 1.64852e-05 2.68401e+25 30.2828 -0.236352 272.395 
7.88425e-06 1.64852e-05 2.68447e+25 29.7728 -0.263592 272.534 
9.79558e-06 1.64852e-05 2.68564e+25 28.6918 -0.290415 272.683 
1.17069e-05 1.64852e-05 2.69148e+25 27.2599 -0.509369 272.671 
1.36182e-05 1.64852e-05 2.69516e+25 23.6564 -1.31261 273.314 
1.55296e-05 1.64852e-05 2.71741e+25 12.7805 -5.34919 273.516 
2.38917e-07 1.69631e-05 2.67785e+25 32.8942 -0.0459035 272.814 
2.15025e-06 1.69631e-05 2.67934e+25 33.1907 -0.0630066 272.75 
4.06158e-06 1.69631e-05 2.68189e+25 32.8668 0.088156 272.688 
5.97292e-06 1.69631e-05 2.68293e+25 32.9061 -0.0520962 272.763 
7.88425e-06 1.69631e-05 2.68267e+25 32.696 -0.00231721 272.837 
9.79558e-06 1.69631e-05 2.68449e+25 32.2043 -0.054395 272.858 
1.17069e-05 1.69631e-05 2.69024e+25 31.5268 -0.0911624 272.842 
1.36182e-05 1.69631e-05 2.69135e+25 30.2431 -0.236285 273.44 
1.55296e-05 1.69631e-05 2.71462e+25 24.1957 -1.24183 273.485 
7.1675e-07 2.38917e-07 2.68702e+25 -7.9488 1.2652 272.093 
2.62808e-06 2.38917e-07 2.68769e+25 -8.23057 -1.19154 272.057 
4.53942e-06 2.38917e-07 2.68628e+25 -7.76198 -3.00403 272.116 
6.45075e-06 2.38917e-07 2.68736e+25 -7.07046 -4.9093 272.058 
8.36208e-06 2.38917e-07 2.68908e+25 -6.63559 -7.24717 271.948 
1.02734e-05 2.38917e-07 2.68854e+25 -5.22907 -8.50187 271.941 
1.21847e-05 2.38917e-07 2.68862e+25 -3.98202 -7.8634 272.079 
1.40961e-05 2.38917e-07 2.68736e+25 -1.89134 -6.23347 272.084 
1.60074e-05 2.38917e-07 2.68411e+25 -0.584857 -2.53668 272.41 
7.1675e-07 7.1675e-07 2.68636e+25 -7.49575 1.4707 272.132 
2.62808e-06 7.1675e-07 2.68798e+25 -8.06578 -1.21682 272.093 
4.53942e-06 7.1675e-07 2.68923e+25 -7.96674 -3.21739 272.035 
6.45075e-06 7.1675e-07 2.69041e+25 -6.99235 -4.95311 271.964 
8.36208e-06 7.1675e-07 2.68934e+25 -6.71139 -7.42953 272.043 
1.02734e-05 7.1675e-07 2.69141e+25 -5.51133 -8.76404 272.029 
1.21847e-05 7.1675e-07 2.68809e+25 -4.12299 -8.31185 272.286 
1.40961e-05 7.1675e-07 2.69178e+25 -2.12502 -6.80138 271.974 
1.60074e-05 7.1675e-07 2.68681e+25 -0.444171 -2.82074 272.411 
7.1675e-07 1.19458e-06 2.68694e+25 -7.14101 1.64253 272.138 
2.62808e-06 1.19458e-06 2.69015e+25 -7.90142 -0.970746 271.803 
4.53942e-06 1.19458e-06 2.68957e+25 -8.01127 -3.41035 272.003 
6.45075e-06 1.19458e-06 2.69061e+25 -7.18334 -5.18795 271.905 
8.36208e-06 1.19458e-06 2.69333e+25 -6.66516 -7.5366 271.877 
1.02734e-05 1.19458e-06 2.69298e+25 -5.85897 -9.02827 271.95 
1.21847e-05 1.19458e-06 2.6884e+25 -4.05267 -8.76092 272.246 
1.40961e-05 1.19458e-06 2.69157e+25 -2.06078 -7.28721 272.107 
1.60074e-05 1.19458e-06 2.68473e+25 -0.482146 -3.0656 272.702 
7.1675e-07 1.67242e-06 2.68726e+25 -6.70387 1.86667 272.098 
2.62808e-06 1.67242e-06 2.69277e+25 -7.87371 -0.728291 271.903 
4.53942e-06 1.67242e-06 2.6924e+25 -8.04208 -3.43465 271.698 
6.45075e-06 1.67242e-06 2.68992e+25 -7.46779 -5.19127 272.007 
8.36208e-06 1.67242e-06 2.69051e+25 -6.64559 -7.68362 272.078 
1.02734e-05 1.67242e-06 2.69135e+25 -6.02418 -9.37314 272.039 
1.21847e-05 1.67242e-06 2.69003e+25 -4.06436 -9.43647 272.23 
1.40961e-05 1.67242e-06 2.68644e+25 -2.19059 -7.70337 272.245 
1.60074e-05 1.67242e-06 2.68393e+25 -0.31581 -3.25934 272.848 
7.1675e-07 2.15025e-06 2.69087e+25 -6.45621 2.08142 271.847 
2.62808e-06 2.15025e-06 2.69242e+25 -7.60765 -0.682863 271.884 
4.53942e-06 2.15025e-06 2.68999e+25 -8.29952 -3.56318 271.767 
6.45075e-06 2.15025e-06 2.68669e+25 -7.77128 -5.27639 272.121 
8.36208e-06 2.15025e-06 2.68959e+25 -6.91229 -8.0077 272.139 
1.02734e-05 2.15025e-06 2.68711e+25 -6.24429 -9.59711 272.36 
1.21847e-05 2.15025e-06 2.68912e+25 -4.34224 -10.0252 272.195 
1.40961e-05 2.15025e-06 2.68922e+25 -2.34139 -8.0238 272.035 
1.60074e-05 2.15025e-06 2.6842e+25 -0.399895 -3.53863 272.835 
7.1675e-07 2.62808e-06 2.68819e+25 -6.42235 2.15111 271.878 
2.62808e-06 2.62808e-06 2.69368e+25 -7.57079 -0.621101 271.652 
4.53942e-06 2.62808e-06 2.68947e+25 -7.97739 -3.4395 271.87 
6.45075e-06 2.62808e-06 2.68781e+25 -7.94545 -5.45844 272.019 
8.36208e-06 2.62808e-06 2.68984e+25 -7.04322 -8.26895 272.095 
1.02734e-05 2.62808e-06 2.68941e+25 -6.3782 -9.75239 272.101 
1.21847e-05 2.62808e-06 2.69106e+25 -4.46308 -10.5957 272.021 
1.40961e-05 2.62808e-06 2.69056e+25 -2.265 -8.50812 272.15 
1.60074e-05 2.62808e-06 2.6831e+25 -0.428755 -3.86059 272.712 
7.1675e-07 3.10592e-06 2.6888e+25 -6.17814 2.32641 271.932 
2.62808e-06 3.10592e-06 2.69241e+25 -7.06939 -0.298945 271.732 
4.53942e-06 3.10592e-06 2.68803e+25 -7.94887 -3.30493 271.815 
6.45075e-06 3.10592e-06 2.68932e+25 -8.05327 -5.72096 272.097 
8.36208e-06 3.10592e-06 2.69048e+25 -7.14965 -8.48209 272.085 
1.02734e-05 3.10592e-06 2.69066e+25 -6.68398 -10.2006 272.16 
1.21847e-05 3.10592e-06 2.6917e+25 -4.76398 -11.0814 271.902 
1.40961e-05 3.10592e-06 2.69051e+25 -2.47018 -9.15316 272.09 
1.60074e-05 3.10592e-06 2.68609e+25 -0.413243 -4.28198 272.692 
7.1675e-07 3.58375e-06 2.68782e+25 -5.8745 2.60567 272.137 
2.62808e-06 3.58375e-06 2.68671e+25 -6.29984 0.0244123 272.049 
4.53942e-06 3.58375e-06 2.68823e+25 -7.62859 -3.09715 272.068 
6.45075e-06 3.58375e-06 2.6881e+25 -7.80181 -5.9509 272.28 
8.36208e-06 3.58375e-06 2.68952e+25 -7.3041 -8.53826 272.239 
1.02734e-05 3.58375e-06 2.69043e+25 -6.57984 -10.5601 272.111 
1.21847e-05 3.58375e-06 2.68965e+25 -4.96437 -11.5377 272.13 
1.40961e-05 3.58375e-06 2.69095e+25 -2.55424 -9.80643 272.194 
1.60074e-05 3.58375e-06 2.68566e+25 -0.520484 -4.74081 272.62 
7.1675e-07 4.06158e-06 2.68538e+25 -5.38379 2.76168 272.273 
2.62808e-06 4.06158e-06 2.68806e+25 -5.94698 0.209619 272.033 
4.53942e-06 4.06158e-06 2.68782e+25 -7.32326 -2.78749 272.014 
6.45075e-06 4.06158e-06 2.68494e+25 -7.35549 -6.18139 272.255 
8.36208e-06 4.06158e-06 2.68668e+25 -7.26254 -8.55085 272.274 
1.02734e-05 4.06158e-06 2.68925e+25 -6.55376 -10.9386 272.315 
1.21847e-05 4.06158e-06 2.68985e+25 -4.86702 -12.1121 272.042 
1.40961e-05 4.06158e-06 2.69085e+25 -2.52335 -10.3956 272.145 
1.60074e-05 4.06158e-06 2.68646e+25 -0.506035 -5.06407 272.556 
7.1675e-07 4.53942e-06 2.6863e+25 -4.77196 2.93118 272.13 
2.62808e-06 4.53942e-06 2.68762e+25 -5.45554 0.459548 272.04 
4.53942e-06 4.53942e-06 2.68869e+25 -6.69468 -2.54049 271.973 
6.45075e-06 4.53942e-06 2.68606e+25 -6.94859 -6.13316 272.279 
8.36208e-06 4.53942e-06 2.68822e+25 -7.12108 -8.48639 272.206 
1.02734e-05 4.53942e-06 2.68861e+25 -6.3919 -11.1903 272.226 
1.21847e-05 4.53942e-06 2.69362e+25 -5.25819 -12.6308 271.953 
1.40961e-05 4.53942e-06 2.69244e+25 -2.66236 -10.9894 271.969 
1.60074e-05 4.53942e-06 2.69024e+25 -0.491955 -5.41072 272.198 
7.1675e-07 5.01725e-06 2.6858e+25 -4.46049 3.06082 272.246 
2.62808e-06 5.01725e-06 2.68541e+25 -4.77028 0.67432 272.14 
4.53942e-06 5.01725e-06 2.68935e+25 -5.67546 -2.2711 271.969 
6.45075e-06 5.01725e-06 2.68494e+25 -6.46642 -6.07642 272.345 
8.36208e-06 5.01725e-06 2.6881e+25 -6.87956 -8.35212 272.133 
1.02734e-05 5.01725e-06 2.68492e+25 -6.20981 -11.3171 272.542 
1.21847e-05 5.01725e-06 2.68896e+25 -5.03306 -13.1042 272.161 
1.40961e-05 5.01725e-06 2.69198e+25 -2.46125 -11.7229 272.055 
1.60074e-05 5.01725e-06 2.68917e+25 -0.624655 -5.74711 272.324 
7.1675e-07 5.49508e-06 2.68524e+25 -4.01097 3.13258 272.291 
2.62808e-06 5.49508e-06 2.68875e+25 -4.53926 0.666743 272.084 
4.53942e-06 5.49508e-06 2.68751e+25 -4.89241 -1.93204 271.999 
6.45075e-06 5.49508e-06 2.6863e+25 -6.24707 -5.78707 272.202 
8.36208e-06 5.49508e-06 2.68494e+25 -6.64182 -8.31145 272.31 
1.02734e-05 5.49508e-06 2.68615e+25 -5.97578 -11.4992 272.459 
1.21847e-05 5.49508e-06 2.68938e+25 -4.75685 -13.5335 272.119 
1.40961e-05 5.49508e-06 2.68921e+25 -2.69489 -12.3831 272.176 
1.60074e-05 5.49508e-06 2.69141e+25 -0.624168 -6.16417 272.02 
7.1675e-07 5.97292e-06 2.68482e+25 -3.38612 3.24232 272.203 
2.62808e-06 5.97292e-06 2.68666e+25 -3.67759 0.814124 271.941 
4.53942e-06 5.97292e-06 2.68741e+25 -4.33626 -1.58966 272.024 
6.45075e-06 5.97292e-06 2.6887e+25 -5.6891 -5.63061 271.951 
8.36208e-06 5.97292e-06 2.68632e+25 -6.02195 -8.24676 272.244 
1.02734e-05 5.97292e-06 2.68496e+25 -5.89539 -11.6738 272.462 
1.21847e-05 5.97292e-06 2.69037e+25 -4.48966 -14.0534 272.073 
1.40961e-05 5.97292e-06 2.69188e+25 -2.71627 -12.9944 272.155 
1.60074e-05 5.97292e-06 2.69022e+25 -0.671599 -6.63425 272.18 
7.1675e-07 6.45075e-06 2.68709e+25 -2.56853 3.24363 271.975 
2.62808e-06 6.45075e-06 2.68644e+25 -2.94661 0.920913 272.024 
4.53942e-06 6.45075e-06 2.68675e+25 -3.56888 -1.50793 271.986 
6.45075e-06 6.45075e-06 2.68654e+25 -5.00543 -5.39615 272.053 
8.36208e-06 6.45075e-06 2.6881e+25 -5.66709 -8.12481 272.056 
1.02734e-05 6.45075e-06 2.68681e+25 -5.75863 -11.9919 272.403 
1.21847e-05 6.45075e-06 2.68935e+25 -4.74084 -14.5447 272.092 
1.40961e-05 6.45075e-06 2.69138e+25 -2.59247 -13.6082 272.214 
1.60074e-05 6.45075e-06 2.69185e+25 -0.592483 -6.99465 272.021 
7.1675e-07 6.92858e-06 2.68766e+25 -2.02493 3.20332 271.934 
2.62808e-06 6.92858e-06 2.68377e+25 -2.19454 1.07763 272.145 
4.53942e-06 6.92858e-06 2.68657e+25 -3.06935 -1.51142 272.115 
6.45075e-06 6.92858e-06 2.68633e+25 -4.05655 -5.04312 272.06 
8.36208e-06 6.92858e-06 2.68616e+25 -5.21151 -7.90427 272.216 
1.02734e-05 6.92858e-06 2.68435e+25 -5.43793 -12.1777 272.588 
1.21847e-05 6.92858e-06 2.68708e+25 -4.99739 -14.8938 272.246 
1.40961e-05 6.92858e-06 2.69088e+25 -2.77477 -14.2595 272.26 
1.60074e-05 6.92858e-06 2.69124e+25 -0.560514 -7.22595 272.305 
7.1675e-07 7.40642e-06 2.68744e+25 -1.45782 3.18326 271.858 
2.62808e-06 7.40642e-06 2.68578e+25 -1.70932 1.35582 272.097 
4.53942e-06 7.40642e-06 2.68396e+25 -2.25117 -1.37165 272.257 
6.45075e-06 7.40642e-06 2.68584e+25 -3.16736 -4.50984 272.045 
8.36208e-06 7.40642e-06 2.68805e+25 -4.12586 -7.78487 272.028 
1.02734e-05 7.40642e-06 2.68608e+25 -5.10633 -12.171 272.46 
1.21847e-05 7.40642e-06 2.68887e+25 -4.97646 -15.0073 272.371 
1.40961e-05 7.40642e-06 2.68976e+25 -2.86554 -14.8529 272.385 
1.60074e-05 7.40642e-06 2.69021e+25 -0.501973 -7.55413 272.404 
7.1675e-07 7.88425e-06 2.68734e+25 -0.834261 3.08873 271.874 
2.62808e-06 7.88425e-06 2.68414e+25 -0.905825 1.67828 272.236 
4.53942e-06 7.88425e-06 2.68331e+25 -1.26158 -1.41858 272.287 
6.45075e-06 7.88425e-06 2.68275e+25 -2.11459 -4.09767 272.251 
8.36208e-06 7.88425e-06 2.68954e+25 -3.22333 -7.71813 271.875 
1.02734e-05 7.88425e-06 2.68901e+25 -4.46775 -11.9404 272.243 
1.21847e-05 7.88425e-06 2.68766e+25 -4.58773 -15.0626 272.522 
1.40961e-05 7.88425e-06 2.69151e+25 -3.10873 -15.3544 272.193 
1.60074e-05 7.88425e-06 2.69141e+25 -0.55143 -8.02732 272.328 
7.1675e-07 8.36208e-06 2.68829e+25 -0.120079 2.93555 271.698 
2.62808e-06 8.36208e-06 2.68175e+25 -0.00453016 1.67715 272.272 
4.53942e-06 8.36208e-06 2.68354e+25 -0.281158 -1.19936 272.354 
6.45075e-06 8.36208e-06 2.68575e+25 -1.16385 -3.74418 272.195 
8.36208e-06 8.36208e-06 2.68747e+25 -2.59155 -7.59936 271.997 
1.02734e-05 8.36208e-06 2.68767e+25 -3.7238 -11.8258 272.2 
1.21847e-05 8.36208e-06 2.6899e+25 -4.25992 -15.2099 272.157 
1.40961e-05 8.36208e-06 2.69203e+25 -3.29186 -16.0561 272.398 
1.60074e-05 8.36208e-06 2.68854e+25 -0.718914 -8.57933 272.438 
7.1675e-07 8.83992e-06 2.6888e+25 0.851482 3.01334 271.755 
2.62808e-06 8.83992e-06 2.68399e+25 1.00095 1.60435 272.14 
4.53942e-06 8.83992e-06 2.6856e+25 0.809087 -0.907127 272.171 
6.45075e-06 8.83992e-06 2.68382e+25 -0.057793 -3.42795 272.207 
8.36208e-06 8.83992e-06 2.68662e+25 -1.65636 -7.3485 272.175 
1.02734e-05 8.83992e-06 2.68708e+25 -3.07763 -11.3376 272.278 
1.21847e-05 8.83992e-06 2.69045e+25 -3.98282 -15.2855 272.305 
1.40961e-05 8.83992e-06 2.68859e+25 -3.46991 -16.6297 272.54 
1.60074e-05 8.83992e-06 2.68894e+25 -0.960457 -9.14622 272.504 
7.1675e-07 9.31775e-06 2.69194e+25 1.67115 3.16872 271.496 
2.62808e-06 9.31775e-06 2.68564e+25 1.73284 1.50914 272.087 
4.53942e-06 9.31775e-06 2.68413e+25 1.94 -0.663442 272.276 
6.45075e-06 9.31775e-06 2.68374e+25 0.770993 -3.09787 272.338 
8.36208e-06 9.31775e-06 2.68532e+25 -0.572213 -6.79808 272.232 
1.02734e-05 9.31775e-06 2.68948e+25 -2.17341 -11.0644 272.079 
1.21847e-05 9.31775e-06 2.68974e+25 -3.48048 -15.0655 272.251 
1.40961e-05 9.31775e-06 2.68977e+25 -3.54168 -17.0173 272.615 
1.60074e-05 9.31775e-06 2.68966e+25 -1.17253 -9.83842 272.577 
7.1675e-07 9.79558e-06 2.68969e+25 2.61362 3.21697 271.757 
2.62808e-06 9.79558e-06 2.68592e+25 3.02049 1.40669 272.014 
4.53942e-06 9.79558e-06 2.68745e+25 2.92514 -0.652888 272.102 
6.45075e-06 9.79558e-06 2.68184e+25 1.92014 -2.88689 272.414 
8.36208e-06 9.79558e-06 2.68733e+25 0.748144 -6.3469 272.127 
1.02734e-05 9.79558e-06 2.68807e+25 -1.1375 -10.695 272.155 
1.21847e-05 9.79558e-06 2.68902e+25 -2.94129 -14.8875 272.424 
1.40961e-05 9.79558e-06 2.69003e+25 -3.11153 -17.3643 272.583 
1.60074e-05 9.79558e-06 2.69325e+25 -0.877862 -10.5271 272.394 
7.1675e-07 1.02734e-05 2.68654e+25 3.51463 2.96831 271.922 
2.62808e-06 1.02734e-05 2.68378e+25 4.24713 1.33948 272.117 
4.53942e-06 1.02734e-05 2.68483e+25 3.90861 -0.565077 272.207 
6.45075e-06 1.02734e-05 2.68215e+25 2.98424 -2.73716 272.456 
8.36208e-06 1.02734e-05 2.68794e+25 1.83685 -5.86327 272.016 
1.02734e-05 1.02734e-05 2.68676e+25 0.0863742 -10.1409 272.266 
1.21847e-05 1.02734e-05 2.69065e+25 -2.25511 -14.4744 272.324 
1.40961e-05 1.02734e-05 2.69323e+25 -2.6953 -17.5666 272.476 
1.60074e-05 1.02734e-05 2.69422e+25 -0.603399 -11.0537 272.402 
7.1675e-07 1.07512e-05 2.68996e+25 4.52183 2.61087 271.746 
2.62808e-06 1.07512e-05 2.6863e+25 5.32377 1.2993 271.917 
4.53942e-06 1.07512e-05 2.68512e+25 5.16017 -0.343037 272.104 
6.45075e-06 1.07512e-05 2.68413e+25 4.50965 -2.61873 272.384 
8.36208e-06 1.07512e-05 2.68872e+25 3.06627 -5.55739 272.04 
1.02734e-05 1.07512e-05 2.69003e+25 1.04866 -9.41794 272.31 
1.21847e-05 1.07512e-05 2.69353e+25 -1.51394 -13.9359 272.217 
1.40961e-05 1.07512e-05 2.69122e+25 -2.62065 -17.7717 272.47 
1.60074e-05 1.07512e-05 2.69378e+25 -0.830216 -11.5021 272.543 
7.1675e-07 1.12291e-05 2.69026e+25 5.64824 2.48833 271.707 
2.62808e-06 1.12291e-05 2.68409e+25 6.48953 1.09102 272.174 
4.53942e-06 1.12291e-05 2.68611e+25 6.48176 -0.19018 272.037 
6.45075e-06 1.12291e-05 2.68372e+25 6.05427 -2.39148 272.427 
8.36208e-06 1.12291e-05 2.68612e+25 4.58349 -5.25366 272.315 
1.02734e-05 1.12291e-05 2.68895e+25 2.11998 -8.56754 272.376 
1.21847e-05 1.12291e-05 2.69173e+25 -0.685163 -13.3666 272.252 
1.40961e-05 1.12291e-05 2.69355e+25 -2.41641 -17.8523 272.539 
1.60074e-05 1.12291e-05 2.69385e+25 -0.842733 -11.949 272.62 
7.1675e-07 1.17069e-05 2.6876e+25 7.26349 2.19058 271.959 
2.62808e-06 1.17069e-05 2.68588e+25 7.92945 0.900507 272.035 
4.53942e-06 1.17069e-05 2.68607e+25 7.97399 0.0267741 272.126 
6.45075e-06 1.17069e-05 2.68817e+25 7.59101 -2.08589 272.089 
8.36208e-06 1.17069e-05 2.68859e+25 5.95827 -4.79138 272.192 
1.02734e-05 1.17069e-05 2.69082e+25 3.40938 -7.64558 272.092 
1.21847e-05 1.17069e-05 2.69192e+25 0.0957572 -12.7216 272.325 
1.40961e-05 1.17069e-05 2.69402e+25 -2.11986 -17.5949 272.5 
1.60074e-05 1.17069e-05 2.69444e+25 -1.00752 -12.578 272.554 
7.1675e-07 1.21847e-05 2.68837e+25 8.78432 1.93861 271.999 
2.62808e-06 1.21847e-05 2.68606e+25 9.42287 0.684206 271.87 
4.53942e-06 1.21847e-05 2.6852e+25 9.40441 0.116881 272.123 
6.45075e-06 1.21847e-05 2.68602e+25 8.90395 -1.78088 271.966 
8.36208e-06 1.21847e-05 2.69006e+25 7.58315 -4.34653 272.102 
1.02734e-05 1.21847e-05 2.69141e+25 4.77438 -6.74481 272.11 
1.21847e-05 1.21847e-05 2.69186e+25 0.895503 -11.8115 272.245 
1.40961e-05 1.21847e-05 2.6984e+25 -1.86292 -17.2052 272.355 
1.60074e-05 1.21847e-05 2.69829e+25 -1.0972 -13.2481 272.433 
7.1675e-07 1.26626e-05 2.68536e+25 10.5469 1.8193 272.101 
2.62808e-06 1.26626e-05 2.68573e+25 11.1424 0.634387 272.04 
4.53942e-06 1.26626e-05 2.68899e+25 11.4259 0.131201 271.955 
6.45075e-06 1.26626e-05 2.68746e+25 10.7337 -1.44916 271.955 
8.36208e-06 1.26626e-05 2.68924e+25 9.48632 -3.93937 272.103 
1.02734e-05 1.26626e-05 2.69315e+25 6.58275 -6.05805 272.075 
1.21847e-05 1.26626e-05 2.6924e+25 2.58066 -10.8438 272.376 
1.40961e-05 1.26626e-05 2.69511e+25 -1.54383 -16.7032 272.646 
1.60074e-05 1.26626e-05 2.69961e+25 -1.32533 -13.9168 272.549 
7.1675e-07 1.31404e-05 2.68504e+25 12.3711 1.59624 272.162 
2.62808e-06 1.31404e-05 2.6871e+25 12.7831 0.407944 272.031 
4.53942e-06 1.31404e-05 2.6868e+25 13.4597 0.0518629 272.16 
6.45075e-06 1.31404e-05 2.68585e+25 12.8717 -1.10307 272.18 
8.36208e-06 1.31404e-05 2.68933e+25 11.2575 -3.50416 272.172 
1.02734e-05 1.31404e-05 2.69365e+25 8.66649 -5.14205 271.945 
1.21847e-05 1.31404e-05 2.69194e+25 4.4263 -9.64686 272.596 
1.40961e-05 1.31404e-05 2.69777e+25 -0.625638 -15.783 272.579 
1.60074e-05 1.31404e-05 2.7002e+25 -1.40994 -14.5082 272.651 
7.1675e-07 1.36182e-05 2.68427e+25 14.4051 1.35486 272.33 
2.62808e-06 1.36182e-05 2.68726e+25 14.8767 0.222042 272.124 
4.53942e-06 1.36182e-05 2.68426e+25 15.5971 0.04938 272.301 
6.45075e-06 1.36182e-05 2.68563e+25 14.8905 -0.932298 272.295 
8.36208e-06 1.36182e-05 2.6876e+25 13.3021 -2.97126 272.037 
1.02734e-05 1.36182e-05 2.69369e+25 10.7382 -4.22639 271.996 
1.21847e-05 1.36182e-05 2.69246e+25 6.37825 -8.31655 272.734 
1.40961e-05 1.36182e-05 2.7007e+25 0.130353 -14.5509 272.529 
1.60074e-05 1.36182e-05 2.70503e+25 -1.71207 -15.1551 272.478 
7.1675e-07 1.40961e-05 2.68551e+25 16.3435 1.16557 272.168 
2.62808e-06 1.40961e-05 2.68703e+25 17.1244 0.00149688 271.939 
4.53942e-06 1.40961e-05 2.6844e+25 17.6738 0.0497224 272.3 
6.45075e-06 1.40961e-05 2.68563e+25 16.9134 -0.821372 272.326 
8.36208e-06 1.40961e-05 2.68923e+25 15.5025 -2.30155 272.16 
1.02734e-05 1.40961e-05 2.69288e+25 13.1579 -3.41817 272.118 
1.21847e-05 1.40961e-05 2.69133e+25 8.54341 -6.8586 272.969 
1.40961e-05 1.40961e-05 2.69704e+25 1.71349 -12.997 272.745 
1.60074e-05 1.40961e-05 2.70653e+25 -1.80242 -15.6975 272.484 
7.1675e-07 1.45739e-05 2.68377e+25 18.6449 0.86489 272.377 
2.62808e-06 1.45739e-05 2.68784e+25 19.3961 -0.0864736 271.913 
4.53942e-06 1.45739e-05 2.68763e+25 19.7675 -0.0603735 272.055 
6.45075e-06 1.45739e-05 2.68568e+25 19.0527 -0.749191 272.341 
8.36208e-06 1.45739e-05 2.68747e+25 18.0721 -1.77652 272.249 
1.02734e-05 1.45739e-05 2.68908e+25 15.693 -2.66276 272.501 
1.21847e-05 1.45739e-05 2.6896e+25 11.1026 -5.40037 273.009 
1.40961e-05 1.45739e-05 2.70206e+25 3.7103 -10.9485 272.661 
1.60074e-05 1.45739e-05 2.71375e+25 -1.6934 -16.0949 272.49 
7.1675e-07 1.50518e-05 2.68436e+25 21.369 0.543217 272.437 
2.62808e-06 1.50518e-05 2.68461e+25 21.8536 -0.0643377 272.181 
4.53942e-06 1.50518e-05 2.68571e+25 21.9767 0.0615 272.2 
6.45075e-06 1.50518e-05 2.68825e+25 21.7987 -0.599983 272.129 
8.36208e-06 1.50518e-05 2.68823e+25 20.5977 -1.24642 272.397 
1.02734e-05 1.50518e-05 2.68969e+25 18.4224 -2.0118 272.544 
1.21847e-05 1.50518e-05 2.69097e+25 14.1922 -3.91189 272.874 
1.40961e-05 1.50518e-05 2.70179e+25 6.46577 -8.55684 272.876 
1.60074e-05 1.50518e-05 2.71929e+25 -1.68277 -15.8755 272.456 
7.1675e-07 1.55296e-05 2.68385e+25 24.2319 0.269006 272.398 
2.62808e-06 1.55296e-05 2.68238e+25 24.6588 -0.0663116 272.482 
4.53942e-06 1.55296e-05 2.68786e+25 24.3399 0.0552624 272.169 
6.45075e-06 1.55296e-05 2.68841e+25 24.6771 -0.513175 272.178 
8.36208e-06 1.55296e-05 2.68722e+25 23.3916 -0.741209 272.28 
1.02734e-05 1.55296e-05 2.6855e+25 21.1229 -1.25435 272.743 
1.21847e-05 1.55296e-05 2.69142e+25 17.7822 -2.6701 272.825 
1.40961e-05 1.55296e-05 2.70006e+25 10.2689 -6.14658 272.967 
1.60074e-05 1.55296e-05 2.72289e+25 -0.82596 -14.9017 272.696 
7.1675e-07 1.60074e-05 2.6839e+25 26.9273 0.0839563 272.571 
2.62808e-06 1.60074e-05 2.68431e+25 27.3414 -0.128211 272.43 
4.53942e-06 1.60074e-05 2.68484e+25 27.1937 0.0627476 272.272 
6.45075e-06 1.60074e-05 2.68766e+25 27.3578 -0.195202 272.427 
8.36208e-06 1.60074e-05 2.68749e+25 26.3063 -0.323054 272.405 
1.02734e-05 1.60074e-05 2.68598e+25 24.6579 -0.696908 272.727 
1.21847e-05 1.60074e-05 2.69553e+25 21.8457 -1.57721 272.674 
1.40961e-05 1.60074e-05 2.70134e+25 15.4115 -3.81908 273 
1.60074e-05 1.60074e-05 2.72672e+25 1.84364 -12.503 273.083 
7.1675e-07 1.64852e-05 2.68074e+25 30.0093 0.0417239 272.716 
2.62808e-06 1.64852e-05 2.68359e+25 30.4092 -0.126495 272.489 
4.53942e-06 1.64852e-05 2.68442e+25 30.3268 0.140534 272.33 
6.45075e-06 1.64852e-05 2.68468e+25 30.1661 -0.0292228 272.569 
8.36208e-06 1.64852e-05 2.68639e+25 29.5135 -0.00655454 272.601 
1.02734e-05 1.64852e-05 2.68634e+25 28.4478 -0.395993 272.845 
1.21847e-05 1.64852e-05 2.69327e+25 26.4945 -0.482717 272.696 
1.40961e-05 1.64852e-05 2.70145e+25 21.9884 -1.72189 273.148 
1.60074e-05 1.64852e-05 2.72904e+25 7.66116 -7.9952 273.599 
7.1675e-07 1.69631e-05 2.67905e+25 32.8726 0.023967 272.837 
2.62808e-06 1.69631e-05 2.67959e+25 33.0729 -0.0186137 272.728 
4.53942e-06 1.69631e-05 2.68294e+25 32.9499 0.00163456 272.592 
6.45075e-06 1.69631e-05 2.6864e+25 32.7525 -0.0241731 272.772 
8.36208e-06 1.69631e-05 2.68271e+25 32.7071 0.00911008 272.963 
1.02734e-05 1.69631e-05 2.68645e+25 31.957 -0.157026 272.927 
1.21847e-05 1.69631e-05 2.69472e+25 31.3079 -0.0444417 272.817 
1.40961e-05 1.69631e-05 2.69637e+25 29.4636 -0.333166 273.371 
1.60074e-05 1.69631e-05 2.73273e+25 20.0037 -2.42339 273.621 
1.19458e-06 2.38917e-07 2.68823e+25 -8.08298 0.399522 271.867 
3.10592e-06 2.38917e-07 2.68904e+25 -8.20463 -1.89087 272.028 
5.01725e-06 2.38917e-07 2.68755e+25 -7.54243 -3.46666 272.127 
6.92858e-06 2.38917e-07 2.69101e+25 -7.0403 -5.33151 271.902 
8.83992e-06 2.38917e-07 2.68644e+25 -6.29949 -7.74016 272.213 
1.07512e-05 2.38917e-07 2.68926e+25 -4.87709 -8.42946 271.924 
1.26626e-05 2.38917e-07 2.68657e+25 -3.59655 -7.78332 272.303 
1.45739e-05 2.38917e-07 2.68878e+25 -1.47883 -5.4607 272.098 
1.64852e-05 2.38917e-07 2.68203e+25 -0.293057 -1.3581 272.706 
1.19458e-06 7.1675e-07 2.69209e+25 -7.72047 0.634883 271.821 
3.10592e-06 7.1675e-07 2.68823e+25 -8.15844 -1.78725 272.085 
5.01725e-06 7.1675e-07 2.68958e+25 -7.74808 -3.68185 272.021 
6.92858e-06 7.1675e-07 2.69183e+25 -6.87466 -5.43181 271.912 
8.83992e-06 7.1675e-07 2.69125e+25 -6.52132 -8.05906 272.158 
1.07512e-05 7.1675e-07 2.69172e+25 -5.3158 -8.73186 271.974 
1.26626e-05 7.1675e-07 2.68796e+25 -3.63874 -8.27622 272.352 
1.45739e-05 7.1675e-07 2.68972e+25 -1.61934 -5.88088 272.219 
1.64852e-05 7.1675e-07 2.68323e+25 -0.224579 -1.5708 272.791 
1.19458e-06 1.19458e-06 2.68826e+25 -7.33362 0.810413 272.006 
3.10592e-06 1.19458e-06 2.68842e+25 -8.12135 -1.64689 272.061 
5.01725e-06 1.19458e-06 2.68928e+25 -7.85331 -3.84603 272.009 
6.92858e-06 1.19458e-06 2.69138e+25 -7.0543 -5.48436 271.957 
8.83992e-06 1.19458e-06 2.69128e+25 -6.47041 -8.26542 271.998 
1.07512e-05 1.19458e-06 2.69133e+25 -5.4894 -9.07202 271.986 
1.26626e-05 1.19458e-06 2.68912e+25 -3.56934 -8.78352 272.381 
1.45739e-05 1.19458e-06 2.68895e+25 -1.58677 -6.43679 272.151 
1.64852e-05 1.19458e-06 2.68325e+25 -0.272172 -1.70704 272.91 
1.19458e-06 1.67242e-06 2.68926e+25 -7.00313 1.11635 272.012 
3.10592e-06 1.67242e-06 2.69249e+25 -7.89195 -1.56499 271.88 
5.01725e-06 1.67242e-06 2.68988e+25 -8.06051 -3.90991 271.989 
6.92858e-06 1.67242e-06 2.68797e+25 -7.50223 -5.63522 272.188 
8.83992e-06 1.67242e-06 2.68936e+25 -6.48058 -8.45322 272.059 
1.07512e-05 1.67242e-06 2.68915e+25 -5.77228 -9.40557 272.179 
1.26626e-05 1.67242e-06 2.69135e+25 -3.44455 -9.29974 272.218 
1.45739e-05 1.67242e-06 2.68667e+25 -1.79706 -6.82317 272.269 
1.64852e-05 1.67242e-06 2.68454e+25 -0.0576506 -1.98826 272.775 
1.19458e-06 2.15025e-06 2.68977e+25 -6.70851 1.44456 272.124 
3.10592e-06 2.15025e-06 2.68864e+25 -7.80796 -1.43634 271.959 
5.01725e-06 2.15025e-06 2.68896e+25 -8.19659 -3.954 271.994 
6.92858e-06 2.15025e-06 2.68668e+25 -7.5558 -5.86126 272.315 
8.83992e-06 2.15025e-06 2.69063e+25 -6.63073 -8.57976 272.232 
1.07512e-05 2.15025e-06 2.69144e+25 -5.8835 -9.76098 271.956 
1.26626e-05 2.15025e-06 2.69099e+25 -3.74033 -9.86113 272.157 
1.45739e-05 2.15025e-06 2.68989e+25 -1.85087 -7.38038 272.144 
1.64852e-05 2.15025e-06 2.68395e+25 -0.176806 -2.14485 272.704 
1.19458e-06 2.62808e-06 2.68896e+25 -6.57073 1.8039 271.914 
3.10592e-06 2.62808e-06 2.69011e+25 -7.68152 -1.20362 271.875 
5.01725e-06 2.62808e-06 2.69038e+25 -8.11836 -3.99935 272.029 
6.92858e-06 2.62808e-06 2.68633e+25 -7.71985 -6.05307 272.178 
8.83992e-06 2.62808e-06 2.69073e+25 -6.77808 -8.76389 272.132 
1.07512e-05 2.62808e-06 2.6914e+25 -6.04737 -10.2261 272.046 
1.26626e-05 2.62808e-06 2.6914e+25 -3.93795 -10.4946 272.045 
1.45739e-05 2.62808e-06 2.69045e+25 -1.78211 -7.81531 272.241 
1.64852e-05 2.62808e-06 2.68464e+25 -0.101534 -2.33221 272.653 
1.19458e-06 3.10592e-06 2.68775e+25 -6.41235 2.00392 271.965 
3.10592e-06 3.10592e-06 2.6898e+25 -7.36862 -1.15665 271.869 
5.01725e-06 3.10592e-06 2.69063e+25 -8.07984 -3.91893 271.854 
6.92858e-06 3.10592e-06 2.6886e+25 -7.78216 -6.2982 272.039 
8.83992e-06 3.10592e-06 2.68671e+25 -7.02567 -8.97192 272.344 
1.07512e-05 3.10592e-06 2.68979e+25 -6.29973 -10.5727 272.211 
1.26626e-05 3.10592e-06 2.69311e+25 -4.29161 -10.9618 271.977 
1.45739e-05 3.10592e-06 2.68861e+25 -1.82489 -8.326 272.155 
1.64852e-05 3.10592e-06 2.68521e+25 -0.128476 -2.53908 272.707 
1.19458e-06 3.58375e-06 2.68683e+25 -6.00992 2.08218 272.036 
3.10592e-06 3.58375e-06 2.68898e+25 -6.59729 -0.829953 271.848 
5.01725e-06 3.58375e-06 2.69072e+25 -7.84886 -3.79154 271.859 
6.92858e-06 3.58375e-06 2.68637e+25 -7.55163 -6.48446 272.206 
8.83992e-06 3.58375e-06 2.68691e+25 -7.29809 -9.09212 272.467 
1.07512e-05 3.58375e-06 2.68865e+25 -6.20115 -10.9694 272.17 
1.26626e-05 3.58375e-06 2.69037e+25 -4.41201 -11.5432 272.131 
1.45739e-05 3.58375e-06 2.69117e+25 -1.97337 -8.89396 272.013 
1.64852e-05 3.58375e-06 2.68438e+25 -0.161286 -2.7251 272.948 
1.19458e-06 4.06158e-06 2.68611e+25 -5.50709 2.11812 272.093 
3.10592e-06 4.06158e-06 2.68997e+25 -6.24579 -0.390931 271.8 
5.01725e-06 4.06158e-06 2.68975e+25 -7.49003 -3.64609 271.903 
6.92858e-06 4.06158e-06 2.68515e+25 -7.31267 -6.65769 272.29 
8.83992e-06 4.06158e-06 2.68754e+25 -7.3522 -9.01535 272.303 
1.07512e-05 4.06158e-06 2.69051e+25 -6.21022 -11.3034 272.12 
1.26626e-05 4.06158e-06 2.69138e+25 -4.34833 -12.0859 272.02 
1.45739e-05 4.06158e-06 2.69081e+25 -1.95144 -9.43604 272.063 
1.64852e-05 4.06158e-06 2.68628e+25 -0.201567 -3.07666 272.792 
1.19458e-06 4.53942e-06 2.68366e+25 -5.08961 2.38644 272.268 
3.10592e-06 4.53942e-06 2.68771e+25 -5.5965 -0.198525 272.124 
5.01725e-06 4.53942e-06 2.68543e+25 -6.78162 -3.64817 272.086 
6.92858e-06 4.53942e-06 2.68633e+25 -7.05742 -6.60714 272.288 
8.83992e-06 4.53942e-06 2.68511e+25 -7.16645 -9.02225 272.268 
1.07512e-05 4.53942e-06 2.69072e+25 -6.20001 -11.6008 272.095 
1.26626e-05 4.53942e-06 2.69365e+25 -4.70168 -12.5798 271.948 
1.45739e-05 4.53942e-06 2.68995e+25 -1.97528 -10.0856 272.148 
1.64852e-05 4.53942e-06 2.6832e+25 -0.187332 -3.29064 272.689 
1.19458e-06 5.01725e-06 2.68707e+25 -4.47831 2.61741 272.183 
3.10592e-06 5.01725e-06 2.68836e+25 -4.98944 -0.0374493 272.033 
5.01725e-06 5.01725e-06 2.6912e+25 -5.99994 -3.44869 271.891 
6.92858e-06 5.01725e-06 2.68539e+25 -6.65362 -6.47434 272.37 
8.83992e-06 5.01725e-06 2.68575e+25 -6.92581 -9.07992 272.516 
1.07512e-05 5.01725e-06 2.68743e+25 -6.08928 -11.8068 272.191 
1.26626e-05 5.01725e-06 2.68948e+25 -4.51693 -13.1971 271.996 
1.45739e-05 5.01725e-06 2.69043e+25 -1.83949 -10.6877 272.268 
1.64852e-05 5.01725e-06 2.68642e+25 -0.283036 -3.48453 272.548 
1.19458e-06 5.49508e-06 2.6872e+25 -4.11196 2.66432 272.103 
3.10592e-06 5.49508e-06 2.68786e+25 -4.5863 0.216709 271.976 
5.01725e-06 5.49508e-06 2.68813e+25 -5.34256 -3.02176 272.116 
6.92858e-06 5.49508e-06 2.68667e+25 -6.3825 -6.35876 272.221 
8.83992e-06 5.49508e-06 2.68279e+25 -6.69757 -9.12603 272.514 
1.07512e-05 5.49508e-06 2.6877e+25 -5.7852 -11.9603 272.324 
1.26626e-05 5.49508e-06 2.69199e+25 -4.29042 -13.6812 272.099 
1.45739e-05 5.49508e-06 2.69157e+25 -2.09994 -11.2436 272.176 
1.64852e-05 5.49508e-06 2.68801e+25 -0.252053 -3.75353 272.295 
1.19458e-06 5.97292e-06 2.6838e+25 -3.43897 2.65643 272.237 
3.10592e-06 5.97292e-06 2.68681e+25 -3.82087 0.277977 272.013 
5.01725e-06 5.97292e-06 2.6879e+25 -4.54399 -2.66702 271.949 
6.92858e-06 5.97292e-06 2.68883e+25 -5.88894 -6.22913 272.197 
8.83992e-06 5.97292e-06 2.68779e+25 -6.05979 -9.08608 272.157 
1.07512e-05 5.97292e-06 2.68986e+25 -5.62548 -12.1827 272.247 
1.26626e-05 5.97292e-06 2.68959e+25 -4.03553 -14.0679 272.141 
1.45739e-05 5.97292e-06 2.69309e+25 -2.1172 -11.7278 271.952 
1.64852e-05 5.97292e-06 2.68792e+25 -0.265119 -4.07913 272.387 
1.19458e-06 6.45075e-06 2.68523e+25 -2.70325 2.85271 272.135 
3.10592e-06 6.45075e-06 2.68544e+25 -3.11053 0.455761 272.189 
5.01725e-06 6.45075e-06 2.68744e+25 -3.73301 -2.45652 271.934 
6.92858e-06 6.45075e-06 2.6851e+25 -5.20171 -6.06413 272.15 
8.83992e-06 6.45075e-06 2.6872e+25 -5.78703 -9.02178 272.098 
1.07512e-05 6.45075e-06 2.68696e+25 -5.57436 -12.3967 272.335 
1.26626e-05 6.45075e-06 2.69162e+25 -4.29776 -14.4996 271.971 
1.45739e-05 6.45075e-06 2.69252e+25 -2.03907 -12.2522 272.106 
1.64852e-05 6.45075e-06 2.68888e+25 -0.277924 -4.4956 272.501 
1.19458e-06 6.92858e-06 2.68747e+25 -2.02537 2.98206 272.062 
3.10592e-06 6.92858e-06 2.68405e+25 -2.52945 0.679772 272.136 
5.01725e-06 6.92858e-06 2.68782e+25 -3.14074 -2.24792 272.082 
6.92858e-06 6.92858e-06 2.68674e+25 -4.50013 -5.76329 272.131 
8.83992e-06 6.92858e-06 2.6859e+25 -5.26393 -9.06094 272.308 
1.07512e-05 6.92858e-06 2.68554e+25 -5.21242 -12.5582 272.325 
1.26626e-05 6.92858e-06 2.69298e+25 -4.55823 -15.0429 272.026 
1.45739e-05 6.92858e-06 2.68941e+25 -2.02551 -12.862 272.345 
1.64852e-05 6.92858e-06 2.68738e+25 -0.271006 -4.76882 272.532 
1.19458e-06 7.40642e-06 2.68914e+25 -1.30799 2.91557 271.785 
3.10592e-06 7.40642e-06 2.68407e+25 -1.99282 1.02634 272.148 
5.01725e-06 7.40642e-06 2.68623e+25 -2.22477 -2.24018 272.124 
6.92858e-06 7.40642e-06 2.68737e+25 -3.62081 -5.34001 272.034 
8.83992e-06 7.40642e-06 2.68772e+25 -4.23447 -8.95399 272.2 
1.07512e-05 7.40642e-06 2.68635e+25 -5.1558 -12.7689 272.53 
1.26626e-05 7.40642e-06 2.69229e+25 -4.70078 -15.6101 272.018 
1.45739e-05 7.40642e-06 2.689e+25 -2.3572 -13.5572 272.368 
1.64852e-05 7.40642e-06 2.68823e+25 -0.256903 -4.92057 272.504 
1.19458e-06 7.88425e-06 2.68862e+25 -0.679096 2.72347 271.838 
3.10592e-06 7.88425e-06 2.68486e+25 -0.948357 1.07432 272.218 
5.01725e-06 7.88425e-06 2.68633e+25 -1.43473 -2.1427 272.102 
6.92858e-06 7.88425e-06 2.6828e+25 -2.39513 -5.01147 272.284 
8.83992e-06 7.88425e-06 2.69065e+25 -3.37206 -8.75118 271.918 
1.07512e-05 7.88425e-06 2.68887e+25 -4.56872 -12.7781 272.206 
1.26626e-05 7.88425e-06 2.68914e+25 -4.3804 -16.069 272.485 
1.45739e-05 7.88425e-06 2.69135e+25 -2.30286 -14.3649 272.22 
1.64852e-05 7.88425e-06 2.69012e+25 -0.148466 -5.14834 272.423 
1.19458e-06 8.36208e-06 2.68944e+25 0.0277702 2.56499 271.714 
3.10592e-06 8.36208e-06 2.68647e+25 0.0652149 1.06384 272.068 
5.01725e-06 8.36208e-06 2.68496e+25 -0.453847 -1.87859 272.232 
6.92858e-06 8.36208e-06 2.68396e+25 -1.49766 -4.73371 272.282 
8.83992e-06 8.36208e-06 2.68666e+25 -2.75888 -8.47186 272.091 
1.07512e-05 8.36208e-06 2.68937e+25 -4.05071 -12.5576 272.062 
1.26626e-05 8.36208e-06 2.69007e+25 -4.24478 -16.1986 272.217 
1.45739e-05 8.36208e-06 2.69129e+25 -2.64765 -15.0811 272.302 
1.64852e-05 8.36208e-06 2.68631e+25 -0.172924 -5.51965 272.651 
1.19458e-06 8.83992e-06 2.68639e+25 0.724458 2.58403 271.964 
3.10592e-06 8.83992e-06 2.68548e+25 1.10231 0.975213 272.013 
5.01725e-06 8.83992e-06 2.68549e+25 0.484545 -1.61766 272.277 
6.92858e-06 8.83992e-06 2.68306e+25 -0.49319 -4.36357 272.278 
8.83992e-06 8.83992e-06 2.6879e+25 -2.16009 -8.06806 272.13 
1.07512e-05 8.83992e-06 2.68851e+25 -3.35217 -12.3877 272.243 
1.26626e-05 8.83992e-06 2.69052e+25 -4.05208 -16.0768 272.143 
1.45739e-05 8.83992e-06 2.68939e+25 -2.87545 -15.7571 272.465 
1.64852e-05 8.83992e-06 2.68961e+25 -0.410272 -5.91522 272.507 
1.19458e-06 9.31775e-06 2.68918e+25 1.50802 2.57178 271.796 
3.10592e-06 9.31775e-06 2.68449e+25 1.75875 0.985105 272.118 
5.01725e-06 9.31775e-06 2.68715e+25 1.73164 -1.3467 272.222 
6.92858e-06 9.31775e-06 2.68247e+25 0.51658 -4.03349 272.422 
8.83992e-06 9.31775e-06 2.68553e+25 -1.13437 -7.63633 272.184 
1.07512e-05 9.31775e-06 2.68958e+25 -2.53248 -12.0438 272.216 
1.26626e-05 9.31775e-06 2.69075e+25 -3.67291 -16.02 272.335 
1.45739e-05 9.31775e-06 2.69057e+25 -3.08872 -16.3257 272.458 
1.64852e-05 9.31775e-06 2.6872e+25 -0.603921 -6.44959 272.742 
1.19458e-06 9.79558e-06 2.68948e+25 2.6423 2.63484 271.64 
3.10592e-06 9.79558e-06 2.68446e+25 3.08816 0.981628 272.179 
5.01725e-06 9.79558e-06 2.6874e+25 2.67875 -1.00081 272.037 
6.92858e-06 9.79558e-06 2.68427e+25 1.69461 -3.84813 272.216 
8.83992e-06 9.79558e-06 2.68731e+25 0.263933 -6.9997 272.239 
1.07512e-05 9.79558e-06 2.69214e+25 -1.58611 -11.6934 272.038 
1.26626e-05 9.79558e-06 2.68947e+25 -3.21653 -15.8414 272.483 
1.45739e-05 9.79558e-06 2.68931e+25 -2.88073 -16.7804 272.621 
1.64852e-05 9.79558e-06 2.6907e+25 -0.410962 -6.78066 272.595 
1.19458e-06 1.02734e-05 2.68836e+25 3.80707 2.52179 271.849 
3.10592e-06 1.02734e-05 2.68566e+25 4.20762 1.10559 272.004 
5.01725e-06 1.02734e-05 2.68534e+25 3.86439 -0.796363 272.14 
6.92858e-06 1.02734e-05 2.68532e+25 2.90167 -3.65559 272.305 
8.83992e-06 1.02734e-05 2.68502e+25 1.47849 -6.64319 272.252 
1.07512e-05 1.02734e-05 2.68855e+25 -0.571373 -11.0792 272.214 
1.26626e-05 1.02734e-05 2.69034e+25 -2.6443 -15.5693 272.444 
1.45739e-05 1.02734e-05 2.6912e+25 -2.37711 -17.1327 272.578 
1.64852e-05 1.02734e-05 2.69045e+25 -0.179499 -7.12968 272.71 
1.19458e-06 1.07512e-05 2.69053e+25 4.8548 2.30407 271.632 
3.10592e-06 1.07512e-05 2.68766e+25 5.37938 1.03933 271.993 
5.01725e-06 1.07512e-05 2.68436e+25 4.98548 -0.711066 272.059 
6.92858e-06 1.07512e-05 2.68505e+25 4.27936 -3.39951 272.263 
8.83992e-06 1.07512e-05 2.68557e+25 2.78388 -6.2566 272.263 
1.07512e-05 1.07512e-05 2.69063e+25 0.275212 -10.4043 272.298 
1.26626e-05 1.07512e-05 2.69027e+25 -2.02758 -15.2266 272.277 
1.45739e-05 1.07512e-05 2.69236e+25 -2.31523 -17.5852 272.486 
1.64852e-05 1.07512e-05 2.69271e+25 -0.455712 -7.43741 272.511 
1.19458e-06 1.12291e-05 2.68987e+25 5.92044 1.92322 271.665 
3.10592e-06 1.12291e-05 2.68481e+25 6.72059 0.921097 272.079 
5.01725e-06 1.12291e-05 2.68606e+25 6.34281 -0.578633 272.117 
6.92858e-06 1.12291e-05 2.68667e+25 5.70346 -3.04295 272.195 
8.83992e-06 1.12291e-05 2.68603e+25 4.15597 -5.90103 272.349 
1.07512e-05 1.12291e-05 2.68984e+25 1.26872 -9.64294 272.313 
1.26626e-05 1.12291e-05 2.69347e+25 -1.21651 -14.7487 272.347 
1.45739e-05 1.12291e-05 2.69382e+25 -2.38137 -17.8537 272.514 
1.64852e-05 1.12291e-05 2.69261e+25 -0.295678 -7.83777 272.795 
1.19458e-06 1.17069e-05 2.68783e+25 7.44676 1.72169 271.797 
3.10592e-06 1.17069e-05 2.68637e+25 8.09066 0.765001 272.041 
5.01725e-06 1.17069e-05 2.68818e+25 7.88657 -0.484753 271.991 
6.92858e-06 1.17069e-05 2.68967e+25 7.2081 -2.6234 272.021 
8.83992e-06 1.17069e-05 2.68798e+25 5.47972 -5.36528 272.421 
1.07512e-05 1.17069e-05 2.69173e+25 2.38834 -8.73205 272.182 
1.26626e-05 1.17069e-05 2.69309e+25 -0.756656 -14.0592 272.338 
1.45739e-05 1.17069e-05 2.69531e+25 -2.33253 -17.9332 272.497 
1.64852e-05 1.17069e-05 2.69144e+25 -0.433964 -8.35749 272.939 
1.19458e-06 1.21847e-05 2.68766e+25 8.9185 1.70522 271.956 
3.10592e-06 1.21847e-05 2.68454e+25 9.55874 0.583156 272.092 
5.01725e-06 1.21847e-05 2.68606e+25 9.34949 -0.434212 272.075 
6.92858e-06 1.21847e-05 2.68949e+25 8.5865 -2.29443 271.94 
8.83992e-06 1.21847e-05 2.68731e+25 7.07978 -4.83592 272.317 
1.07512e-05 1.21847e-05 2.69377e+25 3.93635 -7.68893 272.115 
1.26626e-05 1.21847e-05 2.69097e+25 0.0259863 -13.2272 272.409 
1.45739e-05 1.21847e-05 2.69645e+25 -2.12859 -17.8477 272.377 
1.64852e-05 1.21847e-05 2.69442e+25 -0.38936 -8.87116 272.717 
1.19458e-06 1.26626e-05 2.68785e+25 10.6974 1.54919 271.939 
3.10592e-06 1.26626e-05 2.68661e+25 11.1903 0.496387 272.216 
5.01725e-06 1.26626e-05 2.68657e+25 11.4712 -0.488786 272.052 
6.92858e-06 1.26626e-05 2.6884e+25 10.4431 -1.98106 272.016 
8.83992e-06 1.26626e-05 2.68977e+25 8.97803 -4.22203 272.166 
1.07512e-05 1.26626e-05 2.69367e+25 5.76464 -6.78462 272.092 
1.26626e-05 1.26626e-05 2.6935e+25 1.47004 -12.316 272.516 
1.45739e-05 1.26626e-05 2.69823e+25 -1.92174 -17.6367 272.5 
1.64852e-05 1.26626e-05 2.7008e+25 -0.761723 -9.3784 272.366 
1.19458e-06 1.31404e-05 2.68544e+25 12.5756 1.38479 272.108 
3.10592e-06 1.31404e-05 2.68603e+25 13.0744 0.424188 272.179 
5.01725e-06 1.31404e-05 2.6845e+25 13.4261 -0.396783 272.318 
6.92858e-06 1.31404e-05 2.68606e+25 12.5679 -1.66315 272.158 
8.83992e-06 1.31404e-05 2.68956e+25 10.7227 -3.62294 272.194 
1.07512e-05 1.31404e-05 2.69385e+25 7.68671 -5.94287 272.095 
1.26626e-05 1.31404e-05 2.69086e+25 3.14964 -11.1176 272.822 
1.45739e-05 1.31404e-05 2.69832e+25 -1.56022 -17.2686 272.636 
1.64852e-05 1.31404e-05 2.70044e+25 -0.677138 -10.0443 272.563 
1.19458e-06 1.36182e-05 2.68558e+25 14.5795 1.32141 272.156 
3.10592e-06 1.36182e-05 2.68693e+25 15.0912 0.104892 272.13 
5.01725e-06 1.36182e-05 2.68499e+25 15.5154 -0.234557 272.378 
6.92858e-06 1.36182e-05 2.68427e+25 14.6362 -1.2816 272.3 
8.83992e-06 1.36182e-05 2.68764e+25 12.7989 -3.06568 272.262 
1.07512e-05 1.36182e-05 2.69318e+25 9.9207 -5.11868 272.158 
1.26626e-05 1.36182e-05 2.69014e+25 4.89235 -9.65045 273.007 
1.45739e-05 1.36182e-05 2.70077e+25 -1.07933 -16.4582 272.592 
1.64852e-05 1.36182e-05 2.70018e+25 -0.930292 -10.8632 272.718 
1.19458e-06 1.40961e-05 2.68405e+25 16.6342 1.03679 272.256 
3.10592e-06 1.40961e-05 2.68884e+25 17.2114 0.0247198 271.863 
5.01725e-06 1.40961e-05 2.6866e+25 17.5774 -0.0307517 272.266 
6.92858e-06 1.40961e-05 2.68607e+25 16.7476 -0.989028 272.342 
8.83992e-06 1.40961e-05 2.68858e+25 14.9998 -2.67604 272.214 
1.07512e-05 1.40961e-05 2.69193e+25 12.336 -4.19248 272.269 
1.26626e-05 1.40961e-05 2.69138e+25 7.02436 -8.12561 272.845 
1.45739e-05 1.40961e-05 2.70236e+25 0.0961415 -15.2081 272.689 
1.64852e-05 1.40961e-05 2.70864e+25 -0.999454 -11.8009 272.52 
1.19458e-06 1.45739e-05 2.68142e+25 19.0231 0.710661 272.371 
3.10592e-06 1.45739e-05 2.68617e+25 19.5243 -0.0340478 272.029 
5.01725e-06 1.45739e-05 2.68468e+25 19.7418 0.141834 272.261 
6.92858e-06 1.45739e-05 2.68632e+25 19.0471 -0.865365 272.172 
8.83992e-06 1.45739e-05 2.69122e+25 17.4558 -2.12619 272.235 
1.07512e-05 1.45739e-05 2.69014e+25 14.7761 -3.19012 272.526 
1.26626e-05 1.45739e-05 2.69001e+25 9.56773 -6.62421 272.94 
1.45739e-05 1.45739e-05 2.70435e+25 1.50344 -13.38 272.528 
1.64852e-05 1.45739e-05 2.71309e+25 -1.2147 -12.5367 272.717 
1.19458e-06 1.50518e-05 2.68224e+25 21.6386 0.50804 272.423 
3.10592e-06 1.50518e-05 2.68715e+25 21.8903 -0.19284 272.112 
5.01725e-06 1.50518e-05 2.68283e+25 21.9316 0.102016 272.329 
6.92858e-06 1.50518e-05 2.68858e+25 21.6113 -0.76373 271.97 
8.83992e-06 1.50518e-05 2.68672e+25 20.1655 -1.54555 272.459 
1.07512e-05 1.50518e-05 2.68869e+25 17.4678 -2.05864 272.605 
1.26626e-05 1.50518e-05 2.6934e+25 12.5851 -4.98964 273.052 
1.45739e-05 1.50518e-05 2.70772e+25 4.00497 -11.0973 272.598 
1.64852e-05 1.50518e-05 2.72191e+25 -1.49985 -13.2946 272.468 
1.19458e-06 1.55296e-05 2.68197e+25 24.3977 0.377973 272.511 
3.10592e-06 1.55296e-05 2.68386e+25 24.6528 -0.221875 272.358 
5.01725e-06 1.55296e-05 2.68519e+25 24.4357 0.111499 272.3 
6.92858e-06 1.55296e-05 2.68969e+25 24.3805 -0.496004 272.139 
8.83992e-06 1.55296e-05 2.68892e+25 22.834 -1.11099 272.383 
1.07512e-05 1.55296e-05 2.68922e+25 20.477 -1.2162 272.69 
1.26626e-05 1.55296e-05 2.69574e+25 16.4192 -3.26552 272.77 
1.45739e-05 1.55296e-05 2.70399e+25 7.5234 -8.34271 272.987 
1.64852e-05 1.55296e-05 2.72833e+25 -1.41175 -13.864 272.775 
1.19458e-06 1.60074e-05 2.68224e+25 27.1031 0.244073 272.562 
3.10592e-06 1.60074e-05 2.68522e+25 27.4494 -0.288352 272.24 
5.01725e-06 1.60074e-05 2.68351e+25 27.2999 0.0162292 272.558 
6.92858e-06 1.60074e-05 2.68514e+25 27.1766 -0.285406 272.493 
8.83992e-06 1.60074e-05 2.68755e+25 25.9295 -0.664343 272.523 
1.07512e-05 1.60074e-05 2.68802e+25 24.1551 -0.618841 272.811 
1.26626e-05 1.60074e-05 2.69533e+25 20.5436 -1.67399 272.773 
1.45739e-05 1.60074e-05 2.70441e+25 12.74 -5.24912 273.158 
1.64852e-05 1.60074e-05 2.73532e+25 -0.606702 -13.4423 273.014 
1.19458e-06 1.64852e-05 2.67962e+25 30.0881 0.149331 272.725 
3.10592e-06 1.64852e-05 2.68207e+25 30.2664 -0.292088 272.467 
5.01725e-06 1.64852e-05 2.68431e+25 30.2719 -0.094911 272.579 
6.92858e-06 1.64852e-05 2.6818e+25 29.9956 -0.0300915 272.728 
8.83992e-06 1.64852e-05 2.68598e+25 29.2066 -0.326158 272.721 
1.07512e-05 1.64852e-05 2.68652e+25 28.0912 -0.0816805 272.996 
1.26626e-05 1.64852e-05 2.69346e+25 25.6868 -0.604943 272.923 
1.45739e-05 1.64852e-05 2.70279e+25 19.852 -2.46222 273.403 
1.64852e-05 1.64852e-05 2.74663e+25 2.32864 -10.6466 273.507 
1.19458e-06 1.69631e-05 2.67989e+25 32.8633 -0.00984012 272.959 
3.10592e-06 1.69631e-05 2.68047e+25 32.9199 -0.110219 272.569 
5.01725e-06 1.69631e-05 2.68102e+25 33.0638 -0.00105051 272.827 
6.92858e-06 1.69631e-05 2.68365e+25 32.8726 0.0710922 272.666 
8.83992e-06 1.69631e-05 2.68552e+25 32.6312 -0.129009 272.907 
1.07512e-05 1.69631e-05 2.68526e+25 31.8585 0.0956474 272.964 
1.26626e-05 1.69631e-05 2.69328e+25 31.1204 -0.108903 272.922 
1.45739e-05 1.69631e-05 2.70194e+25 28.3161 -0.568998 273.323 
1.64852e-05 1.69631e-05 2.7665e+25 13.2839 -3.61965 273.966 
