ITEM: TIMESTEP
780000
ITEM: NUMBER OF CELLS
5184
ITEM: BOX BOUNDS ss ss pp
-1.7202e-05 1.7202e-05
-1.7202e-05 1.7202e-05
-0.5 0.5
ITEM: CELLS xc yc f_1[1] f_1[2] f_1[3] f_1[4] 
-1.69631e-05 -1.69631e-05 2.68342e+25 0.0381658 -0.0427407 272.974 
-1.50517e-05 -1.69631e-05 2.68396e+25 0.00516799 -0.0103514 272.81 
-1.31404e-05 -1.69631e-05 2.68361e+25 -0.00584245 0.03064 272.888 
-1.12291e-05 -1.69631e-05 2.68394e+25 -0.0430203 0.0430994 272.793 
-9.31775e-06 -1.69631e-05 2.68455e+25 -0.0939999 0.000710883 272.781 
-7.40642e-06 -1.69631e-05 2.68527e+25 -0.0408012 -0.01702 272.808 
-5.49508e-06 -1.69631e-05 2.6846e+25 -0.168766 -0.00755716 272.825 
-3.58375e-06 -1.69631e-05 2.68477e+25 -0.134723 0.0348991 272.863 
-1.67242e-06 -1.69631e-05 2.68465e+25 -0.223399 -0.00767111 272.821 
-1.69631e-05 -1.64852e-05 2.68399e+25 -0.0057844 -0.0598372 272.838 
-1.50517e-05 -1.64852e-05 2.68744e+25 0.0404294 0.0310022 272.492 
-1.31404e-05 -1.64852e-05 2.68657e+25 0.0244398 0.0581985 272.496 
-1.12291e-05 -1.64852e-05 2.68635e+25 -0.0480248 0.0287775 272.517 
-9.31775e-06 -1.64852e-05 2.68765e+25 -0.252987 -0.00822704 272.49 
-7.40642e-06 -1.64852e-05 2.68822e+25 -0.172891 -0.0617407 272.383 
-5.49508e-06 -1.64852e-05 2.68741e+25 -0.388799 0.0235878 272.439 
-3.58375e-06 -1.64852e-05 2.68676e+25 -0.412943 0.0826415 272.591 
-1.67242e-06 -1.64852e-05 2.68632e+25 -0.471308 -0.0491766 272.673 
-1.69631e-05 -1.60074e-05 2.68507e+25 -0.0167175 -0.0507693 272.752 
-1.50517e-05 -1.60074e-05 2.68841e+25 0.0937652 0.0989472 272.467 
-1.31404e-05 -1.60074e-05 2.69036e+25 -0.028909 0.0400083 272.207 
-1.12291e-05 -1.60074e-05 2.68963e+25 0.0844267 0.012761 272.284 
-9.31775e-06 -1.60074e-05 2.68818e+25 -0.346948 -0.0165042 272.355 
-7.40642e-06 -1.60074e-05 2.68975e+25 -0.383958 -0.0421873 272.2 
-5.49508e-06 -1.60074e-05 2.68998e+25 -0.639996 0.0468671 272.181 
-3.58375e-06 -1.60074e-05 2.6884e+25 -0.737479 0.104456 272.384 
-1.67242e-06 -1.60074e-05 2.68838e+25 -0.775339 -0.048125 272.455 
-1.69631e-05 -1.55296e-05 2.68422e+25 -0.015395 -0.0136123 272.824 
-1.50517e-05 -1.55296e-05 2.69015e+25 -0.0181985 0.131316 272.278 
-1.31404e-05 -1.55296e-05 2.69021e+25 -0.0204282 0.00572569 272.186 
-1.12291e-05 -1.55296e-05 2.68874e+25 -0.0865078 0.0549504 272.308 
-9.31775e-06 -1.55296e-05 2.68917e+25 -0.312142 0.0314928 272.277 
-7.40642e-06 -1.55296e-05 2.69047e+25 -0.5153 0.0197548 272.177 
-5.49508e-06 -1.55296e-05 2.69005e+25 -0.897812 0.0946996 272.093 
-3.58375e-06 -1.55296e-05 2.68979e+25 -0.997331 0.144333 272.194 
-1.67242e-06 -1.55296e-05 2.6886e+25 -1.04948 -0.00132126 272.368 
-1.69631e-05 -1.50517e-05 2.68513e+25 0.00922149 -0.0261213 272.811 
-1.50517e-05 -1.50517e-05 2.69093e+25 0.0825632 0.120599 272.173 
-1.31404e-05 -1.50517e-05 2.69139e+25 0.0587428 0.00916887 272.118 
-1.12291e-05 -1.50517e-05 2.69012e+25 -0.216076 0.0671497 272.147 
-9.31775e-06 -1.50517e-05 2.69044e+25 -0.352389 0.146223 272.169 
-7.40642e-06 -1.50517e-05 2.69052e+25 -0.754966 0.144911 272.102 
-5.49508e-06 -1.50517e-05 2.69159e+25 -1.09665 0.171452 272.057 
-3.58375e-06 -1.50517e-05 2.69165e+25 -1.17516 0.104541 272.011 
-1.67242e-06 -1.50517e-05 2.68927e+25 -1.46883 0.046279 272.272 
-1.69631e-05 -1.45739e-05 2.68607e+25 0.00865003 -0.0427025 272.708 
-1.50517e-05 -1.45739e-05 2.69059e+25 0.0529788 0.106157 272.127 
-1.31404e-05 -1.45739e-05 2.69241e+25 -0.0707221 0.0818892 271.935 
-1.12291e-05 -1.45739e-05 2.68983e+25 -0.305601 0.126451 272.156 
-9.31775e-06 -1.45739e-05 2.69146e+25 -0.454221 0.300621 272.085 
-7.40642e-06 -1.45739e-05 2.69044e+25 -0.973149 0.230835 272.158 
-5.49508e-06 -1.45739e-05 2.69219e+25 -1.37865 0.318528 271.967 
-3.58375e-06 -1.45739e-05 2.69261e+25 -1.52005 0.0521654 271.993 
-1.67242e-06 -1.45739e-05 2.69005e+25 -1.72893 0.0839054 272.177 
-1.69631e-05 -1.40961e-05 2.68521e+25 0.0255447 -0.0637541 272.766 
-1.50517e-05 -1.40961e-05 2.6912e+25 -0.100055 0.111553 272.128 
-1.31404e-05 -1.40961e-05 2.69279e+25 -0.313991 0.158506 271.938 
-1.12291e-05 -1.40961e-05 2.69053e+25 -0.373894 0.232443 272.113 
-9.31775e-06 -1.40961e-05 2.69018e+25 -0.584831 0.418644 272.072 
-7.40642e-06 -1.40961e-05 2.68989e+25 -1.08588 0.288695 272.197 
-5.49508e-06 -1.40961e-05 2.69227e+25 -1.47576 0.432953 271.87 
-3.58375e-06 -1.40961e-05 2.69143e+25 -1.84362 0.0358611 272.058 
-1.67242e-06 -1.40961e-05 2.69059e+25 -1.84244 0.0732032 272.156 
-1.69631e-05 -1.36182e-05 2.68467e+25 -0.00224921 -0.0836081 272.773 
-1.50517e-05 -1.36182e-05 2.69025e+25 -0.188651 0.127332 272.234 
-1.31404e-05 -1.36182e-05 2.693e+25 -0.441444 0.17108 271.971 
-1.12291e-05 -1.36182e-05 2.69189e+25 -0.562826 0.320507 271.992 
-9.31775e-06 -1.36182e-05 2.69225e+25 -0.819779 0.438887 271.929 
-7.40642e-06 -1.36182e-05 2.69271e+25 -1.32269 0.399767 271.946 
-5.49508e-06 -1.36182e-05 2.69193e+25 -1.53409 0.537567 271.981 
-3.58375e-06 -1.36182e-05 2.69237e+25 -2.01957 0.0610957 271.974 
-1.67242e-06 -1.36182e-05 2.69066e+25 -1.94795 0.0689794 272.133 
-1.69631e-05 -1.31404e-05 2.6846e+25 -0.0103875 -0.0564913 272.809 
-1.50517e-05 -1.31404e-05 2.69084e+25 -0.184485 0.203485 272.114 
-1.31404e-05 -1.31404e-05 2.69216e+25 -0.336575 0.20193 271.997 
-1.12291e-05 -1.31404e-05 2.6915e+25 -0.670564 0.368242 271.943 
-9.31775e-06 -1.31404e-05 2.69331e+25 -1.03097 0.439578 271.912 
-7.40642e-06 -1.31404e-05 2.69329e+25 -1.52431 0.550853 271.915 
-5.49508e-06 -1.31404e-05 2.69232e+25 -1.666 0.56918 271.905 
-3.58375e-06 -1.31404e-05 2.69209e+25 -2.0745 0.140753 272.002 
-1.67242e-06 -1.31404e-05 2.69099e+25 -2.19893 0.180409 272.065 
-1.69631e-05 -1.26626e-05 2.68362e+25 -0.00489724 -0.0385977 272.826 
-1.50517e-05 -1.26626e-05 2.69019e+25 -0.132713 0.215976 272.127 
-1.31404e-05 -1.26626e-05 2.69133e+25 -0.324968 0.260417 272.061 
-1.12291e-05 -1.26626e-05 2.69202e+25 -0.749225 0.497913 271.972 
-9.31775e-06 -1.26626e-05 2.69239e+25 -1.1812 0.543722 271.951 
-7.40642e-06 -1.26626e-05 2.69212e+25 -1.69192 0.652971 271.926 
-5.49508e-06 -1.26626e-05 2.69153e+25 -1.86833 0.599798 271.992 
-3.58375e-06 -1.26626e-05 2.69296e+25 -2.19496 0.285446 271.87 
-1.67242e-06 -1.26626e-05 2.69143e+25 -2.42827 0.256608 272.079 
-1.69631e-05 -1.21847e-05 2.68514e+25 0.0105801 -0.0400473 272.793 
-1.50517e-05 -1.21847e-05 2.69194e+25 -0.0706062 0.227244 271.976 
-1.31404e-05 -1.21847e-05 2.69148e+25 -0.38735 0.343566 271.978 
-1.12291e-05 -1.21847e-05 2.69228e+25 -0.841272 0.605312 271.977 
-9.31775e-06 -1.21847e-05 2.69281e+25 -1.43544 0.659891 271.909 
-7.40642e-06 -1.21847e-05 2.69291e+25 -1.81333 0.745846 271.902 
-5.49508e-06 -1.21847e-05 2.6931e+25 -2.07633 0.606791 271.967 
-3.58375e-06 -1.21847e-05 2.69436e+25 -2.26961 0.417603 271.882 
-1.67242e-06 -1.21847e-05 2.6914e+25 -2.5196 0.229719 272.018 
-1.69631e-05 -1.17069e-05 2.68461e+25 0.028205 -0.0730635 272.819 
-1.50517e-05 -1.17069e-05 2.69242e+25 -0.186902 0.364403 271.925 
-1.31404e-05 -1.17069e-05 2.69351e+25 -0.487519 0.413835 271.926 
-1.12291e-05 -1.17069e-05 2.692e+25 -0.981431 0.738493 272.025 
-9.31775e-06 -1.17069e-05 2.69346e+25 -1.58481 0.748706 271.847 
-7.40642e-06 -1.17069e-05 2.69156e+25 -1.97418 0.821957 271.99 
-5.49508e-06 -1.17069e-05 2.6922e+25 -2.22193 0.596635 271.999 
-3.58375e-06 -1.17069e-05 2.69356e+25 -2.52472 0.488515 271.917 
-1.67242e-06 -1.17069e-05 2.6926e+25 -2.75188 0.233525 271.925 
-1.69631e-05 -1.12291e-05 2.68566e+25 -0.0179015 -0.0595819 272.728 
-1.50517e-05 -1.12291e-05 2.69209e+25 -0.246607 0.453672 272.036 
-1.31404e-05 -1.12291e-05 2.69301e+25 -0.616995 0.503785 271.87 
-1.12291e-05 -1.12291e-05 2.69216e+25 -1.01929 0.837209 271.971 
-9.31775e-06 -1.12291e-05 2.69189e+25 -1.63685 0.927101 271.988 
-7.40642e-06 -1.12291e-05 2.69227e+25 -2.08347 0.925682 272.053 
-5.49508e-06 -1.12291e-05 2.69259e+25 -2.43243 0.691494 271.96 
-3.58375e-06 -1.12291e-05 2.6919e+25 -2.70818 0.496833 272.085 
-1.67242e-06 -1.12291e-05 2.69212e+25 -2.97819 0.248297 271.968 
-1.69631e-05 -1.07512e-05 2.68476e+25 0.0247197 -0.0831533 272.743 
-1.50517e-05 -1.07512e-05 2.69197e+25 -0.254523 0.467379 271.973 
-1.31404e-05 -1.07512e-05 2.69329e+25 -0.575573 0.585945 271.889 
-1.12291e-05 -1.07512e-05 2.6921e+25 -1.12474 0.953171 271.953 
-9.31775e-06 -1.07512e-05 2.69164e+25 -1.6857 1.22425 271.961 
-7.40642e-06 -1.07512e-05 2.69169e+25 -2.34449 0.968738 272.018 
-5.49508e-06 -1.07512e-05 2.69295e+25 -2.54978 0.869079 271.913 
-3.58375e-06 -1.07512e-05 2.69266e+25 -2.96424 0.55653 272.015 
-1.67242e-06 -1.07512e-05 2.69203e+25 -3.33556 0.335463 272.022 
-1.69631e-05 -1.02734e-05 2.6846e+25 -0.0471176 -0.0371925 272.772 
-1.50517e-05 -1.02734e-05 2.69268e+25 -0.116667 0.490672 271.971 
-1.31404e-05 -1.02734e-05 2.69204e+25 -0.62161 0.669648 271.975 
-1.12291e-05 -1.02734e-05 2.692e+25 -1.15962 1.11351 272.028 
-9.31775e-06 -1.02734e-05 2.69111e+25 -1.86683 1.43083 272.061 
-7.40642e-06 -1.02734e-05 2.69124e+25 -2.45561 1.00937 272.015 
-5.49508e-06 -1.02734e-05 2.69284e+25 -2.73892 0.973918 271.962 
-3.58375e-06 -1.02734e-05 2.6928e+25 -3.19995 0.723726 271.863 
-1.67242e-06 -1.02734e-05 2.69174e+25 -3.7066 0.439137 272.017 
-1.69631e-05 -9.79558e-06 2.68542e+25 -0.0243065 0.0511886 272.741 
-1.50517e-05 -9.79558e-06 2.69213e+25 -0.106947 0.608585 271.997 
-1.31404e-05 -9.79558e-06 2.69393e+25 -0.668446 0.880575 271.827 
-1.12291e-05 -9.79558e-06 2.69288e+25 -1.29792 1.22734 271.897 
-9.31775e-06 -9.79558e-06 2.69137e+25 -1.97719 1.62573 272.072 
-7.40642e-06 -9.79558e-06 2.69065e+25 -2.5186 1.12931 272.058 
-5.49508e-06 -9.79558e-06 2.69273e+25 -3.13685 1.01951 271.919 
-3.58375e-06 -9.79558e-06 2.6922e+25 -3.53849 0.921257 271.979 
-1.67242e-06 -9.79558e-06 2.69078e+25 -3.92314 0.522078 272.048 
-1.69631e-05 -9.31775e-06 2.68636e+25 -0.00946335 0.0620945 272.672 
-1.50517e-05 -9.31775e-06 2.69067e+25 -0.140037 0.679342 272.106 
-1.31404e-05 -9.31775e-06 2.69377e+25 -0.634785 1.09852 271.832 
-1.12291e-05 -9.31775e-06 2.69495e+25 -1.39868 1.39805 271.687 
-9.31775e-06 -9.31775e-06 2.69105e+25 -2.0061 1.72991 272.054 
-7.40642e-06 -9.31775e-06 2.69006e+25 -2.59642 1.30071 272.166 
-5.49508e-06 -9.31775e-06 2.69343e+25 -3.45561 1.18609 271.845 
-3.58375e-06 -9.31775e-06 2.69159e+25 -3.9268 1.0266 272.025 
-1.67242e-06 -9.31775e-06 2.69159e+25 -4.17647 0.482988 272.06 
-1.69631e-05 -8.83992e-06 2.68395e+25 0.0149332 0.0858032 272.822 
-1.50517e-05 -8.83992e-06 2.69081e+25 -0.193734 0.737317 272.083 
-1.31404e-05 -8.83992e-06 2.69414e+25 -0.59403 1.28135 271.783 
-1.12291e-05 -8.83992e-06 2.69419e+25 -1.37291 1.6401 271.774 
-9.31775e-06 -8.83992e-06 2.69226e+25 -2.09289 1.80981 272.062 
-7.40642e-06 -8.83992e-06 2.69015e+25 -2.76811 1.59524 272.147 
-5.49508e-06 -8.83992e-06 2.69439e+25 -3.65975 1.31032 271.775 
-3.58375e-06 -8.83992e-06 2.69276e+25 -4.1601 1.08048 271.947 
-1.67242e-06 -8.83992e-06 2.68995e+25 -4.50357 0.491335 272.169 
-1.69631e-05 -8.36208e-06 2.68451e+25 -0.0099156 0.0982053 272.852 
-1.50517e-05 -8.36208e-06 2.69183e+25 -0.259185 0.810937 272.036 
-1.31404e-05 -8.36208e-06 2.69355e+25 -0.754566 1.42303 271.831 
-1.12291e-05 -8.36208e-06 2.69317e+25 -1.47185 1.85938 271.9 
-9.31775e-06 -8.36208e-06 2.69263e+25 -2.14182 2.01611 271.931 
-7.40642e-06 -8.36208e-06 2.69053e+25 -3.00883 1.88591 272.091 
-5.49508e-06 -8.36208e-06 2.69225e+25 -3.71534 1.4699 271.933 
-3.58375e-06 -8.36208e-06 2.69278e+25 -4.41712 1.16916 272.041 
-1.67242e-06 -8.36208e-06 2.69119e+25 -4.85464 0.553647 272.074 
-1.69631e-05 -7.88425e-06 2.68507e+25 -0.0175755 0.123154 272.812 
-1.50517e-05 -7.88425e-06 2.6903e+25 -0.208254 0.928895 272.069 
-1.31404e-05 -7.88425e-06 2.69327e+25 -0.863907 1.60769 271.858 
-1.12291e-05 -7.88425e-06 2.69234e+25 -1.57972 1.99872 271.96 
-9.31775e-06 -7.88425e-06 2.69222e+25 -2.29629 2.24803 271.971 
-7.40642e-06 -7.88425e-06 2.69212e+25 -3.17642 2.08237 271.991 
-5.49508e-06 -7.88425e-06 2.69131e+25 -3.86435 1.64704 272.011 
-3.58375e-06 -7.88425e-06 2.69192e+25 -4.49762 1.39113 272.021 
-1.67242e-06 -7.88425e-06 2.69159e+25 -5.00816 0.662077 272.088 
-1.69631e-05 -7.40642e-06 2.68577e+25 0.0100006 0.124608 272.781 
-1.50517e-05 -7.40642e-06 2.69239e+25 -0.280985 1.08838 271.949 
-1.31404e-05 -7.40642e-06 2.69291e+25 -0.946059 1.7238 271.864 
-1.12291e-05 -7.40642e-06 2.69163e+25 -1.60601 2.12529 272.034 
-9.31775e-06 -7.40642e-06 2.69322e+25 -2.37671 2.48128 271.86 
-7.40642e-06 -7.40642e-06 2.69261e+25 -3.28356 2.29645 271.975 
-5.49508e-06 -7.40642e-06 2.69207e+25 -3.93501 1.79951 271.954 
-3.58375e-06 -7.40642e-06 2.69172e+25 -4.54437 1.59041 272.006 
-1.67242e-06 -7.40642e-06 2.69039e+25 -5.1863 0.742895 272.067 
-1.69631e-05 -6.92858e-06 2.68502e+25 0.0198552 0.102509 272.795 
-1.50517e-05 -6.92858e-06 2.6921e+25 -0.254094 1.30248 271.967 
-1.31404e-05 -6.92858e-06 2.69356e+25 -0.880702 1.88288 271.847 
-1.12291e-05 -6.92858e-06 2.69233e+25 -1.57616 2.29787 271.951 
-9.31775e-06 -6.92858e-06 2.69335e+25 -2.50515 2.63313 271.886 
-7.40642e-06 -6.92858e-06 2.69174e+25 -3.35481 2.54304 272.03 
-5.49508e-06 -6.92858e-06 2.69211e+25 -4.01022 1.93018 272.028 
-3.58375e-06 -6.92858e-06 2.69236e+25 -4.68602 1.73253 271.936 
-1.67242e-06 -6.92858e-06 2.6913e+25 -5.21955 0.87628 272.014 
-1.69631e-05 -6.45075e-06 2.68516e+25 -0.0343865 0.151564 272.747 
-1.50517e-05 -6.45075e-06 2.69306e+25 -0.342255 1.42342 271.877 
-1.31404e-05 -6.45075e-06 2.69426e+25 -0.927029 2.02788 271.778 
-1.12291e-05 -6.45075e-06 2.69091e+25 -1.67724 2.51106 271.906 
-9.31775e-06 -6.45075e-06 2.69244e+25 -2.62812 2.86978 271.9 
-7.40642e-06 -6.45075e-06 2.69203e+25 -3.31321 2.72446 271.938 
-5.49508e-06 -6.45075e-06 2.69177e+25 -4.18785 2.07469 271.998 
-3.58375e-06 -6.45075e-06 2.69185e+25 -4.92406 1.90986 271.979 
-1.67242e-06 -6.45075e-06 2.69024e+25 -5.43412 1.03034 272.09 
-1.69631e-05 -5.97292e-06 2.68555e+25 -0.0196249 0.228936 272.767 
-1.50517e-05 -5.97292e-06 2.69252e+25 -0.40064 1.54008 271.938 
-1.31404e-05 -5.97292e-06 2.69302e+25 -0.945562 2.20581 271.861 
-1.12291e-05 -5.97292e-06 2.69219e+25 -1.84303 2.7941 271.877 
-9.31775e-06 -5.97292e-06 2.69296e+25 -2.68617 3.14241 271.869 
-7.40642e-06 -5.97292e-06 2.6926e+25 -3.49799 2.92171 271.87 
-5.49508e-06 -5.97292e-06 2.69081e+25 -4.42867 2.30528 272.037 
-3.58375e-06 -5.97292e-06 2.69218e+25 -5.0359 2.03885 271.985 
-1.67242e-06 -5.97292e-06 2.69272e+25 -5.68012 1.14466 271.942 
-1.69631e-05 -5.49508e-06 2.68466e+25 0.041741 0.228229 272.777 
-1.50517e-05 -5.49508e-06 2.6909e+25 -0.349137 1.66434 272.094 
-1.31404e-05 -5.49508e-06 2.69105e+25 -0.971798 2.36374 272.011 
-1.12291e-05 -5.49508e-06 2.69183e+25 -2.04977 3.06256 271.898 
-9.31775e-06 -5.49508e-06 2.69294e+25 -2.76429 3.33995 271.828 
-7.40642e-06 -5.49508e-06 2.693e+25 -3.60545 3.11906 271.82 
-5.49508e-06 -5.49508e-06 2.69214e+25 -4.55576 2.52152 272.007 
-3.58375e-06 -5.49508e-06 2.69184e+25 -5.25624 2.15616 271.989 
-1.67242e-06 -5.49508e-06 2.69201e+25 -5.83305 1.27258 271.975 
-1.69631e-05 -5.01725e-06 2.68571e+25 -0.00997524 0.202436 272.774 
-1.50517e-05 -5.01725e-06 2.69123e+25 -0.400591 1.77622 272.098 
-1.31404e-05 -5.01725e-06 2.69239e+25 -1.14009 2.59683 271.939 
-1.12291e-05 -5.01725e-06 2.69296e+25 -1.9926 3.27719 271.851 
-9.31775e-06 -5.01725e-06 2.69413e+25 -2.7752 3.48304 271.723 
-7.40642e-06 -5.01725e-06 2.69193e+25 -3.69223 3.29789 271.929 
-5.49508e-06 -5.01725e-06 2.68991e+25 -4.69134 2.71301 272.073 
-3.58375e-06 -5.01725e-06 2.69114e+25 -5.51048 2.2978 271.954 
-1.67242e-06 -5.01725e-06 2.69179e+25 -5.98369 1.4598 271.921 
-1.69631e-05 -4.53942e-06 2.68498e+25 -0.00933435 0.216815 272.793 
-1.50517e-05 -4.53942e-06 2.69066e+25 -0.414344 1.82898 272.132 
-1.31404e-05 -4.53942e-06 2.69217e+25 -1.05085 2.79346 271.94 
-1.12291e-05 -4.53942e-06 2.69268e+25 -2.0037 3.54733 271.921 
-9.31775e-06 -4.53942e-06 2.69431e+25 -2.85873 3.59539 271.689 
-7.40642e-06 -4.53942e-06 2.69235e+25 -3.83645 3.57303 271.941 
-5.49508e-06 -4.53942e-06 2.69135e+25 -4.73905 2.93879 271.978 
-3.58375e-06 -4.53942e-06 2.69195e+25 -5.59775 2.45338 271.987 
-1.67242e-06 -4.53942e-06 2.69045e+25 -6.04875 1.5957 271.974 
-1.69631e-05 -4.06158e-06 2.68468e+25 0.0213473 0.205319 272.763 
-1.50517e-05 -4.06158e-06 2.69194e+25 -0.415649 1.98867 272.064 
-1.31404e-05 -4.06158e-06 2.69172e+25 -1.01434 3.00199 271.969 
-1.12291e-05 -4.06158e-06 2.69271e+25 -1.98999 3.83959 271.894 
-9.31775e-06 -4.06158e-06 2.69418e+25 -2.82896 3.80404 271.712 
-7.40642e-06 -4.06158e-06 2.69123e+25 -3.79489 3.8109 271.976 
-5.49508e-06 -4.06158e-06 2.6905e+25 -4.72042 3.27691 272.134 
-3.58375e-06 -4.06158e-06 2.6927e+25 -5.63408 2.61386 271.937 
-1.67242e-06 -4.06158e-06 2.69108e+25 -6.18315 1.72716 271.902 
-1.69631e-05 -3.58375e-06 2.68581e+25 -0.0220943 0.213554 272.733 
-1.50517e-05 -3.58375e-06 2.69117e+25 -0.372877 2.14857 272.06 
-1.31404e-05 -3.58375e-06 2.69194e+25 -0.853821 3.19033 271.949 
-1.12291e-05 -3.58375e-06 2.69261e+25 -1.84266 4.10394 271.898 
-9.31775e-06 -3.58375e-06 2.6932e+25 -2.86748 4.08198 271.755 
-7.40642e-06 -3.58375e-06 2.69198e+25 -3.88296 3.93319 271.965 
-5.49508e-06 -3.58375e-06 2.69002e+25 -4.79648 3.59079 272.143 
-3.58375e-06 -3.58375e-06 2.69242e+25 -5.77867 2.82442 271.865 
-1.67242e-06 -3.58375e-06 2.69167e+25 -6.4014 1.8954 271.959 
-1.69631e-05 -3.10592e-06 2.6834e+25 -0.0277814 0.306466 272.879 
-1.50517e-05 -3.10592e-06 2.69181e+25 -0.343166 2.25085 272.052 
-1.31404e-05 -3.10592e-06 2.69048e+25 -0.874802 3.3661 272.121 
-1.12291e-05 -3.10592e-06 2.69144e+25 -1.79995 4.25607 271.964 
-9.31775e-06 -3.10592e-06 2.6937e+25 -2.83185 4.39112 271.769 
-7.40642e-06 -3.10592e-06 2.69191e+25 -3.85773 4.21283 271.965 
-5.49508e-06 -3.10592e-06 2.6906e+25 -4.86568 3.81482 272.079 
-3.58375e-06 -3.10592e-06 2.69171e+25 -5.82737 3.04298 271.894 
-1.67242e-06 -3.10592e-06 2.69021e+25 -6.54589 1.98942 272.014 
-1.69631e-05 -2.62808e-06 2.68384e+25 0.0167892 0.350731 272.789 
-1.50517e-05 -2.62808e-06 2.69076e+25 -0.317157 2.38811 272.122 
-1.31404e-05 -2.62808e-06 2.69051e+25 -1.0472 3.64148 272.12 
-1.12291e-05 -2.62808e-06 2.69297e+25 -1.7014 4.39896 271.832 
-9.31775e-06 -2.62808e-06 2.69197e+25 -2.76023 4.74312 271.892 
-7.40642e-06 -2.62808e-06 2.69263e+25 -3.92992 4.47339 271.898 
-5.49508e-06 -2.62808e-06 2.69024e+25 -4.93605 4.12358 272.07 
-3.58375e-06 -2.62808e-06 2.69225e+25 -5.83051 3.21132 271.877 
-1.67242e-06 -2.62808e-06 2.69114e+25 -6.56753 2.11886 271.953 
-1.69631e-05 -2.15025e-06 2.68439e+25 0.00316404 0.355041 272.818 
-1.50517e-05 -2.15025e-06 2.69006e+25 -0.266147 2.46924 272.147 
-1.31404e-05 -2.15025e-06 2.69106e+25 -0.992564 3.85881 272.01 
-1.12291e-05 -2.15025e-06 2.69243e+25 -1.86624 4.53516 271.87 
-9.31775e-06 -2.15025e-06 2.69276e+25 -2.76189 5.01386 271.826 
-7.40642e-06 -2.15025e-06 2.69262e+25 -3.94716 4.73955 271.867 
-5.49508e-06 -2.15025e-06 2.69056e+25 -4.95691 4.35611 271.94 
-3.58375e-06 -2.15025e-06 2.69025e+25 -5.88171 3.38779 271.956 
-1.67242e-06 -2.15025e-06 2.69181e+25 -6.58002 2.26274 271.886 
-1.69631e-05 -1.67242e-06 2.68456e+25 -0.0347307 0.386977 272.837 
-1.50517e-05 -1.67242e-06 2.68948e+25 -0.188419 2.51703 272.228 
-1.31404e-05 -1.67242e-06 2.69289e+25 -1.0456 4.09396 271.934 
-1.12291e-05 -1.67242e-06 2.69251e+25 -1.97891 4.78504 271.833 
-9.31775e-06 -1.67242e-06 2.69291e+25 -2.77624 5.16137 271.835 
-7.40642e-06 -1.67242e-06 2.69163e+25 -3.92042 4.93866 271.857 
-5.49508e-06 -1.67242e-06 2.69212e+25 -4.95438 4.54515 271.939 
-3.58375e-06 -1.67242e-06 2.68909e+25 -5.83822 3.66338 272.085 
-1.67242e-06 -1.67242e-06 2.69113e+25 -6.7116 2.46903 271.939 
-1.69631e-05 -1.19458e-06 2.68358e+25 0.035114 0.362279 272.828 
-1.50517e-05 -1.19458e-06 2.68895e+25 -0.179263 2.64733 272.23 
-1.31404e-05 -1.19458e-06 2.69196e+25 -1.09247 4.26898 271.973 
-1.12291e-05 -1.19458e-06 2.69216e+25 -1.91733 5.08967 271.857 
-9.31775e-06 -1.19458e-06 2.69278e+25 -2.79968 5.35525 271.852 
-7.40642e-06 -1.19458e-06 2.69198e+25 -3.71651 5.28069 271.855 
-5.49508e-06 -1.19458e-06 2.69194e+25 -4.9367 4.68744 271.896 
-3.58375e-06 -1.19458e-06 2.69018e+25 -5.94564 3.95523 271.993 
-1.67242e-06 -1.19458e-06 2.69087e+25 -6.83228 2.71472 271.895 
-1.69631e-05 -7.1675e-07 2.6839e+25 -0.0220707 0.368811 272.814 
-1.50517e-05 -7.1675e-07 2.69035e+25 -0.174771 2.85946 272.154 
-1.31404e-05 -7.1675e-07 2.69258e+25 -1.08946 4.4597 271.899 
-1.12291e-05 -7.1675e-07 2.69017e+25 -1.91819 5.37302 272.006 
-9.31775e-06 -7.1675e-07 2.69254e+25 -2.83482 5.63189 271.832 
-7.40642e-06 -7.1675e-07 2.69144e+25 -3.67933 5.58974 271.919 
-5.49508e-06 -7.1675e-07 2.6906e+25 -4.92637 4.97629 271.986 
-3.58375e-06 -7.1675e-07 2.6907e+25 -5.85871 4.19584 271.914 
-1.67242e-06 -7.1675e-07 2.68977e+25 -6.90219 2.96547 271.991 
-1.69631e-05 -2.38917e-07 2.68159e+25 0.015283 0.388905 272.809 
-1.50517e-05 -2.38917e-07 2.68884e+25 -0.274602 3.07218 272.043 
-1.31404e-05 -2.38917e-07 2.68999e+25 -1.00644 4.70432 271.908 
-1.12291e-05 -2.38917e-07 2.68742e+25 -1.90876 5.52354 272.075 
-9.31775e-06 -2.38917e-07 2.69017e+25 -2.84943 5.84812 271.836 
-7.40642e-06 -2.38917e-07 2.68964e+25 -3.71861 5.87395 271.954 
-5.49508e-06 -2.38917e-07 2.68969e+25 -4.88929 5.33046 271.985 
-3.58375e-06 -2.38917e-07 2.68868e+25 -5.77645 4.39963 271.944 
-1.67242e-06 -2.38917e-07 2.68705e+25 -6.77517 3.22353 272.077 
-1.64852e-05 -1.69631e-05 2.68386e+25 0.0506515 0.00375026 272.919 
-1.45739e-05 -1.69631e-05 2.68476e+25 0.0202897 0.0107404 272.767 
-1.26626e-05 -1.69631e-05 2.68502e+25 -0.043894 0.0108762 272.773 
-1.07512e-05 -1.69631e-05 2.68515e+25 -0.0884647 0.0204445 272.818 
-8.83992e-06 -1.69631e-05 2.68362e+25 -0.116982 0.0231803 272.929 
-6.92858e-06 -1.69631e-05 2.68441e+25 -0.0336249 0.0269365 272.797 
-5.01725e-06 -1.69631e-05 2.68436e+25 -0.159535 -0.0105419 272.777 
-3.10592e-06 -1.69631e-05 2.68459e+25 -0.217411 0.0301501 272.804 
-1.19458e-06 -1.69631e-05 2.68403e+25 -0.175791 -0.00213363 272.895 
-1.64852e-05 -1.64852e-05 2.68688e+25 0.0577302 -0.0470147 272.607 
-1.45739e-05 -1.64852e-05 2.68732e+25 -0.00760457 -0.0156763 272.528 
-1.26626e-05 -1.64852e-05 2.68719e+25 -0.00781801 0.00556646 272.493 
-1.07512e-05 -1.64852e-05 2.68723e+25 -0.0544576 0.0290793 272.514 
-8.83992e-06 -1.64852e-05 2.68741e+25 -0.187408 0.014938 272.521 
-6.92858e-06 -1.64852e-05 2.68713e+25 -0.212201 0.0914702 272.438 
-5.01725e-06 -1.64852e-05 2.68736e+25 -0.449089 -0.00784275 272.486 
-3.10592e-06 -1.64852e-05 2.68636e+25 -0.44512 0.0852841 272.592 
-1.19458e-06 -1.64852e-05 2.68611e+25 -0.464518 -0.0413439 272.613 
-1.64852e-05 -1.60074e-05 2.68858e+25 -0.00258172 -0.130871 272.411 
-1.45739e-05 -1.60074e-05 2.68837e+25 0.0265532 0.0329964 272.419 
-1.26626e-05 -1.60074e-05 2.68932e+25 0.0321748 0.0404728 272.304 
-1.07512e-05 -1.60074e-05 2.68865e+25 0.0257151 0.132856 272.348 
-8.83992e-06 -1.60074e-05 2.6886e+25 -0.308433 -0.0389941 272.341 
-6.92858e-06 -1.60074e-05 2.68999e+25 -0.403652 0.146489 272.173 
-5.01725e-06 -1.60074e-05 2.68974e+25 -0.648224 0.0520555 272.262 
-3.10592e-06 -1.60074e-05 2.6889e+25 -0.759048 0.140574 272.319 
-1.19458e-06 -1.60074e-05 2.68774e+25 -0.771762 -0.0512823 272.512 
-1.64852e-05 -1.55296e-05 2.68699e+25 -0.025175 -0.182446 272.534 
-1.45739e-05 -1.55296e-05 2.68988e+25 -0.0319925 0.0558265 272.234 
-1.26626e-05 -1.55296e-05 2.68977e+25 -0.0102337 0.026618 272.226 
-1.07512e-05 -1.55296e-05 2.6895e+25 -0.100652 0.173276 272.272 
-8.83992e-06 -1.55296e-05 2.68922e+25 -0.383365 -0.0910731 272.262 
-6.92858e-06 -1.55296e-05 2.6917e+25 -0.639709 0.184103 271.946 
-5.01725e-06 -1.55296e-05 2.68998e+25 -0.955453 0.112626 272.155 
-3.10592e-06 -1.55296e-05 2.69015e+25 -0.974636 0.132381 272.114 
-1.19458e-06 -1.55296e-05 2.68822e+25 -1.11371 -0.0238294 272.494 
-1.64852e-05 -1.50517e-05 2.68683e+25 0.0144685 -0.157749 272.566 
-1.45739e-05 -1.50517e-05 2.69162e+25 0.117789 0.0450071 272.003 
-1.26626e-05 -1.50517e-05 2.69006e+25 -0.0233298 0.0869452 272.202 
-1.07512e-05 -1.50517e-05 2.69023e+25 -0.228803 0.199229 272.1 
-8.83992e-06 -1.50517e-05 2.69021e+25 -0.50355 -0.00698803 272.134 
-6.92858e-06 -1.50517e-05 2.69181e+25 -0.826016 0.259183 272.051 
-5.01725e-06 -1.50517e-05 2.69068e+25 -1.16161 0.153431 272.129 
-3.10592e-06 -1.50517e-05 2.69096e+25 -1.19391 0.148495 272.127 
-1.19458e-06 -1.50517e-05 2.69e+25 -1.4865 -0.00223255 272.256 
-1.64852e-05 -1.45739e-05 2.68748e+25 -0.0105852 -0.102968 272.51 
-1.45739e-05 -1.45739e-05 2.69106e+25 0.0294135 0.043671 272.067 
-1.26626e-05 -1.45739e-05 2.69139e+25 -0.114253 0.12398 272.072 
-1.07512e-05 -1.45739e-05 2.6908e+25 -0.371051 0.199468 272.102 
-8.83992e-06 -1.45739e-05 2.69021e+25 -0.662167 0.208881 272.16 
-6.92858e-06 -1.45739e-05 2.69088e+25 -1.01458 0.317991 272.079 
-5.01725e-06 -1.45739e-05 2.69093e+25 -1.4634 0.189621 272.068 
-3.10592e-06 -1.45739e-05 2.69071e+25 -1.51501 0.201234 272.136 
-1.19458e-06 -1.45739e-05 2.69067e+25 -1.77415 0.0276976 272.243 
-1.64852e-05 -1.40961e-05 2.68798e+25 0.036808 -0.0915126 272.526 
-1.45739e-05 -1.40961e-05 2.69212e+25 -0.108473 0.101777 272.038 
-1.26626e-05 -1.40961e-05 2.69148e+25 -0.327115 0.120184 272.009 
-1.07512e-05 -1.40961e-05 2.69135e+25 -0.501506 0.238742 272.05 
-8.83992e-06 -1.40961e-05 2.69045e+25 -0.655717 0.363749 272.121 
-6.92858e-06 -1.40961e-05 2.69121e+25 -1.14146 0.377757 272.028 
-5.01725e-06 -1.40961e-05 2.6932e+25 -1.60247 0.240818 271.918 
-3.10592e-06 -1.40961e-05 2.69091e+25 -1.82661 0.229265 272.124 
-1.19458e-06 -1.40961e-05 2.69183e+25 -1.85616 0.0719993 272.135 
-1.64852e-05 -1.36182e-05 2.68719e+25 -0.0438766 -0.0328051 272.546 
-1.45739e-05 -1.36182e-05 2.69171e+25 -0.256154 0.116237 272.089 
-1.26626e-05 -1.36182e-05 2.69188e+25 -0.476178 0.14248 272.001 
-1.07512e-05 -1.36182e-05 2.69193e+25 -0.619808 0.381757 272.035 
-8.83992e-06 -1.36182e-05 2.69272e+25 -0.867183 0.483393 271.973 
-6.92858e-06 -1.36182e-05 2.69099e+25 -1.46763 0.483934 272.004 
-5.01725e-06 -1.36182e-05 2.69237e+25 -1.67552 0.373174 271.884 
-3.10592e-06 -1.36182e-05 2.69103e+25 -2.00516 0.158472 272.066 
-1.19458e-06 -1.36182e-05 2.69005e+25 -1.9866 0.126013 272.185 
-1.64852e-05 -1.31404e-05 2.68712e+25 -0.0268701 -0.00487058 272.505 
-1.45739e-05 -1.31404e-05 2.69223e+25 -0.234702 0.18341 272.027 
-1.26626e-05 -1.31404e-05 2.69177e+25 -0.422824 0.241451 271.971 
-1.07512e-05 -1.31404e-05 2.69211e+25 -0.72518 0.438217 271.995 
-8.83992e-06 -1.31404e-05 2.69244e+25 -1.12046 0.560776 271.895 
-6.92858e-06 -1.31404e-05 2.69407e+25 -1.61708 0.550386 271.82 
-5.01725e-06 -1.31404e-05 2.69394e+25 -1.71854 0.530058 271.775 
-3.10592e-06 -1.31404e-05 2.69094e+25 -2.17688 0.159869 272 
-1.19458e-06 -1.31404e-05 2.69029e+25 -2.2866 0.159944 272.186 
-1.64852e-05 -1.26626e-05 2.68949e+25 -0.00211541 0.00764363 272.398 
-1.45739e-05 -1.26626e-05 2.69159e+25 -0.159562 0.216123 272.01 
-1.26626e-05 -1.26626e-05 2.69218e+25 -0.377525 0.308877 272.016 
-1.07512e-05 -1.26626e-05 2.69228e+25 -0.878079 0.521364 271.999 
-8.83992e-06 -1.26626e-05 2.69369e+25 -1.24843 0.638276 271.888 
-6.92858e-06 -1.26626e-05 2.69251e+25 -1.78364 0.652518 271.939 
-5.01725e-06 -1.26626e-05 2.69223e+25 -1.85788 0.537568 271.937 
-3.10592e-06 -1.26626e-05 2.69201e+25 -2.29844 0.203653 271.926 
-1.19458e-06 -1.26626e-05 2.69101e+25 -2.38128 0.127705 272.128 
-1.64852e-05 -1.21847e-05 2.6875e+25 0.0414343 -0.0305884 272.47 
-1.45739e-05 -1.21847e-05 2.69293e+25 -0.167266 0.326329 271.945 
-1.26626e-05 -1.21847e-05 2.69105e+25 -0.457858 0.379585 272.05 
-1.07512e-05 -1.21847e-05 2.6911e+25 -1.00232 0.6964 272.092 
-8.83992e-06 -1.21847e-05 2.69111e+25 -1.5335 0.7101 271.989 
-6.92858e-06 -1.21847e-05 2.69124e+25 -1.88026 0.775455 271.971 
-5.01725e-06 -1.21847e-05 2.6923e+25 -2.07574 0.561276 271.96 
-3.10592e-06 -1.21847e-05 2.69242e+25 -2.36933 0.305755 271.957 
-1.19458e-06 -1.21847e-05 2.69146e+25 -2.5401 0.116438 272.059 
-1.64852e-05 -1.17069e-05 2.68629e+25 -0.0280491 0.0257736 272.541 
-1.45739e-05 -1.17069e-05 2.69242e+25 -0.264864 0.365701 271.941 
-1.26626e-05 -1.17069e-05 2.69203e+25 -0.59697 0.504943 271.985 
-1.07512e-05 -1.17069e-05 2.69105e+25 -1.11753 0.850213 272.14 
-8.83992e-06 -1.17069e-05 2.69265e+25 -1.69726 0.789308 271.966 
-6.92858e-06 -1.17069e-05 2.69256e+25 -2.02638 0.787643 272.025 
-5.01725e-06 -1.17069e-05 2.69321e+25 -2.27578 0.617018 271.901 
-3.10592e-06 -1.17069e-05 2.69326e+25 -2.53327 0.376161 271.891 
-1.19458e-06 -1.17069e-05 2.69219e+25 -2.78942 0.171792 271.967 
-1.64852e-05 -1.12291e-05 2.68803e+25 -0.0163863 0.0507516 272.49 
-1.45739e-05 -1.12291e-05 2.6923e+25 -0.298215 0.41103 271.978 
-1.26626e-05 -1.12291e-05 2.69259e+25 -0.661376 0.564848 271.932 
-1.07512e-05 -1.12291e-05 2.69232e+25 -1.0885 0.974104 271.998 
-8.83992e-06 -1.12291e-05 2.69187e+25 -1.82477 0.905188 271.982 
-6.92858e-06 -1.12291e-05 2.69186e+25 -2.12508 0.785121 272.052 
-5.01725e-06 -1.12291e-05 2.69312e+25 -2.56131 0.693145 271.882 
-3.10592e-06 -1.12291e-05 2.69159e+25 -2.75326 0.440774 272.074 
-1.19458e-06 -1.12291e-05 2.69282e+25 -3.01877 0.226435 271.93 
-1.64852e-05 -1.07512e-05 2.68686e+25 0.0257131 0.0777482 272.479 
-1.45739e-05 -1.07512e-05 2.6926e+25 -0.292714 0.494384 271.983 
-1.26626e-05 -1.07512e-05 2.69222e+25 -0.698802 0.619058 271.945 
-1.07512e-05 -1.07512e-05 2.69298e+25 -1.26305 1.05671 271.917 
-8.83992e-06 -1.07512e-05 2.69282e+25 -1.95459 1.08399 271.947 
-6.92858e-06 -1.07512e-05 2.69219e+25 -2.38594 0.833743 271.892 
-5.01725e-06 -1.07512e-05 2.69358e+25 -2.69144 0.796539 271.838 
-3.10592e-06 -1.07512e-05 2.69225e+25 -3.04569 0.518182 272.022 
-1.19458e-06 -1.07512e-05 2.6925e+25 -3.4305 0.30564 271.892 
-1.64852e-05 -1.02734e-05 2.6882e+25 -0.111934 0.0804798 272.435 
-1.45739e-05 -1.02734e-05 2.69207e+25 -0.22449 0.643538 272.011 
-1.26626e-05 -1.02734e-05 2.69266e+25 -0.80214 0.821659 271.888 
-1.07512e-05 -1.02734e-05 2.692e+25 -1.35541 1.23613 271.957 
-8.83992e-06 -1.02734e-05 2.69317e+25 -2.05799 1.34749 271.931 
-6.92858e-06 -1.02734e-05 2.69169e+25 -2.56491 0.92891 271.996 
-5.01725e-06 -1.02734e-05 2.69321e+25 -2.84667 0.916535 271.9 
-3.10592e-06 -1.02734e-05 2.69213e+25 -3.42742 0.668546 271.971 
-1.19458e-06 -1.02734e-05 2.69252e+25 -3.73211 0.314942 271.938 
-1.64852e-05 -9.79558e-06 2.68782e+25 -0.0690295 0.101308 272.443 
-1.45739e-05 -9.79558e-06 2.69203e+25 -0.170248 0.758717 271.995 
-1.26626e-05 -9.79558e-06 2.69374e+25 -0.866662 1.014 271.798 
-1.07512e-05 -9.79558e-06 2.69131e+25 -1.44713 1.46679 271.962 
-8.83992e-06 -9.79558e-06 2.69338e+25 -2.1513 1.51543 271.936 
-6.92858e-06 -9.79558e-06 2.69024e+25 -2.69713 1.0565 272.095 
-5.01725e-06 -9.79558e-06 2.69368e+25 -3.21152 1.03625 271.825 
-3.10592e-06 -9.79558e-06 2.69226e+25 -3.69 0.834445 271.973 
-1.19458e-06 -9.79558e-06 2.6932e+25 -3.9707 0.339473 271.904 
-1.64852e-05 -9.31775e-06 2.68716e+25 -0.0323857 0.157455 272.475 
-1.45739e-05 -9.31775e-06 2.69252e+25 -0.22432 0.799199 271.991 
-1.26626e-05 -9.31775e-06 2.69339e+25 -0.82123 1.19516 271.841 
-1.07512e-05 -9.31775e-06 2.6934e+25 -1.53337 1.61836 271.822 
-8.83992e-06 -9.31775e-06 2.69004e+25 -2.12526 1.66333 272.085 
-6.92858e-06 -9.31775e-06 2.69057e+25 -2.81241 1.29934 272.144 
-5.01725e-06 -9.31775e-06 2.69329e+25 -3.57048 1.10087 271.848 
-3.10592e-06 -9.31775e-06 2.69193e+25 -4.00106 0.932161 272.006 
-1.19458e-06 -9.31775e-06 2.69195e+25 -4.12717 0.332299 271.951 
-1.64852e-05 -8.83992e-06 2.68667e+25 -0.0285197 0.18266 272.545 
-1.45739e-05 -8.83992e-06 2.69212e+25 -0.275735 0.883089 272.009 
-1.26626e-05 -8.83992e-06 2.69395e+25 -0.775766 1.33475 271.766 
-1.07512e-05 -8.83992e-06 2.69317e+25 -1.62452 1.76232 271.839 
-8.83992e-06 -8.83992e-06 2.69164e+25 -2.20085 1.80329 272.04 
-6.92858e-06 -8.83992e-06 2.69043e+25 -3.11311 1.54812 272.149 
-5.01725e-06 -8.83992e-06 2.69394e+25 -3.78826 1.19877 271.796 
-3.10592e-06 -8.83992e-06 2.69174e+25 -4.20741 0.987379 271.983 
-1.19458e-06 -8.83992e-06 2.69141e+25 -4.51127 0.3323 272.065 
-1.64852e-05 -8.36208e-06 2.68686e+25 -0.0932235 0.291511 272.54 
-1.45739e-05 -8.36208e-06 2.69135e+25 -0.362906 0.992664 272.067 
-1.26626e-05 -8.36208e-06 2.69339e+25 -0.887308 1.46114 271.855 
-1.07512e-05 -8.36208e-06 2.6926e+25 -1.64652 1.9623 271.897 
-8.83992e-06 -8.36208e-06 2.69229e+25 -2.35931 1.95892 271.969 
-6.92858e-06 -8.36208e-06 2.69092e+25 -3.18107 1.79673 272.122 
-5.01725e-06 -8.36208e-06 2.69214e+25 -3.95237 1.40255 271.971 
-3.10592e-06 -8.36208e-06 2.69158e+25 -4.55776 1.06916 272.027 
-1.19458e-06 -8.36208e-06 2.69188e+25 -4.89698 0.323222 272.051 
-1.64852e-05 -7.88425e-06 2.68816e+25 -0.0408328 0.387556 272.501 
-1.45739e-05 -7.88425e-06 2.69227e+25 -0.384884 1.12494 271.973 
-1.26626e-05 -7.88425e-06 2.69291e+25 -1.03606 1.59618 271.817 
-1.07512e-05 -7.88425e-06 2.69264e+25 -1.67959 2.13785 271.911 
-8.83992e-06 -7.88425e-06 2.69203e+25 -2.53685 2.15534 272.012 
-6.92858e-06 -7.88425e-06 2.69076e+25 -3.3498 1.94907 272.098 
-5.01725e-06 -7.88425e-06 2.69162e+25 -4.00448 1.58655 272.071 
-3.10592e-06 -7.88425e-06 2.69136e+25 -4.68846 1.2036 272.073 
-1.19458e-06 -7.88425e-06 2.69142e+25 -5.12549 0.385355 272.032 
-1.64852e-05 -7.40642e-06 2.68706e+25 0.0599937 0.348289 272.48 
-1.45739e-05 -7.40642e-06 2.69201e+25 -0.502554 1.31705 272.005 
-1.26626e-05 -7.40642e-06 2.6941e+25 -1.10532 1.82291 271.825 
-1.07512e-05 -7.40642e-06 2.69213e+25 -1.73286 2.29802 271.957 
-8.83992e-06 -7.40642e-06 2.69234e+25 -2.56352 2.39077 271.967 
-6.92858e-06 -7.40642e-06 2.69036e+25 -3.48756 2.12563 272.108 
-5.01725e-06 -7.40642e-06 2.69255e+25 -4.10497 1.74451 271.979 
-3.10592e-06 -7.40642e-06 2.6913e+25 -4.74517 1.36321 272.048 
-1.19458e-06 -7.40642e-06 2.69153e+25 -5.2589 0.48491 272.025 
-1.64852e-05 -6.92858e-06 2.68884e+25 -0.0159551 0.366494 272.38 
-1.45739e-05 -6.92858e-06 2.69337e+25 -0.44669 1.57159 271.868 
-1.26626e-05 -6.92858e-06 2.69267e+25 -1.07653 1.98526 271.85 
-1.07512e-05 -6.92858e-06 2.69095e+25 -1.82155 2.47213 272.051 
-8.83992e-06 -6.92858e-06 2.69159e+25 -2.69456 2.57066 271.942 
-6.92858e-06 -6.92858e-06 2.69202e+25 -3.57765 2.30915 272.023 
-5.01725e-06 -6.92858e-06 2.69102e+25 -4.15403 1.92224 272.053 
-3.10592e-06 -6.92858e-06 2.69267e+25 -4.88254 1.57979 271.881 
-1.19458e-06 -6.92858e-06 2.69196e+25 -5.33855 0.578442 271.97 
-1.64852e-05 -6.45075e-06 2.68925e+25 -0.0861268 0.33842 272.371 
-1.45739e-05 -6.45075e-06 2.69296e+25 -0.400997 1.6868 271.876 
-1.26626e-05 -6.45075e-06 2.69466e+25 -1.07786 2.17376 271.795 
-1.07512e-05 -6.45075e-06 2.69171e+25 -1.89641 2.72742 271.97 
-8.83992e-06 -6.45075e-06 2.69328e+25 -2.88552 2.81499 271.906 
-6.92858e-06 -6.45075e-06 2.69254e+25 -3.56455 2.55515 271.958 
-5.01725e-06 -6.45075e-06 2.69223e+25 -4.33993 2.05448 271.949 
-3.10592e-06 -6.45075e-06 2.69248e+25 -5.02784 1.73791 271.953 
-1.19458e-06 -6.45075e-06 2.69162e+25 -5.54579 0.664353 271.958 
-1.64852e-05 -5.97292e-06 2.68821e+25 -0.114238 0.405238 272.472 
-1.45739e-05 -5.97292e-06 2.6926e+25 -0.522907 1.75401 271.872 
-1.26626e-05 -5.97292e-06 2.69398e+25 -1.1249 2.40919 271.81 
-1.07512e-05 -5.97292e-06 2.69272e+25 -2.16483 2.97194 271.894 
-8.83992e-06 -5.97292e-06 2.69426e+25 -2.92503 3.08069 271.775 
-6.92858e-06 -5.97292e-06 2.69327e+25 -3.71603 2.80753 271.802 
-5.01725e-06 -5.97292e-06 2.69144e+25 -4.60061 2.20232 271.976 
-3.10592e-06 -5.97292e-06 2.69104e+25 -5.13508 1.83929 272.054 
-1.19458e-06 -5.97292e-06 2.69332e+25 -5.77346 0.750224 271.894 
-1.64852e-05 -5.49508e-06 2.68795e+25 -0.00126177 0.529888 272.505 
-1.45739e-05 -5.49508e-06 2.69217e+25 -0.459446 1.92022 271.941 
-1.26626e-05 -5.49508e-06 2.69361e+25 -1.23007 2.64461 271.873 
-1.07512e-05 -5.49508e-06 2.69371e+25 -2.21227 3.18995 271.788 
-8.83992e-06 -5.49508e-06 2.69349e+25 -2.95607 3.28312 271.792 
-6.92858e-06 -5.49508e-06 2.69206e+25 -3.8037 3.02809 271.858 
-5.01725e-06 -5.49508e-06 2.69338e+25 -4.7689 2.35174 271.827 
-3.10592e-06 -5.49508e-06 2.69198e+25 -5.39041 1.97624 271.944 
-1.19458e-06 -5.49508e-06 2.69179e+25 -6.03596 0.911916 271.966 
-1.64852e-05 -5.01725e-06 2.68838e+25 -0.0398654 0.628499 272.345 
-1.45739e-05 -5.01725e-06 2.69038e+25 -0.481938 1.96944 272.058 
-1.26626e-05 -5.01725e-06 2.69302e+25 -1.33175 2.86531 271.916 
-1.07512e-05 -5.01725e-06 2.69446e+25 -2.26774 3.38258 271.768 
-8.83992e-06 -5.01725e-06 2.69383e+25 -2.92896 3.51469 271.68 
-6.92858e-06 -5.01725e-06 2.69156e+25 -3.93793 3.31188 271.906 
-5.01725e-06 -5.01725e-06 2.69245e+25 -4.94629 2.61433 271.899 
-3.10592e-06 -5.01725e-06 2.69211e+25 -5.66151 2.1116 271.948 
-1.19458e-06 -5.01725e-06 2.69157e+25 -6.17879 1.08371 271.958 
-1.64852e-05 -4.53942e-06 2.68832e+25 0.00367803 0.644011 272.35 
-1.45739e-05 -4.53942e-06 2.69073e+25 -0.501766 2.08648 272.07 
-1.26626e-05 -4.53942e-06 2.69164e+25 -1.2145 3.02114 271.951 
-1.07512e-05 -4.53942e-06 2.69399e+25 -2.26304 3.64429 271.808 
-8.83992e-06 -4.53942e-06 2.69397e+25 -2.99425 3.67914 271.717 
-6.92858e-06 -4.53942e-06 2.69078e+25 -4.06525 3.53061 272.01 
-5.01725e-06 -4.53942e-06 2.69162e+25 -4.95167 2.88806 272.045 
-3.10592e-06 -4.53942e-06 2.69092e+25 -5.73837 2.23543 272.043 
-1.19458e-06 -4.53942e-06 2.69142e+25 -6.17464 1.28782 271.978 
-1.64852e-05 -4.06158e-06 2.68785e+25 0.0221473 0.684013 272.364 
-1.45739e-05 -4.06158e-06 2.69175e+25 -0.585684 2.21225 272.021 
-1.26626e-05 -4.06158e-06 2.6931e+25 -1.2557 3.24752 271.881 
-1.07512e-05 -4.06158e-06 2.69292e+25 -2.22564 3.83637 271.784 
-8.83992e-06 -4.06158e-06 2.69423e+25 -3.1574 3.91435 271.769 
-6.92858e-06 -4.06158e-06 2.68952e+25 -3.94926 3.67123 272.149 
-5.01725e-06 -4.06158e-06 2.68941e+25 -5.02103 3.06396 272.103 
-3.10592e-06 -4.06158e-06 2.69146e+25 -5.82554 2.39219 271.927 
-1.19458e-06 -4.06158e-06 2.69167e+25 -6.31822 1.44718 271.982 
-1.64852e-05 -3.58375e-06 2.688e+25 -0.124527 0.738728 272.466 
-1.45739e-05 -3.58375e-06 2.6914e+25 -0.492853 2.31475 272.026 
-1.26626e-05 -3.58375e-06 2.69148e+25 -1.07831 3.53124 271.937 
-1.07512e-05 -3.58375e-06 2.69226e+25 -2.03366 4.01707 271.905 
-8.83992e-06 -3.58375e-06 2.69193e+25 -3.12697 4.28295 271.871 
-6.92858e-06 -3.58375e-06 2.69015e+25 -4.00708 3.8186 272.077 
-5.01725e-06 -3.58375e-06 2.68892e+25 -5.05111 3.32726 272.173 
-3.10592e-06 -3.58375e-06 2.69245e+25 -5.95229 2.54874 271.839 
-1.19458e-06 -3.58375e-06 2.6922e+25 -6.52361 1.50157 271.987 
-1.64852e-05 -3.10592e-06 2.68717e+25 -0.147392 0.854346 272.505 
-1.45739e-05 -3.10592e-06 2.69022e+25 -0.506114 2.49451 272.085 
-1.26626e-05 -3.10592e-06 2.69236e+25 -1.10536 3.78634 271.992 
-1.07512e-05 -3.10592e-06 2.69265e+25 -1.95247 4.23602 271.861 
-8.83992e-06 -3.10592e-06 2.69353e+25 -3.12339 4.5263 271.823 
-6.92858e-06 -3.10592e-06 2.69113e+25 -4.17721 4.0217 271.945 
-5.01725e-06 -3.10592e-06 2.69023e+25 -5.18426 3.62626 272.106 
-3.10592e-06 -3.10592e-06 2.6918e+25 -5.97752 2.69726 271.921 
-1.19458e-06 -3.10592e-06 2.68985e+25 -6.65327 1.62243 272.02 
-1.64852e-05 -2.62808e-06 2.68723e+25 -0.0201492 0.951845 272.464 
-1.45739e-05 -2.62808e-06 2.69236e+25 -0.4428 2.64863 272.037 
-1.26626e-05 -2.62808e-06 2.69078e+25 -1.27139 3.9514 272.001 
-1.07512e-05 -2.62808e-06 2.69206e+25 -1.96152 4.49713 271.843 
-8.83992e-06 -2.62808e-06 2.69294e+25 -3.00839 4.69145 271.806 
-6.92858e-06 -2.62808e-06 2.69141e+25 -4.19973 4.33923 271.972 
-5.01725e-06 -2.62808e-06 2.69083e+25 -5.22256 3.90105 272.023 
-3.10592e-06 -2.62808e-06 2.69129e+25 -6.00098 2.8681 271.969 
-1.19458e-06 -2.62808e-06 2.69184e+25 -6.72513 1.77896 271.939 
-1.64852e-05 -2.15025e-06 2.68761e+25 -0.0289326 1.00236 272.514 
-1.45739e-05 -2.15025e-06 2.69152e+25 -0.393796 2.80106 272.095 
-1.26626e-05 -2.15025e-06 2.69145e+25 -1.23513 4.18957 271.985 
-1.07512e-05 -2.15025e-06 2.69189e+25 -2.04625 4.7953 271.903 
-8.83992e-06 -2.15025e-06 2.69343e+25 -3.01797 4.97474 271.745 
-6.92858e-06 -2.15025e-06 2.69207e+25 -4.17321 4.61118 271.966 
-5.01725e-06 -2.15025e-06 2.69152e+25 -5.16293 4.19127 271.996 
-3.10592e-06 -2.15025e-06 2.69022e+25 -6.08545 3.08151 272.016 
-1.19458e-06 -2.15025e-06 2.69104e+25 -6.79922 2.012 271.938 
-1.64852e-05 -1.67242e-06 2.68672e+25 -0.0343368 1.0101 272.523 
-1.45739e-05 -1.67242e-06 2.69019e+25 -0.337526 3.02862 272.104 
-1.26626e-05 -1.67242e-06 2.69233e+25 -1.25451 4.40695 271.898 
-1.07512e-05 -1.67242e-06 2.69196e+25 -2.24075 4.98459 271.904 
-8.83992e-06 -1.67242e-06 2.69257e+25 -2.99361 5.2846 271.808 
-6.92858e-06 -1.67242e-06 2.691e+25 -4.22727 4.85757 271.926 
-5.01725e-06 -1.67242e-06 2.69099e+25 -5.14905 4.4255 271.971 
-3.10592e-06 -1.67242e-06 2.69028e+25 -6.14539 3.30422 272.027 
-1.19458e-06 -1.67242e-06 2.69124e+25 -6.95071 2.27056 271.948 
-1.64852e-05 -1.19458e-06 2.68573e+25 0.033358 1.01194 272.623 
-1.45739e-05 -1.19458e-06 2.68846e+25 -0.391179 3.23568 272.251 
-1.26626e-05 -1.19458e-06 2.69201e+25 -1.25723 4.60924 271.894 
-1.07512e-05 -1.19458e-06 2.69271e+25 -2.18873 5.20454 271.853 
-8.83992e-06 -1.19458e-06 2.69311e+25 -3.03958 5.53166 271.824 
-6.92858e-06 -1.19458e-06 2.6929e+25 -4.03713 5.17494 271.832 
-5.01725e-06 -1.19458e-06 2.69238e+25 -5.1136 4.61587 271.86 
-3.10592e-06 -1.19458e-06 2.69189e+25 -6.12198 3.5224 271.939 
-1.19458e-06 -1.19458e-06 2.6907e+25 -7.03098 2.44112 271.987 
-1.64852e-05 -7.1675e-07 2.68633e+25 -0.00372851 1.01122 272.554 
-1.45739e-05 -7.1675e-07 2.69009e+25 -0.403907 3.48757 272.117 
-1.26626e-05 -7.1675e-07 2.69283e+25 -1.32017 4.79012 271.89 
-1.07512e-05 -7.1675e-07 2.69117e+25 -2.10597 5.38205 271.945 
-8.83992e-06 -7.1675e-07 2.69226e+25 -3.08023 5.76038 271.828 
-6.92858e-06 -7.1675e-07 2.69042e+25 -4.00637 5.53432 271.921 
-5.01725e-06 -7.1675e-07 2.69024e+25 -5.16428 4.75797 271.979 
-3.10592e-06 -7.1675e-07 2.69244e+25 -6.1334 3.70226 271.854 
-1.19458e-06 -7.1675e-07 2.69015e+25 -7.08986 2.60621 272 
-1.64852e-05 -2.38917e-07 2.68449e+25 -0.054315 1.03362 272.531 
-1.45739e-05 -2.38917e-07 2.68882e+25 -0.3951 3.63368 272.007 
-1.26626e-05 -2.38917e-07 2.68876e+25 -1.23921 5.04818 271.977 
-1.07512e-05 -2.38917e-07 2.68848e+25 -2.0963 5.6025 271.959 
-8.83992e-06 -2.38917e-07 2.68984e+25 -3.02819 5.99759 271.894 
-6.92858e-06 -2.38917e-07 2.68797e+25 -3.92842 5.81292 271.946 
-5.01725e-06 -2.38917e-07 2.68919e+25 -5.15402 4.96884 271.972 
-3.10592e-06 -2.38917e-07 2.69003e+25 -6.04756 4.01856 271.88 
-1.19458e-06 -2.38917e-07 2.6874e+25 -6.98817 2.80448 272.079 
-1.60074e-05 -1.69631e-05 2.68444e+25 0.0536164 0.0320652 272.866 
-1.40961e-05 -1.69631e-05 2.68444e+25 0.0254789 -0.019285 272.774 
-1.21847e-05 -1.69631e-05 2.68437e+25 -0.0511553 -0.0170888 272.792 
-1.02734e-05 -1.69631e-05 2.68393e+25 -0.0565043 -0.0480114 272.84 
-8.36208e-06 -1.69631e-05 2.68467e+25 -0.146618 0.023853 272.878 
-6.45075e-06 -1.69631e-05 2.68489e+25 -0.120291 0.03278 272.744 
-4.53942e-06 -1.69631e-05 2.68494e+25 -0.123525 -0.0242611 272.787 
-2.62808e-06 -1.69631e-05 2.68467e+25 -0.254614 0.0112178 272.818 
-7.1675e-07 -1.69631e-05 2.68464e+25 -0.158236 -0.0161474 272.851 
-1.60074e-05 -1.64852e-05 2.68817e+25 0.122234 0.0150833 272.461 
-1.40961e-05 -1.64852e-05 2.6874e+25 0.0145446 -0.0282713 272.521 
-1.21847e-05 -1.64852e-05 2.68701e+25 -0.0325088 0.0213228 272.499 
-1.02734e-05 -1.64852e-05 2.68555e+25 -0.13314 -0.0145883 272.658 
-8.36208e-06 -1.64852e-05 2.68748e+25 -0.142922 0.0014286 272.482 
-6.45075e-06 -1.64852e-05 2.68784e+25 -0.271394 0.146506 272.434 
-4.53942e-06 -1.64852e-05 2.68737e+25 -0.446511 -0.0540105 272.455 
-2.62808e-06 -1.64852e-05 2.68681e+25 -0.503888 0.0363689 272.56 
-7.1675e-07 -1.64852e-05 2.68682e+25 -0.431338 -0.0610226 272.547 
-1.60074e-05 -1.60074e-05 2.69011e+25 0.0805902 -0.0297162 272.335 
-1.40961e-05 -1.60074e-05 2.68858e+25 -0.0111575 -0.0289487 272.328 
-1.21847e-05 -1.60074e-05 2.68924e+25 0.0263258 0.0384826 272.259 
-1.02734e-05 -1.60074e-05 2.68694e+25 -0.119571 0.130941 272.488 
-8.36208e-06 -1.60074e-05 2.68832e+25 -0.267496 -0.0494771 272.343 
-6.45075e-06 -1.60074e-05 2.68961e+25 -0.448402 0.191002 272.228 
-4.53942e-06 -1.60074e-05 2.68983e+25 -0.702591 -0.107792 272.276 
-2.62808e-06 -1.60074e-05 2.6891e+25 -0.817092 0.0500257 272.321 
-7.1675e-07 -1.60074e-05 2.68783e+25 -0.790516 -0.0672033 272.481 
-1.60074e-05 -1.55296e-05 2.68857e+25 -0.00604396 -0.0612303 272.32 
-1.40961e-05 -1.55296e-05 2.69028e+25 -0.0283326 -0.0134866 272.163 
-1.21847e-05 -1.55296e-05 2.68956e+25 -0.0252407 0.0356033 272.22 
-1.02734e-05 -1.55296e-05 2.68807e+25 -0.142883 0.261152 272.366 
-8.36208e-06 -1.55296e-05 2.68917e+25 -0.383407 -0.0541633 272.261 
-6.45075e-06 -1.55296e-05 2.6908e+25 -0.675044 0.267915 272.081 
-4.53942e-06 -1.55296e-05 2.69047e+25 -1.01735 -0.0503106 272.185 
-2.62808e-06 -1.55296e-05 2.68978e+25 -0.952603 0.0825707 272.191 
-7.1675e-07 -1.55296e-05 2.68755e+25 -1.14887 -0.00514507 272.431 
-1.60074e-05 -1.50517e-05 2.6882e+25 -0.0277635 -0.0912024 272.405 
-1.40961e-05 -1.50517e-05 2.69172e+25 0.118814 0.00223898 272.119 
-1.21847e-05 -1.50517e-05 2.69027e+25 -0.0447828 0.0628616 272.139 
-1.02734e-05 -1.50517e-05 2.68916e+25 -0.208863 0.299953 272.286 
-8.36208e-06 -1.50517e-05 2.69068e+25 -0.652395 0.0107563 272.168 
-6.45075e-06 -1.50517e-05 2.69131e+25 -0.932883 0.326381 272.09 
-4.53942e-06 -1.50517e-05 2.69209e+25 -1.22775 0.00977402 272.097 
-2.62808e-06 -1.50517e-05 2.69119e+25 -1.2373 0.0918911 272.114 
-7.1675e-07 -1.50517e-05 2.68956e+25 -1.51095 0.0559941 272.276 
-1.60074e-05 -1.45739e-05 2.68958e+25 0.0102531 -0.155588 272.314 
-1.40961e-05 -1.45739e-05 2.69129e+25 0.00391846 0.0157393 272.076 
-1.21847e-05 -1.45739e-05 2.6909e+25 -0.145472 0.0766142 272.119 
-1.02734e-05 -1.45739e-05 2.69107e+25 -0.36935 0.277386 272.072 
-8.36208e-06 -1.45739e-05 2.68959e+25 -0.792014 0.111709 272.226 
-6.45075e-06 -1.45739e-05 2.6915e+25 -1.10142 0.44846 271.994 
-4.53942e-06 -1.45739e-05 2.69099e+25 -1.47173 0.0491706 272.149 
-2.62808e-06 -1.45739e-05 2.69211e+25 -1.59993 0.187734 272.023 
-7.1675e-07 -1.45739e-05 2.68869e+25 -1.75451 0.0423246 272.277 
-1.60074e-05 -1.40961e-05 2.68919e+25 -0.0390157 -0.105308 272.347 
-1.40961e-05 -1.40961e-05 2.69262e+25 -0.16427 0.0220004 272.052 
-1.21847e-05 -1.40961e-05 2.69176e+25 -0.317519 0.123267 272.068 
-1.02734e-05 -1.40961e-05 2.69138e+25 -0.555023 0.307809 272.025 
-8.36208e-06 -1.40961e-05 2.6904e+25 -0.825233 0.244761 272.133 
-6.45075e-06 -1.40961e-05 2.69316e+25 -1.24 0.565588 271.923 
-4.53942e-06 -1.40961e-05 2.69197e+25 -1.67025 0.13523 271.999 
-2.62808e-06 -1.40961e-05 2.69159e+25 -1.80549 0.246722 272.059 
-7.1675e-07 -1.40961e-05 2.69011e+25 -1.91636 0.0649605 272.162 
-1.60074e-05 -1.36182e-05 2.68809e+25 -0.0862056 -0.0459751 272.396 
-1.40961e-05 -1.36182e-05 2.69204e+25 -0.31588 0.136597 272.008 
-1.21847e-05 -1.36182e-05 2.69206e+25 -0.552193 0.171954 271.982 
-1.02734e-05 -1.36182e-05 2.69195e+25 -0.778762 0.361393 271.973 
-8.36208e-06 -1.36182e-05 2.69139e+25 -1.04939 0.435018 272.029 
-6.45075e-06 -1.36182e-05 2.69247e+25 -1.52058 0.616356 271.932 
-4.53942e-06 -1.36182e-05 2.69257e+25 -1.83985 0.224794 272 
-2.62808e-06 -1.36182e-05 2.69156e+25 -1.95049 0.218098 272.052 
-7.1675e-07 -1.36182e-05 2.68939e+25 -2.02258 0.0810351 272.157 
-1.60074e-05 -1.31404e-05 2.68836e+25 -0.0677159 -0.00888896 272.362 
-1.40961e-05 -1.31404e-05 2.69174e+25 -0.28355 0.189223 272.036 
-1.21847e-05 -1.31404e-05 2.69277e+25 -0.483381 0.19385 271.938 
-1.02734e-05 -1.31404e-05 2.6927e+25 -0.784984 0.489067 271.984 
-8.36208e-06 -1.31404e-05 2.69262e+25 -1.20209 0.652129 271.91 
-6.45075e-06 -1.31404e-05 2.69215e+25 -1.66486 0.653603 271.9 
-4.53942e-06 -1.31404e-05 2.69447e+25 -1.80836 0.351637 271.771 
-2.62808e-06 -1.31404e-05 2.69296e+25 -2.14079 0.146717 272.036 
-7.1675e-07 -1.31404e-05 2.69035e+25 -2.24266 0.0712572 272.14 
-1.60074e-05 -1.26626e-05 2.69033e+25 -0.048889 0.072405 272.252 
-1.40961e-05 -1.26626e-05 2.6922e+25 -0.204138 0.252656 272.037 
-1.21847e-05 -1.26626e-05 2.69357e+25 -0.494028 0.250977 271.851 
-1.02734e-05 -1.26626e-05 2.69126e+25 -1.0328 0.5895 272.036 
-8.36208e-06 -1.26626e-05 2.69358e+25 -1.38268 0.748248 271.865 
-6.45075e-06 -1.26626e-05 2.69217e+25 -1.90067 0.706971 271.963 
-4.53942e-06 -1.26626e-05 2.69254e+25 -1.92538 0.470514 271.839 
-2.62808e-06 -1.26626e-05 2.69231e+25 -2.38906 0.166696 272.02 
-7.1675e-07 -1.26626e-05 2.69215e+25 -2.30339 0.0142683 272.015 
-1.60074e-05 -1.21847e-05 2.68896e+25 0.00652754 0.178195 272.324 
-1.40961e-05 -1.21847e-05 2.69305e+25 -0.262157 0.296125 272.002 
-1.21847e-05 -1.21847e-05 2.69223e+25 -0.565554 0.425188 271.946 
-1.02734e-05 -1.21847e-05 2.69135e+25 -1.16382 0.775167 272.032 
-8.36208e-06 -1.21847e-05 2.69172e+25 -1.6063 0.903802 271.94 
-6.45075e-06 -1.21847e-05 2.69257e+25 -1.95687 0.751824 271.924 
-4.53942e-06 -1.21847e-05 2.69267e+25 -2.12464 0.527674 271.891 
-2.62808e-06 -1.21847e-05 2.69156e+25 -2.42569 0.205105 272.054 
-7.1675e-07 -1.21847e-05 2.69293e+25 -2.61083 0.00935737 271.907 
-1.60074e-05 -1.17069e-05 2.68942e+25 -0.0457792 0.180366 272.253 
-1.40961e-05 -1.17069e-05 2.69314e+25 -0.292241 0.337262 271.866 
-1.21847e-05 -1.17069e-05 2.69124e+25 -0.755525 0.549823 272.038 
-1.02734e-05 -1.17069e-05 2.69164e+25 -1.28362 0.927615 272.05 
-8.36208e-06 -1.17069e-05 2.69226e+25 -1.78518 0.967807 271.95 
-6.45075e-06 -1.17069e-05 2.69288e+25 -2.04296 0.849065 271.982 
-4.53942e-06 -1.17069e-05 2.69319e+25 -2.32165 0.582514 271.921 
-2.62808e-06 -1.17069e-05 2.69238e+25 -2.63999 0.302547 271.984 
-7.1675e-07 -1.17069e-05 2.69313e+25 -2.84257 0.0770106 271.925 
-1.60074e-05 -1.12291e-05 2.68968e+25 -0.0747531 0.232188 272.247 
-1.40961e-05 -1.12291e-05 2.69291e+25 -0.385013 0.461663 271.906 
-1.21847e-05 -1.12291e-05 2.69126e+25 -0.712353 0.690532 272.103 
-1.02734e-05 -1.12291e-05 2.69214e+25 -1.19814 1.08925 272.026 
-8.36208e-06 -1.12291e-05 2.69175e+25 -1.94387 1.05736 271.985 
-6.45075e-06 -1.12291e-05 2.69195e+25 -2.19483 0.934977 272.005 
-4.53942e-06 -1.12291e-05 2.69344e+25 -2.64056 0.673908 271.82 
-2.62808e-06 -1.12291e-05 2.69243e+25 -2.87067 0.431363 272.079 
-7.1675e-07 -1.12291e-05 2.69398e+25 -3.10346 0.177702 271.869 
-1.60074e-05 -1.07512e-05 2.6897e+25 -0.0453363 0.302607 272.264 
-1.40961e-05 -1.07512e-05 2.69249e+25 -0.440827 0.567577 271.993 
-1.21847e-05 -1.07512e-05 2.69226e+25 -0.802641 0.82435 271.99 
-1.02734e-05 -1.07512e-05 2.69233e+25 -1.32193 1.18987 271.983 
-8.36208e-06 -1.07512e-05 2.69156e+25 -2.14355 1.17575 272.025 
-6.45075e-06 -1.07512e-05 2.69286e+25 -2.37658 0.940786 271.974 
-4.53942e-06 -1.07512e-05 2.69293e+25 -2.76685 0.714238 271.853 
-2.62808e-06 -1.07512e-05 2.69129e+25 -3.13778 0.513095 272.081 
-7.1675e-07 -1.07512e-05 2.69268e+25 -3.45934 0.209033 271.845 
-1.60074e-05 -1.02734e-05 2.68988e+25 -0.0793012 0.360421 272.197 
-1.40961e-05 -1.02734e-05 2.69267e+25 -0.373513 0.693373 272.007 
-1.21847e-05 -1.02734e-05 2.69255e+25 -0.979637 0.896703 271.935 
-1.02734e-05 -1.02734e-05 2.69206e+25 -1.57105 1.25513 271.995 
-8.36208e-06 -1.02734e-05 2.69225e+25 -2.31258 1.37049 271.91 
-6.45075e-06 -1.02734e-05 2.69201e+25 -2.67331 0.929596 271.975 
-4.53942e-06 -1.02734e-05 2.69331e+25 -2.94144 0.808645 271.879 
-2.62808e-06 -1.02734e-05 2.6906e+25 -3.58888 0.630652 272.128 
-7.1675e-07 -1.02734e-05 2.69273e+25 -3.74416 0.249091 271.9 
-1.60074e-05 -9.79558e-06 2.69002e+25 -0.128897 0.310632 272.175 
-1.40961e-05 -9.79558e-06 2.69147e+25 -0.277176 0.805589 272.02 
-1.21847e-05 -9.79558e-06 2.69294e+25 -1.05478 1.03217 271.8 
-1.02734e-05 -9.79558e-06 2.69247e+25 -1.63822 1.45237 271.983 
-8.36208e-06 -9.79558e-06 2.69178e+25 -2.24388 1.54061 271.933 
-6.45075e-06 -9.79558e-06 2.69096e+25 -2.88779 1.08949 272.08 
-4.53942e-06 -9.79558e-06 2.69284e+25 -3.34224 0.881403 271.868 
-2.62808e-06 -9.79558e-06 2.69078e+25 -3.79462 0.725232 272.084 
-7.1675e-07 -9.79558e-06 2.69236e+25 -3.9306 0.193315 271.924 
-1.60074e-05 -9.31775e-06 2.68961e+25 -0.061564 0.366087 272.264 
-1.40961e-05 -9.31775e-06 2.69244e+25 -0.323635 0.961647 271.912 
-1.21847e-05 -9.31775e-06 2.69419e+25 -0.95409 1.19986 271.761 
-1.02734e-05 -9.31775e-06 2.69319e+25 -1.75433 1.65831 271.955 
-8.36208e-06 -9.31775e-06 2.69266e+25 -2.2599 1.66042 272.042 
-6.45075e-06 -9.31775e-06 2.69174e+25 -3.03497 1.26655 272.024 
-4.53942e-06 -9.31775e-06 2.69268e+25 -3.68933 1.05279 271.865 
-2.62808e-06 -9.31775e-06 2.69109e+25 -4.054 0.817897 272.071 
-7.1675e-07 -9.31775e-06 2.69285e+25 -4.09893 0.154847 271.944 
-1.60074e-05 -8.83992e-06 2.6884e+25 -0.0873468 0.401881 272.378 
-1.40961e-05 -8.83992e-06 2.69175e+25 -0.371617 1.07568 271.956 
-1.21847e-05 -8.83992e-06 2.69409e+25 -0.93601 1.36429 271.779 
-1.02734e-05 -8.83992e-06 2.69286e+25 -1.79518 1.88133 271.97 
-8.36208e-06 -8.83992e-06 2.69103e+25 -2.35189 1.77265 272.145 
-6.45075e-06 -8.83992e-06 2.69114e+25 -3.33097 1.4916 272.035 
-4.53942e-06 -8.83992e-06 2.69351e+25 -3.94095 1.20901 271.895 
-2.62808e-06 -8.83992e-06 2.69116e+25 -4.32495 0.92214 272.128 
-7.1675e-07 -8.83992e-06 2.69198e+25 -4.51012 0.114285 272.041 
-1.60074e-05 -8.36208e-06 2.68899e+25 -0.166418 0.440935 272.385 
-1.40961e-05 -8.36208e-06 2.69197e+25 -0.499196 1.17642 272.032 
-1.21847e-05 -8.36208e-06 2.6939e+25 -1.03017 1.5914 271.838 
-1.02734e-05 -8.36208e-06 2.6934e+25 -1.78415 1.99325 271.867 
-8.36208e-06 -8.36208e-06 2.69152e+25 -2.51362 1.92212 272.031 
-6.45075e-06 -8.36208e-06 2.69137e+25 -3.43104 1.6996 272.065 
-4.53942e-06 -8.36208e-06 2.69142e+25 -4.08823 1.31673 272 
-2.62808e-06 -8.36208e-06 2.69076e+25 -4.62058 1.00215 272.066 
-7.1675e-07 -8.36208e-06 2.69132e+25 -4.93498 0.123153 272.051 
-1.60074e-05 -7.88425e-06 2.68872e+25 -0.0642834 0.441221 272.297 
-1.40961e-05 -7.88425e-06 2.69237e+25 -0.514374 1.33269 271.949 
-1.21847e-05 -7.88425e-06 2.69308e+25 -1.20673 1.76062 271.853 
-1.02734e-05 -7.88425e-06 2.69329e+25 -1.87353 2.13977 271.904 
-8.36208e-06 -7.88425e-06 2.69272e+25 -2.73045 2.09804 271.938 
-6.45075e-06 -7.88425e-06 2.69206e+25 -3.4745 1.90874 271.975 
-4.53942e-06 -7.88425e-06 2.69176e+25 -4.19887 1.48683 272.037 
-2.62808e-06 -7.88425e-06 2.69234e+25 -4.84535 1.1058 272.037 
-7.1675e-07 -7.88425e-06 2.69124e+25 -5.1835 0.207294 272.038 
-1.60074e-05 -7.40642e-06 2.68892e+25 0.00166224 0.541702 272.237 
-1.40961e-05 -7.40642e-06 2.69249e+25 -0.729563 1.5193 271.982 
-1.21847e-05 -7.40642e-06 2.69356e+25 -1.31203 1.90024 271.845 
-1.02734e-05 -7.40642e-06 2.69177e+25 -1.9403 2.3362 271.924 
-8.36208e-06 -7.40642e-06 2.6927e+25 -2.77297 2.29015 271.907 
-6.45075e-06 -7.40642e-06 2.69179e+25 -3.62954 2.01978 272.026 
-4.53942e-06 -7.40642e-06 2.69117e+25 -4.23307 1.64578 272.048 
-2.62808e-06 -7.40642e-06 2.69174e+25 -4.90026 1.2751 272.068 
-7.1675e-07 -7.40642e-06 2.69198e+25 -5.39097 0.301543 271.988 
-1.60074e-05 -6.92858e-06 2.69108e+25 -0.0201703 0.592229 272.145 
-1.40961e-05 -6.92858e-06 2.69357e+25 -0.57818 1.64736 271.86 
-1.21847e-05 -6.92858e-06 2.6921e+25 -1.25155 2.10567 271.867 
-1.02734e-05 -6.92858e-06 2.6912e+25 -2.05279 2.62337 272.032 
-8.36208e-06 -6.92858e-06 2.69257e+25 -2.90683 2.55457 271.919 
-6.45075e-06 -6.92858e-06 2.69109e+25 -3.77027 2.15041 272.007 
-4.53942e-06 -6.92858e-06 2.69169e+25 -4.33814 1.77757 271.966 
-2.62808e-06 -6.92858e-06 2.69179e+25 -5.02675 1.36624 271.963 
-7.1675e-07 -6.92858e-06 2.69065e+25 -5.39599 0.364117 272.045 
-1.60074e-05 -6.45075e-06 2.69109e+25 -0.0977362 0.666488 272.138 
-1.40961e-05 -6.45075e-06 2.6921e+25 -0.507423 1.80301 271.89 
-1.21847e-05 -6.45075e-06 2.69307e+25 -1.32288 2.33536 271.905 
-1.02734e-05 -6.45075e-06 2.69245e+25 -2.15855 2.812 271.94 
-8.36208e-06 -6.45075e-06 2.69318e+25 -3.0934 2.70846 271.836 
-6.45075e-06 -6.45075e-06 2.69241e+25 -3.82845 2.34495 271.958 
-4.53942e-06 -6.45075e-06 2.69164e+25 -4.50597 1.9911 271.953 
-2.62808e-06 -6.45075e-06 2.69076e+25 -5.19648 1.48408 272.042 
-7.1675e-07 -6.45075e-06 2.69156e+25 -5.63511 0.449779 271.988 
-1.60074e-05 -5.97292e-06 2.69041e+25 -0.203193 0.706431 272.138 
-1.40961e-05 -5.97292e-06 2.69326e+25 -0.685433 1.95971 271.869 
-1.21847e-05 -5.97292e-06 2.69171e+25 -1.37058 2.54689 271.906 
-1.02734e-05 -5.97292e-06 2.69331e+25 -2.34454 3.01821 271.855 
-8.36208e-06 -5.97292e-06 2.69272e+25 -3.15473 2.84068 271.808 
-6.45075e-06 -5.97292e-06 2.692e+25 -3.95188 2.6112 271.944 
-4.53942e-06 -5.97292e-06 2.6918e+25 -4.752 2.13881 271.935 
-2.62808e-06 -5.97292e-06 2.69062e+25 -5.31656 1.68705 272.023 
-7.1675e-07 -5.97292e-06 2.69238e+25 -5.88487 0.557917 271.928 
-1.60074e-05 -5.49508e-06 2.68999e+25 -0.172347 0.817557 272.227 
-1.40961e-05 -5.49508e-06 2.69232e+25 -0.618193 2.10495 271.989 
-1.21847e-05 -5.49508e-06 2.69237e+25 -1.46654 2.80057 271.951 
-1.02734e-05 -5.49508e-06 2.69418e+25 -2.38357 3.17495 271.769 
-8.36208e-06 -5.49508e-06 2.69384e+25 -3.19072 3.09325 271.775 
-6.45075e-06 -5.49508e-06 2.69146e+25 -4.06564 2.84733 271.953 
-4.53942e-06 -5.49508e-06 2.69242e+25 -4.89396 2.28152 271.893 
-2.62808e-06 -5.49508e-06 2.69007e+25 -5.51981 1.87699 272.002 
-7.1675e-07 -5.49508e-06 2.69257e+25 -6.1205 0.622906 271.968 
-1.60074e-05 -5.01725e-06 2.69065e+25 -0.100926 0.949192 272.143 
-1.40961e-05 -5.01725e-06 2.69121e+25 -0.590658 2.31881 272.086 
-1.21847e-05 -5.01725e-06 2.69155e+25 -1.50213 3.00697 271.956 
-1.02734e-05 -5.01725e-06 2.69441e+25 -2.50773 3.38089 271.692 
-8.36208e-06 -5.01725e-06 2.69383e+25 -3.20997 3.36885 271.719 
-6.45075e-06 -5.01725e-06 2.69109e+25 -4.2063 3.09977 271.984 
-4.53942e-06 -5.01725e-06 2.69252e+25 -5.20852 2.44762 271.916 
-2.62808e-06 -5.01725e-06 2.69154e+25 -5.76125 1.95926 271.936 
-7.1675e-07 -5.01725e-06 2.69294e+25 -6.3605 0.73666 271.912 
-1.60074e-05 -4.53942e-06 2.6909e+25 -0.0682451 1.07726 272.111 
-1.40961e-05 -4.53942e-06 2.69124e+25 -0.628303 2.48238 272.031 
-1.21847e-05 -4.53942e-06 2.6923e+25 -1.4802 3.30937 271.917 
-1.02734e-05 -4.53942e-06 2.694e+25 -2.49875 3.62945 271.711 
-8.36208e-06 -4.53942e-06 2.69335e+25 -3.20833 3.67245 271.801 
-6.45075e-06 -4.53942e-06 2.69154e+25 -4.23384 3.34316 272.037 
-4.53942e-06 -4.53942e-06 2.69269e+25 -5.24522 2.73928 271.843 
-2.62808e-06 -4.53942e-06 2.69153e+25 -5.8294 2.0253 271.95 
-7.1675e-07 -4.53942e-06 2.69116e+25 -6.40388 0.944577 271.971 
-1.60074e-05 -4.06158e-06 2.6898e+25 -0.121656 1.22887 272.204 
-1.40961e-05 -4.06158e-06 2.69111e+25 -0.700862 2.61206 272.078 
-1.21847e-05 -4.06158e-06 2.69175e+25 -1.47111 3.53356 271.927 
-1.02734e-05 -4.06158e-06 2.69396e+25 -2.4018 3.83276 271.768 
-8.36208e-06 -4.06158e-06 2.69422e+25 -3.44645 3.92715 271.717 
-6.45075e-06 -4.06158e-06 2.6896e+25 -4.14549 3.55005 272.115 
-4.53942e-06 -4.06158e-06 2.69077e+25 -5.208 3.02942 271.97 
-2.62808e-06 -4.06158e-06 2.69228e+25 -5.96831 2.09698 271.879 
-7.1675e-07 -4.06158e-06 2.69128e+25 -6.38938 1.093 271.998 
-1.60074e-05 -3.58375e-06 2.68867e+25 -0.207702 1.38501 272.274 
-1.40961e-05 -3.58375e-06 2.6906e+25 -0.595 2.71393 272.045 
-1.21847e-05 -3.58375e-06 2.69213e+25 -1.33894 3.74773 271.875 
-1.02734e-05 -3.58375e-06 2.69312e+25 -2.22925 4.03576 271.843 
-8.36208e-06 -3.58375e-06 2.69367e+25 -3.41818 4.17885 271.774 
-6.45075e-06 -3.58375e-06 2.69082e+25 -4.208 3.81936 272.036 
-4.53942e-06 -3.58375e-06 2.69096e+25 -5.29932 3.22841 272.058 
-2.62808e-06 -3.58375e-06 2.69211e+25 -6.08455 2.22254 271.914 
-7.1675e-07 -3.58375e-06 2.69155e+25 -6.5951 1.17652 272.049 
-1.60074e-05 -3.10592e-06 2.68911e+25 -0.226725 1.43699 272.222 
-1.40961e-05 -3.10592e-06 2.69115e+25 -0.68178 2.83097 271.997 
-1.21847e-05 -3.10592e-06 2.692e+25 -1.3323 4.01601 271.947 
-1.02734e-05 -3.10592e-06 2.69231e+25 -2.1937 4.27412 271.853 
-8.36208e-06 -3.10592e-06 2.69369e+25 -3.33339 4.41218 271.762 
-6.45075e-06 -3.10592e-06 2.69065e+25 -4.44589 4.08116 272.057 
-4.53942e-06 -3.10592e-06 2.69125e+25 -5.46387 3.43948 272.065 
-2.62808e-06 -3.10592e-06 2.69182e+25 -6.17841 2.42209 271.929 
-7.1675e-07 -3.10592e-06 2.68993e+25 -6.73981 1.25777 272.074 
-1.60074e-05 -2.62808e-06 2.68912e+25 -0.100053 1.47866 272.265 
-1.40961e-05 -2.62808e-06 2.69116e+25 -0.595319 2.99117 271.973 
-1.21847e-05 -2.62808e-06 2.69077e+25 -1.4309 4.24967 272.04 
-1.02734e-05 -2.62808e-06 2.69228e+25 -2.20639 4.481 271.933 
-8.36208e-06 -2.62808e-06 2.69322e+25 -3.22606 4.68381 271.731 
-6.45075e-06 -2.62808e-06 2.69109e+25 -4.44628 4.26354 272.026 
-4.53942e-06 -2.62808e-06 2.69119e+25 -5.45537 3.6872 272.044 
-2.62808e-06 -2.62808e-06 2.69251e+25 -6.25061 2.66005 271.92 
-7.1675e-07 -2.62808e-06 2.69094e+25 -6.95652 1.40554 272.051 
-1.60074e-05 -2.15025e-06 2.68727e+25 -0.124499 1.60018 272.432 
-1.40961e-05 -2.15025e-06 2.68984e+25 -0.603543 3.15984 272.081 
-1.21847e-05 -2.15025e-06 2.69154e+25 -1.47926 4.41544 271.935 
-1.02734e-05 -2.15025e-06 2.69312e+25 -2.32796 4.70857 271.896 
-8.36208e-06 -2.15025e-06 2.6939e+25 -3.3543 4.9688 271.701 
-6.45075e-06 -2.15025e-06 2.69084e+25 -4.42064 4.49155 272.055 
-4.53942e-06 -2.15025e-06 2.69085e+25 -5.45309 3.87721 272.057 
-2.62808e-06 -2.15025e-06 2.69144e+25 -6.29614 2.88082 271.903 
-7.1675e-07 -2.15025e-06 2.69098e+25 -7.05031 1.63686 271.928 
-1.60074e-05 -1.67242e-06 2.68717e+25 -0.0263476 1.68268 272.375 
-1.40961e-05 -1.67242e-06 2.69104e+25 -0.563533 3.37168 272.089 
-1.21847e-05 -1.67242e-06 2.6911e+25 -1.45789 4.6466 271.965 
-1.02734e-05 -1.67242e-06 2.6921e+25 -2.44655 4.99378 271.871 
-8.36208e-06 -1.67242e-06 2.69278e+25 -3.29865 5.32139 271.831 
-6.45075e-06 -1.67242e-06 2.69035e+25 -4.49677 4.79735 272.014 
-4.53942e-06 -1.67242e-06 2.68966e+25 -5.29646 4.09335 272.092 
-2.62808e-06 -1.67242e-06 2.69098e+25 -6.35419 3.05706 272.006 
-7.1675e-07 -1.67242e-06 2.69146e+25 -7.15484 1.86325 271.875 
-1.60074e-05 -1.19458e-06 2.6868e+25 0.0755502 1.66511 272.43 
-1.40961e-05 -1.19458e-06 2.68971e+25 -0.659603 3.62428 272.148 
-1.21847e-05 -1.19458e-06 2.6915e+25 -1.46203 4.8592 271.897 
-1.02734e-05 -1.19458e-06 2.6932e+25 -2.40021 5.20814 271.746 
-8.36208e-06 -1.19458e-06 2.69233e+25 -3.27144 5.5938 271.852 
-6.45075e-06 -1.19458e-06 2.69132e+25 -4.42965 5.11312 271.981 
-4.53942e-06 -1.19458e-06 2.69003e+25 -5.36735 4.338 272.041 
-2.62808e-06 -1.19458e-06 2.6917e+25 -6.27038 3.22587 271.8 
-7.1675e-07 -1.19458e-06 2.69055e+25 -7.23535 2.1099 271.991 
-1.60074e-05 -7.1675e-07 2.68756e+25 -0.00478587 1.64736 272.354 
-1.40961e-05 -7.1675e-07 2.69036e+25 -0.607704 3.86145 272.069 
-1.21847e-05 -7.1675e-07 2.69164e+25 -1.5148 5.05561 271.968 
-1.02734e-05 -7.1675e-07 2.6924e+25 -2.28508 5.47265 271.882 
-8.36208e-06 -7.1675e-07 2.69141e+25 -3.25427 5.76036 271.744 
-6.45075e-06 -7.1675e-07 2.69062e+25 -4.25036 5.39779 271.974 
-4.53942e-06 -7.1675e-07 2.68941e+25 -5.35282 4.61899 272.046 
-2.62808e-06 -7.1675e-07 2.69365e+25 -6.36211 3.42991 271.745 
-7.1675e-07 -7.1675e-07 2.69074e+25 -7.22311 2.3082 271.899 
-1.60074e-05 -2.38917e-07 2.68451e+25 -0.0929108 1.67044 272.382 
-1.40961e-05 -2.38917e-07 2.68794e+25 -0.558837 4.10031 271.997 
-1.21847e-05 -2.38917e-07 2.68926e+25 -1.46863 5.2701 271.983 
-1.02734e-05 -2.38917e-07 2.6897e+25 -2.34606 5.68321 271.88 
-8.36208e-06 -2.38917e-07 2.69062e+25 -3.28251 5.95932 271.813 
-6.45075e-06 -2.38917e-07 2.68749e+25 -4.25203 5.70772 271.989 
-4.53942e-06 -2.38917e-07 2.68902e+25 -5.33703 4.81215 271.909 
-2.62808e-06 -2.38917e-07 2.68941e+25 -6.36289 3.73505 271.853 
-7.1675e-07 -2.38917e-07 2.68779e+25 -7.14742 2.42537 272.028 
-1.55296e-05 -1.69631e-05 2.68494e+25 0.00707776 -0.00223281 272.759 
-1.36182e-05 -1.69631e-05 2.68336e+25 0.0217884 0.0264077 272.842 
-1.17069e-05 -1.69631e-05 2.685e+25 -0.00615261 -0.00423648 272.814 
-9.79558e-06 -1.69631e-05 2.68494e+25 -0.0618173 0.0400659 272.74 
-7.88425e-06 -1.69631e-05 2.68521e+25 -0.120555 -0.0368063 272.804 
-5.97292e-06 -1.69631e-05 2.68565e+25 -0.176413 -0.000661563 272.709 
-4.06158e-06 -1.69631e-05 2.68465e+25 -0.116671 0.0119338 272.799 
-2.15025e-06 -1.69631e-05 2.68452e+25 -0.243917 -0.0225146 272.819 
-2.38917e-07 -1.69631e-05 2.68288e+25 -0.108389 -0.0387039 272.8 
-1.55296e-05 -1.64852e-05 2.68739e+25 0.123902 0.055781 272.509 
-1.36182e-05 -1.64852e-05 2.68683e+25 0.0406665 0.0342717 272.545 
-1.17069e-05 -1.64852e-05 2.68743e+25 -0.0890288 0.00948325 272.484 
-9.79558e-06 -1.64852e-05 2.68689e+25 -0.217805 0.0783013 272.544 
-7.88425e-06 -1.64852e-05 2.68682e+25 -0.147918 -0.0651178 272.539 
-5.97292e-06 -1.64852e-05 2.68722e+25 -0.333092 0.00522368 272.489 
-4.06158e-06 -1.64852e-05 2.68733e+25 -0.401536 -0.0154646 272.525 
-2.15025e-06 -1.64852e-05 2.68704e+25 -0.498228 -0.03668 272.635 
-2.38917e-07 -1.64852e-05 2.68417e+25 -0.410673 -0.00905687 272.498 
-1.55296e-05 -1.60074e-05 2.68837e+25 0.0861811 0.0638255 272.389 
-1.36182e-05 -1.60074e-05 2.68866e+25 -0.0706733 0.0217678 272.325 
-1.17069e-05 -1.60074e-05 2.68957e+25 0.0396964 -0.0405127 272.306 
-9.79558e-06 -1.60074e-05 2.68918e+25 -0.289299 0.179528 272.363 
-7.88425e-06 -1.60074e-05 2.6874e+25 -0.294723 0.0240252 272.429 
-5.97292e-06 -1.60074e-05 2.68986e+25 -0.537869 0.136907 272.163 
-4.06158e-06 -1.60074e-05 2.68937e+25 -0.684922 0.021509 272.301 
-2.15025e-06 -1.60074e-05 2.68834e+25 -0.802747 -0.0750025 272.42 
-2.38917e-07 -1.60074e-05 2.68572e+25 -0.83248 0.0296622 272.405 
-1.55296e-05 -1.55296e-05 2.68813e+25 0.00924927 0.062503 272.316 
-1.36182e-05 -1.55296e-05 2.68917e+25 0.0167991 0.0285784 272.238 
-1.17069e-05 -1.55296e-05 2.68926e+25 -0.0501813 -0.065113 272.274 
-9.79558e-06 -1.55296e-05 2.68927e+25 -0.248693 0.292324 272.266 
-7.88425e-06 -1.55296e-05 2.689e+25 -0.430503 0.124237 272.269 
-5.97292e-06 -1.55296e-05 2.69208e+25 -0.786682 0.255966 272.002 
-4.06158e-06 -1.55296e-05 2.69045e+25 -1.02499 -0.0185429 272.136 
-2.15025e-06 -1.55296e-05 2.68875e+25 -0.984884 -0.0833703 272.282 
-2.38917e-07 -1.55296e-05 2.68692e+25 -1.19538 0.015202 272.258 
-1.55296e-05 -1.50517e-05 2.68999e+25 0.0365801 0.0475855 272.233 
-1.36182e-05 -1.50517e-05 2.69111e+25 0.0728985 0.0360559 272.115 
-1.17069e-05 -1.50517e-05 2.69015e+25 -0.141102 0.0201154 272.191 
-9.79558e-06 -1.50517e-05 2.69015e+25 -0.23416 0.380433 272.176 
-7.88425e-06 -1.50517e-05 2.69096e+25 -0.697375 0.146137 272.13 
-5.97292e-06 -1.50517e-05 2.69137e+25 -1.00502 0.388913 272.058 
-4.06158e-06 -1.50517e-05 2.6914e+25 -1.26996 -0.0683169 272.067 
-2.15025e-06 -1.50517e-05 2.69101e+25 -1.35798 0.0362004 272.181 
-2.38917e-07 -1.50517e-05 2.68873e+25 -1.49019 -0.00220853 272.16 
-1.55296e-05 -1.45739e-05 2.68955e+25 0.0611123 0.0160226 272.283 
-1.36182e-05 -1.45739e-05 2.69101e+25 0.0109192 0.0730408 272.021 
-1.17069e-05 -1.45739e-05 2.69023e+25 -0.198385 0.166689 272.136 
-9.79558e-06 -1.45739e-05 2.69236e+25 -0.380809 0.413863 272.061 
-7.88425e-06 -1.45739e-05 2.69037e+25 -0.90521 0.186493 272.135 
-5.97292e-06 -1.45739e-05 2.69193e+25 -1.22439 0.45174 272 
-4.06158e-06 -1.45739e-05 2.69104e+25 -1.49483 -0.0545522 272.147 
-2.15025e-06 -1.45739e-05 2.69045e+25 -1.69419 0.166788 272.154 
-2.38917e-07 -1.45739e-05 2.68789e+25 -1.79178 -0.00138306 272.196 
-1.55296e-05 -1.40961e-05 2.68923e+25 -0.11731 -0.0178775 272.283 
-1.36182e-05 -1.40961e-05 2.692e+25 -0.259817 0.12931 271.939 
-1.17069e-05 -1.40961e-05 2.69169e+25 -0.345907 0.186262 272.067 
-9.79558e-06 -1.40961e-05 2.69179e+25 -0.568771 0.417121 272.011 
-7.88425e-06 -1.40961e-05 2.68979e+25 -0.96785 0.300798 272.129 
-5.97292e-06 -1.40961e-05 2.69282e+25 -1.39757 0.628308 271.93 
-4.06158e-06 -1.40961e-05 2.69221e+25 -1.78852 0.00183485 272.024 
-2.15025e-06 -1.40961e-05 2.69112e+25 -1.83059 0.211499 272.103 
-2.38917e-07 -1.40961e-05 2.68816e+25 -1.93479 0.064402 272.113 
-1.55296e-05 -1.36182e-05 2.69032e+25 -0.125558 0.0481 272.212 
-1.36182e-05 -1.36182e-05 2.6918e+25 -0.397394 0.208047 271.977 
-1.17069e-05 -1.36182e-05 2.69174e+25 -0.534645 0.149265 272.024 
-9.79558e-06 -1.36182e-05 2.69214e+25 -0.831147 0.414727 271.942 
-7.88425e-06 -1.36182e-05 2.69153e+25 -1.18996 0.428808 272.087 
-5.97292e-06 -1.36182e-05 2.69136e+25 -1.47197 0.66862 272.034 
-4.06158e-06 -1.36182e-05 2.69185e+25 -1.95078 0.122393 271.992 
-2.15025e-06 -1.36182e-05 2.6903e+25 -1.90837 0.258186 272.138 
-2.38917e-07 -1.36182e-05 2.68975e+25 -1.96759 0.0458265 272.082 
-1.55296e-05 -1.31404e-05 2.68981e+25 -0.124131 0.0983644 272.241 
-1.36182e-05 -1.31404e-05 2.69165e+25 -0.310955 0.255889 272.036 
-1.17069e-05 -1.31404e-05 2.69349e+25 -0.545903 0.209734 271.869 
-9.79558e-06 -1.31404e-05 2.69198e+25 -0.924317 0.509688 271.943 
-7.88425e-06 -1.31404e-05 2.69245e+25 -1.3865 0.556546 271.976 
-5.97292e-06 -1.31404e-05 2.69303e+25 -1.70501 0.648719 271.911 
-4.06158e-06 -1.31404e-05 2.6931e+25 -1.94607 0.232747 271.959 
-2.15025e-06 -1.31404e-05 2.69106e+25 -2.12766 0.240102 272.088 
-2.38917e-07 -1.31404e-05 2.68944e+25 -2.17514 -0.0657288 272.152 
-1.55296e-05 -1.26626e-05 2.68992e+25 -0.147005 0.151307 272.223 
-1.36182e-05 -1.26626e-05 2.69223e+25 -0.258515 0.282322 272.002 
-1.17069e-05 -1.26626e-05 2.69303e+25 -0.6267 0.366012 271.846 
-9.79558e-06 -1.26626e-05 2.69156e+25 -1.09556 0.599532 271.973 
-7.88425e-06 -1.26626e-05 2.69281e+25 -1.54186 0.739921 271.903 
-5.97292e-06 -1.26626e-05 2.69253e+25 -1.8648 0.588589 271.99 
-4.06158e-06 -1.26626e-05 2.69225e+25 -2.01344 0.382191 271.948 
-2.15025e-06 -1.26626e-05 2.69192e+25 -2.41217 0.244815 272.032 
-2.38917e-07 -1.26626e-05 2.68968e+25 -2.28534 -0.0967634 272.052 
-1.55296e-05 -1.21847e-05 2.69017e+25 -0.0364921 0.156837 272.155 
-1.36182e-05 -1.21847e-05 2.69256e+25 -0.3255 0.34424 271.94 
-1.17069e-05 -1.21847e-05 2.69292e+25 -0.729708 0.476478 271.956 
-9.79558e-06 -1.21847e-05 2.6923e+25 -1.32608 0.656063 271.957 
-7.88425e-06 -1.21847e-05 2.69254e+25 -1.69651 0.882711 271.95 
-5.97292e-06 -1.21847e-05 2.69178e+25 -2.05312 0.597725 271.974 
-4.06158e-06 -1.21847e-05 2.69368e+25 -2.18341 0.483229 271.844 
-2.15025e-06 -1.21847e-05 2.69207e+25 -2.47919 0.291238 272.045 
-2.38917e-07 -1.21847e-05 2.69075e+25 -2.61783 -0.0875228 271.924 
-1.55296e-05 -1.17069e-05 2.69102e+25 -0.0504035 0.217938 272.121 
-1.36182e-05 -1.17069e-05 2.69216e+25 -0.384441 0.442212 271.953 
-1.17069e-05 -1.17069e-05 2.69105e+25 -0.833147 0.610614 272.025 
-9.79558e-06 -1.17069e-05 2.6929e+25 -1.46496 0.814617 271.9 
-7.88425e-06 -1.17069e-05 2.69071e+25 -1.8677 1.00131 272.037 
-5.97292e-06 -1.17069e-05 2.69172e+25 -2.17397 0.712889 272.01 
-4.06158e-06 -1.17069e-05 2.69347e+25 -2.43764 0.581833 271.897 
-2.15025e-06 -1.17069e-05 2.69232e+25 -2.74061 0.352192 271.953 
-2.38917e-07 -1.17069e-05 2.69089e+25 -2.93676 -0.0525758 271.931 
-1.55296e-05 -1.12291e-05 2.69092e+25 -0.173056 0.293579 272.091 
-1.36182e-05 -1.12291e-05 2.69284e+25 -0.516775 0.539636 271.979 
-1.17069e-05 -1.12291e-05 2.69174e+25 -0.928797 0.745521 272.067 
-9.79558e-06 -1.12291e-05 2.69309e+25 -1.38713 1.01886 271.926 
-7.88425e-06 -1.12291e-05 2.69203e+25 -2.04385 1.09502 272.024 
-5.97292e-06 -1.12291e-05 2.69271e+25 -2.2685 0.818829 271.969 
-4.06158e-06 -1.12291e-05 2.69241e+25 -2.71075 0.656655 271.959 
-2.15025e-06 -1.12291e-05 2.69205e+25 -2.95044 0.382737 272.01 
-2.38917e-07 -1.12291e-05 2.69092e+25 -3.17844 0.0175643 271.915 
-1.55296e-05 -1.07512e-05 2.69042e+25 -0.179866 0.464298 272.127 
-1.36182e-05 -1.07512e-05 2.69228e+25 -0.53047 0.634892 271.989 
-1.17069e-05 -1.07512e-05 2.69145e+25 -0.919901 0.92189 272.037 
-9.79558e-06 -1.07512e-05 2.6934e+25 -1.44763 1.2474 271.923 
-7.88425e-06 -1.07512e-05 2.69186e+25 -2.26057 1.16549 272.031 
-5.97292e-06 -1.07512e-05 2.69299e+25 -2.39819 0.948834 271.982 
-4.06158e-06 -1.07512e-05 2.69298e+25 -2.82775 0.704664 271.87 
-2.15025e-06 -1.07512e-05 2.69057e+25 -3.20858 0.467607 272.139 
-2.38917e-07 -1.07512e-05 2.69151e+25 -3.43803 0.068621 271.893 
-1.55296e-05 -1.02734e-05 2.6915e+25 -0.0356658 0.524358 272.038 
-1.36182e-05 -1.02734e-05 2.69201e+25 -0.493733 0.739902 271.986 
-1.17069e-05 -1.02734e-05 2.69276e+25 -1.06742 1.0586 271.972 
-9.79558e-06 -1.02734e-05 2.69239e+25 -1.68846 1.41633 271.993 
-7.88425e-06 -1.02734e-05 2.69201e+25 -2.43409 1.23337 272.03 
-5.97292e-06 -1.02734e-05 2.69211e+25 -2.71482 1.00217 271.933 
-4.06158e-06 -1.02734e-05 2.69288e+25 -3.03317 0.825048 271.85 
-2.15025e-06 -1.02734e-05 2.6905e+25 -3.6763 0.515412 272.092 
-2.38917e-07 -1.02734e-05 2.68983e+25 -3.72458 -0.011725 271.984 
-1.55296e-05 -9.79558e-06 2.6914e+25 -0.0891352 0.524326 272.046 
-1.36182e-05 -9.79558e-06 2.69181e+25 -0.418045 0.899849 271.981 
-1.17069e-05 -9.79558e-06 2.69399e+25 -1.16901 1.15522 271.796 
-9.79558e-06 -9.79558e-06 2.6922e+25 -1.83174 1.5309 272.015 
-7.88425e-06 -9.79558e-06 2.69179e+25 -2.36221 1.31387 272.046 
-5.97292e-06 -9.79558e-06 2.69156e+25 -3.03381 1.08299 272.03 
-4.06158e-06 -9.79558e-06 2.69328e+25 -3.40968 0.942714 271.861 
-2.15025e-06 -9.79558e-06 2.68977e+25 -3.86027 0.566463 272.132 
-2.38917e-07 -9.79558e-06 2.68968e+25 -3.8698 -0.0571692 271.975 
-1.55296e-05 -9.31775e-06 2.69027e+25 -0.123128 0.496102 272.135 
-1.36182e-05 -9.31775e-06 2.69281e+25 -0.477428 1.05747 271.912 
-1.17069e-05 -9.31775e-06 2.69491e+25 -1.14082 1.31139 271.703 
-9.79558e-06 -9.31775e-06 2.69119e+25 -1.90693 1.69468 272.033 
-7.88425e-06 -9.31775e-06 2.69072e+25 -2.40524 1.45702 272.129 
-5.97292e-06 -9.31775e-06 2.69266e+25 -3.26518 1.22305 271.895 
-4.06158e-06 -9.31775e-06 2.69124e+25 -3.84265 1.01613 271.994 
-2.15025e-06 -9.31775e-06 2.69084e+25 -4.16223 0.649148 272.124 
-2.38917e-07 -9.31775e-06 2.68967e+25 -4.13542 -0.0250905 272.001 
-1.55296e-05 -8.83992e-06 2.68898e+25 -0.134637 0.541711 272.166 
-1.36182e-05 -8.83992e-06 2.69245e+25 -0.467539 1.188 271.889 
-1.17069e-05 -8.83992e-06 2.69402e+25 -1.17777 1.57808 271.772 
-9.79558e-06 -8.83992e-06 2.69167e+25 -1.94358 1.8209 271.991 
-7.88425e-06 -8.83992e-06 2.69014e+25 -2.50235 1.64861 272.184 
-5.97292e-06 -8.83992e-06 2.69295e+25 -3.50658 1.44729 271.896 
-4.06158e-06 -8.83992e-06 2.69165e+25 -4.07685 1.14437 271.988 
-2.15025e-06 -8.83992e-06 2.69188e+25 -4.42292 0.729485 272.036 
-2.38917e-07 -8.83992e-06 2.68986e+25 -4.49994 0.0673441 272.008 
-1.55296e-05 -8.36208e-06 2.6902e+25 -0.188202 0.585338 272.189 
-1.36182e-05 -8.36208e-06 2.69333e+25 -0.619064 1.31712 271.955 
-1.17069e-05 -8.36208e-06 2.69428e+25 -1.23942 1.7751 271.81 
-9.79558e-06 -8.36208e-06 2.69166e+25 -1.93389 1.98842 272.004 
-7.88425e-06 -8.36208e-06 2.69002e+25 -2.73852 1.86215 272.05 
-5.97292e-06 -8.36208e-06 2.69238e+25 -3.58589 1.57728 272.023 
-4.06158e-06 -8.36208e-06 2.69132e+25 -4.25333 1.29981 272.039 
-2.15025e-06 -8.36208e-06 2.69076e+25 -4.73152 0.863867 272.097 
-2.38917e-07 -8.36208e-06 2.68915e+25 -4.95221 0.0731621 272.02 
-1.55296e-05 -7.88425e-06 2.68939e+25 -0.13689 0.657397 272.258 
-1.36182e-05 -7.88425e-06 2.69215e+25 -0.688786 1.46023 271.957 
-1.17069e-05 -7.88425e-06 2.69363e+25 -1.41897 2.00549 271.891 
-9.79558e-06 -7.88425e-06 2.69287e+25 -2.06762 2.19141 271.911 
-7.88425e-06 -7.88425e-06 2.69297e+25 -2.94499 2.13673 271.901 
-5.97292e-06 -7.88425e-06 2.69237e+25 -3.66295 1.73413 271.973 
-4.06158e-06 -7.88425e-06 2.69027e+25 -4.32716 1.4195 272.093 
-2.15025e-06 -7.88425e-06 2.69134e+25 -4.94494 0.957932 272.072 
-2.38917e-07 -7.88425e-06 2.68978e+25 -5.23787 0.0190729 271.939 
-1.55296e-05 -7.40642e-06 2.69036e+25 -0.0965062 0.756923 272.14 
-1.36182e-05 -7.40642e-06 2.69348e+25 -0.863083 1.57489 271.928 
-1.17069e-05 -7.40642e-06 2.69152e+25 -1.44651 2.18338 271.982 
-9.79558e-06 -7.40642e-06 2.69321e+25 -2.16819 2.39236 271.913 
-7.88425e-06 -7.40642e-06 2.69212e+25 -3.04967 2.39949 271.921 
-5.97292e-06 -7.40642e-06 2.69229e+25 -3.77085 1.93248 272.018 
-4.06158e-06 -7.40642e-06 2.69048e+25 -4.42974 1.55062 272.105 
-2.15025e-06 -7.40642e-06 2.68992e+25 -5.04139 1.06869 272.129 
-2.38917e-07 -7.40642e-06 2.68885e+25 -5.46324 0.0784379 272.095 
-1.55296e-05 -6.92858e-06 2.69177e+25 -0.114454 0.873577 272.051 
-1.36182e-05 -6.92858e-06 2.69344e+25 -0.750848 1.69019 271.903 
-1.17069e-05 -6.92858e-06 2.69194e+25 -1.44338 2.33194 271.925 
-9.79558e-06 -6.92858e-06 2.69102e+25 -2.29802 2.61994 271.988 
-7.88425e-06 -6.92858e-06 2.69249e+25 -3.11432 2.63011 271.955 
-5.97292e-06 -6.92858e-06 2.69017e+25 -3.90684 2.06788 272.099 
-4.06158e-06 -6.92858e-06 2.69022e+25 -4.48164 1.75862 272.008 
-2.15025e-06 -6.92858e-06 2.68987e+25 -5.1099 1.19535 272.063 
-2.38917e-07 -6.92858e-06 2.68846e+25 -5.47962 0.138024 272.055 
-1.55296e-05 -6.45075e-06 2.69291e+25 -0.20037 1.00812 271.981 
-1.36182e-05 -6.45075e-06 2.69336e+25 -0.721382 1.89181 271.827 
-1.17069e-05 -6.45075e-06 2.69378e+25 -1.47492 2.44482 271.878 
-9.79558e-06 -6.45075e-06 2.69238e+25 -2.36007 2.89045 271.898 
-7.88425e-06 -6.45075e-06 2.69354e+25 -3.21274 2.78934 271.896 
-5.97292e-06 -6.45075e-06 2.69192e+25 -4.0131 2.21843 271.96 
-4.06158e-06 -6.45075e-06 2.69123e+25 -4.74581 1.95625 271.982 
-2.15025e-06 -6.45075e-06 2.68955e+25 -5.29738 1.25568 272.202 
-2.38917e-07 -6.45075e-06 2.69019e+25 -5.72645 0.261627 271.958 
-1.55296e-05 -5.97292e-06 2.69178e+25 -0.275441 1.15642 272.076 
-1.36182e-05 -5.97292e-06 2.693e+25 -0.795647 2.04594 271.919 
-1.17069e-05 -5.97292e-06 2.69303e+25 -1.59471 2.6397 271.89 
-9.79558e-06 -5.97292e-06 2.69244e+25 -2.52564 3.05546 271.938 
-7.88425e-06 -5.97292e-06 2.69349e+25 -3.32662 2.90969 271.884 
-5.97292e-06 -5.97292e-06 2.69162e+25 -4.18888 2.39684 271.968 
-4.06158e-06 -5.97292e-06 2.69245e+25 -4.89311 2.15537 271.901 
-2.15025e-06 -5.97292e-06 2.69117e+25 -5.53199 1.39998 272.013 
-2.38917e-07 -5.97292e-06 2.69071e+25 -5.95205 0.318168 271.947 
-1.55296e-05 -5.49508e-06 2.69095e+25 -0.265945 1.20286 272.147 
-1.36182e-05 -5.49508e-06 2.69207e+25 -0.808904 2.22891 272.028 
-1.17069e-05 -5.49508e-06 2.69296e+25 -1.76269 2.89099 271.864 
-9.79558e-06 -5.49508e-06 2.69387e+25 -2.58347 3.22573 271.721 
-7.88425e-06 -5.49508e-06 2.69384e+25 -3.40416 3.08589 271.825 
-5.97292e-06 -5.49508e-06 2.69153e+25 -4.30781 2.65923 272.033 
-4.06158e-06 -5.49508e-06 2.69221e+25 -5.08366 2.33982 271.87 
-2.15025e-06 -5.49508e-06 2.6915e+25 -5.64594 1.60394 271.981 
-2.38917e-07 -5.49508e-06 2.69004e+25 -6.17196 0.381692 271.94 
-1.55296e-05 -5.01725e-06 2.69081e+25 -0.273627 1.33337 272.128 
-1.36182e-05 -5.01725e-06 2.69176e+25 -0.855799 2.45935 272.015 
-1.17069e-05 -5.01725e-06 2.6932e+25 -1.75743 3.21904 271.874 
-9.79558e-06 -5.01725e-06 2.69499e+25 -2.64583 3.38094 271.638 
-7.88425e-06 -5.01725e-06 2.69376e+25 -3.4705 3.29287 271.748 
-5.97292e-06 -5.01725e-06 2.69106e+25 -4.46583 2.91609 272.002 
-4.06158e-06 -5.01725e-06 2.69143e+25 -5.37529 2.51091 271.931 
-2.15025e-06 -5.01725e-06 2.69236e+25 -5.85185 1.74813 271.927 
-2.38917e-07 -5.01725e-06 2.68848e+25 -6.51684 0.464809 272.023 
-1.55296e-05 -4.53942e-06 2.68937e+25 -0.257509 1.54563 272.154 
-1.36182e-05 -4.53942e-06 2.691e+25 -0.836505 2.74624 272.131 
-1.17069e-05 -4.53942e-06 2.6929e+25 -1.76103 3.41724 271.85 
-9.79558e-06 -4.53942e-06 2.69388e+25 -2.70827 3.50517 271.753 
-7.88425e-06 -4.53942e-06 2.69266e+25 -3.52622 3.57014 271.846 
-5.97292e-06 -4.53942e-06 2.69129e+25 -4.48569 3.15466 271.983 
-4.06158e-06 -4.53942e-06 2.6927e+25 -5.4762 2.60077 271.913 
-2.15025e-06 -4.53942e-06 2.69097e+25 -5.93859 1.84374 271.926 
-2.38917e-07 -4.53942e-06 2.68787e+25 -6.50371 0.501474 272.074 
-1.55296e-05 -4.06158e-06 2.69081e+25 -0.252588 1.71505 272.051 
-1.36182e-05 -4.06158e-06 2.69153e+25 -0.814615 2.93471 272.053 
-1.17069e-05 -4.06158e-06 2.69251e+25 -1.69179 3.70575 271.921 
-9.79558e-06 -4.06158e-06 2.69382e+25 -2.59671 3.69518 271.731 
-7.88425e-06 -4.06158e-06 2.69307e+25 -3.6411 3.79743 271.818 
-5.97292e-06 -4.06158e-06 2.6908e+25 -4.36542 3.42873 272.026 
-4.06158e-06 -4.06158e-06 2.69196e+25 -5.43304 2.77585 271.878 
-2.15025e-06 -4.06158e-06 2.69377e+25 -6.03245 1.9675 271.813 
-2.38917e-07 -4.06158e-06 2.68945e+25 -6.5418 0.626466 271.993 
-1.55296e-05 -3.58375e-06 2.6903e+25 -0.300728 1.80243 272.116 
-1.36182e-05 -3.58375e-06 2.69098e+25 -0.707788 3.08707 272.039 
-1.17069e-05 -3.58375e-06 2.69215e+25 -1.60368 3.96506 271.901 
-9.79558e-06 -3.58375e-06 2.69334e+25 -2.57376 3.97394 271.794 
-7.88425e-06 -3.58375e-06 2.69262e+25 -3.6896 4.00242 271.908 
-5.97292e-06 -3.58375e-06 2.69049e+25 -4.55204 3.70779 272.075 
-4.06158e-06 -3.58375e-06 2.69181e+25 -5.50674 3.0147 271.914 
-2.15025e-06 -3.58375e-06 2.69231e+25 -6.26055 2.07172 271.879 
-2.38917e-07 -3.58375e-06 2.68892e+25 -6.68073 0.764171 271.987 
-1.55296e-05 -3.10592e-06 2.68939e+25 -0.252907 1.83519 272.185 
-1.36182e-05 -3.10592e-06 2.69216e+25 -0.740293 3.15109 271.981 
-1.17069e-05 -3.10592e-06 2.69162e+25 -1.6154 4.23482 271.932 
-9.79558e-06 -3.10592e-06 2.69186e+25 -2.44479 4.35805 271.889 
-7.88425e-06 -3.10592e-06 2.69338e+25 -3.56806 4.21557 271.809 
-5.97292e-06 -3.10592e-06 2.68957e+25 -4.63191 3.97726 272.071 
-4.06158e-06 -3.10592e-06 2.69086e+25 -5.652 3.23694 272.03 
-2.15025e-06 -3.10592e-06 2.69119e+25 -6.40131 2.2805 271.945 
-2.38917e-07 -3.10592e-06 2.689e+25 -6.8839 0.871768 272.028 
-1.55296e-05 -2.62808e-06 2.68941e+25 -0.192716 1.94478 272.199 
-1.36182e-05 -2.62808e-06 2.69077e+25 -0.822623 3.27349 272.08 
-1.17069e-05 -2.62808e-06 2.69254e+25 -1.58286 4.40113 271.888 
-9.79558e-06 -2.62808e-06 2.69243e+25 -2.43144 4.67828 271.904 
-7.88425e-06 -2.62808e-06 2.69322e+25 -3.58874 4.5734 271.813 
-5.97292e-06 -2.62808e-06 2.6905e+25 -4.6631 4.18915 272.031 
-4.06158e-06 -2.62808e-06 2.69105e+25 -5.67138 3.39571 271.966 
-2.15025e-06 -2.62808e-06 2.69021e+25 -6.43788 2.43613 271.984 
-2.38917e-07 -2.62808e-06 2.68846e+25 -7.13237 1.05485 271.984 
-1.55296e-05 -2.15025e-06 2.6896e+25 -0.247587 2.0228 272.252 
-1.36182e-05 -2.15025e-06 2.69063e+25 -0.783855 3.51463 272.079 
-1.17069e-05 -2.15025e-06 2.69157e+25 -1.69002 4.57478 271.887 
-9.79558e-06 -2.15025e-06 2.69189e+25 -2.55674 4.92195 271.942 
-7.88425e-06 -2.15025e-06 2.69427e+25 -3.68616 4.92213 271.78 
-5.97292e-06 -2.15025e-06 2.68951e+25 -4.68606 4.45575 271.99 
-4.06158e-06 -2.15025e-06 2.69135e+25 -5.65028 3.60628 271.967 
-2.15025e-06 -2.15025e-06 2.6905e+25 -6.43958 2.56676 271.961 
-2.38917e-07 -2.15025e-06 2.68933e+25 -7.25944 1.26302 271.878 
-1.55296e-05 -1.67242e-06 2.68823e+25 -0.0791685 2.11173 272.35 
-1.36182e-05 -1.67242e-06 2.69101e+25 -0.788082 3.73004 272.06 
-1.17069e-05 -1.67242e-06 2.69219e+25 -1.70122 4.79181 271.892 
-9.79558e-06 -1.67242e-06 2.69291e+25 -2.6544 5.08682 271.827 
-7.88425e-06 -1.67242e-06 2.69338e+25 -3.61643 5.26343 271.819 
-5.97292e-06 -1.67242e-06 2.6907e+25 -4.78776 4.70499 271.986 
-4.06158e-06 -1.67242e-06 2.68967e+25 -5.55594 3.87319 272.114 
-2.15025e-06 -1.67242e-06 2.69026e+25 -6.52429 2.70115 271.992 
-2.38917e-07 -1.67242e-06 2.68982e+25 -7.40546 1.49508 271.94 
-1.55296e-05 -1.19458e-06 2.68834e+25 -0.0203659 2.27098 272.308 
-1.36182e-05 -1.19458e-06 2.69068e+25 -0.900104 3.97823 272.057 
-1.17069e-05 -1.19458e-06 2.69252e+25 -1.65015 5.0291 271.851 
-9.79558e-06 -1.19458e-06 2.69324e+25 -2.57661 5.22796 271.816 
-7.88425e-06 -1.19458e-06 2.69274e+25 -3.44852 5.51201 271.817 
-5.97292e-06 -1.19458e-06 2.69104e+25 -4.7104 4.95867 271.988 
-4.06158e-06 -1.19458e-06 2.69007e+25 -5.66247 4.13081 272.08 
-2.15025e-06 -1.19458e-06 2.69112e+25 -6.51148 2.9496 271.876 
-2.38917e-07 -1.19458e-06 2.68812e+25 -7.4123 1.6504 271.943 
-1.55296e-05 -7.1675e-07 2.68927e+25 -0.0312911 2.38903 272.204 
-1.36182e-05 -7.1675e-07 2.69091e+25 -0.851982 4.21873 271.988 
-1.17069e-05 -7.1675e-07 2.69103e+25 -1.71699 5.2455 271.988 
-9.79558e-06 -7.1675e-07 2.69324e+25 -2.57344 5.44207 271.796 
-7.88425e-06 -7.1675e-07 2.69262e+25 -3.40724 5.69695 271.862 
-5.97292e-06 -7.1675e-07 2.69147e+25 -4.55892 5.28089 271.946 
-4.06158e-06 -7.1675e-07 2.69009e+25 -5.61944 4.43384 272.016 
-2.15025e-06 -7.1675e-07 2.69162e+25 -6.62915 3.2678 271.861 
-2.38917e-07 -7.1675e-07 2.68726e+25 -7.39902 1.81618 271.935 
-1.55296e-05 -2.38917e-07 2.68747e+25 -0.110513 2.45972 272.234 
-1.36182e-05 -2.38917e-07 2.68925e+25 -0.772548 4.47706 271.913 
-1.17069e-05 -2.38917e-07 2.68738e+25 -1.73522 5.49823 272.113 
-9.79558e-06 -2.38917e-07 2.68993e+25 -2.60539 5.77076 271.883 
-7.88425e-06 -2.38917e-07 2.68985e+25 -3.51268 5.9236 271.875 
-5.97292e-06 -2.38917e-07 2.69e+25 -4.56015 5.62038 271.851 
-4.06158e-06 -2.38917e-07 2.68818e+25 -5.56634 4.7238 271.986 
-2.15025e-06 -2.38917e-07 2.68828e+25 -6.57883 3.45504 271.936 
-2.38917e-07 -2.38917e-07 2.68589e+25 -7.2969 1.99578 272.02 
-1.64852e-05 2.38917e-07 2.6841e+25 -0.116159 1.11359 272.509 
-1.45739e-05 2.38917e-07 2.6877e+25 -0.47048 3.76922 272.009 
-1.26626e-05 2.38917e-07 2.68981e+25 -1.24893 5.26045 271.912 
-1.07512e-05 2.38917e-07 2.68988e+25 -2.22036 5.84414 271.942 
-8.83992e-06 2.38917e-07 2.68898e+25 -3.17041 6.19962 271.928 
-6.92858e-06 2.38917e-07 2.69016e+25 -3.9353 6.04401 271.871 
-5.01725e-06 2.38917e-07 2.68898e+25 -4.97135 5.2311 271.919 
-3.10592e-06 2.38917e-07 2.68857e+25 -5.93613 4.32285 271.922 
-1.19458e-06 2.38917e-07 2.68634e+25 -6.92435 3.01933 272.127 
-1.64852e-05 7.1675e-07 2.68593e+25 -0.0314371 1.16349 272.469 
-1.45739e-05 7.1675e-07 2.69179e+25 -0.527723 3.83698 271.941 
-1.26626e-05 7.1675e-07 2.68996e+25 -1.32204 5.5409 271.955 
-1.07512e-05 7.1675e-07 2.69267e+25 -2.43069 6.10236 271.798 
-8.83992e-06 7.1675e-07 2.69123e+25 -3.12887 6.37802 271.912 
-6.92858e-06 7.1675e-07 2.69163e+25 -3.97209 6.27381 271.872 
-5.01725e-06 7.1675e-07 2.69357e+25 -4.83027 5.5529 271.78 
-3.10592e-06 7.1675e-07 2.69115e+25 -5.79667 4.57098 271.9 
-1.19458e-06 7.1675e-07 2.68865e+25 -6.7292 3.23403 272.095 
-1.64852e-05 1.19458e-06 2.68784e+25 -0.0871918 1.248 272.336 
-1.45739e-05 1.19458e-06 2.69105e+25 -0.545224 3.95895 272.019 
-1.26626e-05 1.19458e-06 2.6912e+25 -1.40631 5.89679 271.973 
-1.07512e-05 1.19458e-06 2.69182e+25 -2.35942 6.33646 271.832 
-8.83992e-06 1.19458e-06 2.6912e+25 -3.00439 6.55008 271.927 
-6.92858e-06 1.19458e-06 2.69213e+25 -3.87254 6.48113 271.831 
-5.01725e-06 1.19458e-06 2.69211e+25 -4.79123 5.84458 271.769 
-3.10592e-06 1.19458e-06 2.69018e+25 -5.74421 4.74827 271.951 
-1.19458e-06 1.19458e-06 2.68897e+25 -6.53089 3.42267 272.109 
-1.64852e-05 1.67242e-06 2.68684e+25 0.0173296 1.34158 272.451 
-1.45739e-05 1.67242e-06 2.6909e+25 -0.502346 4.17627 272.085 
-1.26626e-05 1.67242e-06 2.69121e+25 -1.34204 6.16938 271.919 
-1.07512e-05 1.67242e-06 2.69193e+25 -2.138 6.58418 271.926 
-8.83992e-06 1.67242e-06 2.69097e+25 -3.01568 6.70096 271.853 
-6.92858e-06 1.67242e-06 2.69219e+25 -3.87312 6.69927 271.793 
-5.01725e-06 1.67242e-06 2.69149e+25 -4.6129 6.06741 271.798 
-3.10592e-06 1.67242e-06 2.68922e+25 -5.52334 4.86488 272.048 
-1.19458e-06 1.67242e-06 2.68794e+25 -6.21877 3.5759 272.107 
-1.64852e-05 2.15025e-06 2.68578e+25 0.00972165 1.30328 272.449 
-1.45739e-05 2.15025e-06 2.68941e+25 -0.350078 4.30825 272.149 
-1.26626e-05 2.15025e-06 2.69152e+25 -1.19757 6.38609 271.874 
-1.07512e-05 2.15025e-06 2.6908e+25 -2.05703 6.7864 271.965 
-8.83992e-06 2.15025e-06 2.69299e+25 -2.94377 6.83083 271.683 
-6.92858e-06 2.15025e-06 2.69311e+25 -3.92536 6.97051 271.714 
-5.01725e-06 2.15025e-06 2.69117e+25 -4.52652 6.21068 271.815 
-3.10592e-06 2.15025e-06 2.68849e+25 -5.37326 5.04905 272.097 
-1.19458e-06 2.15025e-06 2.68879e+25 -6.01993 3.73713 272.077 
-1.64852e-05 2.62808e-06 2.68513e+25 -0.0260493 1.30185 272.533 
-1.45739e-05 2.62808e-06 2.69012e+25 -0.323955 4.46748 272.011 
-1.26626e-05 2.62808e-06 2.69174e+25 -1.02425 6.51624 271.839 
-1.07512e-05 2.62808e-06 2.69083e+25 -1.93304 6.96815 272.006 
-8.83992e-06 2.62808e-06 2.69188e+25 -2.85518 7.02011 271.762 
-6.92858e-06 2.62808e-06 2.69237e+25 -3.82653 7.24048 271.757 
-5.01725e-06 2.62808e-06 2.69074e+25 -4.52016 6.33229 271.86 
-3.10592e-06 2.62808e-06 2.68839e+25 -5.08472 5.35226 272.034 
-1.19458e-06 2.62808e-06 2.68725e+25 -5.67774 3.92803 272.214 
-1.64852e-05 3.10592e-06 2.68517e+25 -0.029689 1.33903 272.585 
-1.45739e-05 3.10592e-06 2.69032e+25 -0.30264 4.67568 272.006 
-1.26626e-05 3.10592e-06 2.69066e+25 -1.05508 6.68767 271.931 
-1.07512e-05 3.10592e-06 2.69245e+25 -1.81628 7.15537 271.828 
-8.83992e-06 3.10592e-06 2.69218e+25 -2.74112 7.27912 271.781 
-6.92858e-06 3.10592e-06 2.69111e+25 -3.5873 7.52488 271.908 
-5.01725e-06 3.10592e-06 2.6909e+25 -4.40754 6.44508 271.81 
-3.10592e-06 3.10592e-06 2.68937e+25 -4.79819 5.51645 272.01 
-1.19458e-06 3.10592e-06 2.68635e+25 -5.404 4.05906 272.167 
-1.64852e-05 3.58375e-06 2.68512e+25 0.0343584 1.37841 272.539 
-1.45739e-05 3.58375e-06 2.69064e+25 -0.288685 4.88698 271.971 
-1.26626e-05 3.58375e-06 2.69092e+25 -1.00853 6.88145 271.909 
-1.07512e-05 3.58375e-06 2.69233e+25 -1.68078 7.39559 271.815 
-8.83992e-06 3.58375e-06 2.69163e+25 -2.66748 7.5507 271.8 
-6.92858e-06 3.58375e-06 2.68969e+25 -3.45516 7.63489 271.944 
-5.01725e-06 3.58375e-06 2.69096e+25 -4.12182 6.54274 271.797 
-3.10592e-06 3.58375e-06 2.68761e+25 -4.55641 5.64477 272.135 
-1.19458e-06 3.58375e-06 2.68626e+25 -5.18283 4.18314 272.154 
-1.64852e-05 4.06158e-06 2.68583e+25 -0.0430701 1.41516 272.461 
-1.45739e-05 4.06158e-06 2.69051e+25 -0.310348 5.01653 272.013 
-1.26626e-05 4.06158e-06 2.69059e+25 -0.957667 7.05393 271.928 
-1.07512e-05 4.06158e-06 2.69209e+25 -1.58268 7.61767 271.834 
-8.83992e-06 4.06158e-06 2.69102e+25 -2.57176 7.77358 271.842 
-6.92858e-06 4.06158e-06 2.69055e+25 -3.24269 7.6891 271.974 
-5.01725e-06 4.06158e-06 2.6896e+25 -3.75189 6.65269 271.894 
-3.10592e-06 4.06158e-06 2.68816e+25 -4.26858 5.83821 272.079 
-1.19458e-06 4.06158e-06 2.68803e+25 -4.78577 4.27168 272.103 
-1.64852e-05 4.53942e-06 2.68341e+25 0.0220625 1.43214 272.564 
-1.45739e-05 4.53942e-06 2.68891e+25 -0.442405 5.11681 272.157 
-1.26626e-05 4.53942e-06 2.68944e+25 -0.956691 7.19259 271.95 
-1.07512e-05 4.53942e-06 2.69184e+25 -1.54233 7.77756 271.873 
-8.83992e-06 4.53942e-06 2.69178e+25 -2.39728 8.0629 271.767 
-6.92858e-06 4.53942e-06 2.68846e+25 -3.08233 7.83394 272.015 
-5.01725e-06 4.53942e-06 2.68859e+25 -3.43629 6.78252 272.027 
-3.10592e-06 4.53942e-06 2.68868e+25 -4.02215 6.03609 271.994 
-1.19458e-06 4.53942e-06 2.68825e+25 -4.36074 4.31799 272.096 
-1.64852e-05 5.01725e-06 2.68495e+25 -0.0925619 1.47448 272.525 
-1.45739e-05 5.01725e-06 2.68835e+25 -0.585781 5.26403 272.159 
-1.26626e-05 5.01725e-06 2.68957e+25 -0.880545 7.28066 272.003 
-1.07512e-05 5.01725e-06 2.69001e+25 -1.60679 7.95416 271.909 
-8.83992e-06 5.01725e-06 2.69129e+25 -2.30134 8.2735 271.729 
-6.92858e-06 5.01725e-06 2.68852e+25 -2.88671 7.98485 272.084 
-5.01725e-06 5.01725e-06 2.68902e+25 -3.18786 6.9223 271.999 
-3.10592e-06 5.01725e-06 2.69012e+25 -3.60317 6.16292 271.941 
-1.19458e-06 5.01725e-06 2.68818e+25 -4.13839 4.47027 271.953 
-1.64852e-05 5.49508e-06 2.68556e+25 -0.143058 1.57306 272.491 
-1.45739e-05 5.49508e-06 2.68676e+25 -0.621452 5.3626 272.179 
-1.26626e-05 5.49508e-06 2.69077e+25 -0.873893 7.40379 271.846 
-1.07512e-05 5.49508e-06 2.69082e+25 -1.70374 8.16401 271.841 
-8.83992e-06 5.49508e-06 2.69043e+25 -2.20491 8.38248 271.869 
-6.92858e-06 5.49508e-06 2.68931e+25 -2.6941 8.07479 272.037 
-5.01725e-06 5.49508e-06 2.68898e+25 -2.95842 7.08976 271.959 
-3.10592e-06 5.49508e-06 2.68923e+25 -3.18592 6.26502 271.905 
-1.19458e-06 5.49508e-06 2.69015e+25 -3.76004 4.61513 271.734 
-1.64852e-05 5.97292e-06 2.6855e+25 -0.144819 1.69351 272.398 
-1.45739e-05 5.97292e-06 2.68783e+25 -0.6541 5.41317 272.13 
-1.26626e-05 5.97292e-06 2.69048e+25 -0.969483 7.54937 271.854 
-1.07512e-05 5.97292e-06 2.69132e+25 -1.68967 8.33583 271.851 
-8.83992e-06 5.97292e-06 2.69024e+25 -2.20519 8.47671 271.811 
-6.92858e-06 5.97292e-06 2.68861e+25 -2.47642 8.06191 271.938 
-5.01725e-06 5.97292e-06 2.68841e+25 -2.64889 7.23343 271.969 
-3.10592e-06 5.97292e-06 2.68811e+25 -2.84149 6.26867 271.942 
-1.19458e-06 5.97292e-06 2.6897e+25 -3.33117 4.70233 271.814 
-1.64852e-05 6.45075e-06 2.68514e+25 -0.0246447 1.76442 272.402 
-1.45739e-05 6.45075e-06 2.68726e+25 -0.65825 5.53761 272.129 
-1.26626e-05 6.45075e-06 2.69061e+25 -1.15001 7.5887 271.888 
-1.07512e-05 6.45075e-06 2.69039e+25 -1.65012 8.53618 271.853 
-8.83992e-06 6.45075e-06 2.68927e+25 -2.14734 8.5709 271.948 
-6.92858e-06 6.45075e-06 2.68828e+25 -2.20081 8.01491 272.011 
-5.01725e-06 6.45075e-06 2.68988e+25 -2.38123 7.31624 271.911 
-3.10592e-06 6.45075e-06 2.6893e+25 -2.62938 6.29902 271.984 
-1.19458e-06 6.45075e-06 2.6906e+25 -2.78407 4.77039 271.729 
-1.64852e-05 6.92858e-06 2.68475e+25 0.0180978 1.81395 272.542 
-1.45739e-05 6.92858e-06 2.68757e+25 -0.611809 5.73441 272.092 
-1.26626e-05 6.92858e-06 2.6895e+25 -1.24072 7.69306 271.916 
-1.07512e-05 6.92858e-06 2.68947e+25 -1.63985 8.64935 271.952 
-8.83992e-06 6.92858e-06 2.68855e+25 -1.94238 8.62171 271.945 
-6.92858e-06 6.92858e-06 2.69e+25 -1.97086 7.98718 271.82 
-5.01725e-06 6.92858e-06 2.68973e+25 -1.96607 7.3907 271.807 
-3.10592e-06 6.92858e-06 2.68889e+25 -2.17034 6.32324 271.976 
-1.19458e-06 6.92858e-06 2.68898e+25 -2.2142 4.80234 271.868 
-1.64852e-05 7.40642e-06 2.68475e+25 -0.0555906 1.92339 272.513 
-1.45739e-05 7.40642e-06 2.68931e+25 -0.572284 5.84228 272.057 
-1.26626e-05 7.40642e-06 2.69007e+25 -1.31335 7.83988 271.967 
-1.07512e-05 7.40642e-06 2.69043e+25 -1.52943 8.67278 271.865 
-8.83992e-06 7.40642e-06 2.68883e+25 -1.76397 8.64476 271.877 
-6.92858e-06 7.40642e-06 2.69091e+25 -1.68471 8.004 271.764 
-5.01725e-06 7.40642e-06 2.68801e+25 -1.58951 7.38526 271.957 
-3.10592e-06 7.40642e-06 2.68986e+25 -1.67176 6.31719 271.818 
-1.19458e-06 7.40642e-06 2.68847e+25 -1.51885 4.80822 271.922 
-1.64852e-05 7.88425e-06 2.68397e+25 -0.072474 2.0067 272.536 
-1.45739e-05 7.88425e-06 2.6897e+25 -0.572428 5.96987 271.911 
-1.26626e-05 7.88425e-06 2.68832e+25 -1.40835 7.9858 272.074 
-1.07512e-05 7.88425e-06 2.69005e+25 -1.55812 8.66851 271.866 
-8.83992e-06 7.88425e-06 2.68824e+25 -1.65102 8.66005 272.059 
-6.92858e-06 7.88425e-06 2.69028e+25 -1.47415 8.0051 271.82 
-5.01725e-06 7.88425e-06 2.68798e+25 -1.23907 7.32914 271.922 
-3.10592e-06 7.88425e-06 2.68949e+25 -1.12305 6.25046 271.832 
-1.19458e-06 7.88425e-06 2.68866e+25 -0.70091 4.78747 271.917 
-1.64852e-05 8.36208e-06 2.6851e+25 -0.0821401 2.13637 272.438 
-1.45739e-05 8.36208e-06 2.68944e+25 -0.616082 6.15882 271.957 
-1.26626e-05 8.36208e-06 2.68856e+25 -1.52107 8.21328 271.998 
-1.07512e-05 8.36208e-06 2.69009e+25 -1.71417 8.68289 271.847 
-8.83992e-06 8.36208e-06 2.68866e+25 -1.60242 8.68516 272.044 
-6.92858e-06 8.36208e-06 2.68946e+25 -1.2326 7.94814 271.849 
-5.01725e-06 8.36208e-06 2.68818e+25 -0.955776 7.23071 271.925 
-3.10592e-06 8.36208e-06 2.68799e+25 -0.468467 6.13563 271.929 
-1.19458e-06 8.36208e-06 2.6879e+25 0.052451 4.67539 271.923 
-1.64852e-05 8.83992e-06 2.68413e+25 -0.154965 2.25278 272.471 
-1.45739e-05 8.83992e-06 2.68903e+25 -0.793274 6.37662 271.973 
-1.26626e-05 8.83992e-06 2.6884e+25 -1.56904 8.43393 271.92 
-1.07512e-05 8.83992e-06 2.68988e+25 -1.90988 8.65926 271.93 
-8.83992e-06 8.83992e-06 2.68916e+25 -1.66028 8.62637 271.963 
-6.92858e-06 8.83992e-06 2.68773e+25 -1.07197 7.82179 272.048 
-5.01725e-06 8.83992e-06 2.68812e+25 -0.593923 7.05254 271.985 
-3.10592e-06 8.83992e-06 2.68733e+25 0.211051 6.07012 272.037 
-1.19458e-06 8.83992e-06 2.68786e+25 0.715759 4.55714 271.888 
-1.64852e-05 9.31775e-06 2.68284e+25 -0.0948411 2.3588 272.517 
-1.45739e-05 9.31775e-06 2.68608e+25 -0.911822 6.6629 272.048 
-1.26626e-05 9.31775e-06 2.68675e+25 -1.7235 8.65101 272.017 
-1.07512e-05 9.31775e-06 2.68983e+25 -1.97029 8.70022 271.892 
-8.83992e-06 9.31775e-06 2.68998e+25 -1.57802 8.45847 271.902 
-6.92858e-06 9.31775e-06 2.68809e+25 -0.925216 7.59017 272.046 
-5.01725e-06 9.31775e-06 2.6899e+25 -0.144303 6.86111 271.85 
-3.10592e-06 9.31775e-06 2.68713e+25 0.736035 5.93052 272.005 
-1.19458e-06 9.31775e-06 2.6882e+25 1.52217 4.45403 271.938 
-1.64852e-05 9.79558e-06 2.68328e+25 -0.109807 2.4421 272.507 
-1.45739e-05 9.79558e-06 2.68702e+25 -0.993696 6.93083 272.123 
-1.26626e-05 9.79558e-06 2.6889e+25 -1.8023 8.76875 271.942 
-1.07512e-05 9.79558e-06 2.69063e+25 -2.17444 8.63872 271.79 
-8.83992e-06 9.79558e-06 2.68973e+25 -1.45193 8.28364 271.877 
-6.92858e-06 9.79558e-06 2.69001e+25 -0.682373 7.47407 271.933 
-5.01725e-06 9.79558e-06 2.68973e+25 0.358581 6.64612 271.877 
-3.10592e-06 9.79558e-06 2.68935e+25 1.43268 5.66511 271.903 
-1.19458e-06 9.79558e-06 2.68768e+25 2.34998 4.29009 271.936 
-1.64852e-05 1.02734e-05 2.68211e+25 -0.254446 2.54483 272.609 
-1.45739e-05 1.02734e-05 2.68695e+25 -1.20005 7.15459 272.06 
-1.26626e-05 1.02734e-05 2.68835e+25 -1.91577 8.81509 271.935 
-1.07512e-05 1.02734e-05 2.68914e+25 -2.02311 8.54797 271.884 
-8.83992e-06 1.02734e-05 2.68961e+25 -1.36599 8.07024 271.954 
-6.92858e-06 1.02734e-05 2.68894e+25 -0.411046 7.25747 271.919 
-5.01725e-06 1.02734e-05 2.69062e+25 0.911771 6.32907 271.805 
-3.10592e-06 1.02734e-05 2.68836e+25 2.2817 5.3302 271.905 
-1.19458e-06 1.02734e-05 2.68737e+25 3.34825 4.12863 271.987 
-1.64852e-05 1.07512e-05 2.68108e+25 -0.175146 2.7395 272.633 
-1.45739e-05 1.07512e-05 2.68672e+25 -1.43876 7.39721 272.068 
-1.26626e-05 1.07512e-05 2.68835e+25 -2.18564 8.81165 271.903 
-1.07512e-05 1.07512e-05 2.68945e+25 -1.95192 8.40869 271.856 
-8.83992e-06 1.07512e-05 2.68913e+25 -1.16839 7.79494 271.972 
-6.92858e-06 1.07512e-05 2.68803e+25 0.0854891 6.87972 272.002 
-5.01725e-06 1.07512e-05 2.69087e+25 1.53586 5.9459 271.776 
-3.10592e-06 1.07512e-05 2.68725e+25 3.14774 4.92579 272.037 
-1.19458e-06 1.07512e-05 2.68687e+25 4.33984 3.88581 271.99 
-1.64852e-05 1.12291e-05 2.6815e+25 -0.196137 2.95435 272.559 
-1.45739e-05 1.12291e-05 2.686e+25 -1.70703 7.77822 272.108 
-1.26626e-05 1.12291e-05 2.68777e+25 -2.25983 8.84377 271.916 
-1.07512e-05 1.12291e-05 2.68888e+25 -1.92926 8.21842 271.929 
-8.83992e-06 1.12291e-05 2.68893e+25 -0.799463 7.51752 272.018 
-6.92858e-06 1.12291e-05 2.68911e+25 0.8169 6.48425 272.027 
-5.01725e-06 1.12291e-05 2.68911e+25 2.27447 5.55259 271.891 
-3.10592e-06 1.12291e-05 2.68828e+25 3.84176 4.55182 272.057 
-1.19458e-06 1.12291e-05 2.68793e+25 5.26866 3.63745 271.99 
-1.64852e-05 1.17069e-05 2.68185e+25 -0.189821 3.21428 272.462 
-1.45739e-05 1.17069e-05 2.68529e+25 -1.86597 8.09382 272.106 
-1.26626e-05 1.17069e-05 2.68802e+25 -2.3763 8.89504 271.966 
-1.07512e-05 1.17069e-05 2.68906e+25 -1.83721 8.0117 271.929 
-8.83992e-06 1.17069e-05 2.68845e+25 -0.294331 7.1652 272.003 
-6.92858e-06 1.17069e-05 2.68893e+25 1.61798 6.1072 272.067 
-5.01725e-06 1.17069e-05 2.68823e+25 3.14951 5.18837 271.971 
-3.10592e-06 1.17069e-05 2.6882e+25 4.9617 4.12906 271.986 
-1.19458e-06 1.17069e-05 2.68806e+25 6.58029 3.37097 271.902 
-1.64852e-05 1.21847e-05 2.68109e+25 -0.279572 3.52091 272.487 
-1.45739e-05 1.21847e-05 2.68545e+25 -2.12765 8.45111 272.054 
-1.26626e-05 1.21847e-05 2.68715e+25 -2.55423 8.92738 272.025 
-1.07512e-05 1.21847e-05 2.68826e+25 -1.61066 7.74378 271.962 
-8.83992e-06 1.21847e-05 2.68933e+25 0.286161 6.66801 272.023 
-6.92858e-06 1.21847e-05 2.687e+25 2.30411 5.64092 272.128 
-5.01725e-06 1.21847e-05 2.68844e+25 4.22888 4.74865 271.977 
-3.10592e-06 1.21847e-05 2.68701e+25 6.15796 3.70172 272.053 
-1.19458e-06 1.21847e-05 2.68736e+25 7.87884 3.07347 271.999 
-1.64852e-05 1.26626e-05 2.68209e+25 -0.392752 3.97508 272.386 
-1.45739e-05 1.26626e-05 2.68448e+25 -2.39952 8.83283 272.047 
-1.26626e-05 1.26626e-05 2.68651e+25 -2.70832 8.71774 272.009 
-1.07512e-05 1.26626e-05 2.68851e+25 -1.16524 7.39774 272.034 
-8.83992e-06 1.26626e-05 2.68819e+25 1.04708 6.05527 272.058 
-6.92858e-06 1.26626e-05 2.68772e+25 3.30856 5.16265 272.11 
-5.01725e-06 1.26626e-05 2.68638e+25 5.58149 4.30505 272.181 
-3.10592e-06 1.26626e-05 2.68747e+25 7.58032 3.15874 272.074 
-1.19458e-06 1.26626e-05 2.68674e+25 9.33039 2.73146 272.033 
-1.64852e-05 1.31404e-05 2.68172e+25 -0.566872 4.47404 272.386 
-1.45739e-05 1.31404e-05 2.68529e+25 -2.90197 9.16695 272.002 
-1.26626e-05 1.31404e-05 2.68694e+25 -2.66037 8.34416 271.974 
-1.07512e-05 1.31404e-05 2.688e+25 -0.362281 6.82014 272.076 
-8.83992e-06 1.31404e-05 2.68854e+25 2.21246 5.38287 272.029 
-6.92858e-06 1.31404e-05 2.68663e+25 4.75023 4.57695 272.238 
-5.01725e-06 1.31404e-05 2.68674e+25 7.13744 3.73606 272.203 
-3.10592e-06 1.31404e-05 2.68713e+25 9.28834 2.6419 272.162 
-1.19458e-06 1.31404e-05 2.68597e+25 11.1081 2.30242 272.153 
-1.64852e-05 1.36182e-05 2.67891e+25 -0.774925 5.17881 272.412 
-1.45739e-05 1.36182e-05 2.68508e+25 -3.16955 9.37538 272.017 
-1.26626e-05 1.36182e-05 2.68704e+25 -2.14789 7.81519 271.995 
-1.07512e-05 1.36182e-05 2.68565e+25 0.813646 6.09499 272.205 
-8.83992e-06 1.36182e-05 2.68779e+25 3.80216 4.66088 272.136 
-6.92858e-06 1.36182e-05 2.68735e+25 6.62468 3.97149 272.183 
-5.01725e-06 1.36182e-05 2.68697e+25 9.04828 3.10306 272.191 
-3.10592e-06 1.36182e-05 2.6864e+25 11.2418 2.12913 272.165 
-1.19458e-06 1.36182e-05 2.6861e+25 12.9953 1.87346 272.169 
-1.64852e-05 1.40961e-05 2.6778e+25 -0.937954 6.03621 272.435 
-1.45739e-05 1.40961e-05 2.68306e+25 -3.2807 9.35478 272.05 
-1.26626e-05 1.40961e-05 2.68688e+25 -1.12655 7.16433 272.03 
-1.07512e-05 1.40961e-05 2.68611e+25 2.40881 5.21199 272.222 
-8.83992e-06 1.40961e-05 2.68805e+25 5.73566 3.90973 272.189 
-6.92858e-06 1.40961e-05 2.68697e+25 8.76158 3.29406 272.234 
-5.01725e-06 1.40961e-05 2.68703e+25 11.4661 2.50766 272.251 
-3.10592e-06 1.40961e-05 2.68667e+25 13.5293 1.73619 272.159 
-1.19458e-06 1.40961e-05 2.68634e+25 15.1308 1.48342 272.163 
-1.64852e-05 1.45739e-05 2.67488e+25 -1.37391 7.10191 272.468 
-1.45739e-05 1.45739e-05 2.68155e+25 -3.00897 9.07533 272.112 
-1.26626e-05 1.45739e-05 2.68655e+25 0.581947 6.22619 272.051 
-1.07512e-05 1.45739e-05 2.68608e+25 4.82499 4.2604 272.306 
-8.83992e-06 1.45739e-05 2.68688e+25 8.35256 3.09701 272.245 
-6.92858e-06 1.45739e-05 2.68501e+25 11.5004 2.55381 272.414 
-5.01725e-06 1.45739e-05 2.68699e+25 14.1962 1.94708 272.206 
-3.10592e-06 1.45739e-05 2.68684e+25 16.0577 1.2964 272.13 
-1.19458e-06 1.45739e-05 2.68562e+25 17.5581 1.10487 272.246 
-1.64852e-05 1.50518e-05 2.67115e+25 -1.7364 8.35475 272.502 
-1.45739e-05 1.50518e-05 2.6802e+25 -1.87816 8.38974 272.171 
-1.26626e-05 1.50518e-05 2.68438e+25 3.3741 5.00667 272.274 
-1.07512e-05 1.50518e-05 2.68428e+25 8.00522 3.33879 272.428 
-8.83992e-06 1.50518e-05 2.68617e+25 11.7035 2.26469 272.401 
-6.92858e-06 1.50518e-05 2.68519e+25 14.637 1.81515 272.405 
-5.01725e-06 1.50518e-05 2.68684e+25 17.0999 1.39799 272.215 
-3.10592e-06 1.50518e-05 2.68728e+25 19.0152 0.969377 272.144 
-1.19458e-06 1.50518e-05 2.68489e+25 20.2347 0.776581 272.355 
-1.64852e-05 1.55296e-05 2.66674e+25 -2.06677 9.65062 272.457 
-1.45739e-05 1.55296e-05 2.67701e+25 0.836484 7.03657 272.412 
-1.26626e-05 1.55296e-05 2.68113e+25 7.50455 3.61451 272.536 
-1.07512e-05 1.55296e-05 2.68313e+25 12.3106 2.32365 272.583 
-8.83992e-06 1.55296e-05 2.68452e+25 15.805 1.43851 272.458 
-6.92858e-06 1.55296e-05 2.68591e+25 18.4822 1.18951 272.485 
-5.01725e-06 1.55296e-05 2.68588e+25 20.5751 0.850383 272.402 
-3.10592e-06 1.55296e-05 2.68524e+25 22.0696 0.673762 272.331 
-1.19458e-06 1.55296e-05 2.68446e+25 23.2301 0.507183 272.397 
-1.64852e-05 1.60074e-05 2.65834e+25 -1.88456 10.4656 272.599 
-1.45739e-05 1.60074e-05 2.67543e+25 6.05286 5.05176 272.652 
-1.26626e-05 1.60074e-05 2.68202e+25 13.3268 2.20802 272.612 
-1.07512e-05 1.60074e-05 2.6824e+25 17.6604 1.35742 272.731 
-8.83992e-06 1.60074e-05 2.68618e+25 20.5514 0.721579 272.44 
-6.92858e-06 1.60074e-05 2.68338e+25 22.7578 0.656875 272.686 
-5.01725e-06 1.60074e-05 2.68415e+25 24.4976 0.418141 272.561 
-3.10592e-06 1.60074e-05 2.68478e+25 25.551 0.403137 272.439 
-1.19458e-06 1.60074e-05 2.68417e+25 26.3469 0.247608 272.448 
-1.64852e-05 1.64852e-05 2.64636e+25 0.773562 9.24252 272.811 
-1.45739e-05 1.64852e-05 2.67363e+25 14.5268 2.54209 272.972 
-1.26626e-05 1.64852e-05 2.68093e+25 20.764 0.898185 272.791 
-1.07512e-05 1.64852e-05 2.68345e+25 24.0138 0.583978 272.721 
-8.83992e-06 1.64852e-05 2.68435e+25 26.1066 0.258172 272.719 
-6.92858e-06 1.64852e-05 2.68405e+25 27.5034 0.262984 272.794 
-5.01725e-06 1.64852e-05 2.6818e+25 28.5103 0.127635 272.798 
-3.10592e-06 1.64852e-05 2.68291e+25 29.1865 0.219096 272.661 
-1.19458e-06 1.64852e-05 2.68354e+25 29.7635 0.0942574 272.601 
-1.64852e-05 1.69631e-05 2.62354e+25 12.4321 3.49898 273.442 
-1.45739e-05 1.69631e-05 2.67458e+25 25.9836 0.567701 273.112 
-1.26626e-05 1.69631e-05 2.681e+25 29.1432 0.162571 272.919 
-1.07512e-05 1.69631e-05 2.68361e+25 30.5383 0.0913508 272.861 
-8.83992e-06 1.69631e-05 2.68326e+25 31.3947 0.0424635 272.857 
-6.92858e-06 1.69631e-05 2.68257e+25 31.8738 0.0369441 272.962 
-5.01725e-06 1.69631e-05 2.68193e+25 32.2122 -0.00724684 272.924 
-3.10592e-06 1.69631e-05 2.68173e+25 32.5097 0.0479203 272.862 
-1.19458e-06 1.69631e-05 2.68172e+25 32.8223 0.0164417 272.802 
-1.69631e-05 2.38917e-07 2.68176e+25 -0.0623689 0.402581 272.763 
-1.50517e-05 2.38917e-07 2.68829e+25 -0.350313 3.17446 272.054 
-1.31404e-05 2.38917e-07 2.68934e+25 -0.990695 4.93234 271.897 
-1.12291e-05 2.38917e-07 2.68897e+25 -1.98201 5.67141 271.949 
-9.31775e-06 2.38917e-07 2.69045e+25 -2.96453 6.03199 271.808 
-7.40642e-06 2.38917e-07 2.69025e+25 -3.70714 6.02808 271.834 
-5.49508e-06 2.38917e-07 2.68858e+25 -4.68111 5.58066 271.861 
-3.58375e-06 2.38917e-07 2.68884e+25 -5.67502 4.63712 271.937 
-1.67242e-06 2.38917e-07 2.68693e+25 -6.68315 3.39449 272.065 
-1.69631e-05 7.1675e-07 2.68432e+25 0.00497122 0.47345 272.762 
-1.50517e-05 7.1675e-07 2.69003e+25 -0.472737 3.27339 272.033 
-1.31404e-05 7.1675e-07 2.69026e+25 -1.01097 5.23522 271.952 
-1.12291e-05 7.1675e-07 2.6919e+25 -2.16151 5.93351 271.854 
-9.31775e-06 7.1675e-07 2.69184e+25 -2.91235 6.24573 271.85 
-7.40642e-06 7.1675e-07 2.69253e+25 -3.71243 6.25653 271.765 
-5.49508e-06 7.1675e-07 2.69216e+25 -4.55128 5.8184 271.829 
-3.58375e-06 7.1675e-07 2.69012e+25 -5.61274 4.8255 271.962 
-1.67242e-06 7.1675e-07 2.68815e+25 -6.56059 3.61453 272.125 
-1.69631e-05 1.19458e-06 2.68436e+25 -0.00369427 0.497604 272.758 
-1.50517e-05 1.19458e-06 2.69058e+25 -0.400162 3.38044 272.079 
-1.31404e-05 1.19458e-06 2.69106e+25 -1.08301 5.48825 271.967 
-1.12291e-05 1.19458e-06 2.69197e+25 -2.09463 6.24386 271.853 
-9.31775e-06 1.19458e-06 2.6916e+25 -2.87101 6.40959 271.917 
-7.40642e-06 1.19458e-06 2.69147e+25 -3.62246 6.54839 271.823 
-5.49508e-06 1.19458e-06 2.69169e+25 -4.52679 6.08925 271.824 
-3.58375e-06 1.19458e-06 2.69052e+25 -5.56434 5.02402 271.94 
-1.67242e-06 1.19458e-06 2.68828e+25 -6.3348 3.81525 272.07 
-1.69631e-05 1.67242e-06 2.68318e+25 0.0143862 0.493804 272.783 
-1.50517e-05 1.67242e-06 2.69e+25 -0.317648 3.50713 271.997 
-1.31404e-05 1.67242e-06 2.69033e+25 -1.12351 5.75574 271.999 
-1.12291e-05 1.67242e-06 2.69126e+25 -1.91847 6.46338 271.912 
-9.31775e-06 1.67242e-06 2.69255e+25 -2.83774 6.57955 271.839 
-7.40642e-06 1.67242e-06 2.69308e+25 -3.6262 6.79567 271.694 
-5.49508e-06 1.67242e-06 2.69192e+25 -4.44849 6.30629 271.789 
-3.58375e-06 1.67242e-06 2.69034e+25 -5.35547 5.26949 271.923 
-1.67242e-06 1.67242e-06 2.68814e+25 -6.1004 4.00701 272.064 
-1.69631e-05 2.15025e-06 2.68314e+25 0.00389065 0.49242 272.778 
-1.50517e-05 2.15025e-06 2.69075e+25 -0.232559 3.68467 272.039 
-1.31404e-05 2.15025e-06 2.69144e+25 -1.03031 5.99337 271.944 
-1.12291e-05 2.15025e-06 2.6911e+25 -1.86518 6.67386 271.915 
-9.31775e-06 2.15025e-06 2.69252e+25 -2.76067 6.80752 271.747 
-7.40642e-06 2.15025e-06 2.69387e+25 -3.65543 7.04877 271.62 
-5.49508e-06 2.15025e-06 2.69122e+25 -4.42867 6.41732 271.821 
-3.58375e-06 2.15025e-06 2.68963e+25 -5.12117 5.48126 271.964 
-1.67242e-06 2.15025e-06 2.68838e+25 -5.79074 4.1448 272.078 
-1.69631e-05 2.62808e-06 2.6828e+25 -0.0169594 0.514319 272.853 
-1.50517e-05 2.62808e-06 2.69127e+25 -0.20393 3.75596 271.938 
-1.31404e-05 2.62808e-06 2.69161e+25 -0.905359 6.15921 271.924 
-1.12291e-05 2.62808e-06 2.692e+25 -1.72338 6.88068 271.893 
-9.31775e-06 2.62808e-06 2.69153e+25 -2.62981 7.01025 271.846 
-7.40642e-06 2.62808e-06 2.69322e+25 -3.502 7.37225 271.648 
-5.49508e-06 2.62808e-06 2.69165e+25 -4.35829 6.54484 271.895 
-3.58375e-06 2.62808e-06 2.68952e+25 -4.86799 5.65917 272.029 
-1.67242e-06 2.62808e-06 2.6879e+25 -5.55391 4.30846 272.079 
-1.69631e-05 3.10592e-06 2.68166e+25 0.00147249 0.525084 272.931 
-1.50517e-05 3.10592e-06 2.68984e+25 -0.107462 3.91498 272.041 
-1.31404e-05 3.10592e-06 2.69082e+25 -0.855984 6.30275 271.989 
-1.12291e-05 3.10592e-06 2.69205e+25 -1.64709 7.07949 271.896 
-9.31775e-06 3.10592e-06 2.69227e+25 -2.458 7.27868 271.744 
-7.40642e-06 3.10592e-06 2.69317e+25 -3.41281 7.61615 271.728 
-5.49508e-06 3.10592e-06 2.69134e+25 -4.2782 6.6858 271.84 
-3.58375e-06 3.10592e-06 2.68918e+25 -4.66692 5.82869 272.01 
-1.67242e-06 3.10592e-06 2.68831e+25 -5.28455 4.4526 272.067 
-1.69631e-05 3.58375e-06 2.68211e+25 0.0279557 0.496734 272.851 
-1.50517e-05 3.58375e-06 2.69084e+25 -0.116576 4.05595 272.063 
-1.31404e-05 3.58375e-06 2.68968e+25 -0.831004 6.47121 271.974 
-1.12291e-05 3.58375e-06 2.68986e+25 -1.42448 7.26543 271.883 
-9.31775e-06 3.58375e-06 2.69308e+25 -2.41862 7.53202 271.724 
-7.40642e-06 3.58375e-06 2.6918e+25 -3.35247 7.75112 271.786 
-5.49508e-06 3.58375e-06 2.69252e+25 -3.96669 6.88632 271.774 
-3.58375e-06 3.58375e-06 2.68929e+25 -4.41004 5.92806 271.977 
-1.67242e-06 3.58375e-06 2.68732e+25 -5.04197 4.56666 272.138 
-1.69631e-05 4.06158e-06 2.68359e+25 -0.00745433 0.491967 272.742 
-1.50517e-05 4.06158e-06 2.68947e+25 -0.202715 4.2067 272.066 
-1.31404e-05 4.06158e-06 2.69021e+25 -0.85183 6.61258 271.968 
-1.12291e-05 4.06158e-06 2.69085e+25 -1.44252 7.43277 271.882 
-9.31775e-06 4.06158e-06 2.69183e+25 -2.35162 7.80178 271.801 
-7.40642e-06 4.06158e-06 2.69058e+25 -3.16735 7.87041 271.876 
-5.49508e-06 4.06158e-06 2.6914e+25 -3.623 7.04782 271.876 
-3.58375e-06 4.06158e-06 2.68964e+25 -4.11416 6.03388 272.001 
-1.67242e-06 4.06158e-06 2.68712e+25 -4.70138 4.70113 272.078 
-1.69631e-05 4.53942e-06 2.68196e+25 0.00611529 0.502101 272.889 
-1.50517e-05 4.53942e-06 2.68715e+25 -0.357891 4.31434 272.216 
-1.31404e-05 4.53942e-06 2.68883e+25 -0.840298 6.72712 272.002 
-1.12291e-05 4.53942e-06 2.69072e+25 -1.33745 7.62313 271.892 
-9.31775e-06 4.53942e-06 2.692e+25 -2.12194 8.03414 271.803 
-7.40642e-06 4.53942e-06 2.68987e+25 -2.95661 7.96755 271.936 
-5.49508e-06 4.53942e-06 2.68958e+25 -3.36621 7.1109 271.995 
-3.58375e-06 4.53942e-06 2.68962e+25 -3.83055 6.19201 271.928 
-1.67242e-06 4.53942e-06 2.68793e+25 -4.31862 4.78342 272.018 
-1.69631e-05 5.01725e-06 2.68211e+25 0.00145091 0.509716 272.868 
-1.50517e-05 5.01725e-06 2.68719e+25 -0.452332 4.37403 272.196 
-1.31404e-05 5.01725e-06 2.69024e+25 -0.78073 6.83302 272.002 
-1.12291e-05 5.01725e-06 2.69094e+25 -1.4588 7.8066 271.903 
-9.31775e-06 5.01725e-06 2.69062e+25 -2.19253 8.19869 271.862 
-7.40642e-06 5.01725e-06 2.68928e+25 -2.7467 8.09023 271.981 
-5.49508e-06 5.01725e-06 2.68788e+25 -3.03172 7.17858 271.999 
-3.58375e-06 5.01725e-06 2.6897e+25 -3.4846 6.35198 271.848 
-1.67242e-06 5.01725e-06 2.68743e+25 -3.95947 4.86077 271.975 
-1.69631e-05 5.49508e-06 2.68358e+25 -0.0427975 0.575529 272.758 
-1.50517e-05 5.49508e-06 2.68804e+25 -0.499284 4.51295 272.175 
-1.31404e-05 5.49508e-06 2.68957e+25 -0.775505 6.90679 271.972 
-1.12291e-05 5.49508e-06 2.69027e+25 -1.49768 7.97263 271.935 
-9.31775e-06 5.49508e-06 2.68944e+25 -2.11544 8.31397 271.949 
-7.40642e-06 5.49508e-06 2.69047e+25 -2.61749 8.18984 271.884 
-5.49508e-06 5.49508e-06 2.68859e+25 -2.83014 7.31654 272.01 
-3.58375e-06 5.49508e-06 2.68967e+25 -3.15312 6.41672 271.855 
-1.67242e-06 5.49508e-06 2.6896e+25 -3.58248 5.04612 271.859 
-1.69631e-05 5.97292e-06 2.68332e+25 -0.0436698 0.685978 272.737 
-1.50517e-05 5.97292e-06 2.68674e+25 -0.545011 4.69044 272.261 
-1.31404e-05 5.97292e-06 2.68988e+25 -0.8632 6.9683 271.949 
-1.12291e-05 5.97292e-06 2.69027e+25 -1.46375 8.25243 271.962 
-9.31775e-06 5.97292e-06 2.69071e+25 -2.08516 8.43965 271.901 
-7.40642e-06 5.97292e-06 2.68885e+25 -2.47464 8.26803 271.93 
-5.49508e-06 5.97292e-06 2.68743e+25 -2.53848 7.39477 272.014 
-3.58375e-06 5.97292e-06 2.68877e+25 -2.859 6.42248 271.984 
-1.67242e-06 5.97292e-06 2.69028e+25 -3.27143 5.20068 271.759 
-1.69631e-05 6.45075e-06 2.68142e+25 0.00920773 0.732525 272.776 
-1.50517e-05 6.45075e-06 2.68764e+25 -0.50004 4.83172 272.205 
-1.31404e-05 6.45075e-06 2.69124e+25 -1.09216 7.06928 271.91 
-1.12291e-05 6.45075e-06 2.69014e+25 -1.49928 8.45297 271.899 
-9.31775e-06 6.45075e-06 2.69135e+25 -2.05701 8.54035 271.86 
-7.40642e-06 6.45075e-06 2.69007e+25 -2.26102 8.26835 271.908 
-5.49508e-06 6.45075e-06 2.68977e+25 -2.339 7.46771 271.919 
-3.58375e-06 6.45075e-06 2.68843e+25 -2.58026 6.42035 271.981 
-1.67242e-06 6.45075e-06 2.69068e+25 -2.70646 5.26843 271.744 
-1.69631e-05 6.92858e-06 2.68213e+25 0.014124 0.696163 272.762 
-1.50517e-05 6.92858e-06 2.68713e+25 -0.46519 4.96895 272.219 
-1.31404e-05 6.92858e-06 2.68908e+25 -1.07419 7.24444 271.998 
-1.12291e-05 6.92858e-06 2.69037e+25 -1.56764 8.52815 271.879 
-9.31775e-06 6.92858e-06 2.69024e+25 -1.892 8.63937 271.841 
-7.40642e-06 6.92858e-06 2.69001e+25 -1.96738 8.27689 271.86 
-5.49508e-06 6.92858e-06 2.68903e+25 -1.93705 7.49932 271.87 
-3.58375e-06 6.92858e-06 2.68722e+25 -2.11818 6.4788 271.995 
-1.67242e-06 6.92858e-06 2.68844e+25 -2.19764 5.35375 271.778 
-1.69631e-05 7.40642e-06 2.68148e+25 0.018292 0.681149 272.787 
-1.50517e-05 7.40642e-06 2.68732e+25 -0.458157 5.11783 272.174 
-1.31404e-05 7.40642e-06 2.68948e+25 -1.14672 7.40444 272.033 
-1.12291e-05 7.40642e-06 2.69017e+25 -1.52258 8.57592 271.888 
-9.31775e-06 7.40642e-06 2.69114e+25 -1.73833 8.69822 271.793 
-7.40642e-06 7.40642e-06 2.69172e+25 -1.67437 8.23836 271.764 
-5.49508e-06 7.40642e-06 2.68916e+25 -1.63473 7.48465 271.921 
-3.58375e-06 7.40642e-06 2.68839e+25 -1.72609 6.52402 271.923 
-1.67242e-06 7.40642e-06 2.69026e+25 -1.50412 5.36264 271.826 
-1.69631e-05 7.88425e-06 2.68108e+25 -0.0215433 0.697858 272.828 
-1.50517e-05 7.88425e-06 2.68875e+25 -0.408496 5.25241 272.057 
-1.31404e-05 7.88425e-06 2.6881e+25 -1.18237 7.63207 272.033 
-1.12291e-05 7.88425e-06 2.68964e+25 -1.53274 8.6123 271.917 
-9.31775e-06 7.88425e-06 2.68987e+25 -1.55833 8.78528 271.909 
-7.40642e-06 7.88425e-06 2.69058e+25 -1.51483 8.26458 271.834 
-5.49508e-06 7.88425e-06 2.68829e+25 -1.30547 7.46041 271.892 
-3.58375e-06 7.88425e-06 2.68943e+25 -1.14155 6.55517 271.913 
-1.67242e-06 7.88425e-06 2.68956e+25 -0.781872 5.31108 271.842 
-1.69631e-05 8.36208e-06 2.68115e+25 0.0120764 0.718262 272.788 
-1.50517e-05 8.36208e-06 2.68868e+25 -0.452862 5.40353 271.955 
-1.31404e-05 8.36208e-06 2.68854e+25 -1.28795 7.89891 272.016 
-1.12291e-05 8.36208e-06 2.68923e+25 -1.74298 8.64071 271.954 
-9.31775e-06 8.36208e-06 2.6893e+25 -1.65542 8.79969 271.927 
-7.40642e-06 8.36208e-06 2.68934e+25 -1.34086 8.13859 271.894 
-5.49508e-06 8.36208e-06 2.68908e+25 -1.08425 7.3347 271.886 
-3.58375e-06 8.36208e-06 2.68908e+25 -0.561472 6.55719 271.907 
-1.67242e-06 8.36208e-06 2.68885e+25 -0.0978248 5.22114 271.822 
-1.69631e-05 8.83992e-06 2.6828e+25 -0.0515285 0.787632 272.718 
-1.50517e-05 8.83992e-06 2.68749e+25 -0.548455 5.55613 272.07 
-1.31404e-05 8.83992e-06 2.68858e+25 -1.35765 8.10493 272.011 
-1.12291e-05 8.83992e-06 2.68893e+25 -1.87839 8.63492 271.997 
-9.31775e-06 8.83992e-06 2.68991e+25 -1.7522 8.69317 271.899 
-7.40642e-06 8.83992e-06 2.68866e+25 -1.22483 7.98045 271.953 
-5.49508e-06 8.83992e-06 2.6887e+25 -0.714115 7.25972 271.933 
-3.58375e-06 8.83992e-06 2.68791e+25 0.0764998 6.37865 271.987 
-1.67242e-06 8.83992e-06 2.68948e+25 0.597294 5.06378 271.846 
-1.69631e-05 9.31775e-06 2.68121e+25 -0.0166804 0.863107 272.702 
-1.50517e-05 9.31775e-06 2.68558e+25 -0.638346 5.79506 272.154 
-1.31404e-05 9.31775e-06 2.68822e+25 -1.58634 8.23018 272.005 
-1.12291e-05 9.31775e-06 2.68983e+25 -2.0164 8.5603 271.882 
-9.31775e-06 9.31775e-06 2.68897e+25 -1.74361 8.61873 271.885 
-7.40642e-06 9.31775e-06 2.68923e+25 -1.13939 7.85353 271.988 
-5.49508e-06 9.31775e-06 2.68868e+25 -0.316349 7.15848 271.918 
-3.58375e-06 9.31775e-06 2.68799e+25 0.509438 6.13562 271.987 
-1.67242e-06 9.31775e-06 2.68951e+25 1.34305 4.84604 271.89 
-1.69631e-05 9.79558e-06 2.68092e+25 -0.0278903 0.917998 272.744 
-1.50517e-05 9.79558e-06 2.68639e+25 -0.763606 6.04858 272.142 
-1.31404e-05 9.79558e-06 2.68731e+25 -1.66674 8.37201 272.079 
-1.12291e-05 9.79558e-06 2.69024e+25 -2.17054 8.57005 271.843 
-9.31775e-06 9.79558e-06 2.68974e+25 -1.63444 8.44738 271.897 
-7.40642e-06 9.79558e-06 2.68967e+25 -0.800993 7.65648 271.942 
-5.49508e-06 9.79558e-06 2.69088e+25 0.0770925 6.91481 271.868 
-3.58375e-06 9.79558e-06 2.68888e+25 1.13678 5.86676 271.909 
-1.67242e-06 9.79558e-06 2.68979e+25 2.15777 4.62228 271.848 
-1.69631e-05 1.02734e-05 2.67997e+25 -0.0873759 1.05231 272.809 
-1.50517e-05 1.02734e-05 2.68523e+25 -0.959406 6.29655 272.166 
-1.31404e-05 1.02734e-05 2.68761e+25 -1.86744 8.51206 272.109 
-1.12291e-05 1.02734e-05 2.6883e+25 -2.10156 8.6154 271.917 
-9.31775e-06 1.02734e-05 2.68984e+25 -1.5854 8.26304 271.899 
-7.40642e-06 1.02734e-05 2.68792e+25 -0.735679 7.4734 272.029 
-5.49508e-06 1.02734e-05 2.6897e+25 0.57903 6.56998 271.847 
-3.58375e-06 1.02734e-05 2.69014e+25 1.91271 5.55011 271.841 
-1.67242e-06 1.02734e-05 2.68795e+25 3.12261 4.39759 271.979 
-1.69631e-05 1.07512e-05 2.68069e+25 -0.0326118 1.19529 272.811 
-1.50517e-05 1.07512e-05 2.68578e+25 -1.11555 6.61282 272.068 
-1.31404e-05 1.07512e-05 2.68916e+25 -2.09442 8.66013 271.955 
-1.12291e-05 1.07512e-05 2.68843e+25 -2.07113 8.54194 271.928 
-9.31775e-06 1.07512e-05 2.6902e+25 -1.44493 8.04077 271.798 
-7.40642e-06 1.07512e-05 2.68708e+25 -0.276495 7.20474 272.147 
-5.49508e-06 1.07512e-05 2.69052e+25 1.12641 6.23878 271.809 
-3.58375e-06 1.07512e-05 2.68889e+25 2.73224 5.23531 271.923 
-1.67242e-06 1.07512e-05 2.68852e+25 4.06857 4.16913 271.921 
-1.69631e-05 1.12291e-05 2.68034e+25 -0.0269093 1.27441 272.745 
-1.50517e-05 1.12291e-05 2.68528e+25 -1.30765 6.98251 272.151 
-1.31404e-05 1.12291e-05 2.68768e+25 -2.17504 8.80665 271.992 
-1.12291e-05 1.12291e-05 2.68906e+25 -2.05763 8.48388 271.942 
-9.31775e-06 1.12291e-05 2.68982e+25 -1.10845 7.74361 271.893 
-7.40642e-06 1.12291e-05 2.68851e+25 0.420149 6.77823 272.077 
-5.49508e-06 1.12291e-05 2.68958e+25 1.91775 5.88772 271.808 
-3.58375e-06 1.12291e-05 2.68858e+25 3.45653 4.78925 271.979 
-1.67242e-06 1.12291e-05 2.68825e+25 5.00708 3.8987 271.89 
-1.69631e-05 1.17069e-05 2.67996e+25 -0.040096 1.35034 272.782 
-1.50517e-05 1.17069e-05 2.68489e+25 -1.47537 7.43701 272.219 
-1.31404e-05 1.17069e-05 2.68625e+25 -2.31751 8.89984 272.092 
-1.12291e-05 1.17069e-05 2.68878e+25 -2.04728 8.33508 271.866 
-9.31775e-06 1.17069e-05 2.68877e+25 -0.732483 7.37455 271.993 
-7.40642e-06 1.17069e-05 2.68849e+25 1.10447 6.30348 272.107 
-5.49508e-06 1.17069e-05 2.68965e+25 2.77094 5.53425 271.903 
-3.58375e-06 1.17069e-05 2.68821e+25 4.49355 4.33998 271.993 
-1.67242e-06 1.17069e-05 2.68738e+25 6.20225 3.55813 271.976 
-1.69631e-05 1.21847e-05 2.67884e+25 -0.0157615 1.45489 272.771 
-1.50517e-05 1.21847e-05 2.68495e+25 -1.70061 7.90691 272.069 
-1.31404e-05 1.21847e-05 2.68566e+25 -2.63996 8.89556 272.187 
-1.12291e-05 1.21847e-05 2.68788e+25 -1.90331 8.08866 271.944 
-9.31775e-06 1.21847e-05 2.68895e+25 -0.304733 6.8294 271.915 
-7.40642e-06 1.21847e-05 2.68724e+25 1.80391 5.78135 272.189 
-5.49508e-06 1.21847e-05 2.68867e+25 3.71005 5.08437 271.997 
-3.58375e-06 1.21847e-05 2.68662e+25 5.6706 3.82207 272.112 
-1.67242e-06 1.21847e-05 2.68763e+25 7.5898 3.18778 272.048 
-1.69631e-05 1.26626e-05 2.67966e+25 -0.0860266 1.56622 272.743 
-1.50517e-05 1.26626e-05 2.68401e+25 -1.99817 8.35042 272.088 
-1.31404e-05 1.26626e-05 2.68687e+25 -2.88461 8.80856 272.003 
-1.12291e-05 1.26626e-05 2.68764e+25 -1.56982 7.74716 271.971 
-9.31775e-06 1.26626e-05 2.6885e+25 0.435923 6.29076 272.035 
-7.40642e-06 1.26626e-05 2.68774e+25 2.80188 5.26841 272.156 
-5.49508e-06 1.26626e-05 2.68695e+25 5.04721 4.50126 272.149 
-3.58375e-06 1.26626e-05 2.68768e+25 7.09804 3.37427 272.099 
-1.67242e-06 1.26626e-05 2.68745e+25 8.87785 2.78171 272.083 
-1.69631e-05 1.31404e-05 2.67814e+25 -0.0985313 1.82743 272.704 
-1.50517e-05 1.31404e-05 2.68386e+25 -2.44274 8.85836 272.029 
-1.31404e-05 1.31404e-05 2.68592e+25 -3.01741 8.67001 271.966 
-1.12291e-05 1.31404e-05 2.68736e+25 -1.00462 7.24796 272.071 
-9.31775e-06 1.31404e-05 2.68942e+25 1.54211 5.67907 271.998 
-7.40642e-06 1.31404e-05 2.6864e+25 4.20613 4.78797 272.149 
-5.49508e-06 1.31404e-05 2.68709e+25 6.52364 3.88851 272.186 
-3.58375e-06 1.31404e-05 2.68696e+25 8.74866 2.84216 272.121 
-1.67242e-06 1.31404e-05 2.68696e+25 10.7242 2.38847 272.084 
-1.69631e-05 1.36182e-05 2.67761e+25 -0.201509 2.17246 272.689 
-1.50517e-05 1.36182e-05 2.684e+25 -2.93797 9.34404 272.026 
-1.31404e-05 1.36182e-05 2.68635e+25 -2.62771 8.35594 272.003 
-1.12291e-05 1.36182e-05 2.6866e+25 -0.0249149 6.50473 272.25 
-9.31775e-06 1.36182e-05 2.68847e+25 3.09005 4.98832 272.076 
-7.40642e-06 1.36182e-05 2.68822e+25 5.97097 4.16796 272.1 
-5.49508e-06 1.36182e-05 2.68744e+25 8.39572 3.24669 272.195 
-3.58375e-06 1.36182e-05 2.6869e+25 10.7749 2.33112 272.185 
-1.67242e-06 1.36182e-05 2.68742e+25 12.5712 1.98357 272.121 
-1.69631e-05 1.40961e-05 2.67577e+25 -0.194465 2.60864 272.757 
-1.50517e-05 1.40961e-05 2.68327e+25 -3.274 9.62762 272.021 
-1.31404e-05 1.40961e-05 2.68704e+25 -1.89915 7.78192 271.948 
-1.12291e-05 1.40961e-05 2.68534e+25 1.46748 5.60629 272.279 
-9.31775e-06 1.40961e-05 2.6886e+25 4.96375 4.23154 272.212 
-7.40642e-06 1.40961e-05 2.68846e+25 8.03613 3.45955 272.126 
-5.49508e-06 1.40961e-05 2.68764e+25 10.8726 2.6212 272.22 
-3.58375e-06 1.40961e-05 2.68618e+25 13.1229 1.88103 272.255 
-1.67242e-06 1.40961e-05 2.68596e+25 14.7215 1.57734 272.258 
-1.69631e-05 1.45739e-05 2.67268e+25 -0.338783 3.2511 272.81 
-1.50517e-05 1.45739e-05 2.6819e+25 -3.28305 9.69417 272.084 
-1.31404e-05 1.45739e-05 2.68599e+25 -0.482799 6.90604 271.986 
-1.12291e-05 1.45739e-05 2.68577e+25 3.84716 4.62844 272.303 
-9.31775e-06 1.45739e-05 2.68751e+25 7.51109 3.42508 272.182 
-7.40642e-06 1.45739e-05 2.68636e+25 10.7476 2.70126 272.271 
-5.49508e-06 1.45739e-05 2.6871e+25 13.622 1.99565 272.274 
-3.58375e-06 1.45739e-05 2.68521e+25 15.6897 1.52251 272.298 
-1.67242e-06 1.45739e-05 2.68622e+25 17.1368 1.12929 272.238 
-1.69631e-05 1.50518e-05 2.67009e+25 -0.459839 4.17652 272.792 
-1.50517e-05 1.50518e-05 2.67805e+25 -2.70483 9.39492 272.223 
-1.31404e-05 1.50518e-05 2.68435e+25 1.99712 5.69028 272.186 
-1.12291e-05 1.50518e-05 2.68479e+25 7.00157 3.57323 272.36 
-9.31775e-06 1.50518e-05 2.68703e+25 10.8472 2.58859 272.287 
-7.40642e-06 1.50518e-05 2.68547e+25 13.9341 1.99836 272.47 
-5.49508e-06 1.50518e-05 2.68602e+25 16.5317 1.42063 272.348 
-3.58375e-06 1.50518e-05 2.68611e+25 18.6181 1.0975 272.223 
-1.67242e-06 1.50518e-05 2.68534e+25 19.9611 0.763138 272.359 
-1.69631e-05 1.55296e-05 2.66233e+25 -0.660933 5.43734 272.782 
-1.50517e-05 1.55296e-05 2.67481e+25 -0.763822 8.35804 272.48 
-1.31404e-05 1.55296e-05 2.68126e+25 5.98821 4.16575 272.526 
-1.12291e-05 1.55296e-05 2.68215e+25 11.2998 2.53965 272.701 
-9.31775e-06 1.55296e-05 2.68691e+25 14.963 1.713 272.406 
-7.40642e-06 1.55296e-05 2.6848e+25 17.912 1.34177 272.562 
-5.49508e-06 1.55296e-05 2.68588e+25 20.131 0.957201 272.422 
-3.58375e-06 1.55296e-05 2.68545e+25 21.7459 0.685965 272.375 
-1.67242e-06 1.55296e-05 2.68432e+25 22.9306 0.491362 272.441 
-1.69631e-05 1.60074e-05 2.6509e+25 -0.826781 7.03473 272.817 
-1.50517e-05 1.60074e-05 2.67336e+25 3.5882 6.28274 272.684 
-1.31404e-05 1.60074e-05 2.6793e+25 11.8155 2.49614 272.734 
-1.12291e-05 1.60074e-05 2.68126e+25 16.7456 1.5331 272.884 
-9.31775e-06 1.60074e-05 2.68478e+25 19.9322 0.948217 272.542 
-7.40642e-06 1.60074e-05 2.68386e+25 22.2186 0.761559 272.657 
-5.49508e-06 1.60074e-05 2.68389e+25 24.0923 0.51201 272.601 
-3.58375e-06 1.60074e-05 2.68565e+25 25.3202 0.373435 272.467 
-1.67242e-06 1.60074e-05 2.68385e+25 26.1409 0.235356 272.543 
-1.69631e-05 1.64852e-05 2.62791e+25 -0.387099 8.51276 272.803 
-1.50517e-05 1.64852e-05 2.67108e+25 11.8252 3.48619 272.952 
-1.31404e-05 1.64852e-05 2.67919e+25 19.6555 1.06008 272.87 
-1.12291e-05 1.64852e-05 2.68179e+25 23.3122 0.679605 272.849 
-9.31775e-06 1.64852e-05 2.68406e+25 25.7056 0.376878 272.666 
-7.40642e-06 1.64852e-05 2.68346e+25 27.1532 0.293559 272.755 
-5.49508e-06 1.64852e-05 2.68202e+25 28.2463 0.200336 272.799 
-3.58375e-06 1.64852e-05 2.68373e+25 28.9903 0.174634 272.662 
-1.67242e-06 1.64852e-05 2.68347e+25 29.6734 0.0741573 272.564 
-1.69631e-05 1.69631e-05 2.55302e+25 4.04724 6.22889 273.061 
-1.50517e-05 1.69631e-05 2.67143e+25 24.3702 0.867794 273.221 
-1.31404e-05 1.69631e-05 2.67905e+25 28.706 0.227666 273.117 
-1.12291e-05 1.69631e-05 2.68144e+25 30.2624 0.15616 272.971 
-9.31775e-06 1.69631e-05 2.68313e+25 31.2809 0.0598612 272.884 
-7.40642e-06 1.69631e-05 2.68228e+25 31.7774 0.0466462 272.975 
-5.49508e-06 1.69631e-05 2.68106e+25 32.2035 0.0491316 272.962 
-3.58375e-06 1.69631e-05 2.68202e+25 32.3966 0.0237276 272.903 
-1.67242e-06 1.69631e-05 2.68146e+25 32.7799 -0.000243513 272.853 
-1.60074e-05 2.38917e-07 2.6862e+25 -0.218264 1.71514 272.293 
-1.40961e-05 2.38917e-07 2.68915e+25 -0.620205 4.25201 271.965 
-1.21847e-05 2.38917e-07 2.68896e+25 -1.52563 5.49994 272.007 
-1.02734e-05 2.38917e-07 2.68865e+25 -2.49841 5.97101 271.874 
-8.36208e-06 2.38917e-07 2.69032e+25 -3.36724 6.16472 271.886 
-6.45075e-06 2.38917e-07 2.68921e+25 -4.23668 6.00889 271.936 
-4.53942e-06 2.38917e-07 2.68883e+25 -5.32209 5.04607 271.92 
-2.62808e-06 2.38917e-07 2.68784e+25 -6.22324 3.9539 271.979 
-7.1675e-07 2.38917e-07 2.68827e+25 -7.13764 2.56749 272.023 
-1.60074e-05 7.1675e-07 2.68914e+25 -0.148329 1.8829 272.258 
-1.40961e-05 7.1675e-07 2.6908e+25 -0.613916 4.42255 271.938 
-1.21847e-05 7.1675e-07 2.69088e+25 -1.61124 5.79378 272.003 
-1.02734e-05 7.1675e-07 2.69178e+25 -2.64968 6.16507 271.844 
-8.36208e-06 7.1675e-07 2.6912e+25 -3.3143 6.39008 271.883 
-6.45075e-06 7.1675e-07 2.69131e+25 -4.13911 6.23658 271.84 
-4.53942e-06 7.1675e-07 2.69179e+25 -5.12041 5.32698 271.839 
-2.62808e-06 7.1675e-07 2.69059e+25 -6.04208 4.23567 271.919 
-7.1675e-07 7.1675e-07 2.68987e+25 -6.94974 2.78914 272.042 
-1.60074e-05 1.19458e-06 2.68963e+25 -0.198447 2.05861 272.152 
-1.40961e-05 1.19458e-06 2.69006e+25 -0.728241 4.56392 272.01 
-1.21847e-05 1.19458e-06 2.69119e+25 -1.68954 6.02704 271.929 
-1.02734e-05 1.19458e-06 2.69293e+25 -2.54746 6.34937 271.796 
-8.36208e-06 1.19458e-06 2.69124e+25 -3.15103 6.54827 271.874 
-6.45075e-06 1.19458e-06 2.69257e+25 -4.02383 6.38083 271.815 
-4.53942e-06 1.19458e-06 2.69215e+25 -5.03125 5.60587 271.817 
-2.62808e-06 1.19458e-06 2.69109e+25 -5.8849 4.46341 271.957 
-7.1675e-07 1.19458e-06 2.69016e+25 -6.68781 2.97072 272.076 
-1.60074e-05 1.67242e-06 2.68929e+25 -0.022387 2.10959 272.185 
-1.40961e-05 1.67242e-06 2.68994e+25 -0.679977 4.69637 272.011 
-1.21847e-05 1.67242e-06 2.69221e+25 -1.60168 6.29638 271.949 
-1.02734e-05 1.67242e-06 2.69077e+25 -2.3536 6.55331 271.928 
-8.36208e-06 1.67242e-06 2.69257e+25 -3.15473 6.6889 271.752 
-6.45075e-06 1.67242e-06 2.69157e+25 -4.12576 6.59551 271.808 
-4.53942e-06 1.67242e-06 2.69118e+25 -4.80945 5.84774 271.828 
-2.62808e-06 1.67242e-06 2.6899e+25 -5.65767 4.62007 272.055 
-7.1675e-07 1.67242e-06 2.68785e+25 -6.39673 3.17086 272.114 
-1.60074e-05 2.15025e-06 2.68812e+25 0.0369279 2.1507 272.266 
-1.40961e-05 2.15025e-06 2.68972e+25 -0.487827 4.88477 272.005 
-1.21847e-05 2.15025e-06 2.69211e+25 -1.3549 6.45445 271.856 
-1.02734e-05 2.15025e-06 2.69105e+25 -2.23681 6.73981 271.86 
-8.36208e-06 2.15025e-06 2.69363e+25 -3.10671 6.88332 271.622 
-6.45075e-06 2.15025e-06 2.69306e+25 -4.21799 6.82199 271.743 
-4.53942e-06 2.15025e-06 2.69162e+25 -4.71148 6.08663 271.847 
-2.62808e-06 2.15025e-06 2.68934e+25 -5.58951 4.80748 271.991 
-7.1675e-07 2.15025e-06 2.68798e+25 -6.17861 3.37666 272.094 
-1.60074e-05 2.62808e-06 2.68832e+25 -0.072284 2.22686 272.268 
-1.40961e-05 2.62808e-06 2.69058e+25 -0.542909 5.10214 272.007 
-1.21847e-05 2.62808e-06 2.69257e+25 -1.2336 6.68077 271.801 
-1.02734e-05 2.62808e-06 2.69094e+25 -2.14476 6.99058 271.85 
-8.36208e-06 2.62808e-06 2.69237e+25 -3.04909 7.07209 271.73 
-6.45075e-06 2.62808e-06 2.69222e+25 -4.01752 7.01149 271.754 
-4.53942e-06 2.62808e-06 2.68958e+25 -4.60261 6.22741 271.933 
-2.62808e-06 2.62808e-06 2.68941e+25 -5.28318 4.96156 272.054 
-7.1675e-07 2.62808e-06 2.68755e+25 -5.86294 3.53622 272.15 
-1.60074e-05 3.10592e-06 2.68785e+25 -0.0486512 2.21164 272.233 
-1.40961e-05 3.10592e-06 2.69143e+25 -0.543974 5.31516 271.944 
-1.21847e-05 3.10592e-06 2.69182e+25 -1.21737 6.88672 271.872 
-1.02734e-05 3.10592e-06 2.69165e+25 -2.02058 7.19957 271.812 
-8.36208e-06 3.10592e-06 2.69115e+25 -3.03112 7.32089 271.816 
-6.45075e-06 3.10592e-06 2.6918e+25 -3.83036 7.18691 271.861 
-4.53942e-06 3.10592e-06 2.689e+25 -4.4993 6.31402 271.977 
-2.62808e-06 3.10592e-06 2.68863e+25 -4.94186 5.12374 272.029 
-7.1675e-07 3.10592e-06 2.68765e+25 -5.58267 3.77775 272.128 
-1.60074e-05 3.58375e-06 2.68805e+25 -0.0289308 2.24409 272.231 
-1.40961e-05 3.58375e-06 2.68998e+25 -0.488305 5.50492 272.016 
-1.21847e-05 3.58375e-06 2.68973e+25 -1.17545 7.05423 271.971 
-1.02734e-05 3.58375e-06 2.69156e+25 -1.95494 7.45477 271.823 
-8.36208e-06 3.58375e-06 2.69193e+25 -2.92572 7.60248 271.8 
-6.45075e-06 3.58375e-06 2.69008e+25 -3.58744 7.44104 271.839 
-4.53942e-06 3.58375e-06 2.69006e+25 -4.20798 6.41064 271.948 
-2.62808e-06 3.58375e-06 2.68795e+25 -4.75761 5.3512 272.125 
-7.1675e-07 3.58375e-06 2.68655e+25 -5.19809 3.85928 272.215 
-1.60074e-05 4.06158e-06 2.68746e+25 -0.0643214 2.30026 272.268 
-1.40961e-05 4.06158e-06 2.68992e+25 -0.477255 5.73273 272.016 
-1.21847e-05 4.06158e-06 2.69174e+25 -1.15534 7.20843 271.829 
-1.02734e-05 4.06158e-06 2.69123e+25 -1.80372 7.71226 271.871 
-8.36208e-06 4.06158e-06 2.69174e+25 -2.81311 7.8368 271.83 
-6.45075e-06 4.06158e-06 2.68988e+25 -3.33775 7.59915 271.951 
-4.53942e-06 4.06158e-06 2.6897e+25 -3.87295 6.51919 271.934 
-2.62808e-06 4.06158e-06 2.68945e+25 -4.41473 5.51158 272.013 
-7.1675e-07 4.06158e-06 2.68699e+25 -4.86585 3.87311 272.201 
-1.60074e-05 4.53942e-06 2.68688e+25 -0.0535315 2.37053 272.351 
-1.40961e-05 4.53942e-06 2.68857e+25 -0.594537 5.95753 272.087 
-1.21847e-05 4.53942e-06 2.69191e+25 -1.08565 7.36601 271.821 
-1.02734e-05 4.53942e-06 2.69025e+25 -1.72064 7.95107 271.91 
-8.36208e-06 4.53942e-06 2.69308e+25 -2.67389 8.04007 271.725 
-6.45075e-06 4.53942e-06 2.68904e+25 -3.2444 7.7428 272.011 
-4.53942e-06 4.53942e-06 2.68853e+25 -3.52976 6.617 272.023 
-2.62808e-06 4.53942e-06 2.68908e+25 -4.14969 5.59782 271.965 
-7.1675e-07 4.53942e-06 2.68674e+25 -4.49454 3.99716 272.149 
-1.60074e-05 5.01725e-06 2.6878e+25 -0.172519 2.48671 272.265 
-1.40961e-05 5.01725e-06 2.68851e+25 -0.649201 6.02329 272.083 
-1.21847e-05 5.01725e-06 2.68986e+25 -1.00231 7.5251 271.979 
-1.02734e-05 5.01725e-06 2.69069e+25 -1.81869 8.12868 271.861 
-8.36208e-06 5.01725e-06 2.69007e+25 -2.42829 8.25147 271.875 
-6.45075e-06 5.01725e-06 2.688e+25 -2.96188 7.81242 272.08 
-4.53942e-06 5.01725e-06 2.68977e+25 -3.35005 6.73197 271.949 
-2.62808e-06 5.01725e-06 2.69004e+25 -3.74404 5.74611 271.869 
-7.1675e-07 5.01725e-06 2.68807e+25 -4.26333 4.12993 271.98 
-1.60074e-05 5.49508e-06 2.68695e+25 -0.276443 2.61205 272.25 
-1.40961e-05 5.49508e-06 2.68727e+25 -0.652186 6.03556 272.16 
-1.21847e-05 5.49508e-06 2.68994e+25 -1.06679 7.71428 271.904 
-1.02734e-05 5.49508e-06 2.69064e+25 -1.89097 8.32427 271.911 
-8.36208e-06 5.49508e-06 2.69021e+25 -2.34124 8.39035 271.869 
-6.45075e-06 5.49508e-06 2.68856e+25 -2.71678 7.84365 272.067 
-4.53942e-06 5.49508e-06 2.68951e+25 -3.12235 6.85913 271.929 
-2.62808e-06 5.49508e-06 2.68899e+25 -3.27959 5.84032 271.915 
-7.1675e-07 5.49508e-06 2.68867e+25 -3.85797 4.23735 271.903 
-1.60074e-05 5.97292e-06 2.68668e+25 -0.293126 2.75171 272.308 
-1.40961e-05 5.97292e-06 2.68708e+25 -0.74958 6.12721 272.133 
-1.21847e-05 5.97292e-06 2.689e+25 -1.06591 7.89085 271.951 
-1.02734e-05 5.97292e-06 2.69053e+25 -1.82639 8.45163 271.887 
-8.36208e-06 5.97292e-06 2.69089e+25 -2.27776 8.53884 271.838 
-6.45075e-06 5.97292e-06 2.68844e+25 -2.43501 7.84353 271.97 
-4.53942e-06 5.97292e-06 2.68918e+25 -2.75509 6.97659 271.959 
-2.62808e-06 5.97292e-06 2.69036e+25 -2.92414 6.01682 271.826 
-7.1675e-07 5.97292e-06 2.68803e+25 -3.35778 4.26767 271.901 
-1.60074e-05 6.45075e-06 2.68665e+25 -0.122224 2.90189 272.294 
-1.40961e-05 6.45075e-06 2.68723e+25 -0.839872 6.19671 272.118 
-1.21847e-05 6.45075e-06 2.68859e+25 -1.2457 8.04247 272.007 
-1.02734e-05 6.45075e-06 2.69114e+25 -1.83172 8.57557 271.788 
-8.36208e-06 6.45075e-06 2.69041e+25 -2.19082 8.56702 271.88 
-6.45075e-06 6.45075e-06 2.68998e+25 -2.18299 7.82802 271.914 
-4.53942e-06 6.45075e-06 2.69024e+25 -2.4401 7.05891 271.893 
-2.62808e-06 6.45075e-06 2.68988e+25 -2.63941 6.09632 271.873 
-7.1675e-07 6.45075e-06 2.68966e+25 -2.81433 4.21477 271.775 
-1.60074e-05 6.92858e-06 2.68569e+25 -0.123215 3.1009 272.296 
-1.40961e-05 6.92858e-06 2.68874e+25 -0.706985 6.31001 272.018 
-1.21847e-05 6.92858e-06 2.68935e+25 -1.32198 8.12397 272.016 
-1.02734e-05 6.92858e-06 2.68987e+25 -1.6842 8.70489 271.832 
-8.36208e-06 6.92858e-06 2.69002e+25 -1.9659 8.59245 271.93 
-6.45075e-06 6.92858e-06 2.68991e+25 -1.9741 7.81714 271.841 
-4.53942e-06 6.92858e-06 2.69018e+25 -2.02903 7.11233 271.854 
-2.62808e-06 6.92858e-06 2.68956e+25 -2.16806 6.09626 271.821 
-7.1675e-07 6.92858e-06 2.68884e+25 -2.25771 4.27381 271.846 
-1.60074e-05 7.40642e-06 2.68764e+25 -0.145814 3.21913 272.248 
-1.40961e-05 7.40642e-06 2.68882e+25 -0.753848 6.47737 272.063 
-1.21847e-05 7.40642e-06 2.68926e+25 -1.43397 8.19459 272.02 
-1.02734e-05 7.40642e-06 2.69095e+25 -1.58619 8.79584 271.871 
-8.36208e-06 7.40642e-06 2.6897e+25 -1.77632 8.57258 271.872 
-6.45075e-06 7.40642e-06 2.69028e+25 -1.69779 7.84341 271.756 
-4.53942e-06 7.40642e-06 2.68851e+25 -1.57485 7.16933 271.967 
-2.62808e-06 7.40642e-06 2.69045e+25 -1.62837 6.0823 271.797 
-7.1675e-07 7.40642e-06 2.68801e+25 -1.50151 4.29698 271.888 
-1.60074e-05 7.88425e-06 2.68524e+25 -0.167582 3.30415 272.331 
-1.40961e-05 7.88425e-06 2.68781e+25 -0.729589 6.70934 272.001 
-1.21847e-05 7.88425e-06 2.68844e+25 -1.47859 8.27708 272.002 
-1.02734e-05 7.88425e-06 2.69044e+25 -1.52344 8.82147 271.831 
-8.36208e-06 7.88425e-06 2.688e+25 -1.64099 8.5734 271.995 
-6.45075e-06 7.88425e-06 2.69086e+25 -1.44134 7.78956 271.764 
-4.53942e-06 7.88425e-06 2.68763e+25 -1.1512 7.12877 272.015 
-2.62808e-06 7.88425e-06 2.68982e+25 -0.980533 5.96254 271.764 
-7.1675e-07 7.88425e-06 2.68787e+25 -0.636231 4.26425 271.931 
-1.60074e-05 8.36208e-06 2.68529e+25 -0.248603 3.42419 272.286 
-1.40961e-05 8.36208e-06 2.6889e+25 -0.83838 6.92864 271.971 
-1.21847e-05 8.36208e-06 2.68956e+25 -1.70154 8.29389 271.918 
-1.02734e-05 8.36208e-06 2.68993e+25 -1.70098 8.79357 271.818 
-8.36208e-06 8.36208e-06 2.68914e+25 -1.59138 8.52061 271.995 
-6.45075e-06 8.36208e-06 2.68981e+25 -1.1185 7.7382 271.87 
-4.53942e-06 8.36208e-06 2.68903e+25 -0.791126 6.97859 271.901 
-2.62808e-06 8.36208e-06 2.68846e+25 -0.329668 5.76717 271.835 
-7.1675e-07 8.36208e-06 2.68761e+25 0.0981059 4.25297 271.996 
-1.60074e-05 8.83992e-06 2.68538e+25 -0.248377 3.56238 272.296 
-1.40961e-05 8.83992e-06 2.68783e+25 -0.975117 7.06814 272.034 
-1.21847e-05 8.83992e-06 2.68905e+25 -1.81326 8.4584 271.958 
-1.02734e-05 8.83992e-06 2.69005e+25 -1.88377 8.76437 271.879 
-8.36208e-06 8.83992e-06 2.68832e+25 -1.5344 8.45158 272.003 
-6.45075e-06 8.83992e-06 2.68838e+25 -0.934625 7.65386 271.945 
-4.53942e-06 8.83992e-06 2.68811e+25 -0.383356 6.79601 271.956 
-2.62808e-06 8.83992e-06 2.68798e+25 0.261159 5.66667 271.955 
-7.1675e-07 8.83992e-06 2.68792e+25 0.826518 4.17304 271.978 
-1.60074e-05 9.31775e-06 2.68625e+25 -0.244032 3.7019 272.223 
-1.40961e-05 9.31775e-06 2.68764e+25 -1.20496 7.32201 271.992 
-1.21847e-05 9.31775e-06 2.68835e+25 -1.92489 8.69602 271.877 
-1.02734e-05 9.31775e-06 2.6911e+25 -1.92008 8.69517 271.889 
-8.36208e-06 9.31775e-06 2.68891e+25 -1.42277 8.28612 271.964 
-6.45075e-06 9.31775e-06 2.68947e+25 -0.720915 7.4973 271.904 
-4.53942e-06 9.31775e-06 2.68956e+25 0.0472844 6.57402 271.872 
-2.62808e-06 9.31775e-06 2.6873e+25 0.914244 5.5792 272.008 
-7.1675e-07 9.31775e-06 2.68907e+25 1.67513 4.07261 271.874 
-1.60074e-05 9.79558e-06 2.68548e+25 -0.230109 3.86979 272.254 
-1.40961e-05 9.79558e-06 2.68622e+25 -1.26643 7.62006 272.124 
-1.21847e-05 9.79558e-06 2.68909e+25 -1.85216 8.83902 271.898 
-1.02734e-05 9.79558e-06 2.69093e+25 -2.04776 8.58899 271.759 
-8.36208e-06 9.79558e-06 2.68934e+25 -1.24523 8.1367 271.854 
-6.45075e-06 9.79558e-06 2.68978e+25 -0.49988 7.23431 271.879 
-4.53942e-06 9.79558e-06 2.68977e+25 0.631808 6.34136 271.881 
-2.62808e-06 9.79558e-06 2.68802e+25 1.72949 5.35397 271.985 
-7.1675e-07 9.79558e-06 2.68726e+25 2.49714 3.92146 271.958 
-1.60074e-05 1.02734e-05 2.68533e+25 -0.371699 4.02649 272.309 
-1.40961e-05 1.02734e-05 2.6856e+25 -1.4708 7.92556 272.173 
-1.21847e-05 1.02734e-05 2.68953e+25 -1.95773 8.92167 271.889 
-1.02734e-05 1.02734e-05 2.68918e+25 -1.89345 8.40427 271.901 
-8.36208e-06 1.02734e-05 2.68886e+25 -1.09673 7.88841 271.995 
-6.45075e-06 1.02734e-05 2.68953e+25 -0.113288 6.98033 271.88 
-4.53942e-06 1.02734e-05 2.69021e+25 1.24755 6.05438 271.86 
-2.62808e-06 1.02734e-05 2.68762e+25 2.65182 5.03552 271.969 
-7.1675e-07 1.02734e-05 2.68842e+25 3.552 3.75166 271.908 
-1.60074e-05 1.07512e-05 2.68375e+25 -0.474265 4.22824 272.359 
-1.40961e-05 1.07512e-05 2.68656e+25 -1.6795 8.17846 272.094 
-1.21847e-05 1.07512e-05 2.68977e+25 -2.13982 8.94681 271.84 
-1.02734e-05 1.07512e-05 2.68994e+25 -1.79312 8.26842 271.78 
-8.36208e-06 1.07512e-05 2.68853e+25 -0.892771 7.65541 272.033 
-6.45075e-06 1.07512e-05 2.68945e+25 0.460379 6.64486 271.895 
-4.53942e-06 1.07512e-05 2.68933e+25 1.92588 5.69196 271.862 
-2.62808e-06 1.07512e-05 2.68761e+25 3.4851 4.73409 271.973 
-7.1675e-07 1.07512e-05 2.6873e+25 4.56127 3.55395 271.999 
-1.60074e-05 1.12291e-05 2.68451e+25 -0.50158 4.63161 272.256 
-1.40961e-05 1.12291e-05 2.6858e+25 -1.92073 8.27876 272.069 
-1.21847e-05 1.12291e-05 2.688e+25 -2.25983 8.88375 271.967 
-1.02734e-05 1.12291e-05 2.6903e+25 -1.70008 8.09231 271.78 
-8.36208e-06 1.12291e-05 2.68865e+25 -0.474262 7.30114 272.049 
-6.45075e-06 1.12291e-05 2.68969e+25 1.18997 6.30505 271.939 
-4.53942e-06 1.12291e-05 2.68953e+25 2.64604 5.3143 271.911 
-2.62808e-06 1.12291e-05 2.68741e+25 4.24688 4.35868 272.036 
-7.1675e-07 1.12291e-05 2.68724e+25 5.52989 3.32174 271.999 
-1.60074e-05 1.17069e-05 2.6836e+25 -0.535239 5.01471 272.295 
-1.40961e-05 1.17069e-05 2.68625e+25 -2.13448 8.42502 272.042 
-1.21847e-05 1.17069e-05 2.68781e+25 -2.38385 8.84864 272.011 
-1.02734e-05 1.17069e-05 2.68893e+25 -1.53198 7.78589 271.913 
-8.36208e-06 1.17069e-05 2.68769e+25 0.143176 6.88339 272.046 
-6.45075e-06 1.17069e-05 2.688e+25 1.99981 5.91058 272.04 
-4.53942e-06 1.17069e-05 2.68798e+25 3.57072 4.93119 271.977 
-2.62808e-06 1.17069e-05 2.68896e+25 5.38205 3.93462 271.98 
-7.1675e-07 1.17069e-05 2.68823e+25 6.80834 3.07222 271.964 
-1.60074e-05 1.21847e-05 2.68363e+25 -0.729776 5.4679 272.285 
-1.40961e-05 1.21847e-05 2.68623e+25 -2.46242 8.68134 272.008 
-1.21847e-05 1.21847e-05 2.68725e+25 -2.4251 8.68666 271.999 
-1.02734e-05 1.21847e-05 2.68859e+25 -1.2323 7.40441 271.992 
-8.36208e-06 1.21847e-05 2.6885e+25 0.814255 6.42063 272.108 
-6.45075e-06 1.21847e-05 2.68829e+25 2.77729 5.50001 272.066 
-4.53942e-06 1.21847e-05 2.68919e+25 4.66064 4.48317 271.944 
-2.62808e-06 1.21847e-05 2.68791e+25 6.66269 3.47324 272.05 
-7.1675e-07 1.21847e-05 2.68746e+25 8.16682 2.8613 271.982 
-1.60074e-05 1.26626e-05 2.6825e+25 -0.940557 5.96814 272.271 
-1.40961e-05 1.26626e-05 2.68522e+25 -2.69849 8.94647 272.078 
-1.21847e-05 1.26626e-05 2.68781e+25 -2.34803 8.41749 271.967 
-1.02734e-05 1.26626e-05 2.68778e+25 -0.651947 6.90071 272.06 
-8.36208e-06 1.26626e-05 2.68674e+25 1.65058 5.84658 272.153 
-6.45075e-06 1.26626e-05 2.68758e+25 3.84593 4.97903 272.118 
-4.53942e-06 1.26626e-05 2.68776e+25 6.07257 4.00963 272.075 
-2.62808e-06 1.26626e-05 2.68727e+25 8.12305 2.98518 272.095 
-7.1675e-07 1.26626e-05 2.68534e+25 9.76137 2.48363 272.141 
-1.60074e-05 1.31404e-05 2.6841e+25 -1.25605 6.65726 272.109 
-1.40961e-05 1.31404e-05 2.68625e+25 -3.11973 9.14328 271.941 
-1.21847e-05 1.31404e-05 2.68746e+25 -2.17979 7.97217 271.953 
-1.02734e-05 1.31404e-05 2.68679e+25 0.273456 6.33622 272.122 
-8.36208e-06 1.31404e-05 2.68729e+25 2.94648 5.17762 272.177 
-6.45075e-06 1.31404e-05 2.68751e+25 5.33363 4.41757 272.169 
-4.53942e-06 1.31404e-05 2.68574e+25 7.71512 3.50611 272.251 
-2.62808e-06 1.31404e-05 2.68707e+25 9.7666 2.51961 272.086 
-7.1675e-07 1.31404e-05 2.68591e+25 11.5151 2.09285 272.193 
-1.60074e-05 1.36182e-05 2.6815e+25 -1.60202 7.40204 272.219 
-1.40961e-05 1.36182e-05 2.68536e+25 -3.12769 9.15001 271.953 
-1.21847e-05 1.36182e-05 2.68582e+25 -1.52215 7.42135 272.101 
-1.02734e-05 1.36182e-05 2.68645e+25 1.56715 5.69205 272.166 
-8.36208e-06 1.36182e-05 2.68764e+25 4.54038 4.47107 272.247 
-6.45075e-06 1.36182e-05 2.68623e+25 7.22333 3.86373 272.23 
-4.53942e-06 1.36182e-05 2.68644e+25 9.69469 2.89907 272.21 
-2.62808e-06 1.36182e-05 2.68672e+25 11.699 2.04025 272.091 
-7.1675e-07 1.36182e-05 2.68595e+25 13.3703 1.76146 272.171 
-1.60074e-05 1.40961e-05 2.67978e+25 -1.98057 8.33044 272.222 
-1.40961e-05 1.40961e-05 2.68452e+25 -3.04815 8.97154 271.985 
-1.21847e-05 1.40961e-05 2.68604e+25 -0.31772 6.67209 272.186 
-1.02734e-05 1.40961e-05 2.68581e+25 3.2929 4.89994 272.237 
-8.36208e-06 1.40961e-05 2.6881e+25 6.49519 3.73417 272.255 
-6.45075e-06 1.40961e-05 2.68655e+25 9.48179 3.22067 272.295 
-4.53942e-06 1.40961e-05 2.68703e+25 12.0622 2.26296 272.245 
-2.62808e-06 1.40961e-05 2.68703e+25 13.908 1.56873 272.171 
-7.1675e-07 1.40961e-05 2.68579e+25 15.4984 1.40731 272.2 
-1.60074e-05 1.45739e-05 2.67933e+25 -2.39115 9.32195 272.043 
-1.40961e-05 1.45739e-05 2.68238e+25 -2.37471 8.43476 272.138 
-1.21847e-05 1.45739e-05 2.68519e+25 1.69065 5.68236 272.231 
-1.02734e-05 1.45739e-05 2.68627e+25 5.72926 4.02959 272.293 
-8.36208e-06 1.45739e-05 2.68708e+25 9.16435 2.93195 272.286 
-6.45075e-06 1.45739e-05 2.68635e+25 12.254 2.47895 272.321 
-4.53942e-06 1.45739e-05 2.6863e+25 14.7464 1.68221 272.229 
-2.62808e-06 1.45739e-05 2.68699e+25 16.4027 1.26764 272.143 
-7.1675e-07 1.45739e-05 2.68554e+25 17.9032 1.06866 272.227 
-1.60074e-05 1.50518e-05 2.67421e+25 -2.8198 10.1903 272.25 
-1.40961e-05 1.50518e-05 2.68057e+25 -0.715838 7.38947 272.305 
-1.21847e-05 1.50518e-05 2.68331e+25 4.65761 4.46668 272.459 
-1.02734e-05 1.50518e-05 2.68604e+25 9.00108 3.07694 272.373 
-8.36208e-06 1.50518e-05 2.68535e+25 12.5303 2.13337 272.346 
-6.45075e-06 1.50518e-05 2.68658e+25 15.339 1.76369 272.332 
-4.53942e-06 1.50518e-05 2.68654e+25 17.6331 1.16481 272.228 
-2.62808e-06 1.50518e-05 2.68727e+25 19.3037 0.952428 272.23 
-7.1675e-07 1.50518e-05 2.68523e+25 20.532 0.781957 272.325 
-1.60074e-05 1.55296e-05 2.67088e+25 -2.66776 10.6069 272.357 
-1.40961e-05 1.55296e-05 2.67903e+25 2.56697 5.86291 272.481 
-1.21847e-05 1.55296e-05 2.68292e+25 8.89616 3.18856 272.608 
-1.02734e-05 1.55296e-05 2.68489e+25 13.2662 2.11076 272.504 
-8.36208e-06 1.55296e-05 2.68535e+25 16.577 1.37721 272.488 
-6.45075e-06 1.55296e-05 2.68419e+25 19.0505 1.10668 272.468 
-4.53942e-06 1.55296e-05 2.68647e+25 21.0095 0.71988 272.305 
-2.62808e-06 1.55296e-05 2.68448e+25 22.4031 0.600604 272.364 
-7.1675e-07 1.55296e-05 2.68457e+25 23.5033 0.453515 272.401 
-1.60074e-05 1.60074e-05 2.66433e+25 -1.068 9.8787 272.674 
-1.40961e-05 1.60074e-05 2.67756e+25 8.21496 3.94633 272.661 
-1.21847e-05 1.60074e-05 2.6824e+25 14.6156 1.87763 272.681 
-1.02734e-05 1.60074e-05 2.6835e+25 18.5118 1.23327 272.681 
-8.36208e-06 1.60074e-05 2.68477e+25 21.1654 0.732024 272.562 
-6.45075e-06 1.60074e-05 2.6835e+25 23.2421 0.598962 272.622 
-4.53942e-06 1.60074e-05 2.68413e+25 24.7864 0.379536 272.598 
-2.62808e-06 1.60074e-05 2.6848e+25 25.7327 0.362649 272.423 
-7.1675e-07 1.60074e-05 2.68483e+25 26.52 0.263703 272.442 
-1.60074e-05 1.64852e-05 2.65805e+25 4.6593 6.98809 272.937 
-1.40961e-05 1.64852e-05 2.67709e+25 16.6774 1.97542 272.85 
-1.21847e-05 1.64852e-05 2.68205e+25 21.741 0.817322 272.782 
-1.02734e-05 1.64852e-05 2.68251e+25 24.6691 0.519791 272.812 
-8.36208e-06 1.64852e-05 2.68399e+25 26.4569 0.223402 272.687 
-6.45075e-06 1.64852e-05 2.68218e+25 27.8241 0.219939 272.837 
-4.53942e-06 1.64852e-05 2.6829e+25 28.6897 0.181854 272.739 
-2.62808e-06 1.64852e-05 2.68304e+25 29.3433 0.195407 272.619 
-7.1675e-07 1.64852e-05 2.68263e+25 29.9048 0.128153 272.574 
-1.60074e-05 1.69631e-05 2.65138e+25 18.253 2.16806 273.342 
-1.40961e-05 1.69631e-05 2.67799e+25 27.1432 0.442357 273.014 
-1.21847e-05 1.69631e-05 2.6812e+25 29.5584 0.14903 272.899 
-1.02734e-05 1.69631e-05 2.68193e+25 30.7964 0.0993516 272.959 
-8.36208e-06 1.69631e-05 2.68306e+25 31.4784 0.0138385 272.876 
-6.45075e-06 1.69631e-05 2.68266e+25 31.9675 0.0533528 272.962 
-4.53942e-06 1.69631e-05 2.6812e+25 32.3101 0.0481747 272.935 
-2.62808e-06 1.69631e-05 2.68038e+25 32.6708 0.0564696 272.842 
-7.1675e-07 1.69631e-05 2.68192e+25 32.8762 0.032329 272.759 
-1.55296e-05 2.38917e-07 2.68659e+25 -0.318429 2.4923 272.145 
-1.36182e-05 2.38917e-07 2.68929e+25 -0.777034 4.64652 271.936 
-1.17069e-05 2.38917e-07 2.68796e+25 -1.75641 5.72201 272.041 
-9.79558e-06 2.38917e-07 2.68924e+25 -2.76465 5.97152 271.917 
-7.88425e-06 2.38917e-07 2.69018e+25 -3.57125 6.10757 271.878 
-5.97292e-06 2.38917e-07 2.69008e+25 -4.45403 5.85819 271.823 
-4.06158e-06 2.38917e-07 2.68896e+25 -5.49866 4.85936 271.96 
-2.15025e-06 2.38917e-07 2.68786e+25 -6.46947 3.66038 271.978 
-2.38917e-07 2.38917e-07 2.68568e+25 -7.3076 2.15896 272.066 
-1.55296e-05 7.1675e-07 2.68997e+25 -0.332554 2.58963 272.137 
-1.36182e-05 7.1675e-07 2.69134e+25 -0.776773 4.80048 271.955 
-1.17069e-05 7.1675e-07 2.69115e+25 -1.87228 5.96367 271.944 
-9.79558e-06 7.1675e-07 2.69e+25 -2.79182 6.17514 271.973 
-7.88425e-06 7.1675e-07 2.69238e+25 -3.49849 6.24305 271.853 
-5.97292e-06 7.1675e-07 2.69144e+25 -4.31239 6.05924 271.842 
-4.06158e-06 7.1675e-07 2.69121e+25 -5.39287 5.05599 271.888 
-2.15025e-06 7.1675e-07 2.69037e+25 -6.31774 3.94306 271.978 
-2.38917e-07 7.1675e-07 2.68537e+25 -7.19967 2.38451 272.145 
-1.55296e-05 1.19458e-06 2.6904e+25 -0.328117 2.6994 272.023 
-1.36182e-05 1.19458e-06 2.69084e+25 -0.899599 4.97457 272.006 
-1.17069e-05 1.19458e-06 2.69167e+25 -1.9086 6.18636 271.867 
-9.79558e-06 1.19458e-06 2.69141e+25 -2.71225 6.27869 271.853 
-7.88425e-06 1.19458e-06 2.69221e+25 -3.35653 6.47534 271.778 
-5.97292e-06 1.19458e-06 2.69189e+25 -4.25561 6.31145 271.801 
-4.06158e-06 1.19458e-06 2.6901e+25 -5.31406 5.32549 271.984 
-2.15025e-06 1.19458e-06 2.68911e+25 -6.10758 4.16999 272.001 
-2.38917e-07 1.19458e-06 2.68566e+25 -6.851 2.64455 272.126 
-1.55296e-05 1.67242e-06 2.69047e+25 -0.0996219 2.85923 271.978 
-1.36182e-05 1.67242e-06 2.69087e+25 -0.854583 5.20009 271.975 
-1.17069e-05 1.67242e-06 2.68981e+25 -1.71964 6.29366 271.995 
-9.79558e-06 1.67242e-06 2.69106e+25 -2.60016 6.49584 271.893 
-7.88425e-06 1.67242e-06 2.69303e+25 -3.36113 6.73093 271.759 
-5.97292e-06 1.67242e-06 2.69228e+25 -4.31184 6.52108 271.776 
-4.06158e-06 1.67242e-06 2.6907e+25 -5.10057 5.6055 271.907 
-2.15025e-06 1.67242e-06 2.68958e+25 -5.88245 4.44558 272.01 
-2.38917e-07 1.67242e-06 2.6856e+25 -6.58317 2.78737 272.111 
-1.55296e-05 2.15025e-06 2.68961e+25 -0.116545 3.0477 272.032 
-1.36182e-05 2.15025e-06 2.68972e+25 -0.754667 5.46315 272.028 
-1.17069e-05 2.15025e-06 2.69088e+25 -1.62213 6.50915 271.889 
-9.79558e-06 2.15025e-06 2.69183e+25 -2.49277 6.77912 271.821 
-7.88425e-06 2.15025e-06 2.69348e+25 -3.3759 7.0209 271.624 
-5.97292e-06 2.15025e-06 2.69226e+25 -4.3356 6.60094 271.731 
-4.06158e-06 2.15025e-06 2.69123e+25 -4.92191 5.85438 271.858 
-2.15025e-06 2.15025e-06 2.68797e+25 -5.70417 4.61554 272.094 
-2.38917e-07 2.15025e-06 2.68583e+25 -6.37353 2.93375 272.102 
-1.55296e-05 2.62808e-06 2.69017e+25 -0.112596 3.15414 272.012 
-1.36182e-05 2.62808e-06 2.69064e+25 -0.744826 5.70949 271.984 
-1.17069e-05 2.62808e-06 2.69301e+25 -1.49532 6.79922 271.738 
-9.79558e-06 2.62808e-06 2.69151e+25 -2.39245 7.07177 271.849 
-7.88425e-06 2.62808e-06 2.69412e+25 -3.24788 7.25474 271.62 
-5.97292e-06 2.62808e-06 2.69165e+25 -4.20608 6.73283 271.769 
-4.06158e-06 2.62808e-06 2.68988e+25 -4.69787 6.0341 271.988 
-2.15025e-06 2.62808e-06 2.68817e+25 -5.42891 4.67945 272.141 
-2.38917e-07 2.62808e-06 2.68485e+25 -6.03084 3.16229 272.172 
-1.55296e-05 3.10592e-06 2.68945e+25 -0.0357277 3.16148 272.091 
-1.36182e-05 3.10592e-06 2.69138e+25 -0.688085 5.84508 271.995 
-1.17069e-05 3.10592e-06 2.6918e+25 -1.40671 7.07962 271.84 
-9.79558e-06 3.10592e-06 2.6911e+25 -2.22496 7.2776 271.809 
-7.88425e-06 3.10592e-06 2.6925e+25 -3.23716 7.42725 271.739 
-5.97292e-06 3.10592e-06 2.69135e+25 -4.06328 6.98896 271.781 
-4.06158e-06 3.10592e-06 2.69e+25 -4.60274 6.12093 271.97 
-2.15025e-06 3.10592e-06 2.6883e+25 -5.12053 4.81301 272.05 
-2.38917e-07 3.10592e-06 2.68446e+25 -5.76119 3.2962 272.223 
-1.55296e-05 3.58375e-06 2.68939e+25 -0.0420597 3.16283 272.17 
-1.36182e-05 3.58375e-06 2.68968e+25 -0.682753 6.03408 272.022 
-1.17069e-05 3.58375e-06 2.69131e+25 -1.30698 7.23492 271.877 
-9.79558e-06 3.58375e-06 2.69163e+25 -2.17639 7.45608 271.834 
-7.88425e-06 3.58375e-06 2.6919e+25 -3.1843 7.63991 271.817 
-5.97292e-06 3.58375e-06 2.69144e+25 -3.76571 7.17387 271.73 
-4.06158e-06 3.58375e-06 2.68906e+25 -4.31273 6.20105 271.989 
-2.15025e-06 3.58375e-06 2.68716e+25 -4.93574 4.98176 272.099 
-2.38917e-07 3.58375e-06 2.68359e+25 -5.2818 3.44733 272.282 
-1.55296e-05 4.06158e-06 2.68872e+25 -0.109096 3.18764 272.093 
-1.36182e-05 4.06158e-06 2.68998e+25 -0.703551 6.20288 271.991 
-1.17069e-05 4.06158e-06 2.69227e+25 -1.29434 7.33475 271.797 
-9.79558e-06 4.06158e-06 2.69095e+25 -2.08041 7.72093 271.871 
-7.88425e-06 4.06158e-06 2.69072e+25 -3.01169 7.86891 271.816 
-5.97292e-06 4.06158e-06 2.69075e+25 -3.51391 7.36414 271.892 
-4.06158e-06 4.06158e-06 2.68895e+25 -3.98698 6.31681 271.927 
-2.15025e-06 4.06158e-06 2.68856e+25 -4.56258 5.1138 272.042 
-2.38917e-07 4.06158e-06 2.6846e+25 -4.94302 3.59054 272.156 
-1.55296e-05 4.53942e-06 2.68706e+25 -0.224939 3.30194 272.234 
-1.36182e-05 4.53942e-06 2.6898e+25 -0.737861 6.36996 272.004 
-1.17069e-05 4.53942e-06 2.69104e+25 -1.20044 7.43451 271.805 
-9.79558e-06 4.53942e-06 2.69043e+25 -1.91989 7.95914 271.924 
-7.88425e-06 4.53942e-06 2.68977e+25 -2.84398 8.02718 271.944 
-5.97292e-06 4.53942e-06 2.68942e+25 -3.31343 7.4475 271.994 
-4.06158e-06 4.53942e-06 2.68903e+25 -3.65853 6.44232 271.943 
-2.15025e-06 4.53942e-06 2.68689e+25 -4.23267 5.24175 272.043 
-2.38917e-07 4.53942e-06 2.68453e+25 -4.62894 3.70628 272.144 
-1.55296e-05 5.01725e-06 2.68747e+25 -0.316059 3.53171 272.219 
-1.36182e-05 5.01725e-06 2.68856e+25 -0.688128 6.46328 272.102 
-1.17069e-05 5.01725e-06 2.69038e+25 -1.224 7.61531 271.915 
-9.79558e-06 5.01725e-06 2.69041e+25 -2.00531 8.17405 271.908 
-7.88425e-06 5.01725e-06 2.68922e+25 -2.60802 8.18047 271.983 
-5.97292e-06 5.01725e-06 2.68774e+25 -3.01681 7.49474 272.039 
-4.06158e-06 5.01725e-06 2.69008e+25 -3.41395 6.55828 271.85 
-2.15025e-06 5.01725e-06 2.68864e+25 -3.85868 5.31104 271.957 
-2.38917e-07 5.01725e-06 2.68592e+25 -4.3425 3.80899 271.986 
-1.55296e-05 5.49508e-06 2.68779e+25 -0.38697 3.62721 272.196 
-1.36182e-05 5.49508e-06 2.68854e+25 -0.710416 6.55166 272.061 
-1.17069e-05 5.49508e-06 2.68908e+25 -1.28487 7.87986 271.946 
-9.79558e-06 5.49508e-06 2.68916e+25 -2.01867 8.33229 271.921 
-7.88425e-06 5.49508e-06 2.68939e+25 -2.50392 8.36527 271.897 
-5.97292e-06 5.49508e-06 2.68967e+25 -2.73206 7.49261 272.016 
-4.06158e-06 5.49508e-06 2.68892e+25 -3.14052 6.54845 271.872 
-2.15025e-06 5.49508e-06 2.68959e+25 -3.40683 5.4366 271.865 
-2.38917e-07 5.49508e-06 2.68667e+25 -3.91466 3.84097 271.934 
-1.55296e-05 5.97292e-06 2.68624e+25 -0.418393 3.71319 272.295 
-1.36182e-05 5.97292e-06 2.68932e+25 -0.781114 6.5806 272.019 
-1.17069e-05 5.97292e-06 2.68914e+25 -1.2251 8.09572 271.984 
-9.79558e-06 5.97292e-06 2.68992e+25 -1.9799 8.42046 271.905 
-7.88425e-06 5.97292e-06 2.68998e+25 -2.3975 8.47775 271.882 
-5.97292e-06 5.97292e-06 2.68864e+25 -2.45736 7.56342 271.939 
-4.06158e-06 5.97292e-06 2.68993e+25 -2.85531 6.56338 271.892 
-2.15025e-06 5.97292e-06 2.68988e+25 -3.11133 5.60962 271.821 
-2.38917e-07 5.97292e-06 2.68607e+25 -3.30728 3.83562 271.882 
-1.55296e-05 6.45075e-06 2.6867e+25 -0.314749 3.88203 272.225 
-1.36182e-05 6.45075e-06 2.69009e+25 -0.956339 6.698 271.963 
-1.17069e-05 6.45075e-06 2.68923e+25 -1.38571 8.23446 271.962 
-9.79558e-06 6.45075e-06 2.69013e+25 -1.93287 8.55226 271.843 
-7.88425e-06 6.45075e-06 2.69005e+25 -2.2182 8.57592 271.887 
-5.97292e-06 6.45075e-06 2.6891e+25 -2.25338 7.66242 271.975 
-4.06158e-06 6.45075e-06 2.68815e+25 -2.51492 6.64922 272.004 
-2.15025e-06 6.45075e-06 2.69041e+25 -2.64482 5.7287 271.772 
-2.38917e-07 6.45075e-06 2.68818e+25 -2.836 3.87458 271.739 
-1.55296e-05 6.92858e-06 2.68583e+25 -0.292854 4.08719 272.259 
-1.36182e-05 6.92858e-06 2.68847e+25 -0.889561 6.85214 272.04 
-1.17069e-05 6.92858e-06 2.68945e+25 -1.44313 8.39126 271.959 
-9.79558e-06 6.92858e-06 2.69125e+25 -1.80162 8.67925 271.753 
-7.88425e-06 6.92858e-06 2.69079e+25 -1.97621 8.57805 271.802 
-5.97292e-06 6.92858e-06 2.68958e+25 -1.92318 7.71199 271.899 
-4.06158e-06 6.92858e-06 2.68926e+25 -2.05818 6.69469 271.895 
-2.15025e-06 6.92858e-06 2.68928e+25 -2.15441 5.7367 271.851 
-2.38917e-07 6.92858e-06 2.68736e+25 -2.24962 3.84613 271.718 
-1.55296e-05 7.40642e-06 2.68647e+25 -0.2953 4.27255 272.256 
-1.36182e-05 7.40642e-06 2.68755e+25 -0.939259 7.06137 272.092 
-1.17069e-05 7.40642e-06 2.68951e+25 -1.49928 8.5023 272.002 
-9.79558e-06 7.40642e-06 2.69096e+25 -1.65756 8.7551 271.81 
-7.88425e-06 7.40642e-06 2.69052e+25 -1.69742 8.58098 271.856 
-5.97292e-06 7.40642e-06 2.68968e+25 -1.67999 7.64066 271.896 
-4.06158e-06 7.40642e-06 2.68863e+25 -1.65016 6.75326 272.003 
-2.15025e-06 7.40642e-06 2.68919e+25 -1.556 5.67831 271.833 
-2.38917e-07 7.40642e-06 2.68736e+25 -1.46323 3.80591 271.79 
-1.55296e-05 7.88425e-06 2.6874e+25 -0.274745 4.44143 272.139 
-1.36182e-05 7.88425e-06 2.68749e+25 -0.961649 7.23885 272.07 
-1.17069e-05 7.88425e-06 2.68984e+25 -1.50536 8.49946 271.95 
-9.79558e-06 7.88425e-06 2.69031e+25 -1.54859 8.80899 271.872 
-7.88425e-06 7.88425e-06 2.69008e+25 -1.58056 8.45491 271.854 
-5.97292e-06 7.88425e-06 2.68965e+25 -1.38413 7.5709 271.911 
-4.06158e-06 7.88425e-06 2.68764e+25 -1.09826 6.82826 271.982 
-2.15025e-06 7.88425e-06 2.68912e+25 -0.846212 5.61068 271.815 
-2.38917e-07 7.88425e-06 2.68561e+25 -0.632125 3.82083 271.875 
-1.55296e-05 8.36208e-06 2.68697e+25 -0.343738 4.52492 272.132 
-1.36182e-05 8.36208e-06 2.68809e+25 -1.04968 7.45278 272.115 
-1.17069e-05 8.36208e-06 2.69005e+25 -1.69945 8.49686 271.881 
-9.79558e-06 8.36208e-06 2.69e+25 -1.67407 8.80129 271.892 
-7.88425e-06 8.36208e-06 2.68918e+25 -1.52462 8.38 271.878 
-5.97292e-06 8.36208e-06 2.6889e+25 -1.10325 7.57831 271.98 
-4.06158e-06 8.36208e-06 2.68839e+25 -0.635526 6.77439 271.988 
-2.15025e-06 8.36208e-06 2.68815e+25 -0.204673 5.52529 271.838 
-2.38917e-07 8.36208e-06 2.68543e+25 0.157113 3.84398 271.961 
-1.55296e-05 8.83992e-06 2.68686e+25 -0.368306 4.63054 272.125 
-1.36182e-05 8.83992e-06 2.68794e+25 -1.17611 7.70913 272.067 
-1.17069e-05 8.83992e-06 2.6891e+25 -1.95385 8.51468 271.984 
-9.79558e-06 8.83992e-06 2.68897e+25 -1.82731 8.78815 271.932 
-7.88425e-06 8.83992e-06 2.68889e+25 -1.38567 8.23788 271.9 
-5.97292e-06 8.83992e-06 2.68772e+25 -0.850352 7.51738 272.055 
-4.06158e-06 8.83992e-06 2.6893e+25 -0.186981 6.60933 271.911 
-2.15025e-06 8.83992e-06 2.68923e+25 0.39214 5.39311 271.826 
-2.38917e-07 8.83992e-06 2.68572e+25 0.977347 3.71927 271.873 
-1.55296e-05 9.31775e-06 2.68594e+25 -0.426579 4.79756 272.163 
-1.36182e-05 9.31775e-06 2.68907e+25 -1.45004 7.89624 272.003 
-1.17069e-05 9.31775e-06 2.68871e+25 -2.01017 8.49528 271.916 
-9.79558e-06 9.31775e-06 2.69036e+25 -1.83779 8.71459 271.815 
-7.88425e-06 9.31775e-06 2.68957e+25 -1.2572 8.07294 271.874 
-5.97292e-06 9.31775e-06 2.68953e+25 -0.489377 7.36155 271.991 
-4.06158e-06 9.31775e-06 2.6889e+25 0.261785 6.38692 271.877 
-2.15025e-06 9.31775e-06 2.68745e+25 1.08866 5.16871 271.949 
-2.38917e-07 9.31775e-06 2.68577e+25 1.80644 3.5553 271.859 
-1.55296e-05 9.79558e-06 2.68586e+25 -0.466868 5.04734 272.124 
-1.36182e-05 9.79558e-06 2.68551e+25 -1.51866 8.0823 272.149 
-1.17069e-05 9.79558e-06 2.68972e+25 -2.04939 8.63506 271.851 
-9.79558e-06 9.79558e-06 2.68978e+25 -1.85876 8.53735 271.805 
-7.88425e-06 9.79558e-06 2.69075e+25 -1.04638 7.86056 271.893 
-5.97292e-06 9.79558e-06 2.69003e+25 -0.246276 7.10437 271.893 
-4.06158e-06 9.79558e-06 2.68974e+25 0.869901 6.15645 271.844 
-2.15025e-06 9.79558e-06 2.68779e+25 1.97325 4.97863 272.02 
-2.38917e-07 9.79558e-06 2.68428e+25 2.63698 3.42058 271.961 
-1.55296e-05 1.02734e-05 2.68555e+25 -0.639353 5.39363 272.23 
-1.36182e-05 1.02734e-05 2.68557e+25 -1.6983 8.24517 272.231 
-1.17069e-05 1.02734e-05 2.68855e+25 -2.04765 8.79712 271.906 
-9.79558e-06 1.02734e-05 2.69014e+25 -1.72803 8.36125 271.882 
-7.88425e-06 1.02734e-05 2.68777e+25 -0.881359 7.67056 271.969 
-5.97292e-06 1.02734e-05 2.6895e+25 0.233521 6.76547 271.884 
-4.06158e-06 1.02734e-05 2.69045e+25 1.60129 5.88561 271.755 
-2.15025e-06 1.02734e-05 2.68737e+25 2.89759 4.77685 271.973 
-2.38917e-07 1.02734e-05 2.68532e+25 3.69035 3.33194 271.921 
-1.55296e-05 1.07512e-05 2.68582e+25 -0.799396 5.72843 272.161 
-1.36182e-05 1.07512e-05 2.68712e+25 -1.87691 8.45367 272.114 
-1.17069e-05 1.07512e-05 2.68913e+25 -2.12821 8.85181 271.899 
-9.79558e-06 1.07512e-05 2.69108e+25 -1.65302 8.21419 271.765 
-7.88425e-06 1.07512e-05 2.6867e+25 -0.62168 7.458 272.153 
-5.97292e-06 1.07512e-05 2.69048e+25 0.817832 6.42244 271.859 
-4.06158e-06 1.07512e-05 2.6893e+25 2.30582 5.46008 271.863 
-2.15025e-06 1.07512e-05 2.68768e+25 3.82749 4.51942 272.006 
-2.38917e-07 1.07512e-05 2.68506e+25 4.73094 3.22784 271.894 
-1.55296e-05 1.12291e-05 2.68555e+25 -0.891273 6.05857 272.159 
-1.36182e-05 1.12291e-05 2.68647e+25 -2.03806 8.6593 272.076 
-1.17069e-05 1.12291e-05 2.68878e+25 -2.18065 8.75523 271.95 
-9.79558e-06 1.12291e-05 2.69013e+25 -1.43748 7.994 271.822 
-7.88425e-06 1.12291e-05 2.68728e+25 -0.0210502 7.0818 272.133 
-5.97292e-06 1.12291e-05 2.69048e+25 1.54622 6.06528 271.881 
-4.06158e-06 1.12291e-05 2.68785e+25 3.04726 5.07527 271.961 
-2.15025e-06 1.12291e-05 2.68804e+25 4.6493 4.1411 271.995 
-2.38917e-07 1.12291e-05 2.68558e+25 5.80705 3.10323 271.931 
-1.55296e-05 1.17069e-05 2.68509e+25 -0.975379 6.50778 272.137 
-1.36182e-05 1.17069e-05 2.686e+25 -2.27611 8.77896 272.117 
-1.17069e-05 1.17069e-05 2.68971e+25 -2.23726 8.59468 271.872 
-9.79558e-06 1.17069e-05 2.69017e+25 -1.16 7.65057 271.846 
-7.88425e-06 1.17069e-05 2.68733e+25 0.611197 6.59133 272.145 
-5.97292e-06 1.17069e-05 2.68724e+25 2.39303 5.68013 272.028 
-4.06158e-06 1.17069e-05 2.68844e+25 3.99019 4.63994 272.01 
-2.15025e-06 1.17069e-05 2.68767e+25 5.82488 3.75711 272.026 
-2.38917e-07 1.17069e-05 2.68421e+25 7.02367 2.90878 272.039 
-1.55296e-05 1.21847e-05 2.68405e+25 -1.22418 6.99732 272.14 
-1.36182e-05 1.21847e-05 2.68598e+25 -2.63183 8.80577 272.105 
-1.17069e-05 1.21847e-05 2.68796e+25 -2.16683 8.39596 271.993 
-9.79558e-06 1.21847e-05 2.68859e+25 -0.801533 7.22559 271.971 
-7.88425e-06 1.21847e-05 2.68724e+25 1.29508 6.12502 272.175 
-5.97292e-06 1.21847e-05 2.68783e+25 3.22167 5.29139 272.053 
-4.06158e-06 1.21847e-05 2.68836e+25 5.16952 4.14408 271.977 
-2.15025e-06 1.21847e-05 2.68758e+25 7.14093 3.27591 272.055 
-2.38917e-07 1.21847e-05 2.68392e+25 8.49043 2.65619 272.112 
-1.55296e-05 1.26626e-05 2.68335e+25 -1.52789 7.51338 272.193 
-1.36182e-05 1.26626e-05 2.68673e+25 -2.88328 8.93803 272.017 
-1.17069e-05 1.26626e-05 2.68798e+25 -1.98811 8.08556 272.013 
-9.79558e-06 1.26626e-05 2.68835e+25 -0.0932587 6.7347 272.044 
-7.88425e-06 1.26626e-05 2.68729e+25 2.28475 5.57896 272.201 
-5.97292e-06 1.26626e-05 2.68676e+25 4.43461 4.75727 272.166 
-4.06158e-06 1.26626e-05 2.68826e+25 6.55729 3.63404 272.068 
-2.15025e-06 1.26626e-05 2.68766e+25 8.50092 2.88771 272.07 
-2.38917e-07 1.26626e-05 2.68295e+25 10.1665 2.30713 272.179 
-1.55296e-05 1.31404e-05 2.68403e+25 -1.86975 8.04808 272.088 
-1.36182e-05 1.31404e-05 2.68666e+25 -3.11779 8.94186 271.919 
-1.17069e-05 1.31404e-05 2.68658e+25 -1.61338 7.57566 272.082 
-9.79558e-06 1.31404e-05 2.68803e+25 0.86457 6.14676 272.02 
-7.88425e-06 1.31404e-05 2.68705e+25 3.60973 4.98509 272.158 
-5.97292e-06 1.31404e-05 2.68758e+25 5.90621 4.15808 272.146 
-4.06158e-06 1.31404e-05 2.68688e+25 8.26045 3.08716 272.19 
-2.15025e-06 1.31404e-05 2.6872e+25 10.2695 2.44016 272.067 
-2.38917e-07 1.31404e-05 2.6824e+25 11.8815 1.95529 272.247 
-1.55296e-05 1.36182e-05 2.68235e+25 -2.39375 8.68925 272.106 
-1.36182e-05 1.36182e-05 2.68616e+25 -3.00298 8.84992 271.966 
-1.17069e-05 1.36182e-05 2.68551e+25 -0.838043 6.88524 272.211 
-9.79558e-06 1.36182e-05 2.68704e+25 2.33067 5.43071 272.089 
-7.88425e-06 1.36182e-05 2.68715e+25 5.26185 4.29167 272.212 
-5.97292e-06 1.36182e-05 2.68841e+25 7.80044 3.58478 272.175 
-4.06158e-06 1.36182e-05 2.6868e+25 10.2546 2.60745 272.219 
-2.15025e-06 1.36182e-05 2.68556e+25 12.187 1.98494 272.164 
-2.38917e-07 1.36182e-05 2.68382e+25 13.7202 1.60936 272.226 
-1.55296e-05 1.40961e-05 2.68093e+25 -2.8317 9.42661 272.142 
-1.36182e-05 1.40961e-05 2.68615e+25 -2.5502 8.39909 271.94 
-1.17069e-05 1.40961e-05 2.68443e+25 0.552032 6.09333 272.328 
-9.79558e-06 1.40961e-05 2.68715e+25 4.14087 4.6054 272.189 
-7.88425e-06 1.40961e-05 2.68752e+25 7.30991 3.53248 272.191 
-5.97292e-06 1.40961e-05 2.68748e+25 10.2077 2.93997 272.242 
-4.06158e-06 1.40961e-05 2.6864e+25 12.6818 2.03934 272.271 
-2.15025e-06 1.40961e-05 2.68722e+25 14.3025 1.5808 272.21 
-2.38917e-07 1.40961e-05 2.68314e+25 15.8505 1.32385 272.212 
-1.55296e-05 1.45739e-05 2.68064e+25 -3.11698 10.004 272.014 
-1.36182e-05 1.45739e-05 2.68381e+25 -1.49343 7.62996 272.145 
-1.17069e-05 1.45739e-05 2.68507e+25 2.80696 5.1026 272.331 
-9.79558e-06 1.45739e-05 2.68695e+25 6.66053 3.71179 272.251 
-7.88425e-06 1.45739e-05 2.68731e+25 9.94327 2.74934 272.284 
-5.97292e-06 1.45739e-05 2.68682e+25 12.9551 2.23662 272.274 
-4.06158e-06 1.45739e-05 2.68625e+25 15.2453 1.53758 272.299 
-2.15025e-06 1.45739e-05 2.68612e+25 16.7482 1.2187 272.223 
-2.38917e-07 1.45739e-05 2.68302e+25 18.2288 0.983606 272.282 
-1.55296e-05 1.50518e-05 2.67708e+25 -3.06911 10.1817 272.231 
-1.36182e-05 1.50518e-05 2.68222e+25 0.615692 6.4667 272.297 
-1.17069e-05 1.50518e-05 2.684e+25 5.89579 3.99045 272.393 
-9.79558e-06 1.50518e-05 2.68526e+25 9.95316 2.78194 272.369 
-7.88425e-06 1.50518e-05 2.68505e+25 13.2648 1.99611 272.483 
-5.97292e-06 1.50518e-05 2.68722e+25 15.9922 1.56366 272.267 
-4.06158e-06 1.50518e-05 2.68681e+25 18.1155 1.04407 272.258 
-2.15025e-06 1.50518e-05 2.68556e+25 19.6313 0.848252 272.333 
-2.38917e-07 1.50518e-05 2.68386e+25 20.8822 0.632621 272.294 
-1.55296e-05 1.55296e-05 2.67253e+25 -2.09603 9.65565 272.491 
-1.36182e-05 1.55296e-05 2.68105e+25 4.30041 4.9436 272.476 
-1.17069e-05 1.55296e-05 2.68148e+25 10.1313 2.74208 272.673 
-9.79558e-06 1.55296e-05 2.68575e+25 14.1391 1.89883 272.458 
-7.88425e-06 1.55296e-05 2.68452e+25 17.274 1.31748 272.529 
-5.97292e-06 1.55296e-05 2.68512e+25 19.6271 0.995685 272.454 
-4.06158e-06 1.55296e-05 2.68645e+25 21.3991 0.600421 272.324 
-2.15025e-06 1.55296e-05 2.6845e+25 22.6797 0.557636 272.439 
-2.38917e-07 1.55296e-05 2.68267e+25 23.7661 0.381969 272.33 
-1.55296e-05 1.60074e-05 2.66918e+25 1.05855 7.96551 272.699 
-1.36182e-05 1.60074e-05 2.67894e+25 10.0901 3.16537 272.676 
-1.17069e-05 1.60074e-05 2.68096e+25 15.7823 1.6284 272.878 
-9.79558e-06 1.60074e-05 2.68381e+25 19.2493 1.14024 272.596 
-7.88425e-06 1.60074e-05 2.68404e+25 21.7085 0.721704 272.616 
-5.97292e-06 1.60074e-05 2.68499e+25 23.6575 0.488289 272.533 
-4.06158e-06 1.60074e-05 2.68496e+25 25.0592 0.313442 272.507 
-2.15025e-06 1.60074e-05 2.6849e+25 25.9351 0.347417 272.47 
-2.38917e-07 1.60074e-05 2.68238e+25 26.7298 0.17748 272.442 
-1.55296e-05 1.64852e-05 2.66512e+25 8.58499 4.84621 273.016 
-1.36182e-05 1.64852e-05 2.678e+25 18.3364 1.49234 272.928 
-1.17069e-05 1.64852e-05 2.68175e+25 22.5899 0.695206 272.873 
-9.79558e-06 1.64852e-05 2.68238e+25 25.2182 0.51991 272.77 
-7.88425e-06 1.64852e-05 2.68387e+25 26.816 0.332284 272.669 
-5.97292e-06 1.64852e-05 2.68414e+25 28.027 0.174312 272.724 
-4.06158e-06 1.64852e-05 2.6837e+25 28.8161 0.0776853 272.739 
-2.15025e-06 1.64852e-05 2.68338e+25 29.5232 0.154153 272.586 
-2.38917e-07 1.64852e-05 2.68082e+25 30.0198 0.0556689 272.568 
-1.55296e-05 1.69631e-05 2.6648e+25 21.9444 1.36884 273.267 
-1.36182e-05 1.69631e-05 2.67972e+25 28.056 0.299563 273.03 
-1.17069e-05 1.69631e-05 2.68261e+25 29.8864 0.138083 272.932 
-9.79558e-06 1.69631e-05 2.68237e+25 31.066 0.101744 272.954 
-7.88425e-06 1.69631e-05 2.68227e+25 31.5955 0.0611522 272.863 
-5.97292e-06 1.69631e-05 2.6815e+25 32.0859 0.00652627 273.002 
-4.06158e-06 1.69631e-05 2.6815e+25 32.3716 8.56562e-05 272.947 
-2.15025e-06 1.69631e-05 2.68051e+25 32.7451 0.0319789 272.884 
-2.38917e-07 1.69631e-05 2.68061e+25 32.9518 -0.0182304 272.681 
1.19458e-06 -1.69631e-05 2.68365e+25 -0.126661 0.00535693 272.862 
3.10592e-06 -1.69631e-05 2.68521e+25 -0.149845 -0.00288902 272.776 
5.01725e-06 -1.69631e-05 2.68577e+25 -0.11718 -0.0301898 272.816 
6.92858e-06 -1.69631e-05 2.68495e+25 -0.0783009 0.0208146 272.785 
8.83992e-06 -1.69631e-05 2.68519e+25 -0.0842057 -0.0477447 272.828 
1.07512e-05 -1.69631e-05 2.68433e+25 0.0380543 -0.0681654 272.835 
1.26626e-05 -1.69631e-05 2.68524e+25 0.0328344 -0.0107183 272.818 
1.45739e-05 -1.69631e-05 2.68398e+25 -0.0169665 -0.00478922 272.878 
1.64852e-05 -1.69631e-05 2.68319e+25 -0.0640322 -0.00563541 272.917 
1.19458e-06 -1.64852e-05 2.68711e+25 -0.422031 0.00731103 272.574 
3.10592e-06 -1.64852e-05 2.68648e+25 -0.459587 -0.0554677 272.631 
5.01725e-06 -1.64852e-05 2.68613e+25 -0.295695 -0.0469769 272.608 
6.92858e-06 -1.64852e-05 2.68655e+25 -0.230969 0.0635151 272.615 
8.83992e-06 -1.64852e-05 2.68739e+25 -0.147812 -0.0918545 272.557 
1.07512e-05 -1.64852e-05 2.6881e+25 -0.00601321 -0.150404 272.461 
1.26626e-05 -1.64852e-05 2.68665e+25 0.0475461 0.0403714 272.576 
1.45739e-05 -1.64852e-05 2.6868e+25 -0.0488497 0.0567137 272.659 
1.64852e-05 -1.64852e-05 2.68537e+25 -0.00507963 -0.0566249 272.703 
1.19458e-06 -1.60074e-05 2.68996e+25 -0.810036 -0.0273424 272.193 
3.10592e-06 -1.60074e-05 2.68873e+25 -0.794944 -0.0450645 272.36 
5.01725e-06 -1.60074e-05 2.68822e+25 -0.573793 -0.0501718 272.413 
6.92858e-06 -1.60074e-05 2.68843e+25 -0.442426 0.0138635 272.572 
8.83992e-06 -1.60074e-05 2.68778e+25 -0.315447 -0.131499 272.486 
1.07512e-05 -1.60074e-05 2.69106e+25 -0.197212 -0.169701 272.157 
1.26626e-05 -1.60074e-05 2.68796e+25 -0.110629 0.0402239 272.416 
1.45739e-05 -1.60074e-05 2.6878e+25 0.0432605 0.0433174 272.438 
1.64852e-05 -1.60074e-05 2.68661e+25 0.0509072 -0.0107333 272.611 
1.19458e-06 -1.55296e-05 2.6918e+25 -1.15322 -0.087236 272.125 
3.10592e-06 -1.55296e-05 2.68986e+25 -0.912224 -0.0656378 272.264 
5.01725e-06 -1.55296e-05 2.68934e+25 -0.789591 -0.116086 272.317 
6.92858e-06 -1.55296e-05 2.68842e+25 -0.713769 0.0111057 272.433 
8.83992e-06 -1.55296e-05 2.68865e+25 -0.444072 -0.158836 272.322 
1.07512e-05 -1.55296e-05 2.69053e+25 -0.140642 -0.162048 272.269 
1.26626e-05 -1.55296e-05 2.68911e+25 -0.170747 -0.0317004 272.318 
1.45739e-05 -1.55296e-05 2.68962e+25 -0.069293 0.0260447 272.308 
1.64852e-05 -1.55296e-05 2.6877e+25 0.0917977 0.0554865 272.523 
1.19458e-06 -1.50517e-05 2.6918e+25 -1.4433 -0.113024 271.993 
3.10592e-06 -1.50517e-05 2.69137e+25 -1.01902 -0.150155 272.125 
5.01725e-06 -1.50517e-05 2.68979e+25 -0.974894 -0.133868 272.271 
6.92858e-06 -1.50517e-05 2.69017e+25 -0.812573 -0.0328068 272.255 
8.83992e-06 -1.50517e-05 2.69025e+25 -0.51614 -0.269047 272.22 
1.07512e-05 -1.50517e-05 2.68857e+25 -0.264126 -0.0949422 272.344 
1.26626e-05 -1.50517e-05 2.69082e+25 -0.252432 -0.104174 272.15 
1.45739e-05 -1.50517e-05 2.68903e+25 -0.12958 0.0171313 272.305 
1.64852e-05 -1.50517e-05 2.68669e+25 0.000992752 0.00413363 272.55 
1.19458e-06 -1.45739e-05 2.69344e+25 -1.63485 -0.144265 271.909 
3.10592e-06 -1.45739e-05 2.69113e+25 -1.34908 -0.235906 272.071 
5.01725e-06 -1.45739e-05 2.69046e+25 -1.11679 -0.149256 272.165 
6.92858e-06 -1.45739e-05 2.6908e+25 -0.993486 -0.139242 272.225 
8.83992e-06 -1.45739e-05 2.68976e+25 -0.660418 -0.303566 272.269 
1.07512e-05 -1.45739e-05 2.69037e+25 -0.390964 -0.137731 272.272 
1.26626e-05 -1.45739e-05 2.69102e+25 -0.104884 -0.204949 272.15 
1.45739e-05 -1.45739e-05 2.6899e+25 -0.0759707 -0.0742432 272.29 
1.64852e-05 -1.45739e-05 2.68686e+25 -0.0343896 -0.0244601 272.496 
1.19458e-06 -1.40961e-05 2.69395e+25 -1.71646 -0.259914 271.87 
3.10592e-06 -1.40961e-05 2.69255e+25 -1.60139 -0.263414 271.931 
5.01725e-06 -1.40961e-05 2.69256e+25 -1.39295 -0.153924 272.015 
6.92858e-06 -1.40961e-05 2.69064e+25 -1.30537 -0.233667 272.235 
8.83992e-06 -1.40961e-05 2.68999e+25 -0.85949 -0.360937 272.195 
1.07512e-05 -1.40961e-05 2.69044e+25 -0.489396 -0.266277 272.167 
1.26626e-05 -1.40961e-05 2.69091e+25 -0.117289 -0.172624 272.094 
1.45739e-05 -1.40961e-05 2.69034e+25 -0.0585044 -0.0353292 272.221 
1.64852e-05 -1.40961e-05 2.68796e+25 -0.0153117 -0.0445208 272.543 
1.19458e-06 -1.36182e-05 2.6946e+25 -1.94774 -0.316895 271.747 
3.10592e-06 -1.36182e-05 2.69297e+25 -1.80161 -0.269906 271.92 
5.01725e-06 -1.36182e-05 2.69121e+25 -1.62113 -0.136037 272.152 
6.92858e-06 -1.36182e-05 2.69177e+25 -1.53432 -0.325656 272.105 
8.83992e-06 -1.36182e-05 2.69033e+25 -0.874271 -0.476009 272.167 
1.07512e-05 -1.36182e-05 2.69055e+25 -0.556169 -0.38497 272.168 
1.26626e-05 -1.36182e-05 2.69212e+25 -0.313825 -0.163905 272.022 
1.45739e-05 -1.36182e-05 2.69068e+25 0.0270603 -0.0178486 272.202 
1.64852e-05 -1.36182e-05 2.68709e+25 -0.0329914 0.022441 272.46 
1.19458e-06 -1.31404e-05 2.69253e+25 -2.15662 -0.307277 271.93 
3.10592e-06 -1.31404e-05 2.69244e+25 -1.94946 -0.348224 271.939 
5.01725e-06 -1.31404e-05 2.69238e+25 -1.82895 -0.132989 272.051 
6.92858e-06 -1.31404e-05 2.69141e+25 -1.58449 -0.375512 272.047 
8.83992e-06 -1.31404e-05 2.69106e+25 -0.962692 -0.597995 272.117 
1.07512e-05 -1.31404e-05 2.69077e+25 -0.687942 -0.428515 272.154 
1.26626e-05 -1.31404e-05 2.69177e+25 -0.481467 -0.291739 272.027 
1.45739e-05 -1.31404e-05 2.68989e+25 -0.0867613 -0.0177026 272.223 
1.64852e-05 -1.31404e-05 2.68728e+25 -0.0703132 0.0268884 272.506 
1.19458e-06 -1.26626e-05 2.69291e+25 -2.39471 -0.298257 271.968 
3.10592e-06 -1.26626e-05 2.6918e+25 -2.10861 -0.389606 271.965 
5.01725e-06 -1.26626e-05 2.69243e+25 -1.94131 -0.208641 272.031 
6.92858e-06 -1.26626e-05 2.69164e+25 -1.54154 -0.496866 272.094 
8.83992e-06 -1.26626e-05 2.69125e+25 -1.09641 -0.75062 272.134 
1.07512e-05 -1.26626e-05 2.69233e+25 -0.738919 -0.413782 272.063 
1.26626e-05 -1.26626e-05 2.69097e+25 -0.528687 -0.3873 272.124 
1.45739e-05 -1.26626e-05 2.68946e+25 -0.177347 -0.114102 272.251 
1.64852e-05 -1.26626e-05 2.68586e+25 -0.0524922 -0.0402089 272.596 
1.19458e-06 -1.21847e-05 2.69173e+25 -2.56107 -0.306957 271.968 
3.10592e-06 -1.21847e-05 2.69329e+25 -2.34948 -0.460592 271.882 
5.01725e-06 -1.21847e-05 2.69212e+25 -2.05323 -0.317513 271.958 
6.92858e-06 -1.21847e-05 2.69206e+25 -1.59893 -0.673587 271.994 
8.83992e-06 -1.21847e-05 2.6914e+25 -1.16266 -0.890782 272.055 
1.07512e-05 -1.21847e-05 2.69193e+25 -0.734202 -0.436952 272.089 
1.26626e-05 -1.21847e-05 2.69157e+25 -0.591604 -0.466326 272.061 
1.45739e-05 -1.21847e-05 2.68989e+25 -0.214058 -0.177713 272.196 
1.64852e-05 -1.21847e-05 2.68725e+25 0.0654374 -0.081704 272.466 
1.19458e-06 -1.17069e-05 2.69236e+25 -2.89071 -0.403375 271.975 
3.10592e-06 -1.17069e-05 2.69308e+25 -2.76218 -0.524869 271.921 
5.01725e-06 -1.17069e-05 2.69339e+25 -2.06561 -0.449898 271.96 
6.92858e-06 -1.17069e-05 2.69284e+25 -1.73248 -0.802752 271.951 
8.83992e-06 -1.17069e-05 2.69231e+25 -1.32225 -1.01003 272.038 
1.07512e-05 -1.17069e-05 2.69219e+25 -0.945271 -0.552325 272.018 
1.26626e-05 -1.17069e-05 2.69222e+25 -0.514068 -0.582169 272.058 
1.45739e-05 -1.17069e-05 2.69147e+25 -0.219214 -0.188516 272.113 
1.64852e-05 -1.17069e-05 2.68895e+25 0.0386066 -0.121365 272.38 
1.19458e-06 -1.12291e-05 2.69196e+25 -3.24542 -0.393068 272.047 
3.10592e-06 -1.12291e-05 2.69137e+25 -2.97818 -0.672952 272.032 
5.01725e-06 -1.12291e-05 2.69252e+25 -2.52421 -0.612056 271.94 
6.92858e-06 -1.12291e-05 2.6936e+25 -1.88516 -0.850165 271.897 
8.83992e-06 -1.12291e-05 2.69416e+25 -1.57494 -1.09073 271.908 
1.07512e-05 -1.12291e-05 2.69263e+25 -1.13579 -0.702648 271.944 
1.26626e-05 -1.12291e-05 2.6931e+25 -0.520634 -0.729152 271.9 
1.45739e-05 -1.12291e-05 2.6915e+25 -0.247086 -0.276015 272.042 
1.64852e-05 -1.12291e-05 2.68862e+25 -0.0511954 -0.151617 272.371 
1.19458e-06 -1.07512e-05 2.69286e+25 -3.47706 -0.378709 271.94 
3.10592e-06 -1.07512e-05 2.69181e+25 -3.08741 -0.816206 272.067 
5.01725e-06 -1.07512e-05 2.69253e+25 -2.80593 -0.777253 272.04 
6.92858e-06 -1.07512e-05 2.69276e+25 -2.08832 -0.964898 271.898 
8.83992e-06 -1.07512e-05 2.69317e+25 -1.86725 -1.16162 271.907 
1.07512e-05 -1.07512e-05 2.69262e+25 -1.30477 -0.852599 271.851 
1.26626e-05 -1.07512e-05 2.69267e+25 -0.548274 -0.827647 271.943 
1.45739e-05 -1.07512e-05 2.69098e+25 -0.13513 -0.385926 272.085 
1.64852e-05 -1.07512e-05 2.68823e+25 -0.0128508 -0.173591 272.45 
1.19458e-06 -1.02734e-05 2.69148e+25 -3.6835 -0.378036 271.969 
3.10592e-06 -1.02734e-05 2.69207e+25 -3.39413 -0.903928 272.054 
5.01725e-06 -1.02734e-05 2.69104e+25 -3.09335 -0.878845 272.093 
6.92858e-06 -1.02734e-05 2.69276e+25 -2.23617 -1.10445 272.003 
8.83992e-06 -1.02734e-05 2.69152e+25 -1.96324 -1.19797 271.959 
1.07512e-05 -1.02734e-05 2.69384e+25 -1.40804 -0.983379 271.877 
1.26626e-05 -1.02734e-05 2.69265e+25 -0.435577 -0.957761 271.91 
1.45739e-05 -1.02734e-05 2.69056e+25 -0.247931 -0.544351 272.126 
1.64852e-05 -1.02734e-05 2.68751e+25 0.00337 -0.227975 272.53 
1.19458e-06 -9.79558e-06 2.69228e+25 -3.93615 -0.371732 272.011 
3.10592e-06 -9.79558e-06 2.69191e+25 -3.83864 -0.999874 272.066 
5.01725e-06 -9.79558e-06 2.69196e+25 -3.28531 -1.06061 272.091 
6.92858e-06 -9.79558e-06 2.69203e+25 -2.58093 -1.30896 272.031 
8.83992e-06 -9.79558e-06 2.69248e+25 -1.95032 -1.28936 271.93 
1.07512e-05 -9.79558e-06 2.69411e+25 -1.43557 -1.20839 271.881 
1.26626e-05 -9.79558e-06 2.69415e+25 -0.487853 -1.05974 271.832 
1.45739e-05 -9.79558e-06 2.69224e+25 -0.282741 -0.613411 271.945 
1.64852e-05 -9.79558e-06 2.68692e+25 -0.0223503 -0.23282 272.517 
1.19458e-06 -9.31775e-06 2.69095e+25 -4.16563 -0.382978 272.073 
3.10592e-06 -9.31775e-06 2.69225e+25 -4.24554 -1.04247 271.992 
5.01725e-06 -9.31775e-06 2.69145e+25 -3.51817 -1.2933 271.999 
6.92858e-06 -9.31775e-06 2.69281e+25 -2.83264 -1.47317 271.997 
8.83992e-06 -9.31775e-06 2.69244e+25 -2.23315 -1.49668 271.943 
1.07512e-05 -9.31775e-06 2.69357e+25 -1.47394 -1.44045 271.89 
1.26626e-05 -9.31775e-06 2.69291e+25 -0.675121 -1.23255 271.97 
1.45739e-05 -9.31775e-06 2.6923e+25 -0.171252 -0.650849 271.949 
1.64852e-05 -9.31775e-06 2.68728e+25 0.00208565 -0.234698 272.504 
1.19458e-06 -8.83992e-06 2.69015e+25 -4.48003 -0.368289 272.141 
3.10592e-06 -8.83992e-06 2.69193e+25 -4.39004 -1.11934 271.929 
5.01725e-06 -8.83992e-06 2.69199e+25 -3.7745 -1.4174 272.033 
6.92858e-06 -8.83992e-06 2.6925e+25 -3.11025 -1.63594 272.002 
8.83992e-06 -8.83992e-06 2.69382e+25 -2.37434 -1.70423 271.891 
1.07512e-05 -8.83992e-06 2.69283e+25 -1.5263 -1.66206 271.938 
1.26626e-05 -8.83992e-06 2.69236e+25 -0.71448 -1.35408 271.94 
1.45739e-05 -8.83992e-06 2.69237e+25 -0.0302562 -0.761471 272.001 
1.64852e-05 -8.83992e-06 2.68735e+25 0.104168 -0.234553 272.461 
1.19458e-06 -8.36208e-06 2.69124e+25 -4.91928 -0.343409 272.044 
3.10592e-06 -8.36208e-06 2.69189e+25 -4.63104 -1.2676 271.976 
5.01725e-06 -8.36208e-06 2.69082e+25 -4.14429 -1.53164 272.145 
6.92858e-06 -8.36208e-06 2.69144e+25 -3.36115 -1.84414 272.021 
8.83992e-06 -8.36208e-06 2.69262e+25 -2.56606 -1.85798 271.911 
1.07512e-05 -8.36208e-06 2.69189e+25 -1.63798 -1.92011 271.97 
1.26626e-05 -8.36208e-06 2.69354e+25 -0.787219 -1.56033 271.883 
1.45739e-05 -8.36208e-06 2.69196e+25 -0.105364 -0.83996 272.09 
1.64852e-05 -8.36208e-06 2.6878e+25 -0.00690636 -0.235416 272.44 
1.19458e-06 -7.88425e-06 2.6922e+25 -5.19944 -0.365711 271.958 
3.10592e-06 -7.88425e-06 2.69277e+25 -4.83683 -1.39079 271.901 
5.01725e-06 -7.88425e-06 2.69235e+25 -4.40043 -1.72574 271.999 
6.92858e-06 -7.88425e-06 2.69251e+25 -3.71995 -2.06634 272.099 
8.83992e-06 -7.88425e-06 2.69267e+25 -2.74962 -2.0693 271.891 
1.07512e-05 -7.88425e-06 2.69256e+25 -1.707 -2.1383 271.998 
1.26626e-05 -7.88425e-06 2.6916e+25 -0.899876 -1.7861 272.017 
1.45739e-05 -7.88425e-06 2.6908e+25 -0.136554 -0.960896 272.114 
1.64852e-05 -7.88425e-06 2.68627e+25 -0.0219804 -0.166669 272.549 
1.19458e-06 -7.40642e-06 2.69276e+25 -5.3997 -0.347397 271.9 
3.10592e-06 -7.40642e-06 2.69214e+25 -5.08874 -1.55238 272.022 
5.01725e-06 -7.40642e-06 2.69159e+25 -4.62866 -1.88097 272.112 
6.92858e-06 -7.40642e-06 2.69159e+25 -3.92049 -2.27678 272.165 
8.83992e-06 -7.40642e-06 2.69336e+25 -2.9892 -2.2605 271.868 
1.07512e-05 -7.40642e-06 2.69277e+25 -1.94972 -2.4157 271.904 
1.26626e-05 -7.40642e-06 2.69342e+25 -0.885194 -1.95037 271.982 
1.45739e-05 -7.40642e-06 2.69028e+25 -0.226259 -1.05304 272.114 
1.64852e-05 -7.40642e-06 2.68572e+25 0.00871074 -0.14265 272.632 
1.19458e-06 -6.92858e-06 2.69322e+25 -5.63281 -0.460764 271.892 
3.10592e-06 -6.92858e-06 2.69089e+25 -5.52443 -1.56858 272.079 
5.01725e-06 -6.92858e-06 2.6919e+25 -4.98328 -2.06451 272.1 
6.92858e-06 -6.92858e-06 2.69201e+25 -4.12362 -2.44609 272.061 
8.83992e-06 -6.92858e-06 2.69215e+25 -3.28062 -2.50067 271.982 
1.07512e-05 -6.92858e-06 2.69211e+25 -2.14032 -2.73878 271.986 
1.26626e-05 -6.92858e-06 2.69303e+25 -0.950477 -2.16645 271.88 
1.45739e-05 -6.92858e-06 2.69117e+25 -0.292051 -1.18645 272.118 
1.64852e-05 -6.92858e-06 2.6871e+25 -0.0338892 -0.213841 272.515 
1.19458e-06 -6.45075e-06 2.69123e+25 -5.88253 -0.460483 272.003 
3.10592e-06 -6.45075e-06 2.69103e+25 -5.76107 -1.56835 272.069 
5.01725e-06 -6.45075e-06 2.69072e+25 -5.30816 -2.22247 272.082 
6.92858e-06 -6.45075e-06 2.69178e+25 -4.43849 -2.64961 272.066 
8.83992e-06 -6.45075e-06 2.69121e+25 -3.46621 -2.82693 272.09 
1.07512e-05 -6.45075e-06 2.69321e+25 -2.2717 -3.0154 271.918 
1.26626e-05 -6.45075e-06 2.6916e+25 -1.24035 -2.41129 271.966 
1.45739e-05 -6.45075e-06 2.6907e+25 -0.45531 -1.38674 272.12 
1.64852e-05 -6.45075e-06 2.68509e+25 -0.00855006 -0.244248 272.642 
1.19458e-06 -5.97292e-06 2.69119e+25 -6.08766 -0.452023 272.079 
3.10592e-06 -5.97292e-06 2.69269e+25 -6.03155 -1.59742 271.903 
5.01725e-06 -5.97292e-06 2.69097e+25 -5.64022 -2.45258 272.095 
6.92858e-06 -5.97292e-06 2.69101e+25 -4.82504 -2.89283 272.121 
8.83992e-06 -5.97292e-06 2.69061e+25 -3.64266 -3.18914 272.116 
1.07512e-05 -5.97292e-06 2.69158e+25 -2.51019 -3.31398 272.066 
1.26626e-05 -5.97292e-06 2.69127e+25 -1.51409 -2.62337 272.077 
1.45739e-05 -5.97292e-06 2.69109e+25 -0.707726 -1.46705 272.135 
1.64852e-05 -5.97292e-06 2.68526e+25 -0.0905275 -0.299039 272.678 
1.19458e-06 -5.49508e-06 2.69034e+25 -6.2507 -0.503477 272.118 
3.10592e-06 -5.49508e-06 2.6923e+25 -6.30404 -1.5963 271.983 
5.01725e-06 -5.49508e-06 2.69154e+25 -5.98923 -2.66251 272.08 
6.92858e-06 -5.49508e-06 2.69076e+25 -5.11039 -3.17506 272.142 
8.83992e-06 -5.49508e-06 2.69017e+25 -3.8396 -3.51109 272.095 
1.07512e-05 -5.49508e-06 2.69172e+25 -2.61907 -3.5703 272.066 
1.26626e-05 -5.49508e-06 2.69029e+25 -1.56533 -2.8884 272.185 
1.45739e-05 -5.49508e-06 2.69094e+25 -0.737554 -1.57626 272.117 
1.64852e-05 -5.49508e-06 2.68576e+25 -0.160801 -0.40728 272.617 
1.19458e-06 -5.01725e-06 2.68978e+25 -6.55285 -0.4497 272.09 
3.10592e-06 -5.01725e-06 2.69138e+25 -6.59527 -1.63203 271.974 
5.01725e-06 -5.01725e-06 2.69111e+25 -6.19355 -2.79705 272.101 
6.92858e-06 -5.01725e-06 2.69051e+25 -5.35195 -3.45034 272.202 
8.83992e-06 -5.01725e-06 2.69116e+25 -4.11317 -3.81948 272.118 
1.07512e-05 -5.01725e-06 2.6917e+25 -2.74875 -3.86689 272.051 
1.26626e-05 -5.01725e-06 2.69097e+25 -1.65199 -3.14931 272.093 
1.45739e-05 -5.01725e-06 2.69036e+25 -0.64194 -1.7405 272.152 
1.64852e-05 -5.01725e-06 2.68725e+25 -0.112232 -0.514083 272.539 
1.19458e-06 -4.53942e-06 2.69053e+25 -6.70466 -0.385808 272.053 
3.10592e-06 -4.53942e-06 2.69123e+25 -6.83052 -1.72489 272.059 
5.01725e-06 -4.53942e-06 2.6919e+25 -6.54148 -2.91518 272.047 
6.92858e-06 -4.53942e-06 2.68966e+25 -5.71613 -3.67263 272.241 
8.83992e-06 -4.53942e-06 2.69192e+25 -4.49985 -4.16893 272.076 
1.07512e-05 -4.53942e-06 2.69099e+25 -2.91839 -4.23544 272.119 
1.26626e-05 -4.53942e-06 2.69098e+25 -1.69029 -3.43977 272.116 
1.45739e-05 -4.53942e-06 2.69006e+25 -0.611523 -1.90715 272.135 
1.64852e-05 -4.53942e-06 2.68689e+25 -0.04185 -0.60342 272.446 
1.19458e-06 -4.06158e-06 2.68972e+25 -6.85964 -0.340642 272.165 
3.10592e-06 -4.06158e-06 2.69111e+25 -7.26823 -1.71638 272.069 
5.01725e-06 -4.06158e-06 2.69156e+25 -6.88426 -3.03452 272.074 
6.92858e-06 -4.06158e-06 2.69078e+25 -6.10041 -3.93037 272.115 
8.83992e-06 -4.06158e-06 2.691e+25 -4.70609 -4.47749 272.095 
1.07512e-05 -4.06158e-06 2.69022e+25 -3.12122 -4.57917 272.121 
1.26626e-05 -4.06158e-06 2.68919e+25 -1.81709 -3.76929 272.194 
1.45739e-05 -4.06158e-06 2.69083e+25 -0.651036 -2.196 272.076 
1.64852e-05 -4.06158e-06 2.68883e+25 -0.0328909 -0.641229 272.375 
1.19458e-06 -3.58375e-06 2.69016e+25 -7.11304 -0.211322 272.177 
3.10592e-06 -3.58375e-06 2.68949e+25 -7.62169 -1.6857 272.071 
5.01725e-06 -3.58375e-06 2.6907e+25 -7.27229 -3.17903 272.085 
6.92858e-06 -3.58375e-06 2.68951e+25 -6.45204 -4.1632 272.169 
8.83992e-06 -3.58375e-06 2.69158e+25 -5.04007 -4.88009 272.018 
1.07512e-05 -3.58375e-06 2.69005e+25 -3.26397 -4.91489 272.176 
1.26626e-05 -3.58375e-06 2.69026e+25 -1.84572 -4.02886 272.215 
1.45739e-05 -3.58375e-06 2.68972e+25 -0.662771 -2.57991 272.17 
1.64852e-05 -3.58375e-06 2.68928e+25 -0.0280953 -0.687223 272.315 
1.19458e-06 -3.10592e-06 2.68962e+25 -7.45538 -0.0291837 272.203 
3.10592e-06 -3.10592e-06 2.69147e+25 -7.83275 -1.60199 272.014 
5.01725e-06 -3.10592e-06 2.69027e+25 -7.61486 -3.31188 272.105 
6.92858e-06 -3.10592e-06 2.68862e+25 -6.82965 -4.47941 272.267 
8.83992e-06 -3.10592e-06 2.69139e+25 -5.26064 -5.30095 271.985 
1.07512e-05 -3.10592e-06 2.69023e+25 -3.51132 -5.35561 272.221 
1.26626e-05 -3.10592e-06 2.68893e+25 -1.97377 -4.40056 272.257 
1.45739e-05 -3.10592e-06 2.69124e+25 -0.660548 -2.86027 272.097 
1.64852e-05 -3.10592e-06 2.68886e+25 -0.0671457 -0.734957 272.222 
1.19458e-06 -2.62808e-06 2.69069e+25 -7.69779 0.0264755 272.063 
3.10592e-06 -2.62808e-06 2.69026e+25 -7.88237 -1.58792 272.095 
5.01725e-06 -2.62808e-06 2.6898e+25 -7.67595 -3.41258 272.165 
6.92858e-06 -2.62808e-06 2.68867e+25 -7.11065 -4.8012 272.271 
8.83992e-06 -2.62808e-06 2.69122e+25 -5.61747 -5.75922 272.056 
1.07512e-05 -2.62808e-06 2.68993e+25 -3.90716 -5.80115 272.141 
1.26626e-05 -2.62808e-06 2.68966e+25 -2.0872 -4.75771 272.22 
1.45739e-05 -2.62808e-06 2.69007e+25 -0.721374 -3.14578 272.126 
1.64852e-05 -2.62808e-06 2.68701e+25 -0.0277024 -0.736327 272.414 
1.19458e-06 -2.15025e-06 2.69269e+25 -7.81658 0.108361 271.784 
3.10592e-06 -2.15025e-06 2.68926e+25 -7.87916 -1.58994 272.163 
5.01725e-06 -2.15025e-06 2.68938e+25 -7.8207 -3.54845 272.19 
6.92858e-06 -2.15025e-06 2.68886e+25 -7.20768 -5.02377 272.233 
8.83992e-06 -2.15025e-06 2.68949e+25 -5.86234 -6.19106 272.124 
1.07512e-05 -2.15025e-06 2.68978e+25 -4.07155 -6.22885 272.179 
1.26626e-05 -2.15025e-06 2.69041e+25 -2.18974 -5.14123 272.165 
1.45739e-05 -2.15025e-06 2.69208e+25 -0.740712 -3.3853 272.08 
1.64852e-05 -2.15025e-06 2.68621e+25 -0.110734 -0.834259 272.532 
1.19458e-06 -1.67242e-06 2.69291e+25 -7.83289 0.238523 271.787 
3.10592e-06 -1.67242e-06 2.6897e+25 -7.97813 -1.64034 272.163 
5.01725e-06 -1.67242e-06 2.68915e+25 -7.92051 -3.62756 272.144 
6.92858e-06 -1.67242e-06 2.68827e+25 -7.28972 -5.21759 272.303 
8.83992e-06 -1.67242e-06 2.69031e+25 -6.07583 -6.62083 272.179 
1.07512e-05 -1.67242e-06 2.69056e+25 -4.27244 -6.70267 272.215 
1.26626e-05 -1.67242e-06 2.69107e+25 -2.44469 -5.6281 272.112 
1.45739e-05 -1.67242e-06 2.68959e+25 -0.833483 -3.64818 272.127 
1.64852e-05 -1.67242e-06 2.68659e+25 -0.0592946 -0.88481 272.576 
1.19458e-06 -1.19458e-06 2.69077e+25 -7.7437 0.363792 271.937 
3.10592e-06 -1.19458e-06 2.68826e+25 -7.88157 -1.65298 272.19 
5.01725e-06 -1.19458e-06 2.68904e+25 -7.92094 -3.64449 272.176 
6.92858e-06 -1.19458e-06 2.68756e+25 -7.42815 -5.50292 272.311 
8.83992e-06 -1.19458e-06 2.69213e+25 -6.18 -7.00339 272.006 
1.07512e-05 -1.19458e-06 2.69054e+25 -4.48714 -7.23257 272.171 
1.26626e-05 -1.19458e-06 2.69099e+25 -2.70817 -6.15456 272.138 
1.45739e-05 -1.19458e-06 2.69051e+25 -0.932003 -3.91408 272.113 
1.64852e-05 -1.19458e-06 2.68607e+25 -0.0959032 -0.997248 272.526 
1.19458e-06 -7.1675e-07 2.69035e+25 -7.82773 0.406974 271.97 
3.10592e-06 -7.1675e-07 2.68805e+25 -7.99719 -1.63494 272.231 
5.01725e-06 -7.1675e-07 2.68841e+25 -7.85174 -3.67417 272.257 
6.92858e-06 -7.1675e-07 2.68969e+25 -7.53019 -5.73508 272.159 
8.83992e-06 -7.1675e-07 2.6914e+25 -6.4864 -7.32354 272.02 
1.07512e-05 -7.1675e-07 2.6897e+25 -4.75978 -7.63876 272.201 
1.26626e-05 -7.1675e-07 2.69046e+25 -2.82525 -6.66225 272.11 
1.45739e-05 -7.1675e-07 2.68998e+25 -1.09248 -4.22581 272.166 
1.64852e-05 -7.1675e-07 2.68764e+25 -0.0836689 -1.14382 272.441 
1.19458e-06 -2.38917e-07 2.68845e+25 -7.79513 0.462152 271.928 
3.10592e-06 -2.38917e-07 2.68685e+25 -8.0425 -1.59536 272.135 
5.01725e-06 -2.38917e-07 2.686e+25 -7.94242 -3.6247 272.215 
6.92858e-06 -2.38917e-07 2.68879e+25 -7.66642 -5.87176 271.968 
8.83992e-06 -2.38917e-07 2.68913e+25 -6.69854 -7.69681 272.009 
1.07512e-05 -2.38917e-07 2.68843e+25 -5.07852 -8.11214 272.155 
1.26626e-05 -2.38917e-07 2.68774e+25 -2.95428 -7.17091 272.103 
1.45739e-05 -2.38917e-07 2.68758e+25 -1.27348 -4.57531 272.224 
1.64852e-05 -2.38917e-07 2.68405e+25 -0.0849904 -1.27712 272.542 
2.38917e-07 -1.69631e-05 2.68344e+25 -0.109088 0.0323395 272.784 
2.15025e-06 -1.69631e-05 2.68503e+25 -0.152417 -0.00300458 272.825 
4.06158e-06 -1.69631e-05 2.68458e+25 -0.139384 0.0288942 272.793 
5.97292e-06 -1.69631e-05 2.68444e+25 -0.08628 -0.0350371 272.911 
7.88425e-06 -1.69631e-05 2.68444e+25 -0.106996 -0.042886 272.831 
9.79558e-06 -1.69631e-05 2.68506e+25 -0.0337442 -0.0153087 272.811 
1.17069e-05 -1.69631e-05 2.68627e+25 0.10567 -0.00539501 272.72 
1.36182e-05 -1.69631e-05 2.6844e+25 0.0439674 0.00393053 272.815 
1.55296e-05 -1.69631e-05 2.68512e+25 -0.0665383 0.0259063 272.831 
2.38917e-07 -1.64852e-05 2.68431e+25 -0.490821 0.0517038 272.514 
2.15025e-06 -1.64852e-05 2.68672e+25 -0.416772 -0.0198008 272.638 
4.06158e-06 -1.64852e-05 2.68694e+25 -0.412549 0.0185803 272.576 
5.97292e-06 -1.64852e-05 2.6866e+25 -0.298977 -0.0388612 272.612 
7.88425e-06 -1.64852e-05 2.68674e+25 -0.13547 -0.0636081 272.658 
9.79558e-06 -1.64852e-05 2.68791e+25 -0.0970163 -0.0169718 272.473 
1.17069e-05 -1.64852e-05 2.68791e+25 0.033328 -0.0128542 272.445 
1.36182e-05 -1.64852e-05 2.68666e+25 -0.0117274 0.0456813 272.554 
1.55296e-05 -1.64852e-05 2.68737e+25 -0.0321762 0.0200563 272.484 
2.38917e-07 -1.60074e-05 2.68727e+25 -0.855422 0.0476204 272.353 
2.15025e-06 -1.60074e-05 2.68993e+25 -0.760192 0.0367023 272.246 
4.06158e-06 -1.60074e-05 2.68808e+25 -0.686215 -0.0844147 272.425 
5.97292e-06 -1.60074e-05 2.68651e+25 -0.517007 -0.0693609 272.568 
7.88425e-06 -1.60074e-05 2.68731e+25 -0.466933 -0.0724573 272.522 
9.79558e-06 -1.60074e-05 2.68943e+25 -0.212998 0.0219126 272.315 
1.17069e-05 -1.60074e-05 2.68922e+25 -0.16497 -0.0131715 272.304 
1.36182e-05 -1.60074e-05 2.68804e+25 -0.0170756 0.00498334 272.451 
1.55296e-05 -1.60074e-05 2.68852e+25 0.0405114 -0.0377432 272.376 
2.38917e-07 -1.55296e-05 2.68853e+25 -1.16259 0.0289812 272.169 
2.15025e-06 -1.55296e-05 2.69098e+25 -1.09217 0.0494355 272.074 
4.06158e-06 -1.55296e-05 2.69028e+25 -0.774819 -0.155844 272.164 
5.97292e-06 -1.55296e-05 2.6891e+25 -0.644935 -0.0661472 272.396 
7.88425e-06 -1.55296e-05 2.68752e+25 -0.594487 -0.100365 272.492 
9.79558e-06 -1.55296e-05 2.68947e+25 -0.265591 -0.0362191 272.321 
1.17069e-05 -1.55296e-05 2.69127e+25 -0.221585 0.0013388 272.176 
1.36182e-05 -1.55296e-05 2.68905e+25 -0.0843247 -0.0138261 272.321 
1.55296e-05 -1.55296e-05 2.68911e+25 0.00096121 -0.0695501 272.289 
2.38917e-07 -1.50517e-05 2.68848e+25 -1.4765 -0.00937979 272.155 
2.15025e-06 -1.50517e-05 2.69133e+25 -1.27547 -0.0424678 272.002 
4.06158e-06 -1.50517e-05 2.69186e+25 -0.962361 -0.191664 272.116 
5.97292e-06 -1.50517e-05 2.69048e+25 -0.919463 -0.0594131 272.193 
7.88425e-06 -1.50517e-05 2.68955e+25 -0.603215 -0.173414 272.342 
9.79558e-06 -1.50517e-05 2.68843e+25 -0.301165 -0.152128 272.297 
1.17069e-05 -1.50517e-05 2.69051e+25 -0.286903 0.0201145 272.205 
1.36182e-05 -1.50517e-05 2.69142e+25 -0.164177 0.0308153 272.134 
1.55296e-05 -1.50517e-05 2.689e+25 -0.0648516 -0.104823 272.261 
2.38917e-07 -1.45739e-05 2.6902e+25 -1.82009 -0.011667 272.07 
2.15025e-06 -1.45739e-05 2.69402e+25 -1.49781 -0.192722 271.879 
4.06158e-06 -1.45739e-05 2.69124e+25 -1.24845 -0.140095 272.079 
5.97292e-06 -1.45739e-05 2.69169e+25 -1.09806 -0.126962 272.088 
7.88425e-06 -1.45739e-05 2.68912e+25 -0.823723 -0.267956 272.304 
9.79558e-06 -1.45739e-05 2.68966e+25 -0.525426 -0.242622 272.269 
1.17069e-05 -1.45739e-05 2.69041e+25 -0.190615 -0.00326987 272.206 
1.36182e-05 -1.45739e-05 2.69206e+25 -0.103748 0.0517056 272.08 
1.55296e-05 -1.45739e-05 2.68888e+25 -0.034811 -0.101977 272.351 
2.38917e-07 -1.40961e-05 2.69122e+25 -1.95284 -0.0928021 271.869 
2.15025e-06 -1.40961e-05 2.69409e+25 -1.56389 -0.252034 271.828 
4.06158e-06 -1.40961e-05 2.69115e+25 -1.42927 -0.216612 272.126 
5.97292e-06 -1.40961e-05 2.69151e+25 -1.43941 -0.122263 272.094 
7.88425e-06 -1.40961e-05 2.69001e+25 -1.11109 -0.400127 272.265 
9.79558e-06 -1.40961e-05 2.69042e+25 -0.760933 -0.367229 272.245 
1.17069e-05 -1.40961e-05 2.69159e+25 -0.24827 -0.114216 272.07 
1.36182e-05 -1.40961e-05 2.68992e+25 -0.113232 -0.0662509 272.307 
1.55296e-05 -1.40961e-05 2.68929e+25 -0.0231495 -0.097156 272.308 
2.38917e-07 -1.36182e-05 2.69059e+25 -1.93619 -0.140633 271.93 
2.15025e-06 -1.36182e-05 2.69373e+25 -1.87468 -0.218358 271.815 
4.06158e-06 -1.36182e-05 2.69232e+25 -1.71985 -0.326842 272.074 
5.97292e-06 -1.36182e-05 2.69087e+25 -1.59769 -0.172305 272.121 
7.88425e-06 -1.36182e-05 2.69099e+25 -1.23789 -0.560834 272.173 
9.79558e-06 -1.36182e-05 2.69022e+25 -0.759298 -0.432797 272.222 
1.17069e-05 -1.36182e-05 2.69197e+25 -0.473375 -0.210066 272.071 
1.36182e-05 -1.36182e-05 2.68913e+25 -0.14413 -0.179981 272.346 
1.55296e-05 -1.36182e-05 2.68955e+25 0.0082063 -0.152787 272.231 
2.38917e-07 -1.31404e-05 2.68989e+25 -2.13434 -0.132254 271.93 
2.15025e-06 -1.31404e-05 2.69327e+25 -2.10524 -0.265961 271.835 
4.06158e-06 -1.31404e-05 2.69182e+25 -1.85828 -0.397135 272.027 
5.97292e-06 -1.31404e-05 2.69109e+25 -1.67589 -0.193427 272.121 
7.88425e-06 -1.31404e-05 2.69107e+25 -1.32412 -0.738086 272.105 
9.79558e-06 -1.31404e-05 2.69023e+25 -0.713095 -0.474584 272.157 
1.17069e-05 -1.31404e-05 2.69145e+25 -0.602076 -0.242138 272.082 
1.36182e-05 -1.31404e-05 2.69031e+25 -0.238628 -0.29371 272.169 
1.55296e-05 -1.31404e-05 2.68993e+25 -0.0656864 -0.160306 272.142 
2.38917e-07 -1.26626e-05 2.68979e+25 -2.37189 -0.121338 271.96 
2.15025e-06 -1.26626e-05 2.69306e+25 -2.28247 -0.390285 271.906 
4.06158e-06 -1.26626e-05 2.69218e+25 -2.04666 -0.422286 271.918 
5.97292e-06 -1.26626e-05 2.6912e+25 -1.77547 -0.283994 272.113 
7.88425e-06 -1.26626e-05 2.69172e+25 -1.30722 -0.86192 272.109 
9.79558e-06 -1.26626e-05 2.68893e+25 -0.777456 -0.602679 272.227 
1.17069e-05 -1.26626e-05 2.69166e+25 -0.620616 -0.267051 272.053 
1.36182e-05 -1.26626e-05 2.69107e+25 -0.280183 -0.336935 272.139 
1.55296e-05 -1.26626e-05 2.69013e+25 -0.127233 -0.126458 272.185 
2.38917e-07 -1.21847e-05 2.68946e+25 -2.6185 -0.0734178 272.043 
2.15025e-06 -1.21847e-05 2.6921e+25 -2.52486 -0.488793 271.983 
4.06158e-06 -1.21847e-05 2.69256e+25 -2.22732 -0.494768 271.884 
5.97292e-06 -1.21847e-05 2.6923e+25 -1.80692 -0.390711 271.922 
7.88425e-06 -1.21847e-05 2.69119e+25 -1.42169 -0.924137 272.01 
9.79558e-06 -1.21847e-05 2.69161e+25 -0.901413 -0.64748 272.037 
1.17069e-05 -1.21847e-05 2.69224e+25 -0.685426 -0.314314 271.99 
1.36182e-05 -1.21847e-05 2.68977e+25 -0.334948 -0.473093 272.227 
1.55296e-05 -1.21847e-05 2.6912e+25 -0.125011 -0.163982 272.162 
2.38917e-07 -1.17069e-05 2.69024e+25 -2.97099 -0.105751 272.031 
2.15025e-06 -1.17069e-05 2.69258e+25 -2.88434 -0.505493 271.945 
4.06158e-06 -1.17069e-05 2.69204e+25 -2.45035 -0.588674 272.013 
5.97292e-06 -1.17069e-05 2.69406e+25 -1.83035 -0.465856 271.817 
7.88425e-06 -1.17069e-05 2.69295e+25 -1.46737 -1.01963 271.972 
9.79558e-06 -1.17069e-05 2.69241e+25 -1.17838 -0.767807 272.017 
1.17069e-05 -1.17069e-05 2.69087e+25 -0.805021 -0.372435 272.084 
1.36182e-05 -1.17069e-05 2.69204e+25 -0.36448 -0.580561 272.082 
1.55296e-05 -1.17069e-05 2.69038e+25 -0.100331 -0.234985 272.185 
2.38917e-07 -1.12291e-05 2.69062e+25 -3.23308 -0.0921577 271.972 
2.15025e-06 -1.12291e-05 2.69198e+25 -3.18609 -0.567623 271.977 
4.06158e-06 -1.12291e-05 2.69295e+25 -2.71998 -0.677596 271.948 
5.97292e-06 -1.12291e-05 2.69337e+25 -2.14677 -0.589912 271.932 
7.88425e-06 -1.12291e-05 2.69314e+25 -1.71275 -1.12337 271.88 
9.79558e-06 -1.12291e-05 2.69274e+25 -1.45345 -0.927113 271.944 
1.17069e-05 -1.12291e-05 2.69206e+25 -0.831217 -0.469381 271.997 
1.36182e-05 -1.12291e-05 2.69208e+25 -0.391263 -0.632205 272.014 
1.55296e-05 -1.12291e-05 2.68966e+25 -0.0858297 -0.312762 272.228 
2.38917e-07 -1.07512e-05 2.69042e+25 -3.46039 -0.10152 272.013 
2.15025e-06 -1.07512e-05 2.69172e+25 -3.32412 -0.639399 272.034 
4.06158e-06 -1.07512e-05 2.69148e+25 -2.96494 -0.774913 272.088 
5.97292e-06 -1.07512e-05 2.6927e+25 -2.46766 -0.774367 271.935 
7.88425e-06 -1.07512e-05 2.69202e+25 -1.93898 -1.14799 272.023 
9.79558e-06 -1.07512e-05 2.69331e+25 -1.64771 -1.03739 271.905 
1.17069e-05 -1.07512e-05 2.69354e+25 -0.85395 -0.652273 271.935 
1.36182e-05 -1.07512e-05 2.69226e+25 -0.359374 -0.66429 272.036 
1.55296e-05 -1.07512e-05 2.68973e+25 0.00143045 -0.331549 272.281 
2.38917e-07 -1.02734e-05 2.68987e+25 -3.69272 -0.109981 272.008 
2.15025e-06 -1.02734e-05 2.69213e+25 -3.55771 -0.692007 272.019 
4.06158e-06 -1.02734e-05 2.69155e+25 -3.29859 -0.843871 272.009 
5.97292e-06 -1.02734e-05 2.69167e+25 -2.69595 -1.00906 272.014 
7.88425e-06 -1.02734e-05 2.69282e+25 -2.04369 -1.19938 271.975 
9.79558e-06 -1.02734e-05 2.69387e+25 -1.71271 -1.17917 271.908 
1.17069e-05 -1.02734e-05 2.69277e+25 -0.929432 -0.932497 271.899 
1.36182e-05 -1.02734e-05 2.69267e+25 -0.392191 -0.711636 271.982 
1.55296e-05 -1.02734e-05 2.69044e+25 -0.0262893 -0.384769 272.175 
2.38917e-07 -9.79558e-06 2.69023e+25 -3.89315 -0.115115 272.015 
2.15025e-06 -9.79558e-06 2.69224e+25 -3.91652 -0.782614 272.034 
4.06158e-06 -9.79558e-06 2.69243e+25 -3.68346 -0.897337 272.056 
5.97292e-06 -9.79558e-06 2.6915e+25 -2.95108 -1.2021 272.07 
7.88425e-06 -9.79558e-06 2.6931e+25 -2.27348 -1.24212 271.947 
9.79558e-06 -9.79558e-06 2.69279e+25 -1.70416 -1.32392 271.92 
1.17069e-05 -9.79558e-06 2.69152e+25 -0.921816 -1.21622 271.988 
1.36182e-05 -9.79558e-06 2.69297e+25 -0.318662 -0.704937 271.916 
1.55296e-05 -9.79558e-06 2.69133e+25 -0.0326774 -0.423179 272.08 
2.38917e-07 -9.31775e-06 2.69006e+25 -4.19427 -0.0823096 271.987 
2.15025e-06 -9.31775e-06 2.69125e+25 -4.24701 -0.751088 272.036 
4.06158e-06 -9.31775e-06 2.69166e+25 -3.90907 -1.02336 272.056 
5.97292e-06 -9.31775e-06 2.69378e+25 -3.17045 -1.40887 271.944 
7.88425e-06 -9.31775e-06 2.69328e+25 -2.54686 -1.40822 271.913 
9.79558e-06 -9.31775e-06 2.69213e+25 -1.78249 -1.42785 271.942 
1.17069e-05 -9.31775e-06 2.6924e+25 -1.02451 -1.47765 271.918 
1.36182e-05 -9.31775e-06 2.69275e+25 -0.349421 -0.834754 271.979 
1.55296e-05 -9.31775e-06 2.69264e+25 -0.080645 -0.492217 272.029 
2.38917e-07 -8.83992e-06 2.68925e+25 -4.58697 -0.0530257 272.002 
2.15025e-06 -8.83992e-06 2.69132e+25 -4.53142 -0.765674 272.043 
4.06158e-06 -8.83992e-06 2.6923e+25 -4.09734 -1.23615 271.977 
5.97292e-06 -8.83992e-06 2.69202e+25 -3.48536 -1.58396 271.999 
7.88425e-06 -8.83992e-06 2.69316e+25 -2.66696 -1.63802 271.882 
9.79558e-06 -8.83992e-06 2.69273e+25 -1.97614 -1.61785 271.953 
1.17069e-05 -8.83992e-06 2.6937e+25 -1.12426 -1.67324 271.883 
1.36182e-05 -8.83992e-06 2.69162e+25 -0.339627 -1.01095 272.002 
1.55296e-05 -8.83992e-06 2.69149e+25 0.0296912 -0.535516 272.036 
2.38917e-07 -8.36208e-06 2.68975e+25 -4.926 -0.0441764 272.051 
2.15025e-06 -8.36208e-06 2.69152e+25 -4.81161 -0.820227 272.04 
4.06158e-06 -8.36208e-06 2.69144e+25 -4.38341 -1.44648 272.007 
5.97292e-06 -8.36208e-06 2.69094e+25 -3.79945 -1.78945 272.082 
7.88425e-06 -8.36208e-06 2.69193e+25 -2.94177 -1.81593 271.961 
9.79558e-06 -8.36208e-06 2.6913e+25 -2.17598 -1.80759 271.983 
1.17069e-05 -8.36208e-06 2.69249e+25 -1.15513 -1.86659 271.928 
1.36182e-05 -8.36208e-06 2.69334e+25 -0.453765 -1.15933 271.906 
1.55296e-05 -8.36208e-06 2.69059e+25 0.0366368 -0.544316 272.17 
2.38917e-07 -7.88425e-06 2.69027e+25 -5.23185 -0.0762236 271.955 
2.15025e-06 -7.88425e-06 2.69174e+25 -5.10667 -0.921686 272.046 
4.06158e-06 -7.88425e-06 2.69119e+25 -4.62651 -1.53184 272.017 
5.97292e-06 -7.88425e-06 2.69016e+25 -4.03582 -1.93894 272.164 
7.88425e-06 -7.88425e-06 2.69146e+25 -3.22501 -2.03709 271.997 
9.79558e-06 -7.88425e-06 2.69197e+25 -2.25392 -2.10358 271.941 
1.17069e-05 -7.88425e-06 2.69229e+25 -1.26105 -2.03711 272.014 
1.36182e-05 -7.88425e-06 2.69261e+25 -0.47485 -1.3432 271.969 
1.55296e-05 -7.88425e-06 2.69055e+25 -0.0860394 -0.616088 272.221 
2.38917e-07 -7.40642e-06 2.68876e+25 -5.46752 -0.144569 272.056 
2.15025e-06 -7.40642e-06 2.69213e+25 -5.27978 -1.05735 272.007 
4.06158e-06 -7.40642e-06 2.69188e+25 -4.90798 -1.57325 272.013 
5.97292e-06 -7.40642e-06 2.69125e+25 -4.20815 -2.09131 272.128 
7.88425e-06 -7.40642e-06 2.69302e+25 -3.49491 -2.29638 271.976 
9.79558e-06 -7.40642e-06 2.6914e+25 -2.56443 -2.35312 272.038 
1.17069e-05 -7.40642e-06 2.69189e+25 -1.38869 -2.26919 271.957 
1.36182e-05 -7.40642e-06 2.69195e+25 -0.504603 -1.59175 272.016 
1.55296e-05 -7.40642e-06 2.68862e+25 -0.0518122 -0.659482 272.299 
2.38917e-07 -6.92858e-06 2.68831e+25 -5.62901 -0.113231 272.079 
2.15025e-06 -6.92858e-06 2.69119e+25 -5.5618 -1.07017 271.996 
4.06158e-06 -6.92858e-06 2.69059e+25 -5.3826 -1.71762 272.101 
5.97292e-06 -6.92858e-06 2.69074e+25 -4.57706 -2.29929 272.132 
7.88425e-06 -6.92858e-06 2.69238e+25 -3.78285 -2.5247 271.998 
9.79558e-06 -6.92858e-06 2.69113e+25 -2.69297 -2.65735 272.098 
1.17069e-05 -6.92858e-06 2.69373e+25 -1.56045 -2.52959 271.888 
1.36182e-05 -6.92858e-06 2.69285e+25 -0.663808 -1.73157 271.926 
1.55296e-05 -6.92858e-06 2.68821e+25 -0.123302 -0.667811 272.373 
2.38917e-07 -6.45075e-06 2.68903e+25 -5.81526 -0.00836489 272.037 
2.15025e-06 -6.45075e-06 2.69097e+25 -5.82734 -1.08521 272.103 
4.06158e-06 -6.45075e-06 2.69193e+25 -5.65907 -1.8546 271.979 
5.97292e-06 -6.45075e-06 2.6914e+25 -4.98201 -2.51495 272.074 
7.88425e-06 -6.45075e-06 2.69114e+25 -4.01821 -2.7366 272.119 
9.79558e-06 -6.45075e-06 2.69163e+25 -2.79035 -2.9664 272.087 
1.17069e-05 -6.45075e-06 2.69335e+25 -1.7233 -2.83382 271.79 
1.36182e-05 -6.45075e-06 2.69206e+25 -0.773599 -1.91411 272.044 
1.55296e-05 -6.45075e-06 2.68805e+25 -0.170509 -0.749163 272.412 
2.38917e-07 -5.97292e-06 2.68919e+25 -6.02327 0.00549156 271.989 
2.15025e-06 -5.97292e-06 2.69006e+25 -6.05526 -1.10459 272.093 
4.06158e-06 -5.97292e-06 2.68982e+25 -5.92131 -1.99703 272.147 
5.97292e-06 -5.97292e-06 2.69136e+25 -5.22401 -2.74107 272.046 
7.88425e-06 -5.97292e-06 2.69013e+25 -4.20985 -3.00651 272.164 
9.79558e-06 -5.97292e-06 2.69343e+25 -3.05691 -3.25383 271.952 
1.17069e-05 -5.97292e-06 2.69229e+25 -1.94723 -3.15663 271.955 
1.36182e-05 -5.97292e-06 2.69069e+25 -0.948687 -2.09998 272.137 
1.55296e-05 -5.97292e-06 2.68815e+25 -0.389259 -0.970146 272.342 
2.38917e-07 -5.49508e-06 2.68909e+25 -6.28125 0.0869079 271.987 
2.15025e-06 -5.49508e-06 2.6902e+25 -6.24715 -1.07932 272.072 
4.06158e-06 -5.49508e-06 2.69077e+25 -6.16676 -2.029 272.077 
5.97292e-06 -5.49508e-06 2.69119e+25 -5.58246 -2.91055 272.093 
7.88425e-06 -5.49508e-06 2.68955e+25 -4.42155 -3.35327 272.29 
9.79558e-06 -5.49508e-06 2.69188e+25 -3.19388 -3.48468 272.033 
1.17069e-05 -5.49508e-06 2.69148e+25 -2.03638 -3.38076 272.059 
1.36182e-05 -5.49508e-06 2.69105e+25 -1.16189 -2.28357 272.154 
1.55296e-05 -5.49508e-06 2.68964e+25 -0.496718 -1.13744 272.217 
2.38917e-07 -5.01725e-06 2.68899e+25 -6.49357 0.0850418 272.017 
2.15025e-06 -5.01725e-06 2.68918e+25 -6.63399 -1.06453 272.185 
4.06158e-06 -5.01725e-06 2.69093e+25 -6.42962 -2.06694 272.105 
5.97292e-06 -5.01725e-06 2.69048e+25 -5.80675 -3.10981 272.103 
7.88425e-06 -5.01725e-06 2.6902e+25 -4.82203 -3.69626 272.219 
9.79558e-06 -5.01725e-06 2.6913e+25 -3.43184 -3.79708 272.057 
1.17069e-05 -5.01725e-06 2.69122e+25 -2.13964 -3.64573 272.063 
1.36182e-05 -5.01725e-06 2.69118e+25 -1.11277 -2.52213 272.12 
1.55296e-05 -5.01725e-06 2.69044e+25 -0.428107 -1.23456 272.19 
2.38917e-07 -4.53942e-06 2.68926e+25 -6.6304 0.0896752 272.025 
2.15025e-06 -4.53942e-06 2.69088e+25 -6.78712 -1.02211 272.148 
4.06158e-06 -4.53942e-06 2.69132e+25 -6.79496 -2.21088 271.986 
5.97292e-06 -4.53942e-06 2.69116e+25 -6.19397 -3.39248 272.056 
7.88425e-06 -4.53942e-06 2.68976e+25 -5.15695 -3.97418 272.179 
9.79558e-06 -4.53942e-06 2.69267e+25 -3.73004 -4.19407 272.026 
1.17069e-05 -4.53942e-06 2.69182e+25 -2.31443 -3.91392 271.995 
1.36182e-05 -4.53942e-06 2.69141e+25 -1.09938 -2.78872 272.054 
1.55296e-05 -4.53942e-06 2.6908e+25 -0.202801 -1.40821 272.113 
2.38917e-07 -4.06158e-06 2.68828e+25 -6.72306 0.209026 272.078 
2.15025e-06 -4.06158e-06 2.69044e+25 -7.14213 -0.93254 272.07 
4.06158e-06 -4.06158e-06 2.69121e+25 -7.15311 -2.34498 272.027 
5.97292e-06 -4.06158e-06 2.69187e+25 -6.56964 -3.59776 272.047 
7.88425e-06 -4.06158e-06 2.69138e+25 -5.52512 -4.32089 272.018 
9.79558e-06 -4.06158e-06 2.69202e+25 -3.92268 -4.64544 272.106 
1.17069e-05 -4.06158e-06 2.69109e+25 -2.50261 -4.23913 272.055 
1.36182e-05 -4.06158e-06 2.69028e+25 -1.28484 -3.04586 272.152 
1.55296e-05 -4.06158e-06 2.69195e+25 -0.139795 -1.49667 272.021 
2.38917e-07 -3.58375e-06 2.68846e+25 -6.77826 0.319816 272.038 
2.15025e-06 -3.58375e-06 2.68995e+25 -7.40946 -0.794439 272.064 
4.06158e-06 -3.58375e-06 2.69046e+25 -7.49763 -2.4476 272.139 
5.97292e-06 -3.58375e-06 2.69116e+25 -6.9877 -3.76133 272.027 
7.88425e-06 -3.58375e-06 2.69068e+25 -5.80114 -4.67441 272.077 
9.79558e-06 -3.58375e-06 2.69224e+25 -4.19073 -5.11393 272.072 
1.17069e-05 -3.58375e-06 2.69055e+25 -2.50343 -4.59177 272.17 
1.36182e-05 -3.58375e-06 2.69006e+25 -1.27149 -3.31502 272.193 
1.55296e-05 -3.58375e-06 2.69238e+25 -0.193368 -1.63124 271.967 
2.38917e-07 -3.10592e-06 2.68899e+25 -7.09798 0.509586 272.066 
2.15025e-06 -3.10592e-06 2.68943e+25 -7.68005 -0.664647 272.113 
4.06158e-06 -3.10592e-06 2.68991e+25 -7.76197 -2.60018 272.121 
5.97292e-06 -3.10592e-06 2.68966e+25 -7.20963 -3.98377 272.206 
7.88425e-06 -3.10592e-06 2.68904e+25 -6.13831 -5.08859 272.22 
9.79558e-06 -3.10592e-06 2.69094e+25 -4.42503 -5.55923 272.07 
1.17069e-05 -3.10592e-06 2.6895e+25 -2.69552 -4.92764 272.171 
1.36182e-05 -3.10592e-06 2.69014e+25 -1.23118 -3.65828 272.118 
1.55296e-05 -3.10592e-06 2.69223e+25 -0.176102 -1.77973 272.045 
2.38917e-07 -2.62808e-06 2.68975e+25 -7.37095 0.743765 271.956 
2.15025e-06 -2.62808e-06 2.69048e+25 -7.77963 -0.578144 272.049 
4.06158e-06 -2.62808e-06 2.68809e+25 -7.85159 -2.6562 272.26 
5.97292e-06 -2.62808e-06 2.68849e+25 -7.48483 -4.1171 272.312 
7.88425e-06 -2.62808e-06 2.69019e+25 -6.49097 -5.44746 272.164 
9.79558e-06 -2.62808e-06 2.6906e+25 -4.7442 -5.96123 272.127 
1.17069e-05 -2.62808e-06 2.69098e+25 -2.97159 -5.4133 272.108 
1.36182e-05 -2.62808e-06 2.68858e+25 -1.33083 -4.01732 272.294 
1.55296e-05 -2.62808e-06 2.69038e+25 -0.221158 -1.9512 272.121 
2.38917e-07 -2.15025e-06 2.6897e+25 -7.53484 0.969479 271.893 
2.15025e-06 -2.15025e-06 2.69043e+25 -7.92115 -0.495273 271.96 
4.06158e-06 -2.15025e-06 2.68871e+25 -7.88245 -2.61282 272.241 
5.97292e-06 -2.15025e-06 2.68974e+25 -7.53736 -4.24189 272.231 
7.88425e-06 -2.15025e-06 2.69e+25 -6.63992 -5.77318 272.175 
9.79558e-06 -2.15025e-06 2.6909e+25 -4.90696 -6.43062 272.109 
1.17069e-05 -2.15025e-06 2.68969e+25 -3.14855 -5.85288 272.159 
1.36182e-05 -2.15025e-06 2.68887e+25 -1.41617 -4.42023 272.291 
1.55296e-05 -2.15025e-06 2.69034e+25 -0.314776 -2.14427 272.19 
2.38917e-07 -1.67242e-06 2.68984e+25 -7.55403 1.16081 271.892 
2.15025e-06 -1.67242e-06 2.69148e+25 -7.97179 -0.494648 271.997 
4.06158e-06 -1.67242e-06 2.68827e+25 -7.94043 -2.57994 272.216 
5.97292e-06 -1.67242e-06 2.68953e+25 -7.72569 -4.42316 272.169 
7.88425e-06 -1.67242e-06 2.68981e+25 -6.75537 -6.13135 272.178 
9.79558e-06 -1.67242e-06 2.69135e+25 -5.13534 -6.91601 272.077 
1.17069e-05 -1.67242e-06 2.69122e+25 -3.31196 -6.27841 272.047 
1.36182e-05 -1.67242e-06 2.6894e+25 -1.5389 -4.822 272.186 
1.55296e-05 -1.67242e-06 2.68819e+25 -0.337847 -2.29104 272.261 
2.38917e-07 -1.19458e-06 2.69035e+25 -7.57552 1.27798 271.875 
2.15025e-06 -1.19458e-06 2.68984e+25 -7.90795 -0.545905 272.067 
4.06158e-06 -1.19458e-06 2.6884e+25 -7.97077 -2.59802 272.225 
5.97292e-06 -1.19458e-06 2.68901e+25 -7.80609 -4.51341 272.082 
7.88425e-06 -1.19458e-06 2.6902e+25 -6.82997 -6.43636 272.164 
9.79558e-06 -1.19458e-06 2.69165e+25 -5.42005 -7.32532 272.002 
1.17069e-05 -1.19458e-06 2.69133e+25 -3.57622 -6.6989 272.074 
1.36182e-05 -1.19458e-06 2.69077e+25 -1.72407 -5.22909 272.122 
1.55296e-05 -1.19458e-06 2.68891e+25 -0.448483 -2.50622 272.237 
2.38917e-07 -7.1675e-07 2.6899e+25 -7.57467 1.36996 271.863 
2.15025e-06 -7.1675e-07 2.68892e+25 -7.84773 -0.553328 272.022 
4.06158e-06 -7.1675e-07 2.68843e+25 -7.92113 -2.63941 272.22 
5.97292e-06 -7.1675e-07 2.68945e+25 -7.85445 -4.62682 272.148 
7.88425e-06 -7.1675e-07 2.69067e+25 -7.06275 -6.68613 272.04 
9.79558e-06 -7.1675e-07 2.69235e+25 -5.72872 -7.76052 272.023 
1.17069e-05 -7.1675e-07 2.69071e+25 -3.78068 -7.12509 272.147 
1.36182e-05 -7.1675e-07 2.69024e+25 -1.82742 -5.63087 272.1 
1.55296e-05 -7.1675e-07 2.68994e+25 -0.531083 -2.70791 272.242 
2.38917e-07 -2.38917e-07 2.68607e+25 -7.53293 1.62576 271.998 
2.15025e-06 -2.38917e-07 2.6878e+25 -7.95725 -0.513869 272.008 
4.06158e-06 -2.38917e-07 2.68711e+25 -7.97365 -2.67971 272.153 
5.97292e-06 -2.38917e-07 2.68742e+25 -7.90445 -4.65762 272.133 
7.88425e-06 -2.38917e-07 2.68913e+25 -7.34394 -6.90306 272.022 
9.79558e-06 -2.38917e-07 2.69092e+25 -5.96463 -8.10839 271.947 
1.17069e-05 -2.38917e-07 2.68742e+25 -4.07964 -7.63654 272.204 
1.36182e-05 -2.38917e-07 2.68879e+25 -2.03886 -6.03944 272.068 
1.55296e-05 -2.38917e-07 2.68724e+25 -0.569991 -2.98079 272.253 
7.1675e-07 -1.69631e-05 2.6854e+25 -0.139497 -0.00302046 272.803 
2.62808e-06 -1.69631e-05 2.68517e+25 -0.135463 -0.0154046 272.79 
4.53942e-06 -1.69631e-05 2.68493e+25 -0.163969 0.00390413 272.741 
6.45075e-06 -1.69631e-05 2.68563e+25 -0.0518289 0.0301699 272.771 
8.36208e-06 -1.69631e-05 2.68406e+25 -0.086553 0.0317295 272.878 
1.02734e-05 -1.69631e-05 2.68492e+25 -0.0192365 0.0226467 272.836 
1.21847e-05 -1.69631e-05 2.68524e+25 0.0778172 0.0550263 272.768 
1.40961e-05 -1.69631e-05 2.68539e+25 0.00343485 0.029517 272.792 
1.60074e-05 -1.69631e-05 2.68437e+25 -0.0801709 -0.00459367 272.876 
7.1675e-07 -1.64852e-05 2.68827e+25 -0.4397 -0.0284405 272.451 
2.62808e-06 -1.64852e-05 2.68691e+25 -0.455143 0.0266397 272.551 
4.53942e-06 -1.64852e-05 2.68729e+25 -0.312345 -0.0457402 272.504 
6.45075e-06 -1.64852e-05 2.68653e+25 -0.265061 -0.0439744 272.689 
8.36208e-06 -1.64852e-05 2.68676e+25 -0.151649 0.0560181 272.605 
1.02734e-05 -1.64852e-05 2.68739e+25 -0.0734417 -0.047849 272.468 
1.21847e-05 -1.64852e-05 2.68707e+25 0.0370002 0.0605732 272.525 
1.40961e-05 -1.64852e-05 2.68583e+25 -0.00774895 0.0355534 272.683 
1.60074e-05 -1.64852e-05 2.68681e+25 -0.0128449 -0.0205777 272.581 
7.1675e-07 -1.60074e-05 2.69142e+25 -0.862022 -0.049682 272.179 
2.62808e-06 -1.60074e-05 2.68879e+25 -0.800766 0.0512423 272.359 
4.53942e-06 -1.60074e-05 2.68814e+25 -0.647365 -0.0925619 272.406 
6.45075e-06 -1.60074e-05 2.68658e+25 -0.509965 -0.0704561 272.654 
8.36208e-06 -1.60074e-05 2.68799e+25 -0.40548 0.0137533 272.473 
1.02734e-05 -1.60074e-05 2.68893e+25 -0.214009 -0.105069 272.268 
1.21847e-05 -1.60074e-05 2.68887e+25 -0.112712 0.0446425 272.351 
1.40961e-05 -1.60074e-05 2.68799e+25 0.0166244 0.0658972 272.401 
1.60074e-05 -1.60074e-05 2.6882e+25 0.0662189 -0.0201511 272.459 
7.1675e-07 -1.55296e-05 2.69169e+25 -1.12944 -0.0317417 272.057 
2.62808e-06 -1.55296e-05 2.68987e+25 -1.01509 -0.0189887 272.208 
4.53942e-06 -1.55296e-05 2.69058e+25 -0.77586 -0.112823 272.159 
6.45075e-06 -1.55296e-05 2.68871e+25 -0.674712 -0.0670511 272.421 
8.36208e-06 -1.55296e-05 2.68726e+25 -0.480319 -0.129762 272.525 
1.02734e-05 -1.55296e-05 2.68941e+25 -0.153141 -0.147301 272.331 
1.21847e-05 -1.55296e-05 2.69075e+25 -0.22843 -0.0180111 272.182 
1.40961e-05 -1.55296e-05 2.68972e+25 -0.100517 0.0140615 272.303 
1.60074e-05 -1.55296e-05 2.68809e+25 0.081258 -0.0667878 272.432 
7.1675e-07 -1.50517e-05 2.69111e+25 -1.48487 -0.0100141 272.08 
2.62808e-06 -1.50517e-05 2.69214e+25 -1.12963 -0.15549 272.02 
4.53942e-06 -1.50517e-05 2.69076e+25 -0.964976 -0.0638332 272.218 
6.45075e-06 -1.50517e-05 2.68983e+25 -0.870678 -0.083953 272.28 
8.36208e-06 -1.50517e-05 2.68856e+25 -0.587536 -0.150979 272.361 
1.02734e-05 -1.50517e-05 2.68751e+25 -0.252338 -0.192868 272.408 
1.21847e-05 -1.50517e-05 2.69077e+25 -0.289693 -0.0431303 272.178 
1.40961e-05 -1.50517e-05 2.68975e+25 -0.190801 0.00406169 272.177 
1.60074e-05 -1.50517e-05 2.68907e+25 -0.0830308 -0.126442 272.344 
7.1675e-07 -1.45739e-05 2.69271e+25 -1.71554 -0.102405 271.942 
2.62808e-06 -1.45739e-05 2.69323e+25 -1.41381 -0.233345 271.956 
4.53942e-06 -1.45739e-05 2.69137e+25 -1.19696 -0.135603 272.107 
6.45075e-06 -1.45739e-05 2.69077e+25 -1.07421 -0.119101 272.233 
8.36208e-06 -1.45739e-05 2.68988e+25 -0.702015 -0.207232 272.299 
1.02734e-05 -1.45739e-05 2.68906e+25 -0.438496 -0.224888 272.321 
1.21847e-05 -1.45739e-05 2.69149e+25 -0.164114 -0.0264729 272.113 
1.40961e-05 -1.45739e-05 2.69047e+25 -0.0595962 0.0162156 272.196 
1.60074e-05 -1.45739e-05 2.68893e+25 -0.0373727 -0.131699 272.425 
7.1675e-07 -1.40961e-05 2.69297e+25 -1.83711 -0.203361 271.869 
2.62808e-06 -1.40961e-05 2.69343e+25 -1.5709 -0.254535 271.865 
4.53942e-06 -1.40961e-05 2.69166e+25 -1.38584 -0.181916 272.01 
6.45075e-06 -1.40961e-05 2.68972e+25 -1.37443 -0.192868 272.262 
8.36208e-06 -1.40961e-05 2.69009e+25 -0.973645 -0.311131 272.229 
1.02734e-05 -1.40961e-05 2.68977e+25 -0.635359 -0.277495 272.23 
1.21847e-05 -1.40961e-05 2.69246e+25 -0.144699 -0.106797 271.983 
1.40961e-05 -1.40961e-05 2.68992e+25 -0.0393635 0.0139056 272.291 
1.60074e-05 -1.40961e-05 2.68947e+25 0.0160908 -0.12062 272.331 
7.1675e-07 -1.36182e-05 2.69274e+25 -1.94005 -0.246038 271.898 
2.62808e-06 -1.36182e-05 2.69454e+25 -1.85316 -0.280731 271.812 
4.53942e-06 -1.36182e-05 2.69142e+25 -1.61549 -0.202855 272.089 
6.45075e-06 -1.36182e-05 2.6904e+25 -1.56503 -0.217113 272.094 
8.36208e-06 -1.36182e-05 2.69082e+25 -1.04007 -0.487457 272.148 
1.02734e-05 -1.36182e-05 2.68991e+25 -0.694774 -0.44413 272.216 
1.21847e-05 -1.36182e-05 2.69247e+25 -0.370876 -0.192433 272.02 
1.40961e-05 -1.36182e-05 2.68925e+25 -0.0236931 -0.0469821 272.257 
1.60074e-05 -1.36182e-05 2.68912e+25 0.00448113 -0.103974 272.315 
7.1675e-07 -1.31404e-05 2.69205e+25 -2.14213 -0.211212 271.979 
2.62808e-06 -1.31404e-05 2.69367e+25 -2.01676 -0.334632 271.865 
4.53942e-06 -1.31404e-05 2.69233e+25 -1.86938 -0.225444 272.061 
6.45075e-06 -1.31404e-05 2.69182e+25 -1.67551 -0.288665 272.072 
8.36208e-06 -1.31404e-05 2.69091e+25 -1.143 -0.690181 272.103 
1.02734e-05 -1.31404e-05 2.69005e+25 -0.670379 -0.488936 272.208 
1.21847e-05 -1.31404e-05 2.69221e+25 -0.588378 -0.272109 272.06 
1.40961e-05 -1.31404e-05 2.68975e+25 -0.166566 -0.16077 272.181 
1.60074e-05 -1.31404e-05 2.68989e+25 -0.0711587 -0.0774808 272.262 
7.1675e-07 -1.26626e-05 2.6911e+25 -2.37656 -0.189147 272.03 
2.62808e-06 -1.26626e-05 2.69273e+25 -2.16183 -0.420863 271.922 
4.53942e-06 -1.26626e-05 2.69192e+25 -1.99598 -0.253529 272.031 
6.45075e-06 -1.26626e-05 2.69166e+25 -1.6556 -0.339521 272.007 
8.36208e-06 -1.26626e-05 2.69216e+25 -1.19431 -0.844971 272.036 
1.02734e-05 -1.26626e-05 2.69058e+25 -0.725728 -0.482471 272.155 
1.21847e-05 -1.26626e-05 2.69213e+25 -0.581798 -0.29458 271.994 
1.40961e-05 -1.26626e-05 2.68984e+25 -0.236897 -0.228559 272.181 
1.60074e-05 -1.26626e-05 2.68885e+25 -0.116832 -0.105843 272.32 
7.1675e-07 -1.21847e-05 2.6912e+25 -2.63256 -0.211313 272.008 
2.62808e-06 -1.21847e-05 2.69159e+25 -2.45315 -0.498679 272 
4.53942e-06 -1.21847e-05 2.69245e+25 -2.13382 -0.297052 271.925 
6.45075e-06 -1.21847e-05 2.69223e+25 -1.74109 -0.423308 271.965 
8.36208e-06 -1.21847e-05 2.69219e+25 -1.33084 -0.977215 272.004 
1.02734e-05 -1.21847e-05 2.69138e+25 -0.844174 -0.542081 272.14 
1.21847e-05 -1.21847e-05 2.69274e+25 -0.621767 -0.353963 272.008 
1.40961e-05 -1.21847e-05 2.69055e+25 -0.225355 -0.214759 272.226 
1.60074e-05 -1.21847e-05 2.68964e+25 -0.0353255 -0.218688 272.282 
7.1675e-07 -1.17069e-05 2.69189e+25 -2.93209 -0.209032 271.98 
2.62808e-06 -1.17069e-05 2.69365e+25 -2.80781 -0.591077 271.927 
4.53942e-06 -1.17069e-05 2.69217e+25 -2.27445 -0.452892 271.996 
6.45075e-06 -1.17069e-05 2.69224e+25 -1.80143 -0.488905 271.874 
8.36208e-06 -1.17069e-05 2.69254e+25 -1.37192 -1.10033 271.972 
1.02734e-05 -1.17069e-05 2.69262e+25 -1.04701 -0.642414 271.957 
1.21847e-05 -1.17069e-05 2.6918e+25 -0.703253 -0.456149 272.055 
1.40961e-05 -1.17069e-05 2.69088e+25 -0.296825 -0.301092 272.13 
1.60074e-05 -1.17069e-05 2.69104e+25 -0.0387001 -0.290066 272.262 
7.1675e-07 -1.12291e-05 2.69152e+25 -3.22335 -0.240562 272.061 
2.62808e-06 -1.12291e-05 2.69115e+25 -3.11886 -0.67278 272.032 
4.53942e-06 -1.12291e-05 2.69192e+25 -2.65179 -0.664005 271.961 
6.45075e-06 -1.12291e-05 2.69262e+25 -1.95471 -0.592351 271.908 
8.36208e-06 -1.12291e-05 2.69251e+25 -1.65035 -1.15143 272.007 
1.02734e-05 -1.12291e-05 2.69362e+25 -1.27517 -0.765199 271.914 
1.21847e-05 -1.12291e-05 2.69055e+25 -0.681481 -0.639372 272.038 
1.40961e-05 -1.12291e-05 2.69023e+25 -0.310116 -0.379862 272.127 
1.60074e-05 -1.12291e-05 2.6883e+25 -0.0482748 -0.343856 272.329 
7.1675e-07 -1.07512e-05 2.69157e+25 -3.44406 -0.243422 272.044 
2.62808e-06 -1.07512e-05 2.6913e+25 -3.23611 -0.763227 272.062 
4.53942e-06 -1.07512e-05 2.69157e+25 -2.90217 -0.683166 272.028 
6.45075e-06 -1.07512e-05 2.6932e+25 -2.2506 -0.773815 271.925 
8.36208e-06 -1.07512e-05 2.69182e+25 -1.8848 -1.2168 272.028 
1.02734e-05 -1.07512e-05 2.69334e+25 -1.47007 -0.966489 271.874 
1.21847e-05 -1.07512e-05 2.69292e+25 -0.662909 -0.76199 271.977 
1.40961e-05 -1.07512e-05 2.69056e+25 -0.26984 -0.477436 272.129 
1.60074e-05 -1.07512e-05 2.68878e+25 0.00320714 -0.310948 272.369 
7.1675e-07 -1.02734e-05 2.69152e+25 -3.67747 -0.216939 271.985 
2.62808e-06 -1.02734e-05 2.69132e+25 -3.45987 -0.892446 272.049 
4.53942e-06 -1.02734e-05 2.6907e+25 -3.18827 -0.781145 272.091 
6.45075e-06 -1.02734e-05 2.6925e+25 -2.45586 -0.99332 272.048 
8.36208e-06 -1.02734e-05 2.69293e+25 -2.03899 -1.24866 272.021 
1.02734e-05 -1.02734e-05 2.69329e+25 -1.5915 -1.16422 271.926 
1.21847e-05 -1.02734e-05 2.69342e+25 -0.612947 -0.953075 271.974 
1.40961e-05 -1.02734e-05 2.69207e+25 -0.366434 -0.581263 271.998 
1.60074e-05 -1.02734e-05 2.68907e+25 0.00106073 -0.271885 272.333 
7.1675e-07 -9.79558e-06 2.69204e+25 -3.89913 -0.184339 272.029 
2.62808e-06 -9.79558e-06 2.69192e+25 -3.89002 -0.917309 272.03 
4.53942e-06 -9.79558e-06 2.69162e+25 -3.50071 -0.952945 272.141 
6.45075e-06 -9.79558e-06 2.69274e+25 -2.77361 -1.21179 272.004 
8.36208e-06 -9.79558e-06 2.69292e+25 -2.14249 -1.37951 271.945 
1.02734e-05 -9.79558e-06 2.69334e+25 -1.60769 -1.25759 271.916 
1.21847e-05 -9.79558e-06 2.6928e+25 -0.696032 -1.23015 271.91 
1.40961e-05 -9.79558e-06 2.69261e+25 -0.280534 -0.625784 271.97 
1.60074e-05 -9.79558e-06 2.68961e+25 -0.00878518 -0.271314 272.303 
7.1675e-07 -9.31775e-06 2.69022e+25 -4.22092 -0.186024 272.069 
2.62808e-06 -9.31775e-06 2.69204e+25 -4.25786 -0.953782 272.022 
4.53942e-06 -9.31775e-06 2.69213e+25 -3.76166 -1.19039 272.024 
6.45075e-06 -9.31775e-06 2.69382e+25 -3.00847 -1.37611 271.926 
8.36208e-06 -9.31775e-06 2.69301e+25 -2.37115 -1.52762 271.929 
1.02734e-05 -9.31775e-06 2.69245e+25 -1.63671 -1.38888 271.999 
1.21847e-05 -9.31775e-06 2.69217e+25 -0.806663 -1.41747 272.003 
1.40961e-05 -9.31775e-06 2.6928e+25 -0.231089 -0.669529 271.823 
1.60074e-05 -9.31775e-06 2.6898e+25 -0.0107592 -0.285952 272.215 
7.1675e-07 -8.83992e-06 2.69178e+25 -4.51519 -0.26629 272.052 
2.62808e-06 -8.83992e-06 2.69174e+25 -4.51499 -0.950309 271.99 
4.53942e-06 -8.83992e-06 2.6921e+25 -3.87877 -1.38416 272.032 
6.45075e-06 -8.83992e-06 2.69131e+25 -3.26023 -1.55765 272.011 
8.36208e-06 -8.83992e-06 2.69382e+25 -2.49988 -1.62002 271.894 
1.02734e-05 -8.83992e-06 2.69275e+25 -1.78957 -1.56847 272.036 
1.21847e-05 -8.83992e-06 2.69159e+25 -0.925196 -1.6069 271.909 
1.40961e-05 -8.83992e-06 2.69212e+25 -0.206823 -0.758956 271.909 
1.60074e-05 -8.83992e-06 2.69072e+25 0.0545152 -0.35004 272.166 
7.1675e-07 -8.36208e-06 2.69185e+25 -4.91318 -0.316817 272 
2.62808e-06 -8.36208e-06 2.69145e+25 -4.71616 -1.02306 272.06 
4.53942e-06 -8.36208e-06 2.6906e+25 -4.28201 -1.50784 272.077 
6.45075e-06 -8.36208e-06 2.69137e+25 -3.61424 -1.76486 272.071 
8.36208e-06 -8.36208e-06 2.69243e+25 -2.74653 -1.80435 271.973 
1.02734e-05 -8.36208e-06 2.69238e+25 -1.89637 -1.86324 272.022 
1.21847e-05 -8.36208e-06 2.69147e+25 -0.989875 -1.79412 272.005 
1.40961e-05 -8.36208e-06 2.69224e+25 -0.235452 -0.968315 272.04 
1.60074e-05 -8.36208e-06 2.68983e+25 0.0379053 -0.347831 272.266 
7.1675e-07 -7.88425e-06 2.6924e+25 -5.20099 -0.300908 271.912 
2.62808e-06 -7.88425e-06 2.69181e+25 -4.95881 -1.14183 271.979 
4.53942e-06 -7.88425e-06 2.69246e+25 -4.52437 -1.59792 271.988 
6.45075e-06 -7.88425e-06 2.69125e+25 -3.86427 -1.94192 272.056 
8.36208e-06 -7.88425e-06 2.69289e+25 -2.98605 -2.00026 271.983 
1.02734e-05 -7.88425e-06 2.69111e+25 -1.9574 -2.13732 272.099 
1.21847e-05 -7.88425e-06 2.69209e+25 -1.08999 -1.93344 272.069 
1.40961e-05 -7.88425e-06 2.69133e+25 -0.292723 -1.15378 272.132 
1.60074e-05 -7.88425e-06 2.68853e+25 -0.0111106 -0.349793 272.283 
7.1675e-07 -7.40642e-06 2.69181e+25 -5.41846 -0.313019 271.99 
2.62808e-06 -7.40642e-06 2.6919e+25 -5.22119 -1.23617 272.066 
4.53942e-06 -7.40642e-06 2.69135e+25 -4.81022 -1.74179 272.059 
6.45075e-06 -7.40642e-06 2.6923e+25 -4.11636 -2.06644 272.09 
8.36208e-06 -7.40642e-06 2.69222e+25 -3.22584 -2.2977 271.966 
1.02734e-05 -7.40642e-06 2.69237e+25 -2.27894 -2.44332 272.008 
1.21847e-05 -7.40642e-06 2.69297e+25 -1.1294 -2.16856 271.917 
1.40961e-05 -7.40642e-06 2.6918e+25 -0.326268 -1.27325 272.012 
1.60074e-05 -7.40642e-06 2.68797e+25 -0.0230635 -0.406143 272.384 
7.1675e-07 -6.92858e-06 2.68994e+25 -5.70348 -0.291415 272.102 
2.62808e-06 -6.92858e-06 2.69128e+25 -5.53896 -1.33575 272.019 
4.53942e-06 -6.92858e-06 2.69077e+25 -5.18102 -1.92368 272.041 
6.45075e-06 -6.92858e-06 2.69079e+25 -4.30564 -2.24486 272.136 
8.36208e-06 -6.92858e-06 2.69207e+25 -3.54884 -2.53595 271.985 
1.02734e-05 -6.92858e-06 2.69107e+25 -2.41685 -2.73595 272.062 
1.21847e-05 -6.92858e-06 2.694e+25 -1.24049 -2.48047 271.841 
1.40961e-05 -6.92858e-06 2.69217e+25 -0.510232 -1.46677 271.95 
1.60074e-05 -6.92858e-06 2.68809e+25 -0.0879691 -0.438445 272.419 
7.1675e-07 -6.45075e-06 2.69119e+25 -5.82851 -0.285692 272.036 
2.62808e-06 -6.45075e-06 2.69131e+25 -5.7813 -1.3699 272.028 
4.53942e-06 -6.45075e-06 2.69123e+25 -5.48126 -2.14276 272.082 
6.45075e-06 -6.45075e-06 2.69108e+25 -4.72243 -2.54414 272.097 
8.36208e-06 -6.45075e-06 2.68938e+25 -3.81792 -2.80167 272.154 
1.02734e-05 -6.45075e-06 2.69228e+25 -2.53218 -2.96253 272 
1.21847e-05 -6.45075e-06 2.69367e+25 -1.46826 -2.78138 271.815 
1.40961e-05 -6.45075e-06 2.69223e+25 -0.615046 -1.60868 272.011 
1.60074e-05 -6.45075e-06 2.68624e+25 -0.0765675 -0.503497 272.601 
7.1675e-07 -5.97292e-06 2.68997e+25 -6.0724 -0.208128 272.102 
2.62808e-06 -5.97292e-06 2.69196e+25 -6.02272 -1.39305 271.937 
4.53942e-06 -5.97292e-06 2.69004e+25 -5.84939 -2.27516 272.128 
6.45075e-06 -5.97292e-06 2.69071e+25 -5.05881 -2.77446 272.083 
8.36208e-06 -5.97292e-06 2.69026e+25 -3.93471 -3.02882 272.166 
1.02734e-05 -5.97292e-06 2.6918e+25 -2.80375 -3.20869 272.052 
1.21847e-05 -5.97292e-06 2.69198e+25 -1.7063 -2.94908 272.063 
1.40961e-05 -5.97292e-06 2.69169e+25 -0.806354 -1.75293 272.077 
1.60074e-05 -5.97292e-06 2.68698e+25 -0.167188 -0.588089 272.479 
7.1675e-07 -5.49508e-06 2.68954e+25 -6.27123 -0.214613 272.16 
2.62808e-06 -5.49508e-06 2.69153e+25 -6.2801 -1.38103 272.044 
4.53942e-06 -5.49508e-06 2.69006e+25 -6.12114 -2.3625 272.147 
6.45075e-06 -5.49508e-06 2.69167e+25 -5.35586 -2.9904 272.04 
8.36208e-06 -5.49508e-06 2.69006e+25 -4.09052 -3.2873 272.206 
1.02734e-05 -5.49508e-06 2.69174e+25 -2.92539 -3.51789 272.036 
1.21847e-05 -5.49508e-06 2.69167e+25 -1.82322 -3.16154 272.079 
1.40961e-05 -5.49508e-06 2.69151e+25 -0.928128 -1.93153 272.086 
1.60074e-05 -5.49508e-06 2.68785e+25 -0.342901 -0.773901 272.447 
7.1675e-07 -5.01725e-06 2.69002e+25 -6.50672 -0.216092 272.147 
2.62808e-06 -5.01725e-06 2.69045e+25 -6.65106 -1.36512 272.066 
4.53942e-06 -5.01725e-06 2.69111e+25 -6.34424 -2.48904 272.14 
6.45075e-06 -5.01725e-06 2.69106e+25 -5.58627 -3.23626 272.104 
8.36208e-06 -5.01725e-06 2.69088e+25 -4.474 -3.62578 272.129 
1.02734e-05 -5.01725e-06 2.6924e+25 -3.0645 -3.83724 271.977 
1.21847e-05 -5.01725e-06 2.69214e+25 -1.87179 -3.38569 272.058 
1.40961e-05 -5.01725e-06 2.69028e+25 -0.86192 -2.18609 272.124 
1.60074e-05 -5.01725e-06 2.68855e+25 -0.262955 -0.992354 272.335 
7.1675e-07 -4.53942e-06 2.69027e+25 -6.66246 -0.15672 272.142 
2.62808e-06 -4.53942e-06 2.69141e+25 -6.82751 -1.35283 272.018 
4.53942e-06 -4.53942e-06 2.69123e+25 -6.61712 -2.58385 272.034 
6.45075e-06 -4.53942e-06 2.68974e+25 -5.94997 -3.44971 272.173 
8.36208e-06 -4.53942e-06 2.69232e+25 -4.84241 -3.9714 272.084 
1.02734e-05 -4.53942e-06 2.69048e+25 -3.2991 -4.20221 272.12 
1.21847e-05 -4.53942e-06 2.69205e+25 -2.02916 -3.68818 272.044 
1.40961e-05 -4.53942e-06 2.69118e+25 -0.857971 -2.43242 272.079 
1.60074e-05 -4.53942e-06 2.68889e+25 -0.108012 -1.10877 272.197 
7.1675e-07 -4.06158e-06 2.68946e+25 -6.82315 -0.107178 272.165 
2.62808e-06 -4.06158e-06 2.69143e+25 -7.24633 -1.32306 271.999 
4.53942e-06 -4.06158e-06 2.69082e+25 -7.04033 -2.73148 272.105 
6.45075e-06 -4.06158e-06 2.69012e+25 -6.37687 -3.68478 272.136 
8.36208e-06 -4.06158e-06 2.6915e+25 -5.11435 -4.37202 272.085 
1.02734e-05 -4.06158e-06 2.69004e+25 -3.46058 -4.60704 272.174 
1.21847e-05 -4.06158e-06 2.69002e+25 -2.12573 -4.01054 272.203 
1.40961e-05 -4.06158e-06 2.69036e+25 -0.984273 -2.72793 272.123 
1.60074e-05 -4.06158e-06 2.69059e+25 -0.0740536 -1.17184 272.103 
7.1675e-07 -3.58375e-06 2.68951e+25 -6.93203 0.0240947 272.148 
2.62808e-06 -3.58375e-06 2.69138e+25 -7.53956 -1.23027 271.972 
4.53942e-06 -3.58375e-06 2.6898e+25 -7.38203 -2.84726 272.125 
6.45075e-06 -3.58375e-06 2.69106e+25 -6.71658 -3.98818 272.07 
8.36208e-06 -3.58375e-06 2.69155e+25 -5.40828 -4.77924 272.005 
1.02734e-05 -3.58375e-06 2.69102e+25 -3.72016 -5.07882 272.164 
1.21847e-05 -3.58375e-06 2.68875e+25 -2.15936 -4.36619 272.321 
1.40961e-05 -3.58375e-06 2.68954e+25 -0.986422 -3.02201 272.258 
1.60074e-05 -3.58375e-06 2.69113e+25 -0.0992389 -1.227 272.113 
7.1675e-07 -3.10592e-06 2.68952e+25 -7.27871 0.189945 272.15 
2.62808e-06 -3.10592e-06 2.68965e+25 -7.74816 -1.15233 272.11 
4.53942e-06 -3.10592e-06 2.68887e+25 -7.67916 -2.91723 272.155 
6.45075e-06 -3.10592e-06 2.68925e+25 -7.05513 -4.20141 272.279 
8.36208e-06 -3.10592e-06 2.69156e+25 -5.7187 -5.18876 272.058 
1.02734e-05 -3.10592e-06 2.69085e+25 -3.97208 -5.5538 272.119 
1.21847e-05 -3.10592e-06 2.68863e+25 -2.34111 -4.70923 272.265 
1.40961e-05 -3.10592e-06 2.69018e+25 -0.895118 -3.31103 272.233 
1.60074e-05 -3.10592e-06 2.6904e+25 -0.0983842 -1.28651 272.109 
7.1675e-07 -2.62808e-06 2.6903e+25 -7.57396 0.382103 272.026 
2.62808e-06 -2.62808e-06 2.69032e+25 -7.86275 -1.05416 272.133 
4.53942e-06 -2.62808e-06 2.68883e+25 -7.79596 -2.96995 272.242 
6.45075e-06 -2.62808e-06 2.68899e+25 -7.34939 -4.38874 272.279 
8.36208e-06 -2.62808e-06 2.6916e+25 -6.06814 -5.64873 272.082 
1.02734e-05 -2.62808e-06 2.68969e+25 -4.3244 -5.98477 272.202 
1.21847e-05 -2.62808e-06 2.69012e+25 -2.49274 -5.08705 272.169 
1.40961e-05 -2.62808e-06 2.68813e+25 -1.00479 -3.57505 272.228 
1.60074e-05 -2.62808e-06 2.69148e+25 -0.0788617 -1.33437 272.112 
7.1675e-07 -2.15025e-06 2.69205e+25 -7.73174 0.562563 271.878 
2.62808e-06 -2.15025e-06 2.69081e+25 -7.94014 -1.09365 272.059 
4.53942e-06 -2.15025e-06 2.68945e+25 -7.9101 -3.07424 272.193 
6.45075e-06 -2.15025e-06 2.69023e+25 -7.35514 -4.53292 272.151 
8.36208e-06 -2.15025e-06 2.69083e+25 -6.28371 -6.09596 272.118 
1.02734e-05 -2.15025e-06 2.6895e+25 -4.46547 -6.38668 272.193 
1.21847e-05 -2.15025e-06 2.69045e+25 -2.66742 -5.59596 272.112 
1.40961e-05 -2.15025e-06 2.68971e+25 -1.02603 -3.88888 272.243 
1.60074e-05 -2.15025e-06 2.68829e+25 -0.230309 -1.39503 272.3 
7.1675e-07 -1.67242e-06 2.69196e+25 -7.67128 0.711402 271.843 
2.62808e-06 -1.67242e-06 2.68947e+25 -7.96201 -1.06503 272.096 
4.53942e-06 -1.67242e-06 2.68975e+25 -7.93234 -3.07569 272.088 
6.45075e-06 -1.67242e-06 2.68914e+25 -7.57336 -4.72795 272.225 
8.36208e-06 -1.67242e-06 2.69063e+25 -6.42 -6.44468 272.131 
1.02734e-05 -1.67242e-06 2.69241e+25 -4.74036 -6.76144 272.095 
1.21847e-05 -1.67242e-06 2.68992e+25 -2.915 -6.0313 272.127 
1.40961e-05 -1.67242e-06 2.69081e+25 -1.13802 -4.24483 272.104 
1.60074e-05 -1.67242e-06 2.68887e+25 -0.149907 -1.54209 272.345 
7.1675e-07 -1.19458e-06 2.69033e+25 -7.66461 0.842303 271.958 
2.62808e-06 -1.19458e-06 2.6899e+25 -7.89693 -1.07841 272.101 
4.53942e-06 -1.19458e-06 2.69015e+25 -7.92935 -3.11021 272.037 
6.45075e-06 -1.19458e-06 2.68831e+25 -7.66313 -4.96465 272.27 
8.36208e-06 -1.19458e-06 2.69013e+25 -6.53791 -6.76433 272.142 
1.02734e-05 -1.19458e-06 2.69122e+25 -4.95797 -7.18849 272.04 
1.21847e-05 -1.19458e-06 2.69017e+25 -3.15743 -6.42716 272.158 
1.40961e-05 -1.19458e-06 2.69144e+25 -1.29884 -4.64949 272.074 
1.60074e-05 -1.19458e-06 2.68908e+25 -0.253538 -1.68904 272.279 
7.1675e-07 -7.1675e-07 2.69077e+25 -7.72856 0.993553 271.939 
2.62808e-06 -7.1675e-07 2.6881e+25 -7.88039 -1.02616 272.217 
4.53942e-06 -7.1675e-07 2.68805e+25 -7.90233 -3.13441 272.224 
6.45075e-06 -7.1675e-07 2.69076e+25 -7.70565 -5.11788 272.114 
8.36208e-06 -7.1675e-07 2.6901e+25 -6.81915 -7.07398 272.085 
1.02734e-05 -7.1675e-07 2.69197e+25 -5.23651 -7.70879 271.996 
1.21847e-05 -7.1675e-07 2.69098e+25 -3.34017 -6.89223 272.169 
1.40961e-05 -7.1675e-07 2.69072e+25 -1.45776 -5.05463 272.095 
1.60074e-05 -7.1675e-07 2.68797e+25 -0.286811 -1.90964 272.309 
7.1675e-07 -2.38917e-07 2.68869e+25 -7.69491 1.11389 271.901 
2.62808e-06 -2.38917e-07 2.6865e+25 -8.04466 -0.929619 272.115 
4.53942e-06 -2.38917e-07 2.6863e+25 -7.92333 -3.17346 272.231 
6.45075e-06 -2.38917e-07 2.68955e+25 -7.82709 -5.29984 272.012 
8.36208e-06 -2.38917e-07 2.6891e+25 -7.03628 -7.35642 272.035 
1.02734e-05 -2.38917e-07 2.69007e+25 -5.55589 -8.23858 272.001 
1.21847e-05 -2.38917e-07 2.68743e+25 -3.49851 -7.41082 272.187 
1.40961e-05 -2.38917e-07 2.68761e+25 -1.6374 -5.425 272.147 
1.60074e-05 -2.38917e-07 2.6863e+25 -0.282603 -2.15933 272.334 
1.67242e-06 -1.69631e-05 2.68433e+25 -0.138652 0.0182943 272.822 
3.58375e-06 -1.69631e-05 2.68547e+25 -0.0975724 -0.00444441 272.726 
5.49508e-06 -1.69631e-05 2.68497e+25 -0.104951 0.0111743 272.924 
7.40642e-06 -1.69631e-05 2.68465e+25 -0.122792 0.0309584 272.794 
9.31775e-06 -1.69631e-05 2.68534e+25 -0.0352498 0.00804387 272.775 
1.12291e-05 -1.69631e-05 2.68528e+25 0.118033 -0.00388795 272.812 
1.31404e-05 -1.69631e-05 2.68532e+25 0.037888 0.000948105 272.783 
1.50518e-05 -1.69631e-05 2.68432e+25 -0.0235436 0.0162386 272.829 
1.69631e-05 -1.69631e-05 2.68422e+25 -0.0114381 -0.0212728 272.975 
1.67242e-06 -1.64852e-05 2.68646e+25 -0.428049 0.0410988 272.621 
3.58375e-06 -1.64852e-05 2.68693e+25 -0.448568 -0.0121738 272.538 
5.49508e-06 -1.64852e-05 2.68651e+25 -0.328541 3.63304e-05 272.664 
7.40642e-06 -1.64852e-05 2.68635e+25 -0.212729 -0.0232009 272.648 
9.31775e-06 -1.64852e-05 2.68722e+25 -0.124996 -0.00205063 272.527 
1.12291e-05 -1.64852e-05 2.68712e+25 0.0282759 0.00660827 272.46 
1.31404e-05 -1.64852e-05 2.68715e+25 0.0037378 -0.0250934 272.583 
1.50518e-05 -1.64852e-05 2.68581e+25 -0.0863024 0.00140811 272.642 
1.69631e-05 -1.64852e-05 2.68318e+25 -0.0201991 -0.0307598 272.951 
1.67242e-06 -1.60074e-05 2.69047e+25 -0.770746 -0.0227454 272.267 
3.58375e-06 -1.60074e-05 2.68918e+25 -0.766669 -0.0399048 272.382 
5.49508e-06 -1.60074e-05 2.68744e+25 -0.530865 -0.0104342 272.492 
7.40642e-06 -1.60074e-05 2.68669e+25 -0.434082 -0.0274637 272.573 
9.31775e-06 -1.60074e-05 2.68877e+25 -0.224783 -0.087114 272.383 
1.12291e-05 -1.60074e-05 2.69025e+25 -0.166536 -0.0453476 272.235 
1.31404e-05 -1.60074e-05 2.68824e+25 -0.0626358 -0.0286424 272.475 
1.50518e-05 -1.60074e-05 2.68775e+25 0.0475634 0.0384043 272.412 
1.69631e-05 -1.60074e-05 2.68514e+25 -0.0104987 -0.0419718 272.832 
1.67242e-06 -1.55296e-05 2.69139e+25 -1.07946 -0.0458466 272.137 
3.58375e-06 -1.55296e-05 2.68983e+25 -0.888019 -0.0975606 272.23 
5.49508e-06 -1.55296e-05 2.68806e+25 -0.665819 -0.0895735 272.42 
7.40642e-06 -1.55296e-05 2.68698e+25 -0.656348 -0.0758785 272.47 
9.31775e-06 -1.55296e-05 2.691e+25 -0.378511 -0.16146 272.258 
1.12291e-05 -1.55296e-05 2.69165e+25 -0.203315 -0.0259451 272.186 
1.31404e-05 -1.55296e-05 2.68922e+25 -0.108538 -0.0571424 272.324 
1.50518e-05 -1.55296e-05 2.68851e+25 -0.0601492 0.022794 272.308 
1.69631e-05 -1.55296e-05 2.68564e+25 0.0500385 -0.00431794 272.837 
1.67242e-06 -1.50517e-05 2.69174e+25 -1.41865 -0.0893857 272.023 
3.58375e-06 -1.50517e-05 2.69143e+25 -0.940644 -0.13965 272.125 
5.49508e-06 -1.50517e-05 2.69027e+25 -0.986312 -0.167904 272.282 
7.40642e-06 -1.50517e-05 2.68918e+25 -0.731018 -0.166796 272.314 
9.31775e-06 -1.50517e-05 2.68861e+25 -0.417847 -0.269734 272.291 
1.12291e-05 -1.50517e-05 2.6898e+25 -0.269682 -0.00290531 272.249 
1.31404e-05 -1.50517e-05 2.68972e+25 -0.128015 -0.125786 272.301 
1.50518e-05 -1.50517e-05 2.68819e+25 -0.083456 -0.0325087 272.39 
1.69631e-05 -1.50517e-05 2.68458e+25 0.00927603 0.0720315 272.883 
1.67242e-06 -1.45739e-05 2.6937e+25 -1.56441 -0.158059 271.834 
3.58375e-06 -1.45739e-05 2.69066e+25 -1.28201 -0.21493 272.078 
5.49508e-06 -1.45739e-05 2.69118e+25 -1.12112 -0.15171 272.067 
7.40642e-06 -1.45739e-05 2.69037e+25 -0.913667 -0.266827 272.224 
9.31775e-06 -1.45739e-05 2.68932e+25 -0.604093 -0.363151 272.271 
1.12291e-05 -1.45739e-05 2.69032e+25 -0.299845 -0.0285897 272.289 
1.31404e-05 -1.45739e-05 2.69062e+25 -0.114179 -0.146062 272.185 
1.50518e-05 -1.45739e-05 2.68907e+25 -0.0501643 -0.0455401 272.296 
1.69631e-05 -1.45739e-05 2.68395e+25 -0.000141911 0.0597936 272.817 
1.67242e-06 -1.40961e-05 2.69318e+25 -1.61706 -0.199405 271.834 
3.58375e-06 -1.40961e-05 2.69222e+25 -1.54914 -0.305893 271.992 
5.49508e-06 -1.40961e-05 2.69121e+25 -1.4029 -0.129435 272.087 
7.40642e-06 -1.40961e-05 2.69013e+25 -1.19824 -0.31144 272.195 
9.31775e-06 -1.40961e-05 2.6908e+25 -0.826535 -0.411603 272.159 
1.12291e-05 -1.40961e-05 2.6912e+25 -0.37315 -0.160478 272.148 
1.31404e-05 -1.40961e-05 2.68966e+25 -0.190948 -0.116333 272.237 
1.50518e-05 -1.40961e-05 2.69011e+25 -0.0288115 -0.0920413 272.18 
1.69631e-05 -1.40961e-05 2.68559e+25 -0.0209899 0.0354801 272.729 
1.67242e-06 -1.36182e-05 2.69413e+25 -1.91121 -0.308051 271.768 
3.58375e-06 -1.36182e-05 2.69228e+25 -1.77805 -0.359087 271.979 
5.49508e-06 -1.36182e-05 2.69094e+25 -1.64869 -0.131435 272.143 
7.40642e-06 -1.36182e-05 2.69005e+25 -1.42605 -0.439144 272.128 
9.31775e-06 -1.36182e-05 2.69093e+25 -0.777459 -0.431062 272.158 
1.12291e-05 -1.36182e-05 2.69129e+25 -0.507046 -0.21877 272.118 
1.31404e-05 -1.36182e-05 2.68994e+25 -0.242463 -0.149122 272.252 
1.50518e-05 -1.36182e-05 2.69073e+25 -0.0215413 -0.105338 272.187 
1.69631e-05 -1.36182e-05 2.68489e+25 -0.0423442 -3.53791e-05 272.789 
1.67242e-06 -1.31404e-05 2.69331e+25 -2.15958 -0.345169 271.845 
3.58375e-06 -1.31404e-05 2.69213e+25 -1.90371 -0.384051 271.964 
5.49508e-06 -1.31404e-05 2.6912e+25 -1.75248 -0.18257 272.123 
7.40642e-06 -1.31404e-05 2.69152e+25 -1.44889 -0.590346 272.105 
9.31775e-06 -1.31404e-05 2.69064e+25 -0.832755 -0.524842 272.089 
1.12291e-05 -1.31404e-05 2.69218e+25 -0.641739 -0.269704 272.059 
1.31404e-05 -1.31404e-05 2.69031e+25 -0.315519 -0.216064 272.195 
1.50518e-05 -1.31404e-05 2.68995e+25 -0.0603379 -0.0976179 272.213 
1.69631e-05 -1.31404e-05 2.68455e+25 -0.0237587 -0.0713606 272.755 
1.67242e-06 -1.26626e-05 2.69282e+25 -2.39645 -0.367304 271.949 
3.58375e-06 -1.26626e-05 2.69283e+25 -2.06601 -0.412291 271.949 
5.49508e-06 -1.26626e-05 2.69193e+25 -1.86874 -0.263058 271.99 
7.40642e-06 -1.26626e-05 2.6926e+25 -1.41527 -0.735581 271.979 
9.31775e-06 -1.26626e-05 2.69116e+25 -0.909183 -0.651004 272.078 
1.12291e-05 -1.26626e-05 2.69291e+25 -0.693402 -0.36236 271.977 
1.31404e-05 -1.26626e-05 2.69001e+25 -0.428474 -0.405085 272.177 
1.50518e-05 -1.26626e-05 2.69019e+25 -0.120478 -0.106385 272.186 
1.69631e-05 -1.26626e-05 2.6844e+25 -0.00150626 -0.0933428 272.871 
1.67242e-06 -1.21847e-05 2.69102e+25 -2.49936 -0.410247 272.062 
3.58375e-06 -1.21847e-05 2.69303e+25 -2.29867 -0.427248 271.874 
5.49508e-06 -1.21847e-05 2.69216e+25 -1.91595 -0.363788 271.937 
7.40642e-06 -1.21847e-05 2.69144e+25 -1.46315 -0.810619 272.013 
9.31775e-06 -1.21847e-05 2.69233e+25 -1.00676 -0.851786 272.022 
1.12291e-05 -1.21847e-05 2.69267e+25 -0.715727 -0.414767 271.937 
1.31404e-05 -1.21847e-05 2.68945e+25 -0.434378 -0.531048 272.218 
1.50518e-05 -1.21847e-05 2.69165e+25 -0.1759 -0.105481 272.124 
1.69631e-05 -1.21847e-05 2.68483e+25 0.0265308 -0.0619818 272.767 
1.67242e-06 -1.17069e-05 2.69198e+25 -2.91752 -0.387707 272.028 
3.58375e-06 -1.17069e-05 2.69231e+25 -2.60897 -0.590465 271.901 
5.49508e-06 -1.17069e-05 2.69387e+25 -1.94107 -0.469701 271.842 
7.40642e-06 -1.17069e-05 2.69291e+25 -1.63352 -0.915498 271.957 
9.31775e-06 -1.17069e-05 2.69144e+25 -1.2746 -0.908611 272.042 
1.12291e-05 -1.17069e-05 2.69228e+25 -0.822214 -0.399693 271.973 
1.31404e-05 -1.17069e-05 2.69152e+25 -0.437991 -0.631724 272.109 
1.50518e-05 -1.17069e-05 2.69048e+25 -0.171265 -0.172633 272.171 
1.69631e-05 -1.17069e-05 2.68515e+25 0.0360193 -0.0114637 272.772 
1.67242e-06 -1.12291e-05 2.69155e+25 -3.22365 -0.384096 271.984 
3.58375e-06 -1.12291e-05 2.6934e+25 -2.82598 -0.736457 271.975 
5.49508e-06 -1.12291e-05 2.69279e+25 -2.34412 -0.629083 271.943 
7.40642e-06 -1.12291e-05 2.6924e+25 -1.77832 -1.04035 271.926 
9.31775e-06 -1.12291e-05 2.69276e+25 -1.53256 -0.923106 271.918 
1.12291e-05 -1.12291e-05 2.69136e+25 -0.972895 -0.501189 272.063 
1.31404e-05 -1.12291e-05 2.69322e+25 -0.436368 -0.656864 271.954 
1.50518e-05 -1.12291e-05 2.69005e+25 -0.143721 -0.232592 272.156 
1.69631e-05 -1.12291e-05 2.68595e+25 -0.0206411 0.00669763 272.729 
1.67242e-06 -1.07512e-05 2.69286e+25 -3.38145 -0.4513 271.955 
3.58375e-06 -1.07512e-05 2.69265e+25 -3.03006 -0.810543 272.06 
5.49508e-06 -1.07512e-05 2.69162e+25 -2.67594 -0.809458 272.031 
7.40642e-06 -1.07512e-05 2.69285e+25 -1.98981 -1.13266 271.952 
9.31775e-06 -1.07512e-05 2.69314e+25 -1.74955 -1.008 271.905 
1.12291e-05 -1.07512e-05 2.69161e+25 -1.12326 -0.731121 271.992 
1.31404e-05 -1.07512e-05 2.6922e+25 -0.435956 -0.798182 271.979 
1.50518e-05 -1.07512e-05 2.69088e+25 -0.032282 -0.300506 272.157 
1.69631e-05 -1.07512e-05 2.68555e+25 -0.00920565 -0.0305779 272.72 
1.67242e-06 -1.02734e-05 2.69245e+25 -3.66335 -0.576036 272.028 
3.58375e-06 -1.02734e-05 2.69057e+25 -3.33028 -0.850339 272.039 
5.49508e-06 -1.02734e-05 2.69165e+25 -2.88049 -1.00623 272.058 
7.40642e-06 -1.02734e-05 2.69289e+25 -2.0993 -1.21174 272.01 
9.31775e-06 -1.02734e-05 2.69224e+25 -1.87421 -1.14056 271.943 
1.12291e-05 -1.02734e-05 2.69291e+25 -1.19228 -0.967824 271.917 
1.31404e-05 -1.02734e-05 2.69272e+25 -0.39589 -0.834076 271.977 
1.50518e-05 -1.02734e-05 2.69133e+25 -0.121895 -0.387711 272.167 
1.69631e-05 -1.02734e-05 2.6856e+25 0.0222801 0.00450053 272.688 
1.67242e-06 -9.79558e-06 2.69132e+25 -3.91668 -0.61253 272.04 
3.58375e-06 -9.79558e-06 2.69303e+25 -3.74421 -0.89501 271.977 
5.49508e-06 -9.79558e-06 2.6919e+25 -3.1349 -1.19053 272.048 
7.40642e-06 -9.79558e-06 2.69287e+25 -2.41898 -1.31024 271.967 
9.31775e-06 -9.79558e-06 2.69262e+25 -1.83743 -1.26722 271.927 
1.12291e-05 -9.79558e-06 2.69418e+25 -1.2022 -1.22604 271.858 
1.31404e-05 -9.79558e-06 2.69316e+25 -0.389049 -0.862087 271.907 
1.50518e-05 -9.79558e-06 2.69146e+25 -0.172181 -0.569383 272.12 
1.69631e-05 -9.79558e-06 2.68414e+25 -0.0266057 -0.00951133 272.751 
1.67242e-06 -9.31775e-06 2.69138e+25 -4.21408 -0.583084 271.981 
3.58375e-06 -9.31775e-06 2.69281e+25 -4.12694 -1.06835 271.927 
5.49508e-06 -9.31775e-06 2.69253e+25 -3.29393 -1.29027 271.973 
7.40642e-06 -9.31775e-06 2.69274e+25 -2.7082 -1.44685 271.98 
9.31775e-06 -9.31775e-06 2.69323e+25 -1.96537 -1.45231 271.97 
1.12291e-05 -9.31775e-06 2.69437e+25 -1.21001 -1.44637 271.807 
1.31404e-05 -9.31775e-06 2.69348e+25 -0.525785 -0.962291 271.919 
1.50518e-05 -9.31775e-06 2.69215e+25 -0.0973948 -0.68126 272.002 
1.69631e-05 -9.31775e-06 2.68483e+25 -0.00550739 -0.0155647 272.746 
1.67242e-06 -8.83992e-06 2.69039e+25 -4.52329 -0.523172 272.084 
3.58375e-06 -8.83992e-06 2.69293e+25 -4.27378 -1.23147 271.918 
5.49508e-06 -8.83992e-06 2.69209e+25 -3.69792 -1.47429 272.01 
7.40642e-06 -8.83992e-06 2.69325e+25 -2.89499 -1.62273 271.929 
9.31775e-06 -8.83992e-06 2.69328e+25 -2.17115 -1.68773 271.957 
1.12291e-05 -8.83992e-06 2.69376e+25 -1.32462 -1.64323 271.846 
1.31404e-05 -8.83992e-06 2.69225e+25 -0.516471 -1.1653 271.987 
1.50518e-05 -8.83992e-06 2.69219e+25 0.00254456 -0.696144 271.972 
1.69631e-05 -8.83992e-06 2.6852e+25 0.0449089 0.0439236 272.791 
1.67242e-06 -8.36208e-06 2.69191e+25 -4.89743 -0.517128 272.034 
3.58375e-06 -8.36208e-06 2.69245e+25 -4.50153 -1.33121 271.93 
5.49508e-06 -8.36208e-06 2.69015e+25 -3.98445 -1.62432 272.132 
7.40642e-06 -8.36208e-06 2.69255e+25 -3.13948 -1.86451 271.972 
9.31775e-06 -8.36208e-06 2.69295e+25 -2.38809 -1.87367 271.891 
1.12291e-05 -8.36208e-06 2.69284e+25 -1.36866 -1.89398 271.907 
1.31404e-05 -8.36208e-06 2.69385e+25 -0.602216 -1.36421 271.857 
1.50518e-05 -8.36208e-06 2.69088e+25 -0.0166416 -0.731922 272.119 
1.69631e-05 -8.36208e-06 2.68481e+25 -0.00502027 0.0701515 272.719 
1.67242e-06 -7.88425e-06 2.69241e+25 -5.18112 -0.571349 272.019 
3.58375e-06 -7.88425e-06 2.69142e+25 -4.70453 -1.4494 272.068 
5.49508e-06 -7.88425e-06 2.69083e+25 -4.20416 -1.81869 272.048 
7.40642e-06 -7.88425e-06 2.69184e+25 -3.49352 -2.10086 272.019 
9.31775e-06 -7.88425e-06 2.69354e+25 -2.52888 -2.07763 271.922 
1.12291e-05 -7.88425e-06 2.69255e+25 -1.47075 -2.16176 271.954 
1.31404e-05 -7.88425e-06 2.69334e+25 -0.694939 -1.55628 271.987 
1.50518e-05 -7.88425e-06 2.69133e+25 -0.0910564 -0.751121 272.138 
1.69631e-05 -7.88425e-06 2.68482e+25 -0.0231575 0.0369137 272.778 
1.67242e-06 -7.40642e-06 2.69234e+25 -5.33777 -0.61384 271.935 
3.58375e-06 -7.40642e-06 2.692e+25 -5.00432 -1.55106 272.05 
5.49508e-06 -7.40642e-06 2.69158e+25 -4.41325 -2.0382 272.049 
7.40642e-06 -7.40642e-06 2.69143e+25 -3.72372 -2.33123 272.116 
9.31775e-06 -7.40642e-06 2.69277e+25 -2.78921 -2.31895 271.907 
1.12291e-05 -7.40642e-06 2.69307e+25 -1.66023 -2.38261 271.904 
1.31404e-05 -7.40642e-06 2.69211e+25 -0.716446 -1.78192 271.981 
1.50518e-05 -7.40642e-06 2.69039e+25 -0.144443 -0.792787 272.102 
1.69631e-05 -7.40642e-06 2.68365e+25 -0.0116447 -0.00358772 272.818 
1.67242e-06 -6.92858e-06 2.69204e+25 -5.58396 -0.647933 271.957 
3.58375e-06 -6.92858e-06 2.69118e+25 -5.48658 -1.63025 272.075 
5.49508e-06 -6.92858e-06 2.69167e+25 -4.78258 -2.25448 272.085 
7.40642e-06 -6.92858e-06 2.69105e+25 -3.9759 -2.51388 272.139 
9.31775e-06 -6.92858e-06 2.6921e+25 -3.00068 -2.53822 272.015 
1.12291e-05 -6.92858e-06 2.69385e+25 -1.8252 -2.66521 271.886 
1.31404e-05 -6.92858e-06 2.69184e+25 -0.781548 -1.91197 271.945 
1.50518e-05 -6.92858e-06 2.68991e+25 -0.136009 -0.908194 272.204 
1.69631e-05 -6.92858e-06 2.68561e+25 0.0124441 0.0347642 272.748 
1.67242e-06 -6.45075e-06 2.69187e+25 -5.84885 -0.692087 272.095 
3.58375e-06 -6.45075e-06 2.69109e+25 -5.75205 -1.69638 272.025 
5.49508e-06 -6.45075e-06 2.69102e+25 -5.18877 -2.44502 272.08 
7.40642e-06 -6.45075e-06 2.68976e+25 -4.22842 -2.65283 272.215 
9.31775e-06 -6.45075e-06 2.6919e+25 -3.14791 -2.88139 272.032 
1.12291e-05 -6.45075e-06 2.69452e+25 -2.06377 -2.94487 271.868 
1.31404e-05 -6.45075e-06 2.69121e+25 -1.02401 -2.10157 272.051 
1.50518e-05 -6.45075e-06 2.68882e+25 -0.331719 -0.988518 272.305 
1.69631e-05 -6.45075e-06 2.68414e+25 -0.0243692 0.0295241 272.856 
1.67242e-06 -5.97292e-06 2.69075e+25 -6.06997 -0.741985 272.137 
3.58375e-06 -5.97292e-06 2.69054e+25 -5.99187 -1.70817 272.145 
5.49508e-06 -5.97292e-06 2.69152e+25 -5.42433 -2.587 272.097 
7.40642e-06 -5.97292e-06 2.68927e+25 -4.55116 -2.94013 272.241 
9.31775e-06 -5.97292e-06 2.69231e+25 -3.28 -3.19528 271.973 
1.12291e-05 -5.97292e-06 2.69241e+25 -2.19242 -3.19388 271.99 
1.31404e-05 -5.97292e-06 2.69091e+25 -1.20758 -2.39922 272.086 
1.50518e-05 -5.97292e-06 2.69031e+25 -0.588447 -1.16409 272.145 
1.69631e-05 -5.97292e-06 2.6825e+25 -0.00503703 -0.00248916 272.946 
1.67242e-06 -5.49508e-06 2.69105e+25 -6.22379 -0.742928 272.085 
3.58375e-06 -5.49508e-06 2.69132e+25 -6.23625 -1.81194 272.094 
5.49508e-06 -5.49508e-06 2.69129e+25 -5.78577 -2.8194 272.201 
7.40642e-06 -5.49508e-06 2.6888e+25 -4.78443 -3.28128 272.288 
9.31775e-06 -5.49508e-06 2.69119e+25 -3.5271 -3.50691 272.029 
1.12291e-05 -5.49508e-06 2.69161e+25 -2.35534 -3.53111 271.989 
1.31404e-05 -5.49508e-06 2.6911e+25 -1.32633 -2.66823 272.089 
1.50518e-05 -5.49508e-06 2.69072e+25 -0.622085 -1.32253 272.119 
1.69631e-05 -5.49508e-06 2.68502e+25 -0.041101 -0.0769822 272.812 
1.67242e-06 -5.01725e-06 2.6902e+25 -6.60173 -0.730052 272.083 
3.58375e-06 -5.01725e-06 2.69192e+25 -6.49537 -1.91983 272 
5.49508e-06 -5.01725e-06 2.6914e+25 -6.02141 -3.03208 272.054 
7.40642e-06 -5.01725e-06 2.68894e+25 -5.09555 -3.55952 272.311 
9.31775e-06 -5.01725e-06 2.69173e+25 -3.77192 -3.85902 272.054 
1.12291e-05 -5.01725e-06 2.69157e+25 -2.40256 -3.83216 272.013 
1.31404e-05 -5.01725e-06 2.69097e+25 -1.38396 -2.8688 272.117 
1.50518e-05 -5.01725e-06 2.69033e+25 -0.52566 -1.38761 272.129 
1.69631e-05 -5.01725e-06 2.68374e+25 -0.0362596 -0.1783 272.806 
1.67242e-06 -4.53942e-06 2.69093e+25 -6.74996 -0.704706 272.099 
3.58375e-06 -4.53942e-06 2.69116e+25 -6.85799 -1.92547 272.04 
5.49508e-06 -4.53942e-06 2.69042e+25 -6.43075 -3.21224 272.084 
7.40642e-06 -4.53942e-06 2.68863e+25 -5.4661 -3.86355 272.247 
9.31775e-06 -4.53942e-06 2.6927e+25 -4.15368 -4.20881 271.925 
1.12291e-05 -4.53942e-06 2.6925e+25 -2.60032 -4.11536 272.012 
1.31404e-05 -4.53942e-06 2.69082e+25 -1.36548 -3.1321 272.148 
1.50518e-05 -4.53942e-06 2.69145e+25 -0.403453 -1.54879 272.055 
1.69631e-05 -4.53942e-06 2.68303e+25 -0.00724013 -0.204893 272.868 
1.67242e-06 -4.06158e-06 2.69052e+25 -7.02024 -0.60751 272.139 
3.58375e-06 -4.06158e-06 2.69085e+25 -7.24141 -1.92366 272.068 
5.49508e-06 -4.06158e-06 2.69116e+25 -6.74076 -3.38265 272.059 
7.40642e-06 -4.06158e-06 2.69073e+25 -5.82744 -4.12629 272.153 
9.31775e-06 -4.06158e-06 2.69177e+25 -4.33951 -4.60946 272.058 
1.12291e-05 -4.06158e-06 2.69115e+25 -2.78235 -4.41337 272.05 
1.31404e-05 -4.06158e-06 2.69063e+25 -1.54858 -3.42394 272.164 
1.50518e-05 -4.06158e-06 2.69067e+25 -0.314367 -1.81273 271.987 
1.69631e-05 -4.06158e-06 2.6842e+25 -0.013886 -0.226708 272.756 
1.67242e-06 -3.58375e-06 2.68957e+25 -7.24703 -0.434456 272.134 
3.58375e-06 -3.58375e-06 2.69003e+25 -7.60942 -1.998 272.112 
5.49508e-06 -3.58375e-06 2.69149e+25 -7.12289 -3.51942 272.081 
7.40642e-06 -3.58375e-06 2.69104e+25 -6.17537 -4.45023 272.133 
9.31775e-06 -3.58375e-06 2.69324e+25 -4.61376 -4.98957 272.014 
1.12291e-05 -3.58375e-06 2.69092e+25 -2.87939 -4.74935 272.166 
1.31404e-05 -3.58375e-06 2.68999e+25 -1.54306 -3.69857 272.212 
1.50518e-05 -3.58375e-06 2.69183e+25 -0.386274 -2.04983 271.988 
1.69631e-05 -3.58375e-06 2.68633e+25 0.00407245 -0.236544 272.656 
1.67242e-06 -3.10592e-06 2.68991e+25 -7.54347 -0.315029 272.161 
3.58375e-06 -3.10592e-06 2.69043e+25 -7.84621 -2.06667 272.129 
5.49508e-06 -3.10592e-06 2.68967e+25 -7.42946 -3.68842 272.143 
7.40642e-06 -3.10592e-06 2.68911e+25 -6.4887 -4.76397 272.222 
9.31775e-06 -3.10592e-06 2.6915e+25 -4.82452 -5.40674 272.025 
1.12291e-05 -3.10592e-06 2.69049e+25 -3.08915 -5.15812 272.215 
1.31404e-05 -3.10592e-06 2.68896e+25 -1.61895 -4.00161 272.259 
1.50518e-05 -3.10592e-06 2.69141e+25 -0.388996 -2.27306 272.06 
1.69631e-05 -3.10592e-06 2.68471e+25 -0.0276398 -0.271916 272.7 
1.67242e-06 -2.62808e-06 2.69062e+25 -7.7386 -0.251394 272.011 
3.58375e-06 -2.62808e-06 2.6899e+25 -7.87597 -2.10731 272.138 
5.49508e-06 -2.62808e-06 2.68976e+25 -7.58378 -3.86643 272.233 
7.40642e-06 -2.62808e-06 2.69e+25 -6.78802 -5.06391 272.226 
9.31775e-06 -2.62808e-06 2.69105e+25 -5.16679 -5.84047 272.109 
1.12291e-05 -2.62808e-06 2.6902e+25 -3.44991 -5.57034 272.215 
1.31404e-05 -2.62808e-06 2.69006e+25 -1.69623 -4.40317 272.272 
1.50518e-05 -2.62808e-06 2.69038e+25 -0.440752 -2.54423 272.067 
1.69631e-05 -2.62808e-06 2.68478e+25 -0.0260967 -0.32131 272.762 
1.67242e-06 -2.15025e-06 2.69128e+25 -7.88923 -0.23691 271.886 
3.58375e-06 -2.15025e-06 2.68937e+25 -7.86213 -2.14182 272.137 
5.49508e-06 -2.15025e-06 2.69037e+25 -7.66494 -3.96198 272.214 
7.40642e-06 -2.15025e-06 2.69002e+25 -6.97483 -5.37985 272.218 
9.31775e-06 -2.15025e-06 2.6907e+25 -5.39045 -6.30625 272.203 
1.12291e-05 -2.15025e-06 2.69043e+25 -3.59049 -6.06701 272.143 
1.31404e-05 -2.15025e-06 2.68935e+25 -1.8153 -4.79096 272.291 
1.50518e-05 -2.15025e-06 2.69062e+25 -0.517158 -2.76655 272.098 
1.69631e-05 -2.15025e-06 2.68398e+25 -0.0260507 -0.342296 272.803 
1.67242e-06 -1.67242e-06 2.69253e+25 -7.96716 -0.212625 271.805 
3.58375e-06 -1.67242e-06 2.6873e+25 -7.95576 -2.16968 272.27 
5.49508e-06 -1.67242e-06 2.68939e+25 -7.83249 -4.08764 272.102 
7.40642e-06 -1.67242e-06 2.68919e+25 -7.0793 -5.65677 272.306 
9.31775e-06 -1.67242e-06 2.69127e+25 -5.60222 -6.77437 272.117 
1.12291e-05 -1.67242e-06 2.6909e+25 -3.75982 -6.54776 272.177 
1.31404e-05 -1.67242e-06 2.69039e+25 -1.9654 -5.16358 272.128 
1.50518e-05 -1.67242e-06 2.69087e+25 -0.572758 -3.02372 272.102 
1.69631e-05 -1.67242e-06 2.68461e+25 -0.0424114 -0.410907 272.768 
1.67242e-06 -1.19458e-06 2.69155e+25 -7.85539 -0.0768885 271.857 
3.58375e-06 -1.19458e-06 2.68776e+25 -7.93888 -2.10908 272.348 
5.49508e-06 -1.19458e-06 2.68949e+25 -7.86728 -4.16224 272.144 
7.40642e-06 -1.19458e-06 2.68892e+25 -7.11474 -5.92864 272.215 
9.31775e-06 -1.19458e-06 2.69166e+25 -5.82924 -7.22445 272.102 
1.12291e-05 -1.19458e-06 2.6907e+25 -4.02923 -7.011 272.127 
1.31404e-05 -1.19458e-06 2.69137e+25 -2.18231 -5.67145 272.09 
1.50518e-05 -1.19458e-06 2.69015e+25 -0.671112 -3.27652 272.119 
1.69631e-05 -1.19458e-06 2.68391e+25 0.0252989 -0.441566 272.785 
1.67242e-06 -7.1675e-07 2.69049e+25 -7.83495 -0.0185593 271.943 
3.58375e-06 -7.1675e-07 2.68885e+25 -7.95475 -2.06073 272.21 
5.49508e-06 -7.1675e-07 2.68865e+25 -7.88851 -4.15761 272.208 
7.40642e-06 -7.1675e-07 2.68964e+25 -7.31726 -6.22784 272.103 
9.31775e-06 -7.1675e-07 2.69193e+25 -6.13067 -7.61869 272.007 
1.12291e-05 -7.1675e-07 2.68949e+25 -4.26378 -7.52028 272.199 
1.31404e-05 -7.1675e-07 2.69154e+25 -2.28226 -6.18296 272.085 
1.50518e-05 -7.1675e-07 2.69009e+25 -0.781808 -3.5421 272.162 
1.69631e-05 -7.1675e-07 2.68451e+25 -0.0141798 -0.454044 272.7 
1.67242e-06 -2.38917e-07 2.68888e+25 -7.88174 0.0711911 271.917 
3.58375e-06 -2.38917e-07 2.68657e+25 -8.02436 -2.13784 272.196 
5.49508e-06 -2.38917e-07 2.68666e+25 -7.93705 -4.16562 272.231 
7.40642e-06 -2.38917e-07 2.68793e+25 -7.51532 -6.41174 272.055 
9.31775e-06 -2.38917e-07 2.68906e+25 -6.30499 -7.99891 272.046 
1.12291e-05 -2.38917e-07 2.68759e+25 -4.61008 -8.00769 272.257 
1.31404e-05 -2.38917e-07 2.68923e+25 -2.50496 -6.65528 272.084 
1.50518e-05 -2.38917e-07 2.68771e+25 -0.894328 -3.84295 272.206 
1.69631e-05 -2.38917e-07 2.68222e+25 -0.011525 -0.474331 272.717 
1.67242e-06 2.38917e-07 2.68709e+25 -8.03001 0.108917 272.032 
3.58375e-06 2.38917e-07 2.68714e+25 -8.18508 -2.23931 272.073 
5.49508e-06 2.38917e-07 2.68708e+25 -8.08455 -4.20597 272.133 
7.40642e-06 2.38917e-07 2.68882e+25 -7.71499 -6.58726 272.002 
9.31775e-06 2.38917e-07 2.6877e+25 -6.50658 -8.34424 272.108 
1.12291e-05 2.38917e-07 2.68768e+25 -4.83284 -8.50379 272.167 
1.31404e-05 2.38917e-07 2.68828e+25 -2.68416 -7.20268 272.173 
1.50518e-05 2.38917e-07 2.68753e+25 -0.834606 -4.2589 272.256 
1.69631e-05 2.38917e-07 2.68079e+25 -0.0100311 -0.49175 272.851 
1.67242e-06 7.1675e-07 2.68896e+25 -7.91039 0.230441 272.04 
3.58375e-06 7.1675e-07 2.68906e+25 -8.25281 -2.19093 272.043 
5.49508e-06 7.1675e-07 2.68907e+25 -8.12503 -4.22152 272.104 
7.40642e-06 7.1675e-07 2.69015e+25 -7.81134 -6.68935 272.04 
9.31775e-06 7.1675e-07 2.69049e+25 -6.71368 -8.60846 272.146 
1.12291e-05 7.1675e-07 2.69127e+25 -5.14509 -9.03682 272.133 
1.31404e-05 7.1675e-07 2.68984e+25 -2.95037 -7.68556 272.211 
1.50518e-05 7.1675e-07 2.6885e+25 -0.954657 -4.65857 272.298 
1.69631e-05 7.1675e-07 2.68268e+25 -0.0467691 -0.536772 272.94 
1.67242e-06 1.19458e-06 2.6885e+25 -7.68698 0.422896 272.045 
3.58375e-06 1.19458e-06 2.68988e+25 -8.21719 -2.08796 271.953 
5.49508e-06 1.19458e-06 2.68942e+25 -8.19897 -4.30416 272.073 
7.40642e-06 1.19458e-06 2.69048e+25 -7.75933 -6.84564 272.115 
9.31775e-06 1.19458e-06 2.6897e+25 -6.88062 -8.94817 272.146 
1.12291e-05 1.19458e-06 2.69064e+25 -5.33637 -9.56701 272.146 
1.31404e-05 1.19458e-06 2.69002e+25 -3.08912 -8.16844 272.176 
1.50518e-05 1.19458e-06 2.68871e+25 -1.06284 -5.05099 272.276 
1.69631e-05 1.19458e-06 2.68268e+25 0.000903713 -0.582587 272.872 
1.67242e-06 1.67242e-06 2.68841e+25 -7.44142 0.61755 272.015 
3.58375e-06 1.67242e-06 2.69003e+25 -8.00946 -2.02342 271.943 
5.49508e-06 1.67242e-06 2.68957e+25 -8.15233 -4.41532 271.973 
7.40642e-06 1.67242e-06 2.68817e+25 -7.81889 -7.04889 272.195 
9.31775e-06 1.67242e-06 2.68951e+25 -7.02257 -9.26801 272.135 
1.12291e-05 1.67242e-06 2.68947e+25 -5.4777 -10.0684 272.245 
1.31404e-05 1.67242e-06 2.68851e+25 -3.25425 -8.77689 272.279 
1.50518e-05 1.67242e-06 2.68836e+25 -1.17728 -5.53242 272.325 
1.69631e-05 1.67242e-06 2.68322e+25 -0.0390231 -0.647331 272.94 
1.67242e-06 2.15025e-06 2.68805e+25 -7.05019 0.881396 272.057 
3.58375e-06 2.15025e-06 2.68952e+25 -7.80787 -1.89219 271.985 
5.49508e-06 2.15025e-06 2.6894e+25 -8.12062 -4.48321 271.934 
7.40642e-06 2.15025e-06 2.68765e+25 -7.74649 -7.17533 272.186 
9.31775e-06 2.15025e-06 2.68862e+25 -7.19254 -9.51055 272.13 
1.12291e-05 2.15025e-06 2.68913e+25 -5.60535 -10.6445 272.209 
1.31404e-05 2.15025e-06 2.68938e+25 -3.41413 -9.30624 272.195 
1.50518e-05 2.15025e-06 2.68926e+25 -1.16282 -6.04259 272.241 
1.69631e-05 2.15025e-06 2.6836e+25 -0.0447722 -0.750795 272.813 
1.67242e-06 2.62808e-06 2.6895e+25 -6.69217 1.10949 271.942 
3.58375e-06 2.62808e-06 2.68921e+25 -7.54577 -1.68349 271.982 
5.49508e-06 2.62808e-06 2.68952e+25 -7.88511 -4.50154 271.992 
7.40642e-06 2.62808e-06 2.68729e+25 -7.84835 -7.23577 272.185 
9.31775e-06 2.62808e-06 2.68813e+25 -7.27798 -9.74568 272.261 
1.12291e-05 2.62808e-06 2.68962e+25 -5.869 -11.107 272.223 
1.31404e-05 2.62808e-06 2.69028e+25 -3.70338 -9.82498 272.101 
1.50518e-05 2.62808e-06 2.68924e+25 -1.26105 -6.5653 272.271 
1.69631e-05 2.62808e-06 2.68307e+25 0.0269921 -0.795005 272.851 
1.67242e-06 3.10592e-06 2.68992e+25 -6.34145 1.31491 271.88 
3.58375e-06 3.10592e-06 2.68745e+25 -7.18904 -1.49059 272.088 
5.49508e-06 3.10592e-06 2.68892e+25 -7.71112 -4.50464 272.006 
7.40642e-06 3.10592e-06 2.68951e+25 -7.69778 -7.2151 272.03 
9.31775e-06 3.10592e-06 2.68796e+25 -7.2727 -9.94588 272.276 
1.12291e-05 3.10592e-06 2.68839e+25 -5.94308 -11.5321 272.259 
1.31404e-05 3.10592e-06 2.69027e+25 -3.81273 -10.4274 272.162 
1.50518e-05 3.10592e-06 2.68962e+25 -1.26695 -7.05802 272.223 
1.69631e-05 3.10592e-06 2.68201e+25 -0.0344669 -0.832132 272.889 
1.67242e-06 3.58375e-06 2.68853e+25 -6.01018 1.48406 272.006 
3.58375e-06 3.58375e-06 2.68758e+25 -6.71224 -1.28334 272.012 
5.49508e-06 3.58375e-06 2.68616e+25 -7.55932 -4.44191 272.213 
7.40642e-06 3.58375e-06 2.68763e+25 -7.46398 -7.26811 272.157 
9.31775e-06 3.58375e-06 2.68877e+25 -7.3203 -10.1102 272.19 
1.12291e-05 3.58375e-06 2.68925e+25 -6.07757 -11.9748 272.251 
1.31404e-05 3.58375e-06 2.6897e+25 -3.9127 -11.1141 272.218 
1.50518e-05 3.58375e-06 2.6909e+25 -1.35215 -7.57855 272.083 
1.69631e-05 3.58375e-06 2.68343e+25 -0.0211095 -0.882163 272.897 
1.67242e-06 4.06158e-06 2.68866e+25 -5.50498 1.59999 271.951 
3.58375e-06 4.06158e-06 2.68834e+25 -6.26689 -1.12584 272.023 
5.49508e-06 4.06158e-06 2.6874e+25 -7.10144 -4.23167 272.115 
7.40642e-06 4.06158e-06 2.6877e+25 -7.23831 -7.27103 272.2 
9.31775e-06 4.06158e-06 2.6886e+25 -7.17351 -10.2719 272.159 
1.12291e-05 4.06158e-06 2.68836e+25 -6.14321 -12.4018 272.239 
1.31404e-05 4.06158e-06 2.68928e+25 -3.9969 -11.8361 272.245 
1.50518e-05 4.06158e-06 2.69055e+25 -1.4354 -8.12547 272.126 
1.69631e-05 4.06158e-06 2.68338e+25 -0.0704151 -1.00291 272.944 
1.67242e-06 4.53942e-06 2.68822e+25 -5.07365 1.63691 271.988 
3.58375e-06 4.53942e-06 2.68742e+25 -5.81543 -0.891749 272.064 
5.49508e-06 4.53942e-06 2.68682e+25 -6.61647 -4.08149 272.112 
7.40642e-06 4.53942e-06 2.68846e+25 -7.08712 -7.32471 272.104 
9.31775e-06 4.53942e-06 2.68832e+25 -7.07548 -10.4376 272.126 
1.12291e-05 4.53942e-06 2.68853e+25 -6.13375 -12.777 272.266 
1.31404e-05 4.53942e-06 2.69061e+25 -4.05473 -12.5049 272.173 
1.50518e-05 4.53942e-06 2.69063e+25 -1.45611 -8.67738 272.209 
1.69631e-05 4.53942e-06 2.6842e+25 -0.0516494 -1.12168 272.883 
1.67242e-06 5.01725e-06 2.68816e+25 -4.65772 1.71145 271.965 
3.58375e-06 5.01725e-06 2.68713e+25 -5.21932 -0.670097 272.058 
5.49508e-06 5.01725e-06 2.68643e+25 -5.97625 -3.9086 272.154 
7.40642e-06 5.01725e-06 2.68757e+25 -6.73081 -7.25189 272.158 
9.31775e-06 5.01725e-06 2.68846e+25 -6.82524 -10.5482 272.067 
1.12291e-05 5.01725e-06 2.68808e+25 -6.03959 -13.0596 272.192 
1.31404e-05 5.01725e-06 2.68989e+25 -4.03068 -13.0957 272.183 
1.50518e-05 5.01725e-06 2.69021e+25 -1.51584 -9.23556 272.264 
1.69631e-05 5.01725e-06 2.68481e+25 -0.0657268 -1.25464 272.778 
1.67242e-06 5.49508e-06 2.6883e+25 -4.03111 1.86917 271.938 
3.58375e-06 5.49508e-06 2.68751e+25 -4.58625 -0.48427 272.027 
5.49508e-06 5.49508e-06 2.68736e+25 -5.42367 -3.71609 272.108 
7.40642e-06 5.49508e-06 2.6874e+25 -6.2769 -7.08118 272.087 
9.31775e-06 5.49508e-06 2.68971e+25 -6.60468 -10.6523 272.104 
1.12291e-05 5.49508e-06 2.68903e+25 -5.87535 -13.3197 272.119 
1.31404e-05 5.49508e-06 2.68942e+25 -4.20439 -13.6927 272.264 
1.50518e-05 5.49508e-06 2.69048e+25 -1.60372 -9.85244 272.283 
1.69631e-05 5.49508e-06 2.68605e+25 -0.0430028 -1.36203 272.694 
1.67242e-06 5.97292e-06 2.68921e+25 -3.38768 1.95742 271.911 
3.58375e-06 5.97292e-06 2.68745e+25 -3.99011 -0.303095 271.969 
5.49508e-06 5.97292e-06 2.68684e+25 -4.86052 -3.4105 272.094 
7.40642e-06 5.97292e-06 2.68827e+25 -5.78789 -6.93046 272.019 
9.31775e-06 5.97292e-06 2.68947e+25 -6.21217 -10.6656 272.072 
1.12291e-05 5.97292e-06 2.68967e+25 -5.85019 -13.5638 272.163 
1.31404e-05 5.97292e-06 2.6903e+25 -4.16992 -14.3406 272.217 
1.50518e-05 5.97292e-06 2.6896e+25 -1.6762 -10.5285 272.242 
1.69631e-05 5.97292e-06 2.68481e+25 -0.0331516 -1.45541 272.753 
1.67242e-06 6.45075e-06 2.68739e+25 -2.88311 2.04751 271.972 
3.58375e-06 6.45075e-06 2.68684e+25 -3.3231 -0.146322 271.999 
5.49508e-06 6.45075e-06 2.68576e+25 -4.09862 -3.04697 272.196 
7.40642e-06 6.45075e-06 2.68812e+25 -5.24057 -6.7623 271.984 
9.31775e-06 6.45075e-06 2.68939e+25 -5.84093 -10.637 271.97 
1.12291e-05 6.45075e-06 2.68875e+25 -5.71094 -13.7687 272.256 
1.31404e-05 6.45075e-06 2.69033e+25 -4.33321 -14.9001 272.21 
1.50518e-05 6.45075e-06 2.69049e+25 -1.77705 -11.1475 272.305 
1.69631e-05 6.45075e-06 2.68479e+25 -0.0421069 -1.56398 272.809 
1.67242e-06 6.92858e-06 2.68939e+25 -2.26862 2.1186 271.856 
3.58375e-06 6.92858e-06 2.6882e+25 -2.6854 -0.00660434 271.945 
5.49508e-06 6.92858e-06 2.68648e+25 -3.42345 -2.7452 272.131 
7.40642e-06 6.92858e-06 2.68929e+25 -4.49305 -6.51352 271.885 
9.31775e-06 6.92858e-06 2.68866e+25 -5.36065 -10.4745 272.08 
1.12291e-05 6.92858e-06 2.68812e+25 -5.50456 -13.9218 272.333 
1.31404e-05 6.92858e-06 2.69069e+25 -4.3211 -15.3689 272.214 
1.50518e-05 6.92858e-06 2.69112e+25 -1.93269 -11.7019 272.21 
1.69631e-05 6.92858e-06 2.68582e+25 -0.0527922 -1.66184 272.753 
1.67242e-06 7.40642e-06 2.6895e+25 -1.43031 2.07469 271.812 
3.58375e-06 7.40642e-06 2.68783e+25 -1.8796 0.160301 271.982 
5.49508e-06 7.40642e-06 2.68694e+25 -2.54056 -2.54616 272.059 
7.40642e-06 7.40642e-06 2.68805e+25 -3.64435 -6.24824 272.029 
9.31775e-06 7.40642e-06 2.68755e+25 -4.66753 -10.2966 272.092 
1.12291e-05 7.40642e-06 2.68771e+25 -5.16529 -13.9687 272.398 
1.31404e-05 7.40642e-06 2.69028e+25 -4.2325 -15.8928 272.267 
1.50518e-05 7.40642e-06 2.69123e+25 -1.93465 -12.3272 272.251 
1.69631e-05 7.40642e-06 2.68633e+25 -0.118639 -1.8833 272.696 
1.67242e-06 7.88425e-06 2.6881e+25 -0.663146 2.11696 271.857 
3.58375e-06 7.88425e-06 2.68752e+25 -0.899356 0.317934 271.936 
5.49508e-06 7.88425e-06 2.68635e+25 -1.64645 -2.39717 272.112 
7.40642e-06 7.88425e-06 2.68704e+25 -2.57686 -5.9804 272.059 
9.31775e-06 7.88425e-06 2.68723e+25 -3.91311 -10.0539 272.179 
1.12291e-05 7.88425e-06 2.68821e+25 -4.82001 -13.9476 272.317 
1.31404e-05 7.88425e-06 2.69122e+25 -4.24105 -16.3646 272.192 
1.50518e-05 7.88425e-06 2.69206e+25 -1.87947 -12.9525 272.221 
1.69631e-05 7.88425e-06 2.68625e+25 -0.0597729 -2.09185 272.753 
1.67242e-06 8.36208e-06 2.68794e+25 0.0510315 2.20301 271.852 
3.58375e-06 8.36208e-06 2.68691e+25 -0.0673403 0.362863 271.993 
5.49508e-06 8.36208e-06 2.68639e+25 -0.698261 -2.28261 272.108 
7.40642e-06 8.36208e-06 2.68872e+25 -1.58608 -5.7063 271.941 
9.31775e-06 8.36208e-06 2.6873e+25 -3.12713 -9.63964 272.195 
1.12291e-05 8.36208e-06 2.68975e+25 -4.41047 -13.7788 272.241 
1.31404e-05 8.36208e-06 2.69195e+25 -4.18962 -16.7907 272.2 
1.50518e-05 8.36208e-06 2.69157e+25 -1.91228 -13.5751 272.278 
1.69631e-05 8.36208e-06 2.68505e+25 -0.0505512 -2.20588 272.905 
1.67242e-06 8.83992e-06 2.68928e+25 0.958134 2.22209 271.794 
3.58375e-06 8.83992e-06 2.68773e+25 0.881228 0.431131 271.929 
5.49508e-06 8.83992e-06 2.68708e+25 0.323039 -2.13179 272.053 
7.40642e-06 8.83992e-06 2.6872e+25 -0.588898 -5.35271 272.06 
9.31775e-06 8.83992e-06 2.68798e+25 -2.24228 -9.12894 272.15 
1.12291e-05 8.83992e-06 2.6901e+25 -3.74229 -13.5046 272.233 
1.31404e-05 8.83992e-06 2.69148e+25 -4.00226 -17.0218 272.291 
1.50518e-05 8.83992e-06 2.69127e+25 -2.043 -14.2396 272.367 
1.69631e-05 8.83992e-06 2.68731e+25 -0.0884541 -2.32654 272.79 
1.67242e-06 9.31775e-06 2.68725e+25 1.9198 2.28987 271.899 
3.58375e-06 9.31775e-06 2.68546e+25 1.84543 0.43844 272.058 
5.49508e-06 9.31775e-06 2.68546e+25 1.51295 -1.98285 272.128 
7.40642e-06 9.31775e-06 2.68603e+25 0.445268 -4.99175 272.156 
9.31775e-06 9.31775e-06 2.68729e+25 -1.27884 -8.68859 272.199 
1.12291e-05 9.31775e-06 2.69055e+25 -3.00045 -13.2538 272.185 
1.31404e-05 9.31775e-06 2.69064e+25 -3.73059 -17.1212 272.346 
1.50518e-05 9.31775e-06 2.6926e+25 -2.12918 -14.8557 272.396 
1.69631e-05 9.31775e-06 2.68714e+25 -0.0572869 -2.52622 272.848 
1.67242e-06 9.79558e-06 2.68746e+25 3.04619 2.26056 271.909 
3.58375e-06 9.79558e-06 2.68758e+25 2.94562 0.490777 271.978 
5.49508e-06 9.79558e-06 2.68594e+25 2.72903 -1.8003 272.084 
7.40642e-06 9.79558e-06 2.6864e+25 1.64745 -4.61 272.157 
9.31775e-06 9.79558e-06 2.68842e+25 -0.235117 -8.21773 272.153 
1.12291e-05 9.79558e-06 2.68961e+25 -2.21841 -12.8282 272.197 
1.31404e-05 9.79558e-06 2.6914e+25 -3.40555 -17.1156 272.32 
1.50518e-05 9.79558e-06 2.69278e+25 -2.25831 -15.4505 272.435 
1.69631e-05 9.79558e-06 2.68749e+25 -0.0602178 -2.69606 272.87 
1.67242e-06 1.02734e-05 2.6877e+25 4.14305 2.21718 271.954 
3.58375e-06 1.02734e-05 2.68741e+25 4.11986 0.540766 271.937 
5.49508e-06 1.02734e-05 2.68596e+25 3.98082 -1.61532 272.064 
7.40642e-06 1.02734e-05 2.6875e+25 2.88819 -4.21522 272.092 
9.31775e-06 1.02734e-05 2.68769e+25 1.01125 -7.72608 272.264 
1.12291e-05 1.02734e-05 2.69042e+25 -1.25571 -12.2902 272.234 
1.31404e-05 1.02734e-05 2.69194e+25 -3.01102 -17.0122 272.434 
1.50518e-05 1.02734e-05 2.69314e+25 -2.20052 -16.109 272.45 
1.69631e-05 1.02734e-05 2.68911e+25 -0.0959093 -2.88321 272.781 
1.67242e-06 1.07512e-05 2.68593e+25 5.28765 2.18543 272.056 
3.58375e-06 1.07512e-05 2.68724e+25 5.47512 0.575426 271.97 
5.49508e-06 1.07512e-05 2.68572e+25 5.18203 -1.39652 272.15 
7.40642e-06 1.07512e-05 2.68793e+25 4.07445 -3.91181 272 
9.31775e-06 1.07512e-05 2.68807e+25 2.28848 -7.18233 272.154 
1.12291e-05 1.07512e-05 2.69075e+25 -0.274945 -11.6417 272.269 
1.31404e-05 1.07512e-05 2.69079e+25 -2.55807 -16.7042 272.476 
1.50518e-05 1.07512e-05 2.69501e+25 -2.21363 -16.6773 272.391 
1.69631e-05 1.07512e-05 2.69113e+25 -0.0566131 -3.05628 272.777 
1.67242e-06 1.12291e-05 2.68672e+25 6.46267 1.97155 272.006 
3.58375e-06 1.12291e-05 2.68704e+25 6.94305 0.552479 272.001 
5.49508e-06 1.12291e-05 2.68635e+25 6.68726 -1.20056 272.152 
7.40642e-06 1.12291e-05 2.68697e+25 5.55214 -3.534 272.109 
9.31775e-06 1.12291e-05 2.68798e+25 3.71766 -6.65838 272.262 
1.12291e-05 1.12291e-05 2.69058e+25 0.785345 -10.9185 272.309 
1.31404e-05 1.12291e-05 2.69185e+25 -1.91141 -16.2316 272.473 
1.50518e-05 1.12291e-05 2.6957e+25 -2.17423 -17.1643 272.386 
1.69631e-05 1.12291e-05 2.69179e+25 -0.111187 -3.28385 272.856 
1.67242e-06 1.17069e-05 2.68725e+25 7.83138 1.77941 272.021 
3.58375e-06 1.17069e-05 2.68701e+25 8.4641 0.483553 272.024 
5.49508e-06 1.17069e-05 2.6848e+25 8.20319 -1.12177 272.247 
7.40642e-06 1.17069e-05 2.68892e+25 7.12258 -3.10384 272.071 
9.31775e-06 1.17069e-05 2.68681e+25 5.1332 -6.06396 272.431 
1.12291e-05 1.17069e-05 2.69078e+25 1.93652 -10.1139 272.353 
1.31404e-05 1.17069e-05 2.69169e+25 -1.3573 -15.6195 272.49 
1.50518e-05 1.17069e-05 2.69476e+25 -2.11454 -17.5427 272.564 
1.69631e-05 1.17069e-05 2.69133e+25 -0.119017 -3.55581 272.938 
1.67242e-06 1.21847e-05 2.68687e+25 9.34085 1.57839 271.992 
3.58375e-06 1.21847e-05 2.68802e+25 10.0088 0.464193 271.909 
5.49508e-06 1.21847e-05 2.68534e+25 9.7285 -1.00453 272.161 
7.40642e-06 1.21847e-05 2.68751e+25 8.74527 -2.66546 272.168 
9.31775e-06 1.21847e-05 2.68675e+25 6.79802 -5.37371 272.373 
1.12291e-05 1.21847e-05 2.68998e+25 3.44037 -9.21275 272.453 
1.31404e-05 1.21847e-05 2.69406e+25 -0.297453 -14.8871 272.401 
1.50518e-05 1.21847e-05 2.69726e+25 -2.15335 -17.7721 272.544 
1.69631e-05 1.21847e-05 2.69379e+25 -0.108524 -3.80406 272.982 
1.67242e-06 1.26626e-05 2.68508e+25 11.1275 1.3352 272.131 
3.58375e-06 1.26626e-05 2.68856e+25 11.6655 0.483038 271.907 
5.49508e-06 1.26626e-05 2.68529e+25 11.4613 -0.895119 272.296 
7.40642e-06 1.26626e-05 2.68579e+25 10.5025 -2.29175 272.248 
9.31775e-06 1.26626e-05 2.68813e+25 8.62083 -4.73162 272.33 
1.12291e-05 1.26626e-05 2.68982e+25 5.18562 -8.22237 272.534 
1.31404e-05 1.26626e-05 2.69378e+25 0.853912 -14.0153 272.52 
1.50518e-05 1.26626e-05 2.69971e+25 -2.03335 -17.8132 272.451 
1.69631e-05 1.26626e-05 2.6967e+25 -0.162997 -4.13199 272.865 
1.67242e-06 1.31404e-05 2.68505e+25 12.8836 1.1455 272.163 
3.58375e-06 1.31404e-05 2.68668e+25 13.386 0.440776 272.036 
5.49508e-06 1.31404e-05 2.68498e+25 13.3912 -0.783689 272.249 
7.40642e-06 1.31404e-05 2.68653e+25 12.4901 -1.91714 272.255 
9.31775e-06 1.31404e-05 2.68841e+25 10.4757 -4.1105 272.256 
1.12291e-05 1.31404e-05 2.69007e+25 7.18689 -7.16187 272.501 
1.31404e-05 1.31404e-05 2.69536e+25 2.02097 -12.8011 272.543 
1.50518e-05 1.31404e-05 2.70041e+25 -1.84976 -17.6927 272.608 
1.69631e-05 1.31404e-05 2.70039e+25 -0.121624 -4.45069 272.847 
1.67242e-06 1.36182e-05 2.68473e+25 14.8464 1.03662 272.262 
3.58375e-06 1.36182e-05 2.6861e+25 15.3336 0.312898 272.035 
5.49508e-06 1.36182e-05 2.68534e+25 15.3686 -0.706751 272.266 
7.40642e-06 1.36182e-05 2.68609e+25 14.4721 -1.57004 272.249 
9.31775e-06 1.36182e-05 2.68974e+25 12.4434 -3.42948 272.266 
1.12291e-05 1.36182e-05 2.69072e+25 9.16386 -6.12039 272.544 
1.31404e-05 1.36182e-05 2.69536e+25 3.44795 -11.283 272.656 
1.50518e-05 1.36182e-05 2.70215e+25 -1.69733 -17.3518 272.58 
1.69631e-05 1.36182e-05 2.70243e+25 -0.20227 -4.84629 272.833 
1.67242e-06 1.40961e-05 2.68545e+25 16.9009 0.845835 272.206 
3.58375e-06 1.40961e-05 2.68503e+25 17.4685 0.201651 272.26 
5.49508e-06 1.40961e-05 2.68469e+25 17.4088 -0.53161 272.334 
7.40642e-06 1.40961e-05 2.68735e+25 16.6374 -1.30779 272.28 
9.31775e-06 1.40961e-05 2.68836e+25 14.6666 -2.73594 272.382 
1.12291e-05 1.40961e-05 2.69056e+25 11.3604 -5.01085 272.559 
1.31404e-05 1.40961e-05 2.69551e+25 5.42388 -9.53939 272.76 
1.50518e-05 1.40961e-05 2.70389e+25 -1.13776 -16.6613 272.685 
1.69631e-05 1.40961e-05 2.70605e+25 -0.229667 -5.3416 272.853 
1.67242e-06 1.45739e-05 2.68523e+25 19.3033 0.715344 272.216 
3.58375e-06 1.45739e-05 2.68527e+25 19.6444 0.125858 272.203 
5.49508e-06 1.45739e-05 2.68614e+25 19.6975 -0.378422 272.243 
7.40642e-06 1.45739e-05 2.68521e+25 18.9896 -1.04606 272.406 
9.31775e-06 1.45739e-05 2.68833e+25 17.2301 -2.17696 272.383 
1.12291e-05 1.45739e-05 2.69084e+25 13.8367 -3.82723 272.609 
1.31404e-05 1.45739e-05 2.69553e+25 7.92408 -7.60143 272.833 
1.50518e-05 1.45739e-05 2.70518e+25 -0.0739955 -15.4223 272.772 
1.69631e-05 1.45739e-05 2.71185e+25 -0.30516 -5.94936 272.861 
1.67242e-06 1.50518e-05 2.68361e+25 21.8926 0.58368 272.353 
3.58375e-06 1.50518e-05 2.68419e+25 22.2258 0.130414 272.386 
5.49508e-06 1.50518e-05 2.68491e+25 22.0813 -0.281534 272.347 
7.40642e-06 1.50518e-05 2.68624e+25 21.464 -0.788244 272.38 
9.31775e-06 1.50518e-05 2.68842e+25 19.9222 -1.65144 272.454 
1.12291e-05 1.50518e-05 2.69222e+25 16.5948 -2.73706 272.573 
1.31404e-05 1.50518e-05 2.69572e+25 10.8967 -5.68409 272.912 
1.50518e-05 1.50518e-05 2.70669e+25 1.58152 -13.4417 272.94 
1.69631e-05 1.50518e-05 2.71906e+25 -0.437156 -6.71994 272.93 
1.67242e-06 1.55296e-05 2.68231e+25 24.6066 0.392504 272.484 
3.58375e-06 1.55296e-05 2.68462e+25 24.9269 0.131311 272.372 
5.49508e-06 1.55296e-05 2.68587e+25 24.6836 -0.195504 272.385 
7.40642e-06 1.55296e-05 2.68622e+25 24.0044 -0.584822 272.411 
9.31775e-06 1.55296e-05 2.68774e+25 22.7701 -1.1088 272.491 
1.12291e-05 1.55296e-05 2.69146e+25 19.8683 -1.74669 272.661 
1.31404e-05 1.55296e-05 2.69431e+25 14.6488 -3.81001 273.088 
1.50518e-05 1.55296e-05 2.70933e+25 4.57036 -10.7007 273.021 
1.69631e-05 1.55296e-05 2.72923e+25 -0.579131 -7.7765 272.997 
1.67242e-06 1.60074e-05 2.68302e+25 27.2739 0.224524 272.541 
3.58375e-06 1.60074e-05 2.68471e+25 27.7043 0.096584 272.362 
5.49508e-06 1.60074e-05 2.6836e+25 27.4464 -0.146351 272.532 
7.40642e-06 1.60074e-05 2.68473e+25 26.9071 -0.241153 272.539 
9.31775e-06 1.60074e-05 2.68716e+25 25.8242 -0.595416 272.559 
1.12291e-05 1.60074e-05 2.68989e+25 23.617 -0.948049 272.795 
1.31404e-05 1.60074e-05 2.69519e+25 19.3019 -2.0927 273.03 
1.50518e-05 1.60074e-05 2.71023e+25 9.3525 -7.20916 273.244 
1.69631e-05 1.60074e-05 2.74687e+25 -0.648421 -8.94891 273.016 
1.67242e-06 1.64852e-05 2.68061e+25 30.1918 0.131735 272.669 
3.58375e-06 1.64852e-05 2.68272e+25 30.3922 0.108805 272.56 
5.49508e-06 1.64852e-05 2.68223e+25 30.3539 -0.061976 272.636 
7.40642e-06 1.64852e-05 2.68319e+25 29.9486 -0.0398742 272.65 
9.31775e-06 1.64852e-05 2.68586e+25 29.081 -0.223642 272.671 
1.12291e-05 1.64852e-05 2.69041e+25 27.6452 -0.429162 272.768 
1.31404e-05 1.64852e-05 2.69453e+25 24.8195 -0.769375 273.125 
1.50518e-05 1.64852e-05 2.7098e+25 16.8475 -3.57727 273.313 
1.69631e-05 1.64852e-05 2.7712e+25 -0.0186096 -9.60099 273.325 
1.67242e-06 1.69631e-05 2.67872e+25 32.9391 0.0564228 272.897 
3.58375e-06 1.69631e-05 2.68059e+25 32.9503 0.0356161 272.871 
5.49508e-06 1.69631e-05 2.68075e+25 33.085 -0.0190297 272.894 
7.40642e-06 1.69631e-05 2.68204e+25 32.8418 -0.0185556 272.839 
9.31775e-06 1.69631e-05 2.6841e+25 32.3911 -0.0252906 272.917 
1.12291e-05 1.69631e-05 2.68871e+25 31.8405 -0.0947739 272.905 
1.31404e-05 1.69631e-05 2.69402e+25 30.7136 -0.104661 273.132 
1.50518e-05 1.69631e-05 2.70878e+25 26.7778 -0.808327 273.296 
1.69631e-05 1.69631e-05 2.85349e+25 4.0931 -6.16925 273.948 
2.38917e-07 2.38917e-07 2.68674e+25 -7.5057 1.80594 271.984 
2.15025e-06 2.38917e-07 2.68763e+25 -8.11472 -0.426001 272.003 
4.06158e-06 2.38917e-07 2.68576e+25 -8.11328 -2.706 272.178 
5.97292e-06 2.38917e-07 2.68778e+25 -8.01086 -4.73278 272.083 
7.88425e-06 2.38917e-07 2.68834e+25 -7.54041 -7.17336 272.101 
9.79558e-06 2.38917e-07 2.68928e+25 -6.17304 -8.49276 272.068 
1.17069e-05 2.38917e-07 2.68779e+25 -4.32732 -8.26231 272.14 
1.36182e-05 2.38917e-07 2.68766e+25 -2.12871 -6.54415 272.145 
1.55296e-05 2.38917e-07 2.68587e+25 -0.464445 -3.28622 272.361 
2.38917e-07 7.1675e-07 2.68689e+25 -7.39032 1.92209 272.092 
2.15025e-06 7.1675e-07 2.68896e+25 -8.03488 -0.338926 272.067 
4.06158e-06 7.1675e-07 2.68957e+25 -8.3236 -2.74211 272.067 
5.97292e-06 7.1675e-07 2.68915e+25 -8.06579 -4.8347 272.111 
7.88425e-06 7.1675e-07 2.69117e+25 -7.58655 -7.40775 272.081 
9.79558e-06 7.1675e-07 2.69053e+25 -6.37741 -8.83947 272.118 
1.17069e-05 7.1675e-07 2.69101e+25 -4.54485 -8.80468 272.109 
1.36182e-05 7.1675e-07 2.69004e+25 -2.4628 -7.0573 272.223 
1.55296e-05 7.1675e-07 2.68824e+25 -0.538315 -3.65822 272.35 
2.38917e-07 1.19458e-06 2.68676e+25 -7.08866 2.08384 272.101 
2.15025e-06 1.19458e-06 2.68862e+25 -7.82061 -0.236722 272.037 
4.06158e-06 1.19458e-06 2.69069e+25 -8.25269 -2.72707 271.964 
5.97292e-06 1.19458e-06 2.68863e+25 -8.08371 -4.93273 272.136 
7.88425e-06 1.19458e-06 2.68924e+25 -7.58126 -7.63765 272.112 
9.79558e-06 1.19458e-06 2.68916e+25 -6.54682 -9.1952 272.181 
1.17069e-05 1.19458e-06 2.69037e+25 -4.7883 -9.38919 272.131 
1.36182e-05 1.19458e-06 2.69089e+25 -2.56021 -7.61708 272.196 
1.55296e-05 1.19458e-06 2.68946e+25 -0.65308 -4.05846 272.277 
2.38917e-07 1.67242e-06 2.68657e+25 -6.7493 2.26194 271.966 
2.15025e-06 1.67242e-06 2.68938e+25 -7.6758 -0.0865391 272.005 
4.06158e-06 1.67242e-06 2.69033e+25 -8.05963 -2.6799 271.894 
5.97292e-06 1.67242e-06 2.69e+25 -8.06334 -5.02837 272.037 
7.88425e-06 1.67242e-06 2.68763e+25 -7.65332 -7.80147 272.326 
9.79558e-06 1.67242e-06 2.68873e+25 -6.71212 -9.52084 272.273 
1.17069e-05 1.67242e-06 2.69012e+25 -4.96676 -9.93798 272.151 
1.36182e-05 1.67242e-06 2.68958e+25 -2.6772 -8.13942 272.214 
1.55296e-05 1.67242e-06 2.68865e+25 -0.739823 -4.43453 272.318 
2.38917e-07 2.15025e-06 2.68603e+25 -6.6069 2.51422 272.057 
2.15025e-06 2.15025e-06 2.68817e+25 -7.29087 0.136156 272.062 
4.06158e-06 2.15025e-06 2.68993e+25 -7.98492 -2.56753 271.935 
5.97292e-06 2.15025e-06 2.68963e+25 -8.03481 -5.10971 272.018 
7.88425e-06 2.15025e-06 2.68816e+25 -7.64055 -7.94398 272.307 
9.79558e-06 2.15025e-06 2.68823e+25 -6.92825 -9.85457 272.225 
1.17069e-05 2.15025e-06 2.6902e+25 -5.04616 -10.467 272.143 
1.36182e-05 2.15025e-06 2.69056e+25 -2.90348 -8.63772 272.193 
1.55296e-05 2.15025e-06 2.68823e+25 -0.746431 -4.79066 272.341 
2.38917e-07 2.62808e-06 2.68611e+25 -6.27689 2.70503 272.08 
2.15025e-06 2.62808e-06 2.68922e+25 -6.93449 0.400132 271.944 
4.06158e-06 2.62808e-06 2.6899e+25 -7.70658 -2.44715 272.002 
5.97292e-06 2.62808e-06 2.68832e+25 -7.90309 -5.15368 272.116 
7.88425e-06 2.62808e-06 2.68825e+25 -7.83054 -8.03773 272.177 
9.79558e-06 2.62808e-06 2.68766e+25 -7.03936 -10.1526 272.246 
1.17069e-05 2.62808e-06 2.69056e+25 -5.38457 -10.9915 272.156 
1.36182e-05 2.62808e-06 2.69134e+25 -3.09155 -9.20809 272.1 
1.55296e-05 2.62808e-06 2.69007e+25 -0.757872 -5.18599 272.272 
2.38917e-07 3.10592e-06 2.68449e+25 -5.84191 2.83251 272.181 
2.15025e-06 3.10592e-06 2.68985e+25 -6.59579 0.666389 271.888 
4.06158e-06 3.10592e-06 2.68827e+25 -7.379 -2.28143 272.043 
5.97292e-06 3.10592e-06 2.68899e+25 -7.74426 -5.11122 272.002 
7.88425e-06 3.10592e-06 2.68764e+25 -7.65252 -8.1135 272.23 
9.79558e-06 3.10592e-06 2.68711e+25 -7.06588 -10.3997 272.285 
1.17069e-05 3.10592e-06 2.68912e+25 -5.49264 -11.5459 272.209 
1.36182e-05 3.10592e-06 2.69065e+25 -3.17675 -9.87558 272.157 
1.55296e-05 3.10592e-06 2.68872e+25 -0.824641 -5.59849 272.349 
2.38917e-07 3.58375e-06 2.68506e+25 -5.48245 2.97079 272.115 
2.15025e-06 3.58375e-06 2.6885e+25 -6.12982 0.856032 272.002 
4.06158e-06 3.58375e-06 2.68645e+25 -6.87857 -2.10557 272.162 
5.97292e-06 3.58375e-06 2.68706e+25 -7.61537 -5.10336 272.17 
7.88425e-06 3.58375e-06 2.68728e+25 -7.45241 -8.14969 272.229 
9.79558e-06 3.58375e-06 2.68876e+25 -7.10733 -10.6483 272.218 
1.17069e-05 3.58375e-06 2.68908e+25 -5.64347 -12.0195 272.248 
1.36182e-05 3.58375e-06 2.68941e+25 -3.18684 -10.5601 272.224 
1.55296e-05 3.58375e-06 2.69095e+25 -0.881149 -6.00567 272.158 
2.38917e-07 4.06158e-06 2.68449e+25 -5.11948 3.16784 272.135 
2.15025e-06 4.06158e-06 2.68841e+25 -5.58411 0.951098 271.977 
4.06158e-06 4.06158e-06 2.68606e+25 -6.53983 -1.84265 272.139 
5.97292e-06 4.06158e-06 2.68844e+25 -7.23269 -5.08962 272.132 
7.88425e-06 4.06158e-06 2.68707e+25 -7.18967 -8.17127 272.253 
9.79558e-06 4.06158e-06 2.68891e+25 -7.00314 -10.8599 272.182 
1.17069e-05 4.06158e-06 2.68913e+25 -5.70059 -12.4475 272.194 
1.36182e-05 4.06158e-06 2.69042e+25 -3.31413 -11.2307 272.188 
1.55296e-05 4.06158e-06 2.68996e+25 -0.901611 -6.49108 272.23 
2.38917e-07 4.53942e-06 2.68418e+25 -4.72757 3.28723 272.114 
2.15025e-06 4.53942e-06 2.68823e+25 -5.19354 1.12601 271.989 
4.06158e-06 4.53942e-06 2.68764e+25 -6.05739 -1.58331 272.018 
5.97292e-06 4.53942e-06 2.68755e+25 -6.74204 -5.0292 272.146 
7.88425e-06 4.53942e-06 2.68754e+25 -7.04014 -8.1922 272.159 
9.79558e-06 4.53942e-06 2.68894e+25 -6.88312 -11.0864 272.169 
1.17069e-05 4.53942e-06 2.68873e+25 -5.7019 -12.9191 272.293 
1.36182e-05 4.53942e-06 2.69047e+25 -3.44823 -11.8586 272.156 
1.55296e-05 4.53942e-06 2.68966e+25 -0.916459 -6.99454 272.299 
2.38917e-07 5.01725e-06 2.6856e+25 -4.46124 3.32586 272.026 
2.15025e-06 5.01725e-06 2.68818e+25 -4.72914 1.26752 271.93 
4.06158e-06 5.01725e-06 2.68777e+25 -5.43822 -1.364 272.042 
5.97292e-06 5.01725e-06 2.68577e+25 -6.18204 -4.83805 272.2 
7.88425e-06 5.01725e-06 2.68746e+25 -6.87249 -8.13606 272.149 
9.79558e-06 5.01725e-06 2.68832e+25 -6.66726 -11.314 272.141 
1.17069e-05 5.01725e-06 2.68916e+25 -5.71935 -13.3966 272.277 
1.36182e-05 5.01725e-06 2.69031e+25 -3.3775 -12.5016 272.169 
1.55296e-05 5.01725e-06 2.6896e+25 -1.00127 -7.48005 272.254 
2.38917e-07 5.49508e-06 2.68543e+25 -3.92843 3.38637 271.979 
2.15025e-06 5.49508e-06 2.6873e+25 -4.20389 1.36955 271.985 
4.06158e-06 5.49508e-06 2.6866e+25 -4.762 -1.16179 272.069 
5.97292e-06 5.49508e-06 2.68678e+25 -5.70274 -4.53382 272.126 
7.88425e-06 5.49508e-06 2.68774e+25 -6.46052 -8.00765 272.14 
9.79558e-06 5.49508e-06 2.68938e+25 -6.49688 -11.4863 272.088 
1.17069e-05 5.49508e-06 2.68981e+25 -5.56373 -13.7676 272.258 
1.36182e-05 5.49508e-06 2.69106e+25 -3.54281 -13.1837 272.156 
1.55296e-05 5.49508e-06 2.68949e+25 -1.00606 -7.98548 272.263 
2.38917e-07 5.97292e-06 2.68638e+25 -3.38404 3.42697 271.906 
2.15025e-06 5.97292e-06 2.68807e+25 -3.50488 1.50839 271.901 
4.06158e-06 5.97292e-06 2.68681e+25 -4.12147 -1.01426 272.072 
5.97292e-06 5.97292e-06 2.6872e+25 -5.18963 -4.27827 272.107 
7.88425e-06 5.97292e-06 2.68771e+25 -5.96305 -7.80104 272.125 
9.79558e-06 5.97292e-06 2.68981e+25 -6.20556 -11.5832 272.052 
1.17069e-05 5.97292e-06 2.68828e+25 -5.59707 -14.114 272.3 
1.36182e-05 5.97292e-06 2.69002e+25 -3.56337 -13.7911 272.219 
1.55296e-05 5.97292e-06 2.68944e+25 -1.0738 -8.51387 272.326 
2.38917e-07 6.45075e-06 2.68746e+25 -2.77033 3.39109 271.722 
2.15025e-06 6.45075e-06 2.68955e+25 -2.93916 1.55278 271.846 
4.06158e-06 6.45075e-06 2.68595e+25 -3.47632 -0.89997 272.103 
5.97292e-06 6.45075e-06 2.68681e+25 -4.46168 -3.9618 272.061 
7.88425e-06 6.45075e-06 2.68815e+25 -5.43642 -7.62383 272.035 
9.79558e-06 6.45075e-06 2.68968e+25 -5.93055 -11.5568 272.051 
1.17069e-05 6.45075e-06 2.68876e+25 -5.5016 -14.3825 272.257 
1.36182e-05 6.45075e-06 2.6906e+25 -3.73871 -14.4128 272.266 
1.55296e-05 6.45075e-06 2.6912e+25 -1.19245 -9.03572 272.203 
2.38917e-07 6.92858e-06 2.68923e+25 -2.23307 3.26973 271.671 
2.15025e-06 6.92858e-06 2.68872e+25 -2.25505 1.56109 271.813 
4.06158e-06 6.92858e-06 2.68693e+25 -2.83968 -0.728829 272.022 
5.97292e-06 6.92858e-06 2.6861e+25 -3.64167 -3.65123 272.085 
7.88425e-06 6.92858e-06 2.68807e+25 -4.7817 -7.40249 271.98 
9.79558e-06 6.92858e-06 2.68931e+25 -5.47455 -11.5042 272.145 
1.17069e-05 6.92858e-06 2.68803e+25 -5.3553 -14.5817 272.326 
1.36182e-05 6.92858e-06 2.69127e+25 -3.76116 -15.1229 272.204 
1.55296e-05 6.92858e-06 2.69054e+25 -1.30703 -9.64889 272.188 
2.38917e-07 7.40642e-06 2.68628e+25 -1.47992 3.26383 271.858 
2.15025e-06 7.40642e-06 2.68804e+25 -1.44833 1.60117 271.917 
4.06158e-06 7.40642e-06 2.6865e+25 -2.05102 -0.575485 272.063 
5.97292e-06 7.40642e-06 2.68656e+25 -2.77055 -3.38875 272.081 
7.88425e-06 7.40642e-06 2.68845e+25 -3.85742 -7.16509 271.959 
9.79558e-06 7.40642e-06 2.68875e+25 -4.87889 -11.3457 272.176 
1.17069e-05 7.40642e-06 2.68915e+25 -5.10716 -14.7395 272.326 
1.36182e-05 7.40642e-06 2.69001e+25 -3.72963 -15.6663 272.237 
1.55296e-05 7.40642e-06 2.69262e+25 -1.27714 -10.308 272.212 
2.38917e-07 7.88425e-06 2.68492e+25 -0.756717 3.33771 271.891 
2.15025e-06 7.88425e-06 2.68707e+25 -0.804252 1.71293 271.948 
4.06158e-06 7.88425e-06 2.68677e+25 -1.0335 -0.403503 272.03 
5.97292e-06 7.88425e-06 2.68605e+25 -1.7999 -3.15328 272.081 
7.88425e-06 7.88425e-06 2.68844e+25 -2.9095 -6.87862 271.988 
9.79558e-06 7.88425e-06 2.68722e+25 -4.25455 -11.0593 272.214 
1.17069e-05 7.88425e-06 2.68758e+25 -4.90897 -14.7577 272.446 
1.36182e-05 7.88425e-06 2.69346e+25 -3.73025 -16.1353 272.098 
1.55296e-05 7.88425e-06 2.69225e+25 -1.33267 -10.878 272.206 
2.38917e-07 8.36208e-06 2.68585e+25 0.155416 3.41823 271.904 
2.15025e-06 8.36208e-06 2.68729e+25 0.00775668 1.79977 271.9 
4.06158e-06 8.36208e-06 2.68578e+25 -0.193844 -0.196072 272.112 
5.97292e-06 8.36208e-06 2.68584e+25 -0.872345 -2.95099 272.088 
7.88425e-06 8.36208e-06 2.68839e+25 -1.89005 -6.51971 272.005 
9.79558e-06 8.36208e-06 2.68826e+25 -3.60443 -10.6708 272.175 
1.17069e-05 8.36208e-06 2.68817e+25 -4.5644 -14.7082 272.332 
1.36182e-05 8.36208e-06 2.6923e+25 -3.79114 -16.5973 272.249 
1.55296e-05 8.36208e-06 2.69139e+25 -1.28763 -11.4173 272.304 
2.38917e-07 8.83992e-06 2.68677e+25 1.08803 3.38001 271.849 
2.15025e-06 8.83992e-06 2.68942e+25 0.93222 1.83822 271.804 
4.06158e-06 8.83992e-06 2.68707e+25 0.810196 -0.0465622 272.01 
5.97292e-06 8.83992e-06 2.68662e+25 0.214232 -2.81115 271.987 
7.88425e-06 8.83992e-06 2.68733e+25 -0.978679 -6.16254 272.078 
9.79558e-06 8.83992e-06 2.68781e+25 -2.64856 -10.3042 272.187 
1.17069e-05 8.83992e-06 2.69006e+25 -3.95807 -14.6063 272.249 
1.36182e-05 8.83992e-06 2.69081e+25 -3.71468 -17.0769 272.321 
1.55296e-05 8.83992e-06 2.69131e+25 -1.3904 -12.0448 272.352 
2.38917e-07 9.31775e-06 2.68716e+25 1.9278 3.25029 271.835 
2.15025e-06 9.31775e-06 2.68753e+25 1.89699 1.87374 271.86 
4.06158e-06 9.31775e-06 2.68561e+25 1.80158 0.019412 272.111 
5.97292e-06 9.31775e-06 2.68621e+25 1.34131 -2.6786 272.116 
7.88425e-06 9.31775e-06 2.68765e+25 0.102197 -5.78033 272.05 
9.79558e-06 9.31775e-06 2.68756e+25 -1.72946 -9.87874 272.221 
1.17069e-05 9.31775e-06 2.68972e+25 -3.34389 -14.3455 272.254 
1.36182e-05 9.31775e-06 2.69112e+25 -3.59234 -17.4262 272.348 
1.55296e-05 9.31775e-06 2.69377e+25 -1.48071 -12.6642 272.293 
2.38917e-07 9.79558e-06 2.68577e+25 2.77894 3.1048 271.923 
2.15025e-06 9.79558e-06 2.68761e+25 3.07528 1.91147 271.937 
4.06158e-06 9.79558e-06 2.68701e+25 2.93534 0.0053052 272.071 
5.97292e-06 9.79558e-06 2.6874e+25 2.48308 -2.45225 272.035 
7.88425e-06 9.79558e-06 2.68801e+25 1.23044 -5.40277 272.081 
9.79558e-06 9.79558e-06 2.68805e+25 -0.746389 -9.40616 272.191 
1.17069e-05 9.79558e-06 2.69107e+25 -2.67451 -13.9596 272.251 
1.36182e-05 9.79558e-06 2.69181e+25 -3.34768 -17.6379 272.246 
1.55296e-05 9.79558e-06 2.69374e+25 -1.61482 -13.3268 272.36 
2.38917e-07 1.02734e-05 2.68618e+25 3.74221 2.9805 271.903 
2.15025e-06 1.02734e-05 2.68776e+25 4.17959 1.88697 271.936 
4.06158e-06 1.02734e-05 2.68578e+25 4.0989 0.00479655 272.088 
5.97292e-06 1.02734e-05 2.68563e+25 3.74771 -2.16141 272.112 
7.88425e-06 1.02734e-05 2.68734e+25 2.4713 -4.96902 272.078 
9.79558e-06 1.02734e-05 2.6876e+25 0.482994 -8.84223 272.198 
1.17069e-05 1.02734e-05 2.69e+25 -1.80972 -13.497 272.344 
1.36182e-05 1.02734e-05 2.69152e+25 -3.14738 -17.6848 272.416 
1.55296e-05 1.02734e-05 2.69463e+25 -1.50501 -13.9821 272.345 
2.38917e-07 1.07512e-05 2.68603e+25 4.81509 2.88593 271.895 
2.15025e-06 1.07512e-05 2.68735e+25 5.33776 1.85156 271.982 
4.06158e-06 1.07512e-05 2.68536e+25 5.49436 0.0104206 272.141 
5.97292e-06 1.07512e-05 2.6863e+25 4.98285 -1.93314 272.155 
7.88425e-06 1.07512e-05 2.68854e+25 3.73315 -4.50247 272.031 
9.79558e-06 1.07512e-05 2.68744e+25 1.70502 -8.28313 272.305 
1.17069e-05 1.07512e-05 2.68994e+25 -0.957511 -12.9134 272.413 
1.36182e-05 1.07512e-05 2.69194e+25 -2.84889 -17.5472 272.435 
1.55296e-05 1.07512e-05 2.69498e+25 -1.6457 -14.6441 272.364 
2.38917e-07 1.12291e-05 2.68571e+25 5.91636 2.74751 271.926 
2.15025e-06 1.12291e-05 2.68705e+25 6.64324 1.74836 271.999 
4.06158e-06 1.12291e-05 2.68644e+25 6.98595 -0.00970125 272.108 
5.97292e-06 1.12291e-05 2.6855e+25 6.43935 -1.70511 272.184 
7.88425e-06 1.12291e-05 2.68712e+25 5.11019 -4.11954 272.151 
9.79558e-06 1.12291e-05 2.68824e+25 3.07767 -7.61587 272.284 
1.17069e-05 1.12291e-05 2.69014e+25 0.00776802 -12.1925 272.384 
1.36182e-05 1.12291e-05 2.6936e+25 -2.39654 -17.2526 272.396 
1.55296e-05 1.12291e-05 2.6959e+25 -1.63188 -15.2926 272.423 
2.38917e-07 1.17069e-05 2.68472e+25 7.20501 2.61004 272.087 
2.15025e-06 1.17069e-05 2.68716e+25 8.00095 1.58523 271.913 
4.06158e-06 1.17069e-05 2.68642e+25 8.43444 0.0682114 272.047 
5.97292e-06 1.17069e-05 2.68468e+25 8.0669 -1.41934 272.269 
7.88425e-06 1.17069e-05 2.68707e+25 6.64991 -3.64872 272.13 
9.79558e-06 1.17069e-05 2.689e+25 4.49079 -6.91343 272.272 
1.17069e-05 1.17069e-05 2.69036e+25 1.11762 -11.4142 272.461 
1.36182e-05 1.17069e-05 2.69281e+25 -1.8788 -16.8829 272.514 
1.55296e-05 1.17069e-05 2.69598e+25 -1.67261 -15.8638 272.545 
2.38917e-07 1.21847e-05 2.68461e+25 8.74548 2.35369 272.041 
2.15025e-06 1.21847e-05 2.68709e+25 9.61551 1.37564 271.996 
4.06158e-06 1.21847e-05 2.68682e+25 9.97714 0.154034 272.033 
5.97292e-06 1.21847e-05 2.68596e+25 9.5933 -1.24733 272.08 
7.88425e-06 1.21847e-05 2.68647e+25 8.35248 -3.19034 272.205 
9.79558e-06 1.21847e-05 2.68847e+25 6.05412 -6.23172 272.314 
1.17069e-05 1.21847e-05 2.69067e+25 2.48134 -10.5351 272.451 
1.36182e-05 1.21847e-05 2.69555e+25 -1.02325 -16.3292 272.392 
1.55296e-05 1.21847e-05 2.69714e+25 -1.81051 -16.3866 272.553 
2.38917e-07 1.26626e-05 2.68336e+25 10.4489 2.10421 272.146 
2.15025e-06 1.26626e-05 2.68763e+25 11.3441 1.10653 271.983 
4.06158e-06 1.26626e-05 2.68834e+25 11.6451 0.198217 271.943 
5.97292e-06 1.26626e-05 2.68626e+25 11.3447 -1.09224 272.202 
7.88425e-06 1.26626e-05 2.68669e+25 10.1195 -2.83543 272.216 
9.79558e-06 1.26626e-05 2.68841e+25 7.932 -5.40724 272.41 
1.17069e-05 1.26626e-05 2.69111e+25 4.12035 -9.49615 272.474 
1.36182e-05 1.26626e-05 2.69549e+25 -0.180744 -15.4673 272.507 
1.55296e-05 1.26626e-05 2.70041e+25 -1.89362 -16.7744 272.541 
2.38917e-07 1.31404e-05 2.68363e+25 12.1973 1.82742 272.137 
2.15025e-06 1.31404e-05 2.68553e+25 13.0317 0.963359 272.098 
4.06158e-06 1.31404e-05 2.68748e+25 13.5028 0.15287 271.969 
5.97292e-06 1.31404e-05 2.68517e+25 13.293 -0.989864 272.332 
7.88425e-06 1.31404e-05 2.68732e+25 12.0787 -2.38463 272.224 
9.79558e-06 1.31404e-05 2.6889e+25 9.78486 -4.67619 272.324 
1.17069e-05 1.31404e-05 2.69082e+25 6.05573 -8.36734 272.547 
1.36182e-05 1.31404e-05 2.69712e+25 0.66991 -14.2875 272.48 
1.55296e-05 1.31404e-05 2.70132e+25 -1.82184 -17.0327 272.609 
2.38917e-07 1.36182e-05 2.68283e+25 13.9929 1.51744 272.283 
2.15025e-06 1.36182e-05 2.68545e+25 14.9794 0.805347 272.208 
4.06158e-06 1.36182e-05 2.68533e+25 15.4334 0.0945362 272.099 
5.97292e-06 1.36182e-05 2.68465e+25 15.2191 -0.895833 272.341 
7.88425e-06 1.36182e-05 2.68804e+25 14.1382 -1.98004 272.201 
9.79558e-06 1.36182e-05 2.68967e+25 11.7181 -3.98973 272.285 
1.17069e-05 1.36182e-05 2.69154e+25 7.96107 -7.05892 272.589 
1.36182e-05 1.36182e-05 2.69691e+25 1.80983 -12.8531 272.584 
1.55296e-05 1.36182e-05 2.70408e+25 -1.84126 -17.2131 272.577 
2.38917e-07 1.40961e-05 2.68232e+25 16.181 1.17173 272.266 
2.15025e-06 1.40961e-05 2.68612e+25 17.0415 0.6686 272.168 
4.06158e-06 1.40961e-05 2.68551e+25 17.5207 0.0628863 272.151 
5.97292e-06 1.40961e-05 2.68538e+25 17.2343 -0.752196 272.295 
7.88425e-06 1.40961e-05 2.68795e+25 16.3137 -1.58067 272.19 
9.79558e-06 1.40961e-05 2.68958e+25 14.0064 -3.27772 272.389 
1.17069e-05 1.40961e-05 2.6918e+25 10.0902 -5.72824 272.642 
1.36182e-05 1.40961e-05 2.69693e+25 3.52832 -11.0694 272.736 
1.55296e-05 1.40961e-05 2.70712e+25 -1.68368 -17.2016 272.557 
2.38917e-07 1.45739e-05 2.68121e+25 18.5679 0.88261 272.362 
2.15025e-06 1.45739e-05 2.68514e+25 19.4278 0.58215 272.21 
4.06158e-06 1.45739e-05 2.68557e+25 19.7022 0.00957325 272.248 
5.97292e-06 1.45739e-05 2.68469e+25 19.5153 -0.553725 272.36 
7.88425e-06 1.45739e-05 2.6875e+25 18.6471 -1.17807 272.306 
9.79558e-06 1.45739e-05 2.68956e+25 16.5907 -2.55014 272.468 
1.17069e-05 1.45739e-05 2.69242e+25 12.6617 -4.47327 272.651 
1.36182e-05 1.45739e-05 2.69865e+25 5.89684 -9.08391 272.811 
1.55296e-05 1.45739e-05 2.70903e+25 -1.31444 -16.692 272.721 
2.38917e-07 1.50518e-05 2.68304e+25 21.16 0.56828 272.28 
2.15025e-06 1.50518e-05 2.68553e+25 22.014 0.448844 272.331 
4.06158e-06 1.50518e-05 2.6845e+25 22.1955 -0.0244483 272.291 
5.97292e-06 1.50518e-05 2.68436e+25 22.0225 -0.414114 272.38 
7.88425e-06 1.50518e-05 2.6866e+25 21.1793 -0.8388 272.393 
9.79558e-06 1.50518e-05 2.68907e+25 19.3413 -1.85586 272.503 
1.17069e-05 1.50518e-05 2.69365e+25 15.4924 -3.28392 272.61 
1.36182e-05 1.50518e-05 2.69847e+25 8.8621 -6.96926 272.919 
1.55296e-05 1.50518e-05 2.71255e+25 -0.455169 -15.4774 272.796 
2.38917e-07 1.55296e-05 2.68208e+25 24.0078 0.293299 272.296 
2.15025e-06 1.55296e-05 2.6826e+25 24.7532 0.333648 272.501 
4.06158e-06 1.55296e-05 2.68423e+25 24.9248 0.0145569 272.375 
5.97292e-06 1.55296e-05 2.68512e+25 24.613 -0.314386 272.383 
7.88425e-06 1.55296e-05 2.68664e+25 23.7861 -0.572861 272.422 
9.79558e-06 1.55296e-05 2.68838e+25 22.1487 -1.1944 272.545 
1.17069e-05 1.55296e-05 2.69216e+25 18.9393 -2.20719 272.725 
1.36182e-05 1.55296e-05 2.69688e+25 12.7119 -4.85887 273.146 
1.55296e-05 1.55296e-05 2.71418e+25 1.53595 -13.2718 273.129 
2.38917e-07 1.60074e-05 2.68265e+25 26.8568 0.0713636 272.371 
2.15025e-06 1.60074e-05 2.68307e+25 27.4088 0.177455 272.49 
4.06158e-06 1.60074e-05 2.68392e+25 27.685 0.0831139 272.403 
5.97292e-06 1.60074e-05 2.68511e+25 27.379 -0.227809 272.412 
7.88425e-06 1.60074e-05 2.68558e+25 26.6199 -0.424343 272.498 
9.79558e-06 1.60074e-05 2.68697e+25 25.3262 -0.635328 272.686 
1.17069e-05 1.60074e-05 2.69129e+25 22.8421 -1.27959 272.766 
1.36182e-05 1.60074e-05 2.69805e+25 17.5685 -2.90684 273.09 
1.55296e-05 1.60074e-05 2.71726e+25 5.40391 -9.83059 273.315 
2.38917e-07 1.64852e-05 2.68027e+25 30.0309 0.0121373 272.521 
2.15025e-06 1.64852e-05 2.68079e+25 30.2862 0.0281467 272.658 
4.06158e-06 1.64852e-05 2.68235e+25 30.4208 0.0856427 272.531 
5.97292e-06 1.64852e-05 2.68295e+25 30.2654 -0.175938 272.609 
7.88425e-06 1.64852e-05 2.68472e+25 29.8329 -0.216465 272.597 
9.79558e-06 1.64852e-05 2.68504e+25 28.7981 -0.232689 272.821 
1.17069e-05 1.64852e-05 2.68999e+25 27.1464 -0.526675 272.848 
1.36182e-05 1.64852e-05 2.69747e+25 23.6179 -1.27852 273.066 
1.55296e-05 1.64852e-05 2.71914e+25 12.7975 -5.37104 273.395 
2.38917e-07 1.69631e-05 2.6785e+25 32.9738 0.00576869 272.773 
2.15025e-06 1.69631e-05 2.67952e+25 32.9857 -0.0453635 272.851 
4.06158e-06 1.69631e-05 2.68115e+25 33.0133 0.035146 272.793 
5.97292e-06 1.69631e-05 2.68245e+25 32.9968 -0.0249286 272.798 
7.88425e-06 1.69631e-05 2.68277e+25 32.7495 -0.0468496 272.855 
9.79558e-06 1.69631e-05 2.68569e+25 32.2727 -0.0422084 272.911 
1.17069e-05 1.69631e-05 2.68957e+25 31.57 -0.093435 272.974 
1.36182e-05 1.69631e-05 2.69613e+25 30.206 -0.254259 273.12 
1.55296e-05 1.69631e-05 2.7168e+25 24.2476 -1.3251 273.455 
7.1675e-07 2.38917e-07 2.688e+25 -7.61423 1.23315 272.036 
2.62808e-06 2.38917e-07 2.68629e+25 -8.15162 -0.947312 272.152 
4.53942e-06 2.38917e-07 2.68585e+25 -8.11964 -3.21477 272.2 
6.45075e-06 2.38917e-07 2.6879e+25 -7.92975 -5.4551 271.993 
8.36208e-06 2.38917e-07 2.68884e+25 -7.22817 -7.74247 271.951 
1.02734e-05 2.38917e-07 2.68762e+25 -5.78227 -8.70309 272.091 
1.21847e-05 2.38917e-07 2.6881e+25 -3.72042 -7.97558 272.139 
1.40961e-05 2.38917e-07 2.68791e+25 -1.6764 -5.80499 272.144 
1.60074e-05 2.38917e-07 2.68582e+25 -0.202802 -2.41497 272.377 
7.1675e-07 7.1675e-07 2.68821e+25 -7.52661 1.42746 272.087 
2.62808e-06 7.1675e-07 2.68831e+25 -8.11232 -0.945737 272.08 
4.53942e-06 7.1675e-07 2.68961e+25 -8.27068 -3.23814 272.084 
6.45075e-06 7.1675e-07 2.68965e+25 -7.9507 -5.49308 272.057 
8.36208e-06 7.1675e-07 2.69021e+25 -7.33385 -8.0487 272.038 
1.02734e-05 7.1675e-07 2.69039e+25 -6.05673 -9.04245 272.078 
1.21847e-05 7.1675e-07 2.69099e+25 -3.97988 -8.54452 272.11 
1.40961e-05 7.1675e-07 2.69029e+25 -1.87142 -6.31354 272.152 
1.60074e-05 7.1675e-07 2.68821e+25 -0.206692 -2.60587 272.364 
7.1675e-07 1.19458e-06 2.68907e+25 -7.26883 1.59595 272.002 
2.62808e-06 1.19458e-06 2.68898e+25 -7.96425 -0.81624 272.016 
4.53942e-06 1.19458e-06 2.6894e+25 -8.29002 -3.24671 272.03 
6.45075e-06 1.19458e-06 2.68914e+25 -8.0036 -5.57276 272.101 
8.36208e-06 1.19458e-06 2.68896e+25 -7.39865 -8.28064 272.168 
1.02734e-05 1.19458e-06 2.68928e+25 -6.1839 -9.40211 272.27 
1.21847e-05 1.19458e-06 2.69093e+25 -4.27096 -9.0601 272.094 
1.40961e-05 1.19458e-06 2.69123e+25 -2.06288 -6.81452 272.161 
1.60074e-05 1.19458e-06 2.68801e+25 -0.338836 -2.84752 272.385 
7.1675e-07 1.67242e-06 2.68856e+25 -7.00725 1.85852 271.996 
2.62808e-06 1.67242e-06 2.69001e+25 -7.80964 -0.676169 271.999 
4.53942e-06 1.67242e-06 2.68943e+25 -8.15004 -3.19297 272.017 
6.45075e-06 1.67242e-06 2.6896e+25 -8.00808 -5.62811 272.054 
8.36208e-06 1.67242e-06 2.68881e+25 -7.48692 -8.47658 272.284 
1.02734e-05 1.67242e-06 2.68971e+25 -6.39855 -9.74696 272.188 
1.21847e-05 1.67242e-06 2.69024e+25 -4.3494 -9.62227 272.13 
1.40961e-05 1.67242e-06 2.68887e+25 -2.21277 -7.30225 272.221 
1.60074e-05 1.67242e-06 2.68866e+25 -0.382572 -3.09732 272.376 
7.1675e-07 2.15025e-06 2.68806e+25 -6.742 2.02753 272.09 
2.62808e-06 2.15025e-06 2.68882e+25 -7.49155 -0.557616 272.032 
4.53942e-06 2.15025e-06 2.68848e+25 -8.07919 -3.14865 272.003 
6.45075e-06 2.15025e-06 2.68863e+25 -7.93453 -5.70758 272.106 
8.36208e-06 2.15025e-06 2.68763e+25 -7.51565 -8.65733 272.259 
1.02734e-05 2.15025e-06 2.68804e+25 -6.56808 -10.1198 272.281 
1.21847e-05 2.15025e-06 2.691e+25 -4.58381 -10.1858 272.089 
1.40961e-05 2.15025e-06 2.69104e+25 -2.32842 -7.81329 272.099 
1.60074e-05 2.15025e-06 2.68727e+25 -0.444609 -3.41506 272.427 
7.1675e-07 2.62808e-06 2.68768e+25 -6.3829 2.13319 272.031 
2.62808e-06 2.62808e-06 2.69008e+25 -7.17755 -0.376785 271.869 
4.53942e-06 2.62808e-06 2.68873e+25 -7.83664 -3.02851 272.061 
6.45075e-06 2.62808e-06 2.68894e+25 -7.93191 -5.75532 272.038 
8.36208e-06 2.62808e-06 2.68825e+25 -7.68615 -8.80426 272.279 
1.02734e-05 2.62808e-06 2.68878e+25 -6.68204 -10.4807 272.212 
1.21847e-05 2.62808e-06 2.69038e+25 -4.7681 -10.7793 272.157 
1.40961e-05 2.62808e-06 2.69074e+25 -2.45235 -8.4793 272.146 
1.60074e-05 2.62808e-06 2.68785e+25 -0.415058 -3.72449 272.399 
7.1675e-07 3.10592e-06 2.68783e+25 -5.9973 2.25376 272.023 
2.62808e-06 3.10592e-06 2.68999e+25 -6.82152 -0.170418 271.91 
4.53942e-06 3.10592e-06 2.6878e+25 -7.53357 -2.92274 272.066 
6.45075e-06 3.10592e-06 2.68866e+25 -7.75321 -5.75707 272.1 
8.36208e-06 3.10592e-06 2.68912e+25 -7.58238 -8.94989 272.201 
1.02734e-05 3.10592e-06 2.68966e+25 -6.73101 -10.9101 272.199 
1.21847e-05 3.10592e-06 2.6889e+25 -4.94171 -11.3775 272.249 
1.40961e-05 3.10592e-06 2.6902e+25 -2.471 -9.13782 272.172 
1.60074e-05 3.10592e-06 2.68939e+25 -0.408619 -4.06098 272.32 
7.1675e-07 3.58375e-06 2.68749e+25 -5.68398 2.47953 272.071 
2.62808e-06 3.58375e-06 2.68781e+25 -6.23833 0.0298725 271.983 
4.53942e-06 3.58375e-06 2.68602e+25 -7.09893 -2.7548 272.222 
6.45075e-06 3.58375e-06 2.68824e+25 -7.53934 -5.82982 272.114 
8.36208e-06 3.58375e-06 2.68736e+25 -7.43855 -9.01061 272.263 
1.02734e-05 3.58375e-06 2.68861e+25 -6.84145 -11.2448 272.217 
1.21847e-05 3.58375e-06 2.68906e+25 -5.15178 -11.9005 272.294 
1.40961e-05 3.58375e-06 2.68943e+25 -2.50065 -9.83625 272.277 
1.60074e-05 3.58375e-06 2.68894e+25 -0.46853 -4.44341 272.274 
7.1675e-07 4.06158e-06 2.68783e+25 -5.26757 2.68816 272.059 
2.62808e-06 4.06158e-06 2.68948e+25 -5.83161 0.263352 271.886 
4.53942e-06 4.06158e-06 2.68704e+25 -6.77983 -2.50782 272.135 
6.45075e-06 4.06158e-06 2.68719e+25 -7.27613 -5.86535 272.155 
8.36208e-06 4.06158e-06 2.6872e+25 -7.19538 -8.98943 272.309 
1.02734e-05 4.06158e-06 2.68807e+25 -6.74069 -11.5223 272.287 
1.21847e-05 4.06158e-06 2.68897e+25 -5.24633 -12.4051 272.315 
1.40961e-05 4.06158e-06 2.68898e+25 -2.65434 -10.491 272.288 
1.60074e-05 4.06158e-06 2.68863e+25 -0.518472 -4.74334 272.337 
7.1675e-07 4.53942e-06 2.68855e+25 -4.83352 2.8458 272.012 
2.62808e-06 4.53942e-06 2.68889e+25 -5.40257 0.52532 271.951 
4.53942e-06 4.53942e-06 2.6871e+25 -6.30497 -2.30195 272.134 
6.45075e-06 4.53942e-06 2.68805e+25 -6.88369 -5.75612 272.093 
8.36208e-06 4.53942e-06 2.68653e+25 -7.10934 -8.94477 272.29 
1.02734e-05 4.53942e-06 2.68975e+25 -6.6373 -11.7872 272.105 
1.21847e-05 4.53942e-06 2.69002e+25 -5.18275 -12.9405 272.289 
1.40961e-05 4.53942e-06 2.68991e+25 -2.79358 -11.1536 272.216 
1.60074e-05 4.53942e-06 2.68868e+25 -0.482312 -5.06961 272.306 
7.1675e-07 5.01725e-06 2.68784e+25 -4.4316 2.91837 272.016 
2.62808e-06 5.01725e-06 2.68761e+25 -4.84664 0.721877 271.935 
4.53942e-06 5.01725e-06 2.68709e+25 -5.60914 -2.10802 272.106 
6.45075e-06 5.01725e-06 2.68744e+25 -6.43362 -5.54404 272.08 
8.36208e-06 5.01725e-06 2.68747e+25 -6.96001 -8.85636 272.129 
1.02734e-05 5.01725e-06 2.68945e+25 -6.49737 -11.9721 272.134 
1.21847e-05 5.01725e-06 2.68846e+25 -5.19092 -13.542 272.298 
1.40961e-05 5.01725e-06 2.69045e+25 -2.76307 -11.8065 272.225 
1.60074e-05 5.01725e-06 2.68968e+25 -0.554602 -5.46421 272.29 
7.1675e-07 5.49508e-06 2.68749e+25 -3.98504 2.90733 271.989 
2.62808e-06 5.49508e-06 2.68826e+25 -4.29406 0.777217 271.971 
4.53942e-06 5.49508e-06 2.68685e+25 -4.95128 -1.92127 272.113 
6.45075e-06 5.49508e-06 2.68818e+25 -5.97 -5.32782 272.046 
8.36208e-06 5.49508e-06 2.68679e+25 -6.61184 -8.78394 272.173 
1.02734e-05 5.49508e-06 2.68897e+25 -6.30347 -12.1558 272.176 
1.21847e-05 5.49508e-06 2.68937e+25 -5.20853 -14.017 272.31 
1.40961e-05 5.49508e-06 2.68957e+25 -2.89367 -12.4053 272.292 
1.60074e-05 5.49508e-06 2.68968e+25 -0.528166 -5.8389 272.3 
7.1675e-07 5.97292e-06 2.68812e+25 -3.3956 2.97321 271.963 
2.62808e-06 5.97292e-06 2.68746e+25 -3.59728 0.861883 271.964 
4.53942e-06 5.97292e-06 2.68662e+25 -4.27316 -1.69295 272.071 
6.45075e-06 5.97292e-06 2.68743e+25 -5.40391 -5.14287 272.048 
8.36208e-06 5.97292e-06 2.68737e+25 -6.09839 -8.70003 272.101 
1.02734e-05 5.97292e-06 2.68872e+25 -6.15919 -12.2917 272.208 
1.21847e-05 5.97292e-06 2.68868e+25 -5.23302 -14.3909 272.303 
1.40961e-05 5.97292e-06 2.69019e+25 -2.98129 -13.0441 272.311 
1.60074e-05 5.97292e-06 2.68944e+25 -0.608187 -6.25744 272.329 
7.1675e-07 6.45075e-06 2.68849e+25 -2.70715 2.95364 271.898 
2.62808e-06 6.45075e-06 2.68697e+25 -3.01201 1.01771 271.929 
4.53942e-06 6.45075e-06 2.6872e+25 -3.59496 -1.53393 271.977 
6.45075e-06 6.45075e-06 2.68644e+25 -4.75477 -4.95075 272.079 
8.36208e-06 6.45075e-06 2.68838e+25 -5.61016 -8.55296 272.046 
1.02734e-05 6.45075e-06 2.68931e+25 -5.9264 -12.3764 272.137 
1.21847e-05 6.45075e-06 2.68925e+25 -5.21697 -14.7708 272.297 
1.40961e-05 6.45075e-06 2.69061e+25 -2.98874 -13.7512 272.303 
1.60074e-05 6.45075e-06 2.69009e+25 -0.710448 -6.71596 272.227 
7.1675e-07 6.92858e-06 2.68916e+25 -2.1337 2.94257 271.855 
2.62808e-06 6.92858e-06 2.68789e+25 -2.32892 1.18177 271.863 
4.53942e-06 6.92858e-06 2.6869e+25 -3.02462 -1.41047 272.07 
6.45075e-06 6.92858e-06 2.68611e+25 -3.97594 -4.65527 272.1 
8.36208e-06 6.92858e-06 2.68826e+25 -4.99594 -8.36141 272.016 
1.02734e-05 6.92858e-06 2.687e+25 -5.5484 -12.3638 272.3 
1.21847e-05 6.92858e-06 2.68784e+25 -5.12367 -15.088 272.325 
1.40961e-05 6.92858e-06 2.69155e+25 -3.14112 -14.3985 272.244 
1.60074e-05 6.92858e-06 2.69138e+25 -0.717367 -7.18294 272.209 
7.1675e-07 7.40642e-06 2.68869e+25 -1.51685 2.9254 271.779 
2.62808e-06 7.40642e-06 2.68654e+25 -1.61071 1.35192 271.966 
4.53942e-06 7.40642e-06 2.6865e+25 -2.18041 -1.21727 272.059 
6.45075e-06 7.40642e-06 2.68553e+25 -3.04821 -4.34102 272.155 
8.36208e-06 7.40642e-06 2.68917e+25 -4.11794 -8.11863 272.022 
1.02734e-05 7.40642e-06 2.68849e+25 -5.06723 -12.2996 272.253 
1.21847e-05 7.40642e-06 2.68928e+25 -4.98782 -15.3087 272.359 
1.40961e-05 7.40642e-06 2.69191e+25 -3.21673 -15.0184 272.174 
1.60074e-05 7.40642e-06 2.69087e+25 -0.729223 -7.66605 272.281 
7.1675e-07 7.88425e-06 2.68745e+25 -0.787742 2.90977 271.884 
2.62808e-06 7.88425e-06 2.68648e+25 -0.844399 1.42782 271.93 
4.53942e-06 7.88425e-06 2.68511e+25 -1.26622 -1.03591 272.191 
6.45075e-06 7.88425e-06 2.68697e+25 -2.03876 -4.06211 272.039 
8.36208e-06 7.88425e-06 2.68973e+25 -3.22008 -7.82823 271.897 
1.02734e-05 7.88425e-06 2.6885e+25 -4.53059 -12.1049 272.236 
1.21847e-05 7.88425e-06 2.68841e+25 -4.84029 -15.4492 272.415 
1.40961e-05 7.88425e-06 2.69257e+25 -3.20359 -15.5539 272.144 
1.60074e-05 7.88425e-06 2.69142e+25 -0.801291 -8.12261 272.327 
7.1675e-07 8.36208e-06 2.68721e+25 0.105561 2.88517 271.926 
2.62808e-06 8.36208e-06 2.6868e+25 -0.0183129 1.3984 271.907 
4.53942e-06 8.36208e-06 2.68484e+25 -0.396829 -0.815839 272.195 
6.45075e-06 8.36208e-06 2.68885e+25 -1.05748 -3.84164 271.906 
8.36208e-06 8.36208e-06 2.68921e+25 -2.26877 -7.5014 271.969 
1.02734e-05 8.36208e-06 2.6877e+25 -3.90965 -11.8694 272.217 
1.21847e-05 8.36208e-06 2.68922e+25 -4.54099 -15.5581 272.33 
1.40961e-05 8.36208e-06 2.69191e+25 -3.24487 -16.1795 272.245 
1.60074e-05 8.36208e-06 2.69036e+25 -0.742314 -8.67676 272.361 
7.1675e-07 8.83992e-06 2.68771e+25 1.1323 2.96689 271.894 
2.62808e-06 8.83992e-06 2.68788e+25 0.883574 1.42382 271.836 
4.53942e-06 8.83992e-06 2.68655e+25 0.644869 -0.635676 272.073 
6.45075e-06 8.83992e-06 2.68686e+25 0.0520811 -3.6642 271.985 
8.36208e-06 8.83992e-06 2.68885e+25 -1.3512 -7.12407 271.99 
1.02734e-05 8.83992e-06 2.6879e+25 -3.06626 -11.504 272.244 
1.21847e-05 8.83992e-06 2.69072e+25 -4.07738 -15.5891 272.245 
1.40961e-05 8.83992e-06 2.69073e+25 -3.25681 -16.7185 272.393 
1.60074e-05 8.83992e-06 2.68943e+25 -0.772734 -9.19727 272.489 
7.1675e-07 9.31775e-06 2.68841e+25 2.00518 2.99975 271.821 
2.62808e-06 9.31775e-06 2.68695e+25 1.90248 1.4249 271.918 
4.53942e-06 9.31775e-06 2.68675e+25 1.79859 -0.51538 272.058 
6.45075e-06 9.31775e-06 2.68648e+25 1.12694 -3.34143 272.055 
8.36208e-06 9.31775e-06 2.68666e+25 -0.331912 -6.70047 272.183 
1.02734e-05 9.31775e-06 2.68813e+25 -2.17828 -11.0569 272.215 
1.21847e-05 9.31775e-06 2.68948e+25 -3.58758 -15.4559 272.326 
1.40961e-05 9.31775e-06 2.69038e+25 -3.17604 -17.2273 272.457 
1.60074e-05 9.31775e-06 2.69166e+25 -0.88588 -9.76327 272.436 
7.1675e-07 9.79558e-06 2.68716e+25 2.90839 2.98231 271.959 
2.62808e-06 9.79558e-06 2.68828e+25 3.01988 1.45451 271.856 
4.53942e-06 9.79558e-06 2.68669e+25 2.94223 -0.502956 272.034 
6.45075e-06 9.79558e-06 2.68608e+25 2.20246 -3.09514 272.102 
8.36208e-06 9.79558e-06 2.68756e+25 0.796675 -6.2116 272.136 
1.02734e-05 9.79558e-06 2.68886e+25 -1.24473 -10.5971 272.213 
1.21847e-05 9.79558e-06 2.69031e+25 -3.08421 -15.1855 272.316 
1.40961e-05 9.79558e-06 2.69275e+25 -3.16304 -17.5853 272.367 
1.60074e-05 9.79558e-06 2.69214e+25 -0.949533 -10.3706 272.365 
7.1675e-07 1.02734e-05 2.68702e+25 3.89463 2.81421 271.929 
2.62808e-06 1.02734e-05 2.68738e+25 4.19347 1.49502 271.926 
4.53942e-06 1.02734e-05 2.68649e+25 4.04117 -0.47331 272.078 
6.45075e-06 1.02734e-05 2.68629e+25 3.4601 -2.83643 272.153 
8.36208e-06 1.02734e-05 2.68655e+25 1.96394 -5.70253 272.122 
1.02734e-05 1.02734e-05 2.68885e+25 -0.108318 -10.0635 272.235 
1.21847e-05 1.02734e-05 2.68987e+25 -2.27915 -14.774 272.413 
1.40961e-05 1.02734e-05 2.69452e+25 -3.04191 -17.827 272.332 
1.60074e-05 1.02734e-05 2.69372e+25 -0.848144 -11.0057 272.413 
7.1675e-07 1.07512e-05 2.68788e+25 4.9402 2.61924 271.978 
2.62808e-06 1.07512e-05 2.68735e+25 5.45459 1.43769 271.917 
4.53942e-06 1.07512e-05 2.68554e+25 5.48967 -0.42443 272.088 
6.45075e-06 1.07512e-05 2.68744e+25 4.76141 -2.55445 272.108 
8.36208e-06 1.07512e-05 2.68827e+25 3.30565 -5.24053 272.142 
1.02734e-05 1.07512e-05 2.68924e+25 1.0514 -9.4089 272.258 
1.21847e-05 1.07512e-05 2.69012e+25 -1.58093 -14.2727 272.45 
1.40961e-05 1.07512e-05 2.69426e+25 -2.91882 -18.0096 272.293 
1.60074e-05 1.07512e-05 2.69423e+25 -1.00023 -11.6268 272.465 
7.1675e-07 1.12291e-05 2.6866e+25 6.02637 2.51677 271.946 
2.62808e-06 1.12291e-05 2.68707e+25 6.74857 1.33032 272 
4.53942e-06 1.12291e-05 2.68545e+25 6.91532 -0.358307 272.176 
6.45075e-06 1.12291e-05 2.68552e+25 6.15981 -2.29308 272.229 
8.36208e-06 1.12291e-05 2.68664e+25 4.67506 -4.77219 272.264 
1.02734e-05 1.12291e-05 2.68921e+25 2.36122 -8.67734 272.276 
1.21847e-05 1.12291e-05 2.69012e+25 -0.710393 -13.6514 272.46 
1.40961e-05 1.12291e-05 2.69433e+25 -2.58222 -18.0208 272.381 
1.60074e-05 1.12291e-05 2.69537e+25 -0.990637 -12.2274 272.535 
7.1675e-07 1.17069e-05 2.68677e+25 7.44382 2.31836 272.003 
2.62808e-06 1.17069e-05 2.6868e+25 8.19223 1.19107 272.018 
4.53942e-06 1.17069e-05 2.68613e+25 8.34423 -0.260584 272.168 
6.45075e-06 1.17069e-05 2.68624e+25 7.81977 -2.03624 272.174 
8.36208e-06 1.17069e-05 2.68844e+25 6.17169 -4.32904 272.2 
1.02734e-05 1.17069e-05 2.69085e+25 3.71526 -7.90401 272.18 
1.21847e-05 1.17069e-05 2.69034e+25 0.335501 -12.9087 272.544 
1.40961e-05 1.17069e-05 2.6949e+25 -2.202 -17.8656 272.456 
1.60074e-05 1.17069e-05 2.69541e+25 -1.10122 -12.8255 272.582 
7.1675e-07 1.21847e-05 2.68821e+25 8.99394 2.07296 271.921 
2.62808e-06 1.21847e-05 2.68709e+25 9.81806 1.01955 271.964 
4.53942e-06 1.21847e-05 2.68564e+25 9.876 -0.188092 272.133 
6.45075e-06 1.21847e-05 2.68623e+25 9.35988 -1.74757 272.132 
8.36208e-06 1.21847e-05 2.6879e+25 7.90562 -3.89253 272.18 
1.02734e-05 1.21847e-05 2.68891e+25 5.25122 -7.03086 272.377 
1.21847e-05 1.21847e-05 2.69166e+25 1.4682 -11.985 272.415 
1.40961e-05 1.21847e-05 2.69673e+25 -1.64467 -17.4855 272.472 
1.60074e-05 1.21847e-05 2.69674e+25 -1.21656 -13.4578 272.596 
7.1675e-07 1.26626e-05 2.68626e+25 10.6715 1.84542 272.07 
2.62808e-06 1.26626e-05 2.68643e+25 11.5136 0.869377 271.989 
4.53942e-06 1.26626e-05 2.68707e+25 11.6546 -0.126074 272.024 
6.45075e-06 1.26626e-05 2.68643e+25 11.1794 -1.48607 272.119 
8.36208e-06 1.26626e-05 2.68775e+25 9.71871 -3.39888 272.245 
1.02734e-05 1.26626e-05 2.68962e+25 7.06273 -6.2084 272.362 
1.21847e-05 1.26626e-05 2.69277e+25 3.03118 -10.9122 272.49 
1.40961e-05 1.26626e-05 2.69732e+25 -1.12282 -16.8072 272.545 
1.60074e-05 1.26626e-05 2.69986e+25 -1.38806 -14.1232 272.622 
7.1675e-07 1.31404e-05 2.68634e+25 12.4644 1.59695 272.131 
2.62808e-06 1.31404e-05 2.68705e+25 13.133 0.727614 272.065 
4.53942e-06 1.31404e-05 2.68711e+25 13.4806 -0.092323 272.086 
6.45075e-06 1.31404e-05 2.68564e+25 13.1475 -1.26762 272.3 
8.36208e-06 1.31404e-05 2.68706e+25 11.6072 -2.95401 272.255 
1.02734e-05 1.31404e-05 2.69095e+25 9.06972 -5.34561 272.318 
1.21847e-05 1.31404e-05 2.6937e+25 4.74744 -9.66021 272.468 
1.40961e-05 1.31404e-05 2.69887e+25 -0.51363 -15.8445 272.574 
1.60074e-05 1.31404e-05 2.70131e+25 -1.34454 -14.7609 272.653 
7.1675e-07 1.36182e-05 2.68415e+25 14.3608 1.27992 272.316 
2.62808e-06 1.36182e-05 2.68725e+25 15.11 0.62514 272.116 
4.53942e-06 1.36182e-05 2.68497e+25 15.4301 -0.0632286 272.133 
6.45075e-06 1.36182e-05 2.68538e+25 15.0715 -1.04926 272.341 
8.36208e-06 1.36182e-05 2.68759e+25 13.691 -2.46455 272.17 
1.02734e-05 1.36182e-05 2.68981e+25 10.9761 -4.54046 272.363 
1.21847e-05 1.36182e-05 2.69325e+25 6.57967 -8.26766 272.556 
1.40961e-05 1.36182e-05 2.69916e+25 0.268563 -14.5862 272.671 
1.60074e-05 1.36182e-05 2.70555e+25 -1.52234 -15.3426 272.546 
7.1675e-07 1.40961e-05 2.68443e+25 16.456 0.988619 272.341 
2.62808e-06 1.40961e-05 2.68752e+25 17.1753 0.471853 272.066 
4.53942e-06 1.40961e-05 2.68643e+25 17.5937 -0.0693447 272.159 
6.45075e-06 1.40961e-05 2.68527e+25 17.0537 -0.855748 272.339 
8.36208e-06 1.40961e-05 2.68723e+25 15.7948 -1.89789 272.306 
1.02734e-05 1.40961e-05 2.69071e+25 13.2234 -3.71866 272.373 
1.21847e-05 1.40961e-05 2.69297e+25 8.75523 -6.857 272.692 
1.40961e-05 1.40961e-05 2.69819e+25 1.67374 -13.0122 272.778 
1.60074e-05 1.40961e-05 2.70872e+25 -1.58994 -15.7896 272.538 
7.1675e-07 1.45739e-05 2.68381e+25 18.8824 0.669924 272.344 
2.62808e-06 1.45739e-05 2.68596e+25 19.4833 0.336037 272.224 
4.53942e-06 1.45739e-05 2.68681e+25 19.7128 -0.122846 272.134 
6.45075e-06 1.45739e-05 2.68516e+25 19.3591 -0.690546 272.411 
8.36208e-06 1.45739e-05 2.68641e+25 18.2539 -1.37317 272.429 
1.02734e-05 1.45739e-05 2.68966e+25 15.8478 -2.92367 272.487 
1.21847e-05 1.45739e-05 2.69351e+25 11.3441 -5.43448 272.691 
1.40961e-05 1.45739e-05 2.69939e+25 3.75492 -11.0149 272.879 
1.60074e-05 1.45739e-05 2.71341e+25 -1.6193 -16.0733 272.578 
7.1675e-07 1.50518e-05 2.68425e+25 21.4137 0.379067 272.38 
2.62808e-06 1.50518e-05 2.68456e+25 22.1387 0.304232 272.312 
4.53942e-06 1.50518e-05 2.68498e+25 22.2088 -0.088714 272.28 
6.45075e-06 1.50518e-05 2.68646e+25 21.8452 -0.52717 272.308 
8.36208e-06 1.50518e-05 2.68718e+25 20.8466 -0.99976 272.4 
1.02734e-05 1.50518e-05 2.68962e+25 18.5835 -2.13665 272.45 
1.21847e-05 1.50518e-05 2.69321e+25 14.2315 -3.99949 272.74 
1.40961e-05 1.50518e-05 2.70029e+25 6.57644 -8.72131 272.983 
1.60074e-05 1.50518e-05 2.71694e+25 -1.54507 -15.912 272.686 
7.1675e-07 1.55296e-05 2.68414e+25 24.2387 0.162456 272.39 
2.62808e-06 1.55296e-05 2.68444e+25 24.844 0.205387 272.386 
4.53942e-06 1.55296e-05 2.68462e+25 24.8245 -0.0733684 272.36 
6.45075e-06 1.55296e-05 2.68548e+25 24.4591 -0.358654 272.339 
8.36208e-06 1.55296e-05 2.68648e+25 23.5669 -0.671797 272.481 
1.02734e-05 1.55296e-05 2.68896e+25 21.4844 -1.33074 272.536 
1.21847e-05 1.55296e-05 2.69222e+25 17.7833 -2.65034 272.842 
1.40961e-05 1.55296e-05 2.69991e+25 10.4278 -6.24347 273.121 
1.60074e-05 1.55296e-05 2.7207e+25 -0.735412 -14.8872 272.989 
7.1675e-07 1.60074e-05 2.68437e+25 26.973 -0.00839272 272.38 
2.62808e-06 1.60074e-05 2.68476e+25 27.5752 0.0533253 272.429 
4.53942e-06 1.60074e-05 2.68304e+25 27.618 0.023718 272.468 
6.45075e-06 1.60074e-05 2.68506e+25 27.2815 -0.169575 272.536 
8.36208e-06 1.60074e-05 2.6872e+25 26.4343 -0.441799 272.432 
1.02734e-05 1.60074e-05 2.68714e+25 24.8335 -0.762062 272.686 
1.21847e-05 1.60074e-05 2.69366e+25 21.859 -1.43619 272.857 
1.40961e-05 1.60074e-05 2.70106e+25 15.4862 -3.78611 273.135 
1.60074e-05 1.60074e-05 2.72622e+25 1.58413 -12.4394 273.2 
7.1675e-07 1.64852e-05 2.68291e+25 30.0412 -0.0885388 272.533 
2.62808e-06 1.64852e-05 2.68307e+25 30.3546 -0.0597777 272.574 
4.53942e-06 1.64852e-05 2.68291e+25 30.4752 0.0621063 272.546 
6.45075e-06 1.64852e-05 2.68414e+25 30.193 -0.0843557 272.578 
8.36208e-06 1.64852e-05 2.68527e+25 29.611 -0.256735 272.588 
1.02734e-05 1.64852e-05 2.68728e+25 28.4548 -0.353607 272.78 
1.21847e-05 1.64852e-05 2.6926e+25 26.484 -0.56658 272.863 
1.40961e-05 1.64852e-05 2.70187e+25 22.0023 -1.64813 273.093 
1.60074e-05 1.64852e-05 2.73071e+25 7.63705 -7.94457 273.461 
7.1675e-07 1.69631e-05 2.68026e+25 32.9262 -0.0278561 272.836 
2.62808e-06 1.69631e-05 2.68089e+25 32.9063 -0.0339484 272.777 
4.53942e-06 1.69631e-05 2.68105e+25 33.0599 0.0144116 272.772 
6.45075e-06 1.69631e-05 2.68225e+25 32.8903 -0.0482174 272.836 
8.36208e-06 1.69631e-05 2.68319e+25 32.6153 -0.0375817 272.825 
1.02734e-05 1.69631e-05 2.68678e+25 32.1252 -0.0923428 272.919 
1.21847e-05 1.69631e-05 2.69243e+25 31.2596 -0.114884 272.917 
1.40961e-05 1.69631e-05 2.69902e+25 29.4405 -0.31617 273.166 
1.60074e-05 1.69631e-05 2.7342e+25 20.0905 -2.31553 273.578 
1.19458e-06 2.38917e-07 2.68794e+25 -7.8791 0.611007 271.939 
3.10592e-06 2.38917e-07 2.68703e+25 -8.17784 -1.59696 272.099 
5.01725e-06 2.38917e-07 2.68659e+25 -8.07557 -3.65262 272.184 
6.92858e-06 2.38917e-07 2.68931e+25 -7.84371 -6.01026 271.859 
8.83992e-06 2.38917e-07 2.68815e+25 -6.82439 -8.11823 272.079 
1.07512e-05 2.38917e-07 2.68663e+25 -5.32122 -8.61916 272.222 
1.26626e-05 2.38917e-07 2.68886e+25 -3.21098 -7.68442 272.141 
1.45739e-05 2.38917e-07 2.68779e+25 -1.22985 -5.01615 272.211 
1.64852e-05 2.38917e-07 2.6846e+25 -0.0364559 -1.43396 272.574 
1.19458e-06 7.1675e-07 2.68856e+25 -7.70113 0.860771 272.074 
3.10592e-06 7.1675e-07 2.68834e+25 -8.16737 -1.51021 272.102 
5.01725e-06 7.1675e-07 2.68927e+25 -8.2063 -3.69589 272.074 
6.92858e-06 7.1675e-07 2.69084e+25 -7.87313 -6.10332 271.994 
8.83992e-06 7.1675e-07 2.69111e+25 -7.01924 -8.48128 272.124 
1.07512e-05 7.1675e-07 2.69039e+25 -5.68262 -9.09137 272.17 
1.26626e-05 7.1675e-07 2.69057e+25 -3.42546 -8.18473 272.157 
1.45739e-05 7.1675e-07 2.68956e+25 -1.39838 -5.43552 272.19 
1.64852e-05 7.1675e-07 2.68525e+25 -0.0812579 -1.49127 272.645 
1.19458e-06 1.19458e-06 2.68849e+25 -7.4734 1.11308 272.067 
3.10592e-06 1.19458e-06 2.68909e+25 -8.12061 -1.41936 272.004 
5.01725e-06 1.19458e-06 2.69005e+25 -8.29379 -3.76026 272.067 
6.92858e-06 1.19458e-06 2.69041e+25 -7.92313 -6.17861 272.027 
8.83992e-06 1.19458e-06 2.68949e+25 -7.19393 -8.73716 272.122 
1.07512e-05 1.19458e-06 2.69056e+25 -5.78722 -9.50067 272.201 
1.26626e-05 1.19458e-06 2.6904e+25 -3.7133 -8.76134 272.196 
1.45739e-05 1.19458e-06 2.69005e+25 -1.51995 -5.93044 272.193 
1.64852e-05 1.19458e-06 2.68397e+25 -0.138406 -1.60507 272.719 
1.19458e-06 1.67242e-06 2.68957e+25 -7.23472 1.31738 272.025 
3.10592e-06 1.67242e-06 2.68968e+25 -7.89378 -1.30367 271.943 
5.01725e-06 1.67242e-06 2.68979e+25 -8.19819 -3.76699 272.033 
6.92858e-06 1.67242e-06 2.68832e+25 -7.95765 -6.27279 272.174 
8.83992e-06 1.67242e-06 2.68898e+25 -7.28073 -8.97189 272.184 
1.07512e-05 1.67242e-06 2.68868e+25 -5.9843 -9.97275 272.275 
1.26626e-05 1.67242e-06 2.69098e+25 -3.78723 -9.33648 272.161 
1.45739e-05 1.67242e-06 2.68949e+25 -1.72344 -6.4648 272.174 
1.64852e-05 1.67242e-06 2.6861e+25 -0.158533 -1.80146 272.622 
1.19458e-06 2.15025e-06 2.68846e+25 -6.83529 1.47886 272.114 
3.10592e-06 2.15025e-06 2.68923e+25 -7.65751 -1.16902 271.954 
5.01725e-06 2.15025e-06 2.68953e+25 -8.12463 -3.752 271.966 
6.92858e-06 2.15025e-06 2.68771e+25 -7.84828 -6.3616 272.26 
8.83992e-06 2.15025e-06 2.6881e+25 -7.36569 -9.17725 272.285 
1.07512e-05 2.15025e-06 2.68864e+25 -6.13041 -10.4355 272.238 
1.26626e-05 2.15025e-06 2.69048e+25 -3.96457 -9.90726 272.119 
1.45739e-05 2.15025e-06 2.68953e+25 -1.73992 -7.03427 272.14 
1.64852e-05 2.15025e-06 2.68526e+25 -0.169112 -1.9575 272.618 
1.19458e-06 2.62808e-06 2.68894e+25 -6.51725 1.62725 271.924 
3.10592e-06 2.62808e-06 2.68878e+25 -7.35666 -1.00099 271.984 
5.01725e-06 2.62808e-06 2.6891e+25 -7.88991 -3.76859 272.032 
6.92858e-06 2.62808e-06 2.68683e+25 -7.88774 -6.44924 272.182 
8.83992e-06 2.62808e-06 2.68851e+25 -7.48464 -9.32388 272.302 
1.07512e-05 2.62808e-06 2.68894e+25 -6.28636 -10.9202 272.258 
1.26626e-05 2.62808e-06 2.6899e+25 -4.22242 -10.4718 272.197 
1.45739e-05 2.62808e-06 2.69101e+25 -1.79524 -7.60606 272.167 
1.64852e-05 2.62808e-06 2.6859e+25 -0.135258 -2.16477 272.518 
1.19458e-06 3.10592e-06 2.68847e+25 -6.16557 1.79215 271.967 
3.10592e-06 3.10592e-06 2.68957e+25 -6.98792 -0.861581 271.94 
5.01725e-06 3.10592e-06 2.68846e+25 -7.68017 -3.6926 272.097 
6.92858e-06 3.10592e-06 2.6879e+25 -7.72975 -6.5058 272.123 
8.83992e-06 3.10592e-06 2.68772e+25 -7.43512 -9.53305 272.254 
1.07512e-05 3.10592e-06 2.68917e+25 -6.36406 -11.2912 272.273 
1.26626e-05 3.10592e-06 2.68945e+25 -4.4027 -10.9775 272.265 
1.45739e-05 3.10592e-06 2.69071e+25 -1.8385 -8.2329 272.108 
1.64852e-05 3.10592e-06 2.68688e+25 -0.138945 -2.39834 272.481 
1.19458e-06 3.58375e-06 2.68822e+25 -5.86498 1.96568 271.96 
3.10592e-06 3.58375e-06 2.68924e+25 -6.4937 -0.643512 271.851 
5.01725e-06 3.58375e-06 2.68705e+25 -7.33299 -3.50158 272.159 
6.92858e-06 3.58375e-06 2.68778e+25 -7.47509 -6.51685 272.159 
8.83992e-06 3.58375e-06 2.6874e+25 -7.43774 -9.65126 272.283 
1.07512e-05 3.58375e-06 2.68897e+25 -6.51413 -11.6636 272.206 
1.26626e-05 3.58375e-06 2.68876e+25 -4.5794 -11.5762 272.345 
1.45739e-05 3.58375e-06 2.69063e+25 -1.89701 -8.80558 272.187 
1.64852e-05 3.58375e-06 2.68649e+25 -0.165944 -2.59455 272.582 
1.19458e-06 4.06158e-06 2.6877e+25 -5.419 2.06188 271.944 
3.10592e-06 4.06158e-06 2.68835e+25 -6.07618 -0.388542 271.949 
5.01725e-06 4.06158e-06 2.68812e+25 -6.94076 -3.34439 272.098 
6.92858e-06 4.06158e-06 2.68708e+25 -7.28092 -6.56629 272.183 
8.83992e-06 4.06158e-06 2.68746e+25 -7.2275 -9.64484 272.232 
1.07512e-05 4.06158e-06 2.68821e+25 -6.45834 -12.0307 272.286 
1.26626e-05 4.06158e-06 2.68982e+25 -4.6911 -12.2144 272.246 
1.45739e-05 4.06158e-06 2.68998e+25 -2.03027 -9.37935 272.18 
1.64852e-05 4.06158e-06 2.6863e+25 -0.268294 -2.8532 272.595 
1.19458e-06 4.53942e-06 2.68654e+25 -4.98237 2.22409 272.095 
3.10592e-06 4.53942e-06 2.68803e+25 -5.6223 -0.209932 272.018 
5.01725e-06 4.53942e-06 2.68621e+25 -6.46965 -3.1791 272.154 
6.92858e-06 4.53942e-06 2.68801e+25 -7.05486 -6.5157 272.114 
8.83992e-06 4.53942e-06 2.6873e+25 -7.16243 -9.60158 272.101 
1.07512e-05 4.53942e-06 2.68944e+25 -6.41086 -12.2552 272.234 
1.26626e-05 4.53942e-06 2.68953e+25 -4.61921 -12.777 272.278 
1.45739e-05 4.53942e-06 2.69011e+25 -2.10691 -10.0476 272.257 
1.64852e-05 4.53942e-06 2.68629e+25 -0.175959 -3.06105 272.606 
1.19458e-06 5.01725e-06 2.68799e+25 -4.50059 2.38833 271.968 
3.10592e-06 5.01725e-06 2.68874e+25 -4.99725 -0.02646 271.917 
5.01725e-06 5.01725e-06 2.68712e+25 -5.80161 -3.04261 272.121 
6.92858e-06 5.01725e-06 2.68819e+25 -6.62444 -6.40424 272.106 
8.83992e-06 5.01725e-06 2.68787e+25 -6.94763 -9.6682 272.203 
1.07512e-05 5.01725e-06 2.68779e+25 -6.29684 -12.5197 272.278 
1.26626e-05 5.01725e-06 2.68869e+25 -4.59513 -13.3349 272.266 
1.45739e-05 5.01725e-06 2.69069e+25 -2.09889 -10.7292 272.263 
1.64852e-05 5.01725e-06 2.68753e+25 -0.253112 -3.27508 272.511 
1.19458e-06 5.49508e-06 2.68912e+25 -4.00794 2.44882 271.907 
3.10592e-06 5.49508e-06 2.68906e+25 -4.40728 0.178102 271.943 
5.01725e-06 5.49508e-06 2.68701e+25 -5.17313 -2.8162 272.157 
6.92858e-06 5.49508e-06 2.6887e+25 -6.08409 -6.28477 272.05 
8.83992e-06 5.49508e-06 2.68734e+25 -6.62785 -9.72832 272.15 
1.07512e-05 5.49508e-06 2.68913e+25 -6.12304 -12.7426 272.202 
1.26626e-05 5.49508e-06 2.68962e+25 -4.77389 -13.8745 272.303 
1.45739e-05 5.49508e-06 2.69002e+25 -2.26712 -11.3739 272.342 
1.64852e-05 5.49508e-06 2.68758e+25 -0.207749 -3.53034 272.449 
1.19458e-06 5.97292e-06 2.68794e+25 -3.38658 2.39549 271.989 
3.10592e-06 5.97292e-06 2.68838e+25 -3.76488 0.352057 271.932 
5.01725e-06 5.97292e-06 2.68717e+25 -4.54683 -2.53777 272.067 
6.92858e-06 5.97292e-06 2.68813e+25 -5.63498 -6.09095 272.015 
8.83992e-06 5.97292e-06 2.68897e+25 -6.18377 -9.70624 272.041 
1.07512e-05 5.97292e-06 2.68871e+25 -6.0081 -12.9343 272.237 
1.26626e-05 5.97292e-06 2.68881e+25 -4.7817 -14.4156 272.281 
1.45739e-05 5.97292e-06 2.69049e+25 -2.31493 -11.9991 272.234 
1.64852e-05 5.97292e-06 2.6869e+25 -0.233482 -3.79665 272.551 
1.19458e-06 6.45075e-06 2.68833e+25 -2.76403 2.45999 271.904 
3.10592e-06 6.45075e-06 2.68751e+25 -3.18872 0.571073 271.934 
5.01725e-06 6.45075e-06 2.68668e+25 -3.7751 -2.25276 272.107 
6.92858e-06 6.45075e-06 2.68773e+25 -4.98256 -5.81715 272.031 
8.83992e-06 6.45075e-06 2.68891e+25 -5.76913 -9.5886 271.965 
1.07512e-05 6.45075e-06 2.68788e+25 -5.86304 -13.0346 272.301 
1.26626e-05 6.45075e-06 2.68997e+25 -4.79504 -14.9006 272.198 
1.45739e-05 6.45075e-06 2.69054e+25 -2.37213 -12.5981 272.241 
1.64852e-05 6.45075e-06 2.68636e+25 -0.272047 -4.15447 272.591 
1.19458e-06 6.92858e-06 2.68834e+25 -2.17571 2.58678 271.876 
3.10592e-06 6.92858e-06 2.68713e+25 -2.51893 0.725055 271.973 
5.01725e-06 6.92858e-06 2.68648e+25 -3.21562 -2.01564 272.157 
6.92858e-06 6.92858e-06 2.68786e+25 -4.24738 -5.59303 272.054 
8.83992e-06 6.92858e-06 2.6897e+25 -5.16572 -9.49212 272.001 
1.07512e-05 6.92858e-06 2.68732e+25 -5.55396 -13.1186 272.301 
1.26626e-05 6.92858e-06 2.69118e+25 -4.78798 -15.3383 272.174 
1.45739e-05 6.92858e-06 2.69034e+25 -2.50097 -13.1912 272.295 
1.64852e-05 6.92858e-06 2.68818e+25 -0.290138 -4.50734 272.428 
1.19458e-06 7.40642e-06 2.68862e+25 -1.48954 2.62212 271.815 
3.10592e-06 7.40642e-06 2.68732e+25 -1.71988 0.885194 271.935 
5.01725e-06 7.40642e-06 2.68701e+25 -2.35895 -1.83961 271.999 
6.92858e-06 7.40642e-06 2.6875e+25 -3.36635 -5.29776 272.056 
8.83992e-06 7.40642e-06 2.68871e+25 -4.38877 -9.25586 272.064 
1.07512e-05 7.40642e-06 2.68749e+25 -5.1669 -13.0937 272.384 
1.26626e-05 7.40642e-06 2.69005e+25 -4.6958 -15.7462 272.265 
1.45739e-05 7.40642e-06 2.69096e+25 -2.59429 -13.8045 272.228 
1.64852e-05 7.40642e-06 2.688e+25 -0.385591 -4.77915 272.517 
1.19458e-06 7.88425e-06 2.68924e+25 -0.691115 2.52208 271.842 
3.10592e-06 7.88425e-06 2.68672e+25 -0.831453 0.948532 271.979 
5.01725e-06 7.88425e-06 2.68604e+25 -1.49377 -1.6493 272.089 
6.92858e-06 7.88425e-06 2.68604e+25 -2.2767 -5.00618 272.103 
8.83992e-06 7.88425e-06 2.68978e+25 -3.59827 -8.91405 271.95 
1.07512e-05 7.88425e-06 2.68754e+25 -4.71486 -13.0202 272.292 
1.26626e-05 7.88425e-06 2.68919e+25 -4.63465 -16.126 272.42 
1.45739e-05 7.88425e-06 2.69174e+25 -2.54006 -14.5134 272.218 
1.64852e-05 7.88425e-06 2.68785e+25 -0.34585 -5.13719 272.573 
1.19458e-06 8.36208e-06 2.68889e+25 0.11729 2.47981 271.857 
3.10592e-06 8.36208e-06 2.68737e+25 -0.0499047 0.970596 271.97 
5.01725e-06 8.36208e-06 2.68493e+25 -0.556228 -1.45089 272.194 
6.92858e-06 8.36208e-06 2.68774e+25 -1.30235 -4.72023 272.037 
8.83992e-06 8.36208e-06 2.68886e+25 -2.64191 -8.49144 271.985 
1.07512e-05 8.36208e-06 2.68856e+25 -4.17816 -12.8241 272.23 
1.26626e-05 8.36208e-06 2.68935e+25 -4.42747 -16.3693 272.32 
1.45739e-05 8.36208e-06 2.69168e+25 -2.61604 -15.2194 272.295 
1.64852e-05 8.36208e-06 2.6861e+25 -0.25434 -5.52304 272.695 
1.19458e-06 8.83992e-06 2.68806e+25 1.01875 2.5532 271.859 
3.10592e-06 8.83992e-06 2.68783e+25 0.887073 0.972281 271.868 
5.01725e-06 8.83992e-06 2.68599e+25 0.499503 -1.29217 272.156 
6.92858e-06 8.83992e-06 2.68608e+25 -0.258327 -4.43107 272.097 
8.83992e-06 8.83992e-06 2.68949e+25 -1.78781 -8.06688 271.954 
1.07512e-05 8.83992e-06 2.68876e+25 -3.44598 -12.5298 272.223 
1.26626e-05 8.83992e-06 2.69127e+25 -4.07395 -16.415 272.219 
1.45739e-05 8.83992e-06 2.69114e+25 -2.66999 -15.9016 272.416 
1.64852e-05 8.83992e-06 2.68961e+25 -0.31405 -5.88161 272.527 
1.19458e-06 9.31775e-06 2.68783e+25 1.96463 2.62835 271.877 
3.10592e-06 9.31775e-06 2.68652e+25 1.86969 0.991462 271.942 
5.01725e-06 9.31775e-06 2.68734e+25 1.66225 -1.15162 272.08 
6.92858e-06 9.31775e-06 2.6858e+25 0.812883 -4.09953 272.118 
8.83992e-06 9.31775e-06 2.68728e+25 -0.811488 -7.60252 272.127 
1.07512e-05 9.31775e-06 2.68881e+25 -2.64903 -12.1462 272.232 
1.26626e-05 9.31775e-06 2.68998e+25 -3.72732 -16.4101 272.378 
1.45739e-05 9.31775e-06 2.69109e+25 -2.67564 -16.4709 272.412 
1.64852e-05 9.31775e-06 2.68959e+25 -0.378257 -6.25388 272.554 
1.19458e-06 9.79558e-06 2.68769e+25 2.99765 2.60953 271.869 
3.10592e-06 9.79558e-06 2.68765e+25 2.99403 1.02393 271.927 
5.01725e-06 9.79558e-06 2.68767e+25 2.87034 -0.982429 272.014 
6.92858e-06 9.79558e-06 2.68787e+25 1.96397 -3.79512 272.009 
8.83992e-06 9.79558e-06 2.68832e+25 0.282724 -7.08903 272.128 
1.07512e-05 9.79558e-06 2.68989e+25 -1.71871 -11.6746 272.18 
1.26626e-05 9.79558e-06 2.69084e+25 -3.34282 -16.3033 272.353 
1.45739e-05 9.79558e-06 2.69261e+25 -2.80361 -16.9506 272.377 
1.64852e-05 9.79558e-06 2.69123e+25 -0.392898 -6.7021 272.523 
1.19458e-06 1.02734e-05 2.68731e+25 4.08338 2.51196 271.915 
3.10592e-06 1.02734e-05 2.68769e+25 4.16147 1.08071 271.94 
5.01725e-06 1.02734e-05 2.68595e+25 4.06992 -0.954356 272.078 
6.92858e-06 1.02734e-05 2.6872e+25 3.2107 -3.55164 272.049 
8.83992e-06 1.02734e-05 2.68596e+25 1.48763 -6.58937 272.232 
1.07512e-05 1.02734e-05 2.68848e+25 -0.671975 -11.1487 272.286 
1.26626e-05 1.02734e-05 2.69085e+25 -2.69371 -16.0437 272.374 
1.45739e-05 1.02734e-05 2.69299e+25 -2.74127 -17.3551 272.42 
1.64852e-05 1.02734e-05 2.69195e+25 -0.36607 -7.08802 272.619 
1.19458e-06 1.07512e-05 2.68742e+25 5.11884 2.34879 271.973 
3.10592e-06 1.07512e-05 2.687e+25 5.49312 1.08364 271.9 
5.01725e-06 1.07512e-05 2.68623e+25 5.3759 -0.899949 272.078 
6.92858e-06 1.07512e-05 2.6869e+25 4.41527 -3.22451 272.084 
8.83992e-06 1.07512e-05 2.68676e+25 2.79723 -6.10167 272.204 
1.07512e-05 1.07512e-05 2.68879e+25 0.352827 -10.5854 272.3 
1.26626e-05 1.07512e-05 2.69014e+25 -2.10416 -15.6091 272.464 
1.45739e-05 1.07512e-05 2.69422e+25 -2.66042 -17.7313 272.442 
1.64852e-05 1.07512e-05 2.69225e+25 -0.400748 -7.5429 272.646 
1.19458e-06 1.12291e-05 2.687e+25 6.22684 2.13373 271.97 
3.10592e-06 1.12291e-05 2.68823e+25 6.86194 1.04818 271.849 
5.01725e-06 1.12291e-05 2.68503e+25 6.80175 -0.748977 272.147 
6.92858e-06 1.12291e-05 2.6862e+25 5.90337 -2.89174 272.139 
8.83992e-06 1.12291e-05 2.68689e+25 4.22145 -5.60923 272.272 
1.07512e-05 1.12291e-05 2.68988e+25 1.58301 -9.84587 272.344 
1.26626e-05 1.12291e-05 2.69074e+25 -1.35895 -15.0724 272.474 
1.45739e-05 1.12291e-05 2.69392e+25 -2.53352 -18.0283 272.505 
1.64852e-05 1.12291e-05 2.69303e+25 -0.46239 -8.01547 272.71 
1.19458e-06 1.17069e-05 2.68821e+25 7.63557 1.92817 271.881 
3.10592e-06 1.17069e-05 2.68716e+25 8.34053 0.914771 271.94 
5.01725e-06 1.17069e-05 2.6849e+25 8.28368 -0.651352 272.195 
6.92858e-06 1.17069e-05 2.68779e+25 7.5186 -2.57217 272.066 
8.83992e-06 1.17069e-05 2.68694e+25 5.73302 -5.11857 272.291 
1.07512e-05 1.17069e-05 2.68995e+25 2.83587 -8.95663 272.251 
1.26626e-05 1.17069e-05 2.69107e+25 -0.51742 -14.308 272.554 
1.45739e-05 1.17069e-05 2.69464e+25 -2.30828 -18.1764 272.49 
1.64852e-05 1.17069e-05 2.69459e+25 -0.528667 -8.49458 272.735 
1.19458e-06 1.21847e-05 2.68734e+25 9.17429 1.79192 271.957 
3.10592e-06 1.21847e-05 2.68657e+25 9.96855 0.763619 271.98 
5.01725e-06 1.21847e-05 2.68489e+25 9.80451 -0.586044 272.198 
6.92858e-06 1.21847e-05 2.6879e+25 9.0598 -2.29126 272.121 
8.83992e-06 1.21847e-05 2.68642e+25 7.4197 -4.59029 272.344 
1.07512e-05 1.21847e-05 2.68988e+25 4.38167 -8.04514 272.392 
1.26626e-05 1.21847e-05 2.69157e+25 0.519426 -13.4197 272.504 
1.45739e-05 1.21847e-05 2.69734e+25 -2.06726 -18.0156 272.512 
1.64852e-05 1.21847e-05 2.69495e+25 -0.542532 -9.05651 272.811 
1.19458e-06 1.26626e-05 2.68679e+25 10.8908 1.63476 272.08 
3.10592e-06 1.26626e-05 2.68804e+25 11.6523 0.670862 271.958 
5.01725e-06 1.26626e-05 2.68548e+25 11.5984 -0.495014 272.159 
6.92858e-06 1.26626e-05 2.6864e+25 10.9076 -1.97009 272.211 
8.83992e-06 1.26626e-05 2.68738e+25 9.17517 -4.0401 272.329 
1.07512e-05 1.26626e-05 2.6911e+25 6.18674 -7.12018 272.374 
1.26626e-05 1.26626e-05 2.69314e+25 1.87867 -12.4324 272.533 
1.45739e-05 1.26626e-05 2.69758e+25 -1.76113 -17.6228 272.514 
1.64852e-05 1.26626e-05 2.69885e+25 -0.679209 -9.66663 272.624 
1.19458e-06 1.31404e-05 2.68621e+25 12.7266 1.41931 272.149 
3.10592e-06 1.31404e-05 2.68716e+25 13.2535 0.5724 272.039 
5.01725e-06 1.31404e-05 2.68533e+25 13.4448 -0.414772 272.236 
6.92858e-06 1.31404e-05 2.68593e+25 12.8424 -1.61858 272.256 
8.83992e-06 1.31404e-05 2.68776e+25 11.1096 -3.48746 272.286 
1.07512e-05 1.31404e-05 2.69116e+25 8.14982 -6.18633 272.364 
1.26626e-05 1.31404e-05 2.69365e+25 3.39601 -11.2126 272.552 
1.45739e-05 1.31404e-05 2.69866e+25 -1.41904 -17.0686 272.61 
1.64852e-05 1.31404e-05 2.7003e+25 -0.652768 -10.3566 272.721 
1.19458e-06 1.36182e-05 2.68487e+25 14.6665 1.19216 272.185 
3.10592e-06 1.36182e-05 2.68696e+25 15.211 0.452214 272.06 
5.01725e-06 1.36182e-05 2.68599e+25 15.4313 -0.377356 272.17 
6.92858e-06 1.36182e-05 2.68559e+25 14.8077 -1.27061 272.31 
8.83992e-06 1.36182e-05 2.68907e+25 13.0753 -2.86837 272.155 
1.07512e-05 1.36182e-05 2.69038e+25 10.1206 -5.27341 272.381 
1.26626e-05 1.36182e-05 2.69479e+25 5.07359 -9.72749 272.587 
1.45739e-05 1.36182e-05 2.70009e+25 -0.966365 -16.2392 272.649 
1.64852e-05 1.36182e-05 2.70306e+25 -0.844881 -11.0636 272.817 
1.19458e-06 1.40961e-05 2.68488e+25 16.6711 0.961414 272.306 
3.10592e-06 1.40961e-05 2.68693e+25 17.3436 0.323682 272.078 
5.01725e-06 1.40961e-05 2.6852e+25 17.5575 -0.314144 272.267 
6.92858e-06 1.40961e-05 2.68686e+25 16.842 -1.01081 272.301 
8.83992e-06 1.40961e-05 2.68791e+25 15.2801 -2.30565 272.352 
1.07512e-05 1.40961e-05 2.69128e+25 12.4162 -4.39817 272.417 
1.26626e-05 1.40961e-05 2.6939e+25 7.19681 -8.10674 272.731 
1.45739e-05 1.40961e-05 2.70123e+25 0.0692798 -15.0149 272.775 
1.64852e-05 1.40961e-05 2.70902e+25 -0.951829 -11.8256 272.606 
1.19458e-06 1.45739e-05 2.68295e+25 19.1993 0.728669 272.344 
3.10592e-06 1.45739e-05 2.68441e+25 19.6017 0.225243 272.265 
5.01725e-06 1.45739e-05 2.68537e+25 19.7298 -0.275538 272.255 
6.92858e-06 1.45739e-05 2.68684e+25 19.1813 -0.84774 272.267 
8.83992e-06 1.45739e-05 2.68761e+25 17.7622 -1.78984 272.405 
1.07512e-05 1.45739e-05 2.69122e+25 14.9133 -3.44538 272.522 
1.26626e-05 1.45739e-05 2.69344e+25 9.76322 -6.41323 272.846 
1.45739e-05 1.45739e-05 2.70323e+25 1.69628 -13.3443 272.735 
1.64852e-05 1.45739e-05 2.71414e+25 -1.1135 -12.5688 272.648 
1.19458e-06 1.50518e-05 2.68402e+25 21.6796 0.49008 272.358 
3.10592e-06 1.50518e-05 2.68398e+25 22.1904 0.113605 272.368 
5.01725e-06 1.50518e-05 2.6849e+25 22.1575 -0.279415 272.215 
6.92858e-06 1.50518e-05 2.68658e+25 21.688 -0.654274 272.305 
8.83992e-06 1.50518e-05 2.68809e+25 20.4387 -1.26136 272.38 
1.07512e-05 1.50518e-05 2.69063e+25 17.6509 -2.38678 272.496 
1.26626e-05 1.50518e-05 2.6939e+25 12.6784 -4.69124 272.891 
1.45739e-05 1.50518e-05 2.70381e+25 4.07927 -11.0941 272.905 
1.64852e-05 1.50518e-05 2.72039e+25 -1.36073 -13.3445 272.684 
1.19458e-06 1.55296e-05 2.68336e+25 24.3902 0.295677 272.412 
3.10592e-06 1.55296e-05 2.68395e+25 24.9271 0.0853699 272.395 
5.01725e-06 1.55296e-05 2.6852e+25 24.784 -0.191351 272.307 
6.92858e-06 1.55296e-05 2.68662e+25 24.2218 -0.428012 272.327 
8.83992e-06 1.55296e-05 2.68727e+25 23.2118 -0.86588 272.49 
1.07512e-05 1.55296e-05 2.69161e+25 20.7218 -1.48852 272.573 
1.26626e-05 1.55296e-05 2.69421e+25 16.3423 -3.08115 272.862 
1.45739e-05 1.55296e-05 2.70382e+25 7.64702 -8.3138 273.104 
1.64852e-05 1.55296e-05 2.72718e+25 -1.4179 -13.821 272.849 
1.19458e-06 1.60074e-05 2.68337e+25 27.1499 0.150764 272.477 
3.10592e-06 1.60074e-05 2.68395e+25 27.682 0.0810308 272.393 
5.01725e-06 1.60074e-05 2.68282e+25 27.5268 -0.116659 272.534 
6.92858e-06 1.60074e-05 2.68527e+25 27.1841 -0.271293 272.508 
8.83992e-06 1.60074e-05 2.6872e+25 26.1823 -0.511663 272.456 
1.07512e-05 1.60074e-05 2.68846e+25 24.2957 -0.782389 272.766 
1.26626e-05 1.60074e-05 2.69433e+25 20.6957 -1.66613 272.901 
1.45739e-05 1.60074e-05 2.70521e+25 12.7778 -5.27938 273.207 
1.64852e-05 1.60074e-05 2.73754e+25 -0.799779 -13.4021 272.974 
1.19458e-06 1.64852e-05 2.68085e+25 30.0975 0.0299049 272.676 
3.10592e-06 1.64852e-05 2.68296e+25 30.3778 0.0362058 272.515 
5.01725e-06 1.64852e-05 2.68261e+25 30.4493 -0.0288962 272.609 
6.92858e-06 1.64852e-05 2.68388e+25 30.0565 -0.0972636 272.623 
8.83992e-06 1.64852e-05 2.68555e+25 29.3553 -0.204683 272.641 
1.07512e-05 1.64852e-05 2.68826e+25 28.0737 -0.234624 272.814 
1.26626e-05 1.64852e-05 2.69421e+25 25.7428 -0.642331 272.929 
1.45739e-05 1.64852e-05 2.70366e+25 19.8388 -2.41745 273.25 
1.64852e-05 1.64852e-05 2.74736e+25 2.31095 -10.6584 273.493 
1.19458e-06 1.69631e-05 2.67965e+25 32.8757 -0.00644866 272.884 
3.10592e-06 1.69631e-05 2.67973e+25 32.8866 0.00127656 272.83 
5.01725e-06 1.69631e-05 2.68061e+25 33.0878 -0.00163801 272.872 
6.92858e-06 1.69631e-05 2.68165e+25 32.8652 -0.00109519 272.86 
8.83992e-06 1.69631e-05 2.68366e+25 32.4966 -0.0553876 272.847 
1.07512e-05 1.69631e-05 2.68659e+25 31.9782 0.000148006 272.953 
1.26626e-05 1.69631e-05 2.69262e+25 30.9894 -0.124342 272.975 
1.45739e-05 1.69631e-05 2.70197e+25 28.4105 -0.539827 273.235 
1.64852e-05 1.69631e-05 2.76898e+25 13.4265 -3.6646 273.806 
