ITEM: TIMESTEP
320000
ITEM: NUMBER OF CELLS
5184
ITEM: BOX BOUNDS ss ss pp
-1.7202e-05 1.7202e-05
-1.7202e-05 1.7202e-05
-0.5 0.5
ITEM: CELLS xc yc f_1[1] f_1[2] f_1[3] f_1[4] 
-1.69631e-05 -1.69631e-05 2.68214e+25 0.0338243 -0.0426508 272.945 
-1.50517e-05 -1.69631e-05 2.68328e+25 -0.0286067 0.0150729 272.869 
-1.31404e-05 -1.69631e-05 2.68357e+25 -0.0214834 0.0286657 272.836 
-1.12291e-05 -1.69631e-05 2.68566e+25 -0.150744 0.047089 272.676 
-9.31775e-06 -1.69631e-05 2.68539e+25 -0.17284 -0.0168099 272.74 
-7.40642e-06 -1.69631e-05 2.68485e+25 -0.0116722 -0.0226931 272.803 
-5.49508e-06 -1.69631e-05 2.68364e+25 -0.216862 0.0413417 272.935 
-3.58375e-06 -1.69631e-05 2.68499e+25 -0.0708045 -0.00830843 272.968 
-1.67242e-06 -1.69631e-05 2.68361e+25 -0.185719 0.0359827 272.851 
-1.69631e-05 -1.64852e-05 2.68411e+25 0.0337671 -0.0756467 272.815 
-1.50517e-05 -1.64852e-05 2.68853e+25 -0.0439092 0.00162542 272.446 
-1.31404e-05 -1.64852e-05 2.68689e+25 -0.0841238 0.066548 272.476 
-1.12291e-05 -1.64852e-05 2.68675e+25 -0.0335789 0.00118205 272.51 
-9.31775e-06 -1.64852e-05 2.68754e+25 -0.271241 -0.0538885 272.561 
-7.40642e-06 -1.64852e-05 2.6891e+25 -0.136408 -0.130709 272.336 
-5.49508e-06 -1.64852e-05 2.68609e+25 -0.284855 0.145436 272.466 
-3.58375e-06 -1.64852e-05 2.6866e+25 -0.251692 0.0455375 272.62 
-1.67242e-06 -1.64852e-05 2.68549e+25 -0.261094 0.0737327 272.742 
-1.69631e-05 -1.60074e-05 2.68572e+25 -0.0276495 -0.089373 272.741 
-1.50517e-05 -1.60074e-05 2.6891e+25 -0.0702267 0.141823 272.414 
-1.31404e-05 -1.60074e-05 2.69006e+25 -0.20467 0.141073 272.328 
-1.12291e-05 -1.60074e-05 2.68916e+25 -0.00853215 -0.113038 272.397 
-9.31775e-06 -1.60074e-05 2.68898e+25 -0.255667 -0.0819625 272.345 
-7.40642e-06 -1.60074e-05 2.69093e+25 -0.359298 -0.145264 272.129 
-5.49508e-06 -1.60074e-05 2.69101e+25 -0.538457 0.165187 272.148 
-3.58375e-06 -1.60074e-05 2.68816e+25 -0.473431 -0.00914694 272.45 
-1.67242e-06 -1.60074e-05 2.68515e+25 -0.485426 0.0371939 272.713 
-1.69631e-05 -1.55296e-05 2.68504e+25 -0.0420053 -0.0340119 272.772 
-1.50517e-05 -1.55296e-05 2.69197e+25 -0.112282 0.263228 272.195 
-1.31404e-05 -1.55296e-05 2.69029e+25 -0.249162 0.11852 272.288 
-1.12291e-05 -1.55296e-05 2.68927e+25 -0.246528 -0.086445 272.348 
-9.31775e-06 -1.55296e-05 2.69044e+25 -0.282362 -0.0181474 272.207 
-7.40642e-06 -1.55296e-05 2.68939e+25 -0.478552 -0.135451 272.308 
-5.49508e-06 -1.55296e-05 2.69026e+25 -0.747145 0.212817 272.159 
-3.58375e-06 -1.55296e-05 2.68969e+25 -0.70551 -0.028089 272.295 
-1.67242e-06 -1.55296e-05 2.68688e+25 -0.75199 0.137608 272.547 
-1.69631e-05 -1.50517e-05 2.6861e+25 -0.0433442 0.0414464 272.802 
-1.50517e-05 -1.50517e-05 2.69227e+25 0.0168743 0.285029 272.064 
-1.31404e-05 -1.50517e-05 2.69039e+25 -0.0390824 0.146656 272.249 
-1.12291e-05 -1.50517e-05 2.68877e+25 -0.412437 -0.173293 272.314 
-9.31775e-06 -1.50517e-05 2.69081e+25 -0.359874 0.0166942 272.123 
-7.40642e-06 -1.50517e-05 2.68996e+25 -0.688825 0.0386626 272.194 
-5.49508e-06 -1.50517e-05 2.69029e+25 -0.803227 0.294724 272.169 
-3.58375e-06 -1.50517e-05 2.69103e+25 -0.87864 -0.0593259 272.049 
-1.67242e-06 -1.50517e-05 2.68772e+25 -1.15551 0.292557 272.499 
-1.69631e-05 -1.45739e-05 2.68632e+25 0.0455545 0.06125 272.751 
-1.50517e-05 -1.45739e-05 2.69392e+25 0.153483 0.209503 271.905 
-1.31404e-05 -1.45739e-05 2.69141e+25 -0.0429094 0.214288 272.076 
-1.12291e-05 -1.45739e-05 2.6882e+25 -0.431138 -0.135271 272.371 
-9.31775e-06 -1.45739e-05 2.69201e+25 -0.660296 0.174779 272.039 
-7.40642e-06 -1.45739e-05 2.6906e+25 -1.00698 0.054879 272.161 
-5.49508e-06 -1.45739e-05 2.69159e+25 -1.2281 0.38588 272.121 
-3.58375e-06 -1.45739e-05 2.69301e+25 -1.21917 -0.12454 271.91 
-1.67242e-06 -1.45739e-05 2.68796e+25 -1.41179 0.367949 272.455 
-1.69631e-05 -1.40961e-05 2.68519e+25 0.0141718 0.0407565 272.794 
-1.50517e-05 -1.40961e-05 2.69177e+25 0.0246084 0.177833 272.114 
-1.31404e-05 -1.40961e-05 2.69222e+25 -0.248226 0.33458 271.994 
-1.12291e-05 -1.40961e-05 2.68877e+25 -0.496489 -0.00105182 272.279 
-9.31775e-06 -1.40961e-05 2.69125e+25 -0.749033 0.432598 271.889 
-7.40642e-06 -1.40961e-05 2.69175e+25 -1.21559 0.00199979 272.103 
-5.49508e-06 -1.40961e-05 2.69196e+25 -1.23047 0.483039 272.003 
-3.58375e-06 -1.40961e-05 2.6909e+25 -1.68125 -0.142604 272.127 
-1.67242e-06 -1.40961e-05 2.69e+25 -1.55956 0.292461 272.326 
-1.69631e-05 -1.36182e-05 2.68502e+25 0.0500174 -0.0463969 272.672 
-1.50517e-05 -1.36182e-05 2.69144e+25 -0.120313 0.161215 272.178 
-1.31404e-05 -1.36182e-05 2.69305e+25 -0.132148 0.356712 271.971 
-1.12291e-05 -1.36182e-05 2.69208e+25 -0.468039 0.103051 271.964 
-9.31775e-06 -1.36182e-05 2.69316e+25 -0.950948 0.455901 271.842 
-7.40642e-06 -1.36182e-05 2.69497e+25 -1.50934 0.0177829 271.859 
-5.49508e-06 -1.36182e-05 2.69352e+25 -1.37152 0.395473 271.935 
-3.58375e-06 -1.36182e-05 2.69084e+25 -1.91255 -0.0856094 272.118 
-1.67242e-06 -1.36182e-05 2.69143e+25 -1.76759 0.243087 272.158 
-1.69631e-05 -1.31404e-05 2.6855e+25 -0.00928672 -0.0788082 272.613 
-1.50517e-05 -1.31404e-05 2.69228e+25 -0.24424 0.27804 271.945 
-1.31404e-05 -1.31404e-05 2.69286e+25 -0.207591 0.443584 271.93 
-1.12291e-05 -1.31404e-05 2.69254e+25 -0.572204 0.171114 271.888 
-9.31775e-06 -1.31404e-05 2.69552e+25 -1.28454 0.444556 271.793 
-7.40642e-06 -1.31404e-05 2.69512e+25 -1.65908 0.123419 271.787 
-5.49508e-06 -1.31404e-05 2.69263e+25 -1.64464 0.246303 271.865 
-3.58375e-06 -1.31404e-05 2.6927e+25 -2.01007 -0.0471815 272.021 
-1.67242e-06 -1.31404e-05 2.69374e+25 -2.02619 0.307706 271.927 
-1.69631e-05 -1.26626e-05 2.68436e+25 -0.0174418 -0.0584786 272.71 
-1.50517e-05 -1.26626e-05 2.69147e+25 -0.110081 0.280755 271.97 
-1.31404e-05 -1.26626e-05 2.69319e+25 -0.441492 0.559563 271.934 
-1.12291e-05 -1.26626e-05 2.6924e+25 -0.641339 0.42275 271.998 
-9.31775e-06 -1.26626e-05 2.69476e+25 -1.28395 0.550739 271.733 
-7.40642e-06 -1.26626e-05 2.69424e+25 -1.77045 0.277609 271.82 
-5.49508e-06 -1.26626e-05 2.69069e+25 -2.02156 0.196959 272.086 
-3.58375e-06 -1.26626e-05 2.69257e+25 -2.24379 0.0955665 271.861 
-1.67242e-06 -1.26626e-05 2.69281e+25 -2.33822 0.277372 271.951 
-1.69631e-05 -1.21847e-05 2.68672e+25 0.0299921 -0.022695 272.743 
-1.50517e-05 -1.21847e-05 2.69426e+25 -0.170652 0.242204 271.745 
-1.31404e-05 -1.21847e-05 2.69158e+25 -0.546407 0.543367 271.997 
-1.12291e-05 -1.21847e-05 2.69253e+25 -0.916224 0.629285 271.935 
-9.31775e-06 -1.21847e-05 2.69494e+25 -1.43028 0.683808 271.753 
-7.40642e-06 -1.21847e-05 2.69386e+25 -2.00101 0.544748 271.923 
-5.49508e-06 -1.21847e-05 2.69276e+25 -2.2345 0.23415 272.06 
-3.58375e-06 -1.21847e-05 2.69527e+25 -2.28588 0.176002 271.877 
-1.67242e-06 -1.21847e-05 2.69291e+25 -2.44731 0.194653 271.795 
-1.69631e-05 -1.17069e-05 2.68536e+25 -0.0331167 -0.0330057 272.825 
-1.50517e-05 -1.17069e-05 2.694e+25 -0.185468 0.423876 271.777 
-1.31404e-05 -1.17069e-05 2.6929e+25 -0.550759 0.573032 271.988 
-1.12291e-05 -1.17069e-05 2.69122e+25 -1.0273 0.798395 272.096 
-9.31775e-06 -1.17069e-05 2.6945e+25 -1.4123 0.838857 271.641 
-7.40642e-06 -1.17069e-05 2.69148e+25 -2.00862 0.657825 271.941 
-5.49508e-06 -1.17069e-05 2.69154e+25 -2.40595 0.293444 272.039 
-3.58375e-06 -1.17069e-05 2.69338e+25 -2.57386 0.232348 271.924 
-1.67242e-06 -1.17069e-05 2.69329e+25 -2.60336 0.201034 271.915 
-1.69631e-05 -1.12291e-05 2.68487e+25 -0.0143495 0.0605159 272.743 
-1.50517e-05 -1.12291e-05 2.69314e+25 -0.150016 0.481404 272.007 
-1.31404e-05 -1.12291e-05 2.69438e+25 -0.584576 0.565141 271.896 
-1.12291e-05 -1.12291e-05 2.69197e+25 -1.01644 0.848132 271.955 
-9.31775e-06 -1.12291e-05 2.69436e+25 -1.42555 0.963712 271.763 
-7.40642e-06 -1.12291e-05 2.69423e+25 -2.0085 0.732062 271.958 
-5.49508e-06 -1.12291e-05 2.69364e+25 -2.50847 0.524808 271.831 
-3.58375e-06 -1.12291e-05 2.69262e+25 -2.84305 0.210737 272.039 
-1.67242e-06 -1.12291e-05 2.69152e+25 -2.88897 0.200914 272.011 
-1.69631e-05 -1.07512e-05 2.68592e+25 0.0538895 -0.0112677 272.652 
-1.50517e-05 -1.07512e-05 2.69296e+25 -0.276443 0.537137 271.898 
-1.31404e-05 -1.07512e-05 2.69316e+25 -0.488792 0.632373 271.873 
-1.12291e-05 -1.07512e-05 2.69256e+25 -1.07712 0.911332 271.931 
-9.31775e-06 -1.07512e-05 2.69357e+25 -1.62231 1.16653 271.819 
-7.40642e-06 -1.07512e-05 2.69229e+25 -2.1983 0.775358 271.952 
-5.49508e-06 -1.07512e-05 2.69459e+25 -2.66388 0.740419 271.734 
-3.58375e-06 -1.07512e-05 2.69198e+25 -3.09304 0.283088 272.084 
-1.67242e-06 -1.07512e-05 2.68872e+25 -3.38264 0.264856 272.233 
-1.69631e-05 -1.02734e-05 2.68509e+25 -0.0874262 0.0207977 272.732 
-1.50517e-05 -1.02734e-05 2.69382e+25 -0.0293879 0.570757 271.858 
-1.31404e-05 -1.02734e-05 2.6916e+25 -0.67495 0.733281 272.066 
-1.12291e-05 -1.02734e-05 2.69064e+25 -1.12485 1.06388 272.138 
-9.31775e-06 -1.02734e-05 2.69378e+25 -1.81653 1.3537 271.849 
-7.40642e-06 -1.02734e-05 2.69167e+25 -2.2293 0.874295 271.973 
-5.49508e-06 -1.02734e-05 2.69419e+25 -2.85222 0.837662 271.73 
-3.58375e-06 -1.02734e-05 2.69365e+25 -3.19165 0.458211 271.818 
-1.67242e-06 -1.02734e-05 2.68867e+25 -3.94493 0.387645 272.25 
-1.69631e-05 -9.79558e-06 2.68566e+25 -0.0053852 0.122659 272.682 
-1.50517e-05 -9.79558e-06 2.69409e+25 -0.0679038 0.716951 271.852 
-1.31404e-05 -9.79558e-06 2.69352e+25 -0.696886 0.958318 271.944 
-1.12291e-05 -9.79558e-06 2.69299e+25 -1.2072 1.13627 271.984 
-9.31775e-06 -9.79558e-06 2.69286e+25 -1.90116 1.57667 271.961 
-7.40642e-06 -9.79558e-06 2.69247e+25 -2.29461 1.05692 271.919 
-5.49508e-06 -9.79558e-06 2.69465e+25 -3.33824 0.946744 271.714 
-3.58375e-06 -9.79558e-06 2.69289e+25 -3.52056 0.632904 271.925 
-1.67242e-06 -9.79558e-06 2.69052e+25 -4.16771 0.513967 272.174 
-1.69631e-05 -9.31775e-06 2.68589e+25 -0.034948 0.170954 272.744 
-1.50517e-05 -9.31775e-06 2.69278e+25 0.0391537 0.76247 271.971 
-1.31404e-05 -9.31775e-06 2.69481e+25 -0.562932 1.17816 271.838 
-1.12291e-05 -9.31775e-06 2.6949e+25 -1.11601 1.18051 271.73 
-9.31775e-06 -9.31775e-06 2.69448e+25 -1.92638 1.69056 271.831 
-7.40642e-06 -9.31775e-06 2.6913e+25 -2.54047 1.22065 272.098 
-5.49508e-06 -9.31775e-06 2.6957e+25 -3.45692 1.15478 271.65 
-3.58375e-06 -9.31775e-06 2.69329e+25 -3.97607 0.818965 271.911 
-1.67242e-06 -9.31775e-06 2.69015e+25 -4.48765 0.421431 272.114 
-1.69631e-05 -8.83992e-06 2.68482e+25 -0.0445473 0.227976 272.804 
-1.50517e-05 -8.83992e-06 2.69369e+25 -0.0261972 0.769886 271.944 
-1.31404e-05 -8.83992e-06 2.6947e+25 -0.507173 1.37293 271.71 
-1.12291e-05 -8.83992e-06 2.69425e+25 -1.28239 1.46451 271.767 
-9.31775e-06 -8.83992e-06 2.69538e+25 -1.93428 1.81317 271.845 
-7.40642e-06 -8.83992e-06 2.69127e+25 -2.74938 1.47896 272.041 
-5.49508e-06 -8.83992e-06 2.69696e+25 -3.42073 1.35204 271.528 
-3.58375e-06 -8.83992e-06 2.69538e+25 -4.20855 0.986333 271.804 
-1.67242e-06 -8.83992e-06 2.68957e+25 -4.70485 0.42726 272.326 
-1.69631e-05 -8.36208e-06 2.68567e+25 0.0446411 0.227636 272.831 
-1.50517e-05 -8.36208e-06 2.69351e+25 -0.195026 0.745084 271.961 
-1.31404e-05 -8.36208e-06 2.69528e+25 -0.71675 1.5234 271.784 
-1.12291e-05 -8.36208e-06 2.69363e+25 -1.52804 1.68491 271.929 
-9.31775e-06 -8.36208e-06 2.69507e+25 -1.76559 1.96081 271.769 
-7.40642e-06 -8.36208e-06 2.69226e+25 -2.69117 1.81786 271.963 
-5.49508e-06 -8.36208e-06 2.69558e+25 -3.39642 1.47027 271.606 
-3.58375e-06 -8.36208e-06 2.69327e+25 -4.39347 1.11614 272.018 
-1.67242e-06 -8.36208e-06 2.69053e+25 -4.8794 0.528849 272.167 
-1.69631e-05 -7.88425e-06 2.68558e+25 0.0314425 0.147867 272.73 
-1.50517e-05 -7.88425e-06 2.69212e+25 -0.171019 0.849823 271.948 
-1.31404e-05 -7.88425e-06 2.69402e+25 -0.73588 1.72234 271.807 
-1.12291e-05 -7.88425e-06 2.69353e+25 -1.43886 1.80549 271.881 
-9.31775e-06 -7.88425e-06 2.69406e+25 -1.92395 2.14386 271.924 
-7.40642e-06 -7.88425e-06 2.69398e+25 -2.75433 2.06798 271.85 
-5.49508e-06 -7.88425e-06 2.69437e+25 -3.64615 1.60642 271.688 
-3.58375e-06 -7.88425e-06 2.69291e+25 -4.34522 1.31823 271.948 
-1.67242e-06 -7.88425e-06 2.69223e+25 -4.94134 0.66336 272.15 
-1.69631e-05 -7.40642e-06 2.68656e+25 0.0550926 0.098493 272.717 
-1.50517e-05 -7.40642e-06 2.69487e+25 -0.205127 1.05079 271.76 
-1.31404e-05 -7.40642e-06 2.69368e+25 -0.793305 1.78114 271.76 
-1.12291e-05 -7.40642e-06 2.69236e+25 -1.44744 1.88427 271.959 
-9.31775e-06 -7.40642e-06 2.69527e+25 -2.04911 2.37694 271.647 
-7.40642e-06 -7.40642e-06 2.69588e+25 -2.9365 2.37686 271.776 
-5.49508e-06 -7.40642e-06 2.69433e+25 -3.73075 1.72832 271.736 
-3.58375e-06 -7.40642e-06 2.69376e+25 -4.51688 1.55042 271.862 
-1.67242e-06 -7.40642e-06 2.68994e+25 -4.98344 0.805203 272.144 
-1.69631e-05 -6.92858e-06 2.68517e+25 0.0278667 0.0249229 272.743 
-1.50517e-05 -6.92858e-06 2.69304e+25 -0.252692 1.38748 271.926 
-1.31404e-05 -6.92858e-06 2.69424e+25 -0.784222 1.85293 271.767 
-1.12291e-05 -6.92858e-06 2.69234e+25 -1.48559 2.05669 271.922 
-9.31775e-06 -6.92858e-06 2.69613e+25 -2.3222 2.47828 271.629 
-7.40642e-06 -6.92858e-06 2.69293e+25 -3.0795 2.62354 272.011 
-5.49508e-06 -6.92858e-06 2.69508e+25 -3.84603 1.88478 271.755 
-3.58375e-06 -6.92858e-06 2.69222e+25 -4.6268 1.75155 271.933 
-1.67242e-06 -6.92858e-06 2.69069e+25 -5.12463 0.899074 272.081 
-1.69631e-05 -6.45075e-06 2.68548e+25 -0.0128466 0.0515331 272.763 
-1.50517e-05 -6.45075e-06 2.69321e+25 -0.274769 1.45064 271.937 
-1.31404e-05 -6.45075e-06 2.69556e+25 -0.795542 1.96345 271.646 
-1.12291e-05 -6.45075e-06 2.69183e+25 -1.58541 2.30986 271.79 
-9.31775e-06 -6.45075e-06 2.69555e+25 -2.54565 2.60855 271.683 
-7.40642e-06 -6.45075e-06 2.69276e+25 -3.15736 2.8306 271.861 
-5.49508e-06 -6.45075e-06 2.69511e+25 -4.01838 2.06263 271.719 
-3.58375e-06 -6.45075e-06 2.69338e+25 -4.7752 1.90221 271.818 
-1.67242e-06 -6.45075e-06 2.69048e+25 -5.50016 0.999117 272.06 
-1.69631e-05 -5.97292e-06 2.68783e+25 0.0301169 0.0608611 272.675 
-1.50517e-05 -5.97292e-06 2.69321e+25 -0.323237 1.55414 271.941 
-1.31404e-05 -5.97292e-06 2.69546e+25 -0.896562 2.10987 271.695 
-1.12291e-05 -5.97292e-06 2.69325e+25 -1.74676 2.58968 271.792 
-9.31775e-06 -5.97292e-06 2.69574e+25 -2.64889 2.8721 271.609 
-7.40642e-06 -5.97292e-06 2.69418e+25 -3.4509 2.99178 271.71 
-5.49508e-06 -5.97292e-06 2.69414e+25 -4.3236 2.23709 271.749 
-3.58375e-06 -5.97292e-06 2.69472e+25 -4.85612 2.09557 271.901 
-1.67242e-06 -5.97292e-06 2.69206e+25 -5.5898 1.18275 271.968 
-1.69631e-05 -5.49508e-06 2.68521e+25 -0.00580213 0.0673695 272.824 
-1.50517e-05 -5.49508e-06 2.69147e+25 -0.549652 1.71119 272.097 
-1.31404e-05 -5.49508e-06 2.69201e+25 -1.09983 2.3098 271.938 
-1.12291e-05 -5.49508e-06 2.69229e+25 -2.00058 2.76878 271.94 
-9.31775e-06 -5.49508e-06 2.69559e+25 -2.807 3.08176 271.633 
-7.40642e-06 -5.49508e-06 2.69669e+25 -3.87287 3.22795 271.491 
-5.49508e-06 -5.49508e-06 2.69452e+25 -4.56894 2.38869 271.765 
-3.58375e-06 -5.49508e-06 2.69294e+25 -5.2249 2.26997 271.943 
-1.67242e-06 -5.49508e-06 2.69085e+25 -5.71362 1.34474 272.077 
-1.69631e-05 -5.01725e-06 2.68557e+25 -0.00116642 0.058359 272.85 
-1.50517e-05 -5.01725e-06 2.69286e+25 -0.806343 1.84245 272.013 
-1.31404e-05 -5.01725e-06 2.69172e+25 -1.34623 2.57379 271.961 
-1.12291e-05 -5.01725e-06 2.69293e+25 -1.99063 2.97256 271.941 
-9.31775e-06 -5.01725e-06 2.69571e+25 -2.79071 3.32061 271.7 
-7.40642e-06 -5.01725e-06 2.69518e+25 -3.91089 3.41996 271.614 
-5.49508e-06 -5.01725e-06 2.69182e+25 -4.72626 2.54814 271.95 
-3.58375e-06 -5.01725e-06 2.69078e+25 -5.4567 2.44072 271.915 
-1.67242e-06 -5.01725e-06 2.69108e+25 -5.8922 1.54417 272.013 
-1.69631e-05 -4.53942e-06 2.68502e+25 -0.0320109 0.122771 272.819 
-1.50517e-05 -4.53942e-06 2.69324e+25 -0.689005 1.85355 272.07 
-1.31404e-05 -4.53942e-06 2.69126e+25 -1.18003 2.72917 272.007 
-1.12291e-05 -4.53942e-06 2.69245e+25 -2.0761 3.29095 271.94 
-9.31775e-06 -4.53942e-06 2.69401e+25 -2.92423 3.53863 271.788 
-7.40642e-06 -4.53942e-06 2.69445e+25 -4.01669 3.58604 271.871 
-5.49508e-06 -4.53942e-06 2.69315e+25 -4.81039 2.7194 271.85 
-3.58375e-06 -4.53942e-06 2.69316e+25 -5.46519 2.6223 271.801 
-1.67242e-06 -4.53942e-06 2.69096e+25 -5.95968 1.62501 271.953 
-1.69631e-05 -4.06158e-06 2.68444e+25 -0.0349408 0.20361 272.796 
-1.50517e-05 -4.06158e-06 2.69285e+25 -0.585632 2.04943 272.023 
-1.31404e-05 -4.06158e-06 2.69335e+25 -1.18006 2.94822 271.959 
-1.12291e-05 -4.06158e-06 2.69431e+25 -2.05776 3.61593 271.782 
-9.31775e-06 -4.06158e-06 2.6954e+25 -2.99445 3.77979 271.593 
-7.40642e-06 -4.06158e-06 2.69079e+25 -3.92022 3.76273 271.968 
-5.49508e-06 -4.06158e-06 2.69101e+25 -4.68796 3.07193 272.051 
-3.58375e-06 -4.06158e-06 2.69384e+25 -5.49165 2.73382 271.813 
-1.67242e-06 -4.06158e-06 2.69219e+25 -6.04931 1.65387 271.776 
-1.69631e-05 -3.58375e-06 2.68546e+25 -0.0592328 0.318497 272.756 
-1.50517e-05 -3.58375e-06 2.69184e+25 -0.448349 2.25087 272.065 
-1.31404e-05 -3.58375e-06 2.69342e+25 -0.869701 3.16886 271.962 
-1.12291e-05 -3.58375e-06 2.69351e+25 -1.98923 3.95576 271.769 
-9.31775e-06 -3.58375e-06 2.69611e+25 -3.02871 4.05465 271.573 
-7.40642e-06 -3.58375e-06 2.69178e+25 -3.87791 3.88153 271.937 
-5.49508e-06 -3.58375e-06 2.69002e+25 -4.97278 3.35 272.121 
-3.58375e-06 -3.58375e-06 2.6944e+25 -5.59666 2.80754 271.675 
-1.67242e-06 -3.58375e-06 2.6932e+25 -6.24089 1.83573 271.86 
-1.69631e-05 -3.10592e-06 2.68422e+25 -0.0368248 0.445509 272.837 
-1.50517e-05 -3.10592e-06 2.69163e+25 -0.400957 2.38019 272.025 
-1.31404e-05 -3.10592e-06 2.69127e+25 -1.03679 3.36543 272.108 
-1.12291e-05 -3.10592e-06 2.69273e+25 -1.9294 4.14556 271.838 
-9.31775e-06 -3.10592e-06 2.69577e+25 -2.87178 4.29029 271.609 
-7.40642e-06 -3.10592e-06 2.69337e+25 -3.84641 4.23404 271.904 
-5.49508e-06 -3.10592e-06 2.69251e+25 -5.04888 3.54558 271.875 
-3.58375e-06 -3.10592e-06 2.69252e+25 -5.73 2.95899 271.821 
-1.67242e-06 -3.10592e-06 2.69219e+25 -6.40025 1.94278 271.89 
-1.69631e-05 -2.62808e-06 2.68564e+25 0.054535 0.433341 272.74 
-1.50517e-05 -2.62808e-06 2.69037e+25 -0.328763 2.53577 272.147 
-1.31404e-05 -2.62808e-06 2.68949e+25 -1.20499 3.64754 272.214 
-1.12291e-05 -2.62808e-06 2.69283e+25 -1.7371 4.24451 271.821 
-9.31775e-06 -2.62808e-06 2.69295e+25 -2.83603 4.6879 271.817 
-7.40642e-06 -2.62808e-06 2.69348e+25 -4.00215 4.47096 271.872 
-5.49508e-06 -2.62808e-06 2.69191e+25 -4.99527 3.79085 271.874 
-3.58375e-06 -2.62808e-06 2.69247e+25 -5.76273 3.11314 271.843 
-1.67242e-06 -2.62808e-06 2.69228e+25 -6.5353 1.99528 271.813 
-1.69631e-05 -2.15025e-06 2.6857e+25 0.0586771 0.36612 272.812 
-1.50517e-05 -2.15025e-06 2.68963e+25 -0.316794 2.60333 272.195 
-1.31404e-05 -2.15025e-06 2.69106e+25 -1.11777 3.80156 272.029 
-1.12291e-05 -2.15025e-06 2.69329e+25 -1.80761 4.28697 271.8 
-9.31775e-06 -2.15025e-06 2.69461e+25 -2.81908 5.02633 271.658 
-7.40642e-06 -2.15025e-06 2.69289e+25 -3.9887 4.66309 271.909 
-5.49508e-06 -2.15025e-06 2.69262e+25 -4.84153 3.97471 271.811 
-3.58375e-06 -2.15025e-06 2.69151e+25 -5.7521 3.34007 271.879 
-1.67242e-06 -2.15025e-06 2.69326e+25 -6.39441 2.02529 271.676 
-1.69631e-05 -1.67242e-06 2.68564e+25 -0.0456089 0.335032 272.803 
-1.50517e-05 -1.67242e-06 2.6898e+25 -0.0936038 2.6421 272.258 
-1.31404e-05 -1.67242e-06 2.69331e+25 -1.03686 3.96833 272 
-1.12291e-05 -1.67242e-06 2.69475e+25 -1.8955 4.50702 271.611 
-9.31775e-06 -1.67242e-06 2.69411e+25 -2.77565 5.14541 271.636 
-7.40642e-06 -1.67242e-06 2.69209e+25 -3.85716 4.83119 271.902 
-5.49508e-06 -1.67242e-06 2.69232e+25 -4.6581 4.16 271.905 
-3.58375e-06 -1.67242e-06 2.68941e+25 -5.80644 3.59047 272.063 
-1.67242e-06 -1.67242e-06 2.69329e+25 -6.38164 2.26809 271.753 
-1.69631e-05 -1.19458e-06 2.6838e+25 -0.00791398 0.367174 272.863 
-1.50517e-05 -1.19458e-06 2.68989e+25 -0.0940164 2.73517 272.247 
-1.31404e-05 -1.19458e-06 2.69196e+25 -0.947036 4.10034 272.001 
-1.12291e-05 -1.19458e-06 2.69432e+25 -1.83186 4.91061 271.666 
-9.31775e-06 -1.19458e-06 2.69478e+25 -2.85381 5.3109 271.685 
-7.40642e-06 -1.19458e-06 2.6942e+25 -3.62604 5.13691 271.691 
-5.49508e-06 -1.19458e-06 2.6906e+25 -4.67114 4.31955 271.946 
-3.58375e-06 -1.19458e-06 2.68963e+25 -5.83106 3.84608 272.042 
-1.67242e-06 -1.19458e-06 2.69094e+25 -6.60739 2.56023 271.964 
-1.69631e-05 -7.1675e-07 2.6842e+25 -0.0581828 0.472282 272.832 
-1.50517e-05 -7.1675e-07 2.69111e+25 -0.136988 2.94057 272.173 
-1.31404e-05 -7.1675e-07 2.6912e+25 -0.89487 4.27779 272.065 
-1.12291e-05 -7.1675e-07 2.69097e+25 -1.73415 5.27716 271.965 
-9.31775e-06 -7.1675e-07 2.69384e+25 -2.78188 5.51649 271.694 
-7.40642e-06 -7.1675e-07 2.69215e+25 -3.62703 5.42827 271.76 
-5.49508e-06 -7.1675e-07 2.69059e+25 -4.77906 4.65442 272.008 
-3.58375e-06 -7.1675e-07 2.69036e+25 -5.9375 4.08594 271.952 
-1.67242e-06 -7.1675e-07 2.69229e+25 -6.81568 2.85802 271.876 
-1.69631e-05 -2.38917e-07 2.68193e+25 0.0219318 0.541448 272.796 
-1.50517e-05 -2.38917e-07 2.68892e+25 -0.222973 3.04851 272.101 
-1.31404e-05 -2.38917e-07 2.68965e+25 -0.711728 4.49985 271.964 
-1.12291e-05 -2.38917e-07 2.68785e+25 -1.79698 5.47283 272.042 
-9.31775e-06 -2.38917e-07 2.68902e+25 -2.95011 5.71507 271.902 
-7.40642e-06 -2.38917e-07 2.69149e+25 -3.83399 5.73844 271.826 
-5.49508e-06 -2.38917e-07 2.6911e+25 -4.83458 5.00692 271.896 
-3.58375e-06 -2.38917e-07 2.6892e+25 -5.79243 4.2899 271.945 
-1.67242e-06 -2.38917e-07 2.68729e+25 -6.84298 3.07429 272.009 
-1.64852e-05 -1.69631e-05 2.68482e+25 0.0127505 0.0331462 272.918 
-1.45739e-05 -1.69631e-05 2.68401e+25 -9.39562e-05 0.00706148 272.708 
-1.26626e-05 -1.69631e-05 2.6852e+25 -0.048458 -0.0115137 272.833 
-1.07512e-05 -1.69631e-05 2.68545e+25 -0.207542 -0.00294328 272.737 
-8.83992e-06 -1.69631e-05 2.68444e+25 -0.147694 0.00672336 272.858 
-6.92858e-06 -1.69631e-05 2.68543e+25 0.0630177 -0.0263697 272.787 
-5.01725e-06 -1.69631e-05 2.68376e+25 -0.25428 -0.0115072 272.854 
-3.10592e-06 -1.69631e-05 2.68336e+25 -0.104046 0.0101286 272.924 
-1.19458e-06 -1.69631e-05 2.68519e+25 -0.163884 0.00581124 272.918 
-1.64852e-05 -1.64852e-05 2.68849e+25 0.0857932 0.00617293 272.586 
-1.45739e-05 -1.64852e-05 2.68711e+25 -0.110566 -0.026564 272.535 
-1.26626e-05 -1.64852e-05 2.68685e+25 -0.177743 0.0322064 272.588 
-1.07512e-05 -1.64852e-05 2.68875e+25 0.0298045 -0.00126765 272.418 
-8.83992e-06 -1.64852e-05 2.68814e+25 -0.203198 -0.0404289 272.506 
-6.92858e-06 -1.64852e-05 2.68794e+25 -0.111415 -0.0368826 272.442 
-5.01725e-06 -1.64852e-05 2.68741e+25 -0.410047 0.00717261 272.53 
-3.10592e-06 -1.64852e-05 2.68652e+25 -0.273884 -0.00703795 272.675 
-1.19458e-06 -1.64852e-05 2.68603e+25 -0.282291 0.00103559 272.695 
-1.64852e-05 -1.60074e-05 2.69031e+25 0.0453435 -0.0960595 272.337 
-1.45739e-05 -1.60074e-05 2.69036e+25 -0.149169 0.00611796 272.248 
-1.26626e-05 -1.60074e-05 2.68839e+25 -0.209916 0.0993802 272.412 
-1.07512e-05 -1.60074e-05 2.68841e+25 -0.0290189 0.0629004 272.398 
-8.83992e-06 -1.60074e-05 2.69056e+25 -0.201767 -0.082281 272.25 
-6.92858e-06 -1.60074e-05 2.69092e+25 -0.379856 0.0128981 272.162 
-5.01725e-06 -1.60074e-05 2.69065e+25 -0.553877 0.120411 272.218 
-3.10592e-06 -1.60074e-05 2.6893e+25 -0.44426 0.0409527 272.341 
-1.19458e-06 -1.60074e-05 2.68592e+25 -0.539402 0.0740883 272.644 
-1.64852e-05 -1.55296e-05 2.68883e+25 -0.131232 -0.105738 272.409 
-1.45739e-05 -1.55296e-05 2.69151e+25 -0.203728 0.02528 272.114 
-1.26626e-05 -1.55296e-05 2.68906e+25 -0.251082 0.13662 272.277 
-1.07512e-05 -1.55296e-05 2.68984e+25 -0.187519 0.0724576 272.275 
-8.83992e-06 -1.55296e-05 2.69062e+25 -0.349442 -0.109543 272.208 
-6.92858e-06 -1.55296e-05 2.6921e+25 -0.58249 0.079515 272.034 
-5.01725e-06 -1.55296e-05 2.69058e+25 -0.783517 0.180083 272.191 
-3.10592e-06 -1.55296e-05 2.68931e+25 -0.687192 0.0351172 272.2 
-1.19458e-06 -1.55296e-05 2.68631e+25 -0.958525 0.231344 272.699 
-1.64852e-05 -1.50517e-05 2.68863e+25 -0.0872268 -0.0759392 272.447 
-1.45739e-05 -1.50517e-05 2.69263e+25 0.0670862 0.0303932 271.875 
-1.26626e-05 -1.50517e-05 2.68947e+25 -0.15504 0.213324 272.296 
-1.07512e-05 -1.50517e-05 2.69003e+25 -0.347818 0.0276451 272.167 
-8.83992e-06 -1.50517e-05 2.69193e+25 -0.501117 -0.0157893 272.101 
-6.92858e-06 -1.50517e-05 2.69202e+25 -0.750026 0.0571776 272.112 
-5.01725e-06 -1.50517e-05 2.69014e+25 -0.838364 0.170572 272.222 
-3.10592e-06 -1.50517e-05 2.68909e+25 -0.851952 0.0383513 272.32 
-1.19458e-06 -1.50517e-05 2.68784e+25 -1.2223 0.310309 272.439 
-1.64852e-05 -1.45739e-05 2.68839e+25 -0.00201283 -0.0172642 272.413 
-1.45739e-05 -1.45739e-05 2.69231e+25 0.151481 0.0124081 271.961 
-1.26626e-05 -1.45739e-05 2.68902e+25 -0.129621 0.319345 272.27 
-1.07512e-05 -1.45739e-05 2.69015e+25 -0.499299 -0.028124 272.195 
-8.83992e-06 -1.45739e-05 2.69244e+25 -0.939261 0.231711 272.042 
-6.92858e-06 -1.45739e-05 2.69001e+25 -0.978002 0.0670396 272.099 
-5.01725e-06 -1.45739e-05 2.69031e+25 -1.24095 0.141164 272.097 
-3.10592e-06 -1.45739e-05 2.68908e+25 -1.18801 0.0550127 272.291 
-1.19458e-06 -1.45739e-05 2.68915e+25 -1.4326 0.285827 272.373 
-1.64852e-05 -1.40961e-05 2.69001e+25 0.085608 -0.0230157 272.419 
-1.45739e-05 -1.40961e-05 2.69303e+25 0.0922741 0.055823 271.927 
-1.26626e-05 -1.40961e-05 2.6899e+25 -0.232942 0.312876 272.227 
-1.07512e-05 -1.40961e-05 2.69026e+25 -0.634732 0.00540507 272.139 
-8.83992e-06 -1.40961e-05 2.69305e+25 -0.882116 0.387474 271.935 
-6.92858e-06 -1.40961e-05 2.69221e+25 -1.22358 0.0963335 272.042 
-5.01725e-06 -1.40961e-05 2.69297e+25 -1.2959 0.121649 271.912 
-3.10592e-06 -1.40961e-05 2.68984e+25 -1.65589 0.0516283 272.247 
-1.19458e-06 -1.40961e-05 2.69128e+25 -1.46831 0.291123 272.164 
-1.64852e-05 -1.36182e-05 2.68907e+25 0.0845268 -0.0353422 272.473 
-1.45739e-05 -1.36182e-05 2.69174e+25 -0.23194 0.0989566 271.986 
-1.26626e-05 -1.36182e-05 2.69059e+25 -0.292196 0.433466 272.115 
-1.07512e-05 -1.36182e-05 2.6922e+25 -0.588554 0.205639 272.06 
-8.83992e-06 -1.36182e-05 2.69449e+25 -1.03341 0.546349 271.851 
-6.92858e-06 -1.36182e-05 2.69167e+25 -1.61414 0.232671 271.998 
-5.01725e-06 -1.36182e-05 2.69353e+25 -1.35672 0.221715 271.879 
-3.10592e-06 -1.36182e-05 2.69061e+25 -1.85638 -0.0702666 272.156 
-1.19458e-06 -1.36182e-05 2.69042e+25 -1.70951 0.197943 272.198 
-1.64852e-05 -1.31404e-05 2.68834e+25 0.0473171 -0.0591072 272.325 
-1.45739e-05 -1.31404e-05 2.69315e+25 -0.243512 0.0691125 271.881 
-1.26626e-05 -1.31404e-05 2.6915e+25 -0.314749 0.571235 271.987 
-1.07512e-05 -1.31404e-05 2.69289e+25 -0.68657 0.355136 271.948 
-8.83992e-06 -1.31404e-05 2.69153e+25 -1.33967 0.646119 271.978 
-6.92858e-06 -1.31404e-05 2.69565e+25 -1.70275 0.229939 271.681 
-5.01725e-06 -1.31404e-05 2.69503e+25 -1.64169 0.374211 271.763 
-3.10592e-06 -1.31404e-05 2.69156e+25 -2.14192 -0.0301644 272.028 
-1.19458e-06 -1.31404e-05 2.69163e+25 -2.07081 0.151029 272.137 
-1.64852e-05 -1.26626e-05 2.69177e+25 -0.050181 -0.0969477 272.208 
-1.45739e-05 -1.26626e-05 2.69358e+25 -0.146924 0.128332 271.846 
-1.26626e-05 -1.26626e-05 2.69261e+25 -0.450647 0.567742 271.978 
-1.07512e-05 -1.26626e-05 2.69442e+25 -0.91063 0.541507 271.917 
-8.83992e-06 -1.26626e-05 2.69427e+25 -1.31098 0.646759 271.852 
-6.92858e-06 -1.26626e-05 2.6934e+25 -1.9687 0.314581 271.839 
-5.01725e-06 -1.26626e-05 2.69172e+25 -1.96088 0.335068 272.018 
-3.10592e-06 -1.26626e-05 2.69238e+25 -2.30032 -0.0205176 271.956 
-1.19458e-06 -1.26626e-05 2.692e+25 -2.22837 0.0692806 272.081 
-1.64852e-05 -1.21847e-05 2.68945e+25 -0.0409597 -0.0505613 272.335 
-1.45739e-05 -1.21847e-05 2.69502e+25 -0.238018 0.257155 271.745 
-1.26626e-05 -1.21847e-05 2.69134e+25 -0.513056 0.575287 271.978 
-1.07512e-05 -1.21847e-05 2.69294e+25 -1.08057 0.721226 271.98 
-8.83992e-06 -1.21847e-05 2.69154e+25 -1.62516 0.706118 271.946 
-6.92858e-06 -1.21847e-05 2.69223e+25 -2.12726 0.480808 271.889 
-5.01725e-06 -1.21847e-05 2.69168e+25 -2.25404 0.323958 272.082 
-3.10592e-06 -1.21847e-05 2.69279e+25 -2.37543 0.0443112 271.9 
-1.19458e-06 -1.21847e-05 2.69277e+25 -2.42156 0.0461974 271.967 
-1.64852e-05 -1.17069e-05 2.68805e+25 -0.141603 0.142167 272.449 
-1.45739e-05 -1.17069e-05 2.69532e+25 -0.333195 0.306785 271.68 
-1.26626e-05 -1.17069e-05 2.69228e+25 -0.596811 0.659666 272.036 
-1.07512e-05 -1.17069e-05 2.69237e+25 -1.15286 0.812632 272.05 
-8.83992e-06 -1.17069e-05 2.69444e+25 -1.55118 0.823734 271.877 
-6.92858e-06 -1.17069e-05 2.6915e+25 -1.97409 0.451203 272.015 
-5.01725e-06 -1.17069e-05 2.69341e+25 -2.55024 0.416022 271.92 
-3.10592e-06 -1.17069e-05 2.6937e+25 -2.56144 0.115847 271.879 
-1.19458e-06 -1.17069e-05 2.69162e+25 -2.61934 0.0316578 272.06 
-1.64852e-05 -1.12291e-05 2.68845e+25 -0.0434671 0.155769 272.489 
-1.45739e-05 -1.12291e-05 2.6931e+25 -0.269822 0.469022 271.883 
-1.26626e-05 -1.12291e-05 2.69352e+25 -0.577399 0.669264 271.928 
-1.07512e-05 -1.12291e-05 2.69368e+25 -1.02244 0.894054 271.933 
-8.83992e-06 -1.12291e-05 2.69422e+25 -1.58526 1.007 271.87 
-6.92858e-06 -1.12291e-05 2.6923e+25 -2.04804 0.43838 272.048 
-5.01725e-06 -1.12291e-05 2.69335e+25 -2.74727 0.551578 271.779 
-3.10592e-06 -1.12291e-05 2.69238e+25 -2.85167 0.105177 271.982 
-1.19458e-06 -1.12291e-05 2.69116e+25 -2.98192 0.11608 272.068 
-1.64852e-05 -1.07512e-05 2.68779e+25 0.117642 0.205797 272.385 
-1.45739e-05 -1.07512e-05 2.69286e+25 -0.30388 0.573104 271.992 
-1.26626e-05 -1.07512e-05 2.69249e+25 -0.663849 0.77043 271.97 
-1.07512e-05 -1.07512e-05 2.69325e+25 -1.23445 0.991292 271.931 
-8.83992e-06 -1.07512e-05 2.69454e+25 -1.77921 1.16792 271.811 
-6.92858e-06 -1.07512e-05 2.69328e+25 -2.30397 0.572843 271.895 
-5.01725e-06 -1.07512e-05 2.69459e+25 -2.76606 0.652917 271.692 
-3.10592e-06 -1.07512e-05 2.69189e+25 -3.15847 0.204857 272.113 
-1.19458e-06 -1.07512e-05 2.68961e+25 -3.51314 0.286225 272.136 
-1.64852e-05 -1.02734e-05 2.68828e+25 -0.123059 0.184459 272.368 
-1.45739e-05 -1.02734e-05 2.6921e+25 -0.184999 0.75812 272.038 
-1.26626e-05 -1.02734e-05 2.69245e+25 -0.859734 1.03506 271.975 
-1.07512e-05 -1.02734e-05 2.69116e+25 -1.35263 1.23255 271.98 
-8.83992e-06 -1.02734e-05 2.6947e+25 -1.99234 1.30039 271.876 
-6.92858e-06 -1.02734e-05 2.69238e+25 -2.41774 0.728987 271.869 
-5.01725e-06 -1.02734e-05 2.6945e+25 -2.99739 0.781018 271.731 
-3.10592e-06 -1.02734e-05 2.69287e+25 -3.4158 0.323128 271.913 
-1.19458e-06 -1.02734e-05 2.6906e+25 -3.9496 0.289784 272.258 
-1.64852e-05 -9.79558e-06 2.68918e+25 -0.0296503 0.124899 272.365 
-1.45739e-05 -9.79558e-06 2.6932e+25 -0.122591 0.907735 271.882 
-1.26626e-05 -9.79558e-06 2.6928e+25 -0.854487 1.1394 271.867 
-1.07512e-05 -9.79558e-06 2.69097e+25 -1.20541 1.46087 272.017 
-8.83992e-06 -9.79558e-06 2.69409e+25 -2.0191 1.37074 271.903 
-6.92858e-06 -9.79558e-06 2.69142e+25 -2.605 0.96797 271.943 
-5.01725e-06 -9.79558e-06 2.69512e+25 -3.34283 0.813541 271.705 
-3.10592e-06 -9.79558e-06 2.69158e+25 -3.75026 0.581516 271.986 
-1.19458e-06 -9.79558e-06 2.69106e+25 -4.26911 0.306248 272.129 
-1.64852e-05 -9.31775e-06 2.68639e+25 -0.0749098 0.124852 272.58 
-1.45739e-05 -9.31775e-06 2.69378e+25 -0.00490301 0.865091 271.838 
-1.26626e-05 -9.31775e-06 2.6939e+25 -0.78572 1.30677 271.878 
-1.07512e-05 -9.31775e-06 2.69325e+25 -1.26375 1.59657 271.893 
-8.83992e-06 -9.31775e-06 2.69266e+25 -2.04408 1.53031 271.837 
-6.92858e-06 -9.31775e-06 2.69151e+25 -2.72483 1.33454 272.031 
-5.01725e-06 -9.31775e-06 2.69537e+25 -3.62701 0.830541 271.614 
-3.10592e-06 -9.31775e-06 2.69313e+25 -4.18767 0.797303 271.963 
-1.19458e-06 -9.31775e-06 2.69067e+25 -4.37787 0.318088 272.121 
-1.64852e-05 -8.83992e-06 2.68623e+25 -0.0700026 0.126358 272.573 
-1.45739e-05 -8.83992e-06 2.69457e+25 -0.115991 0.993406 271.901 
-1.26626e-05 -8.83992e-06 2.69456e+25 -0.654651 1.41959 271.704 
-1.07512e-05 -8.83992e-06 2.69323e+25 -1.50707 1.69281 271.853 
-8.83992e-06 -8.83992e-06 2.69498e+25 -2.02177 1.64596 271.752 
-6.92858e-06 -8.83992e-06 2.69067e+25 -2.99259 1.47886 272.101 
-5.01725e-06 -8.83992e-06 2.69659e+25 -3.57948 0.917672 271.522 
-3.10592e-06 -8.83992e-06 2.69212e+25 -4.30147 0.935945 271.965 
-1.19458e-06 -8.83992e-06 2.69147e+25 -4.70102 0.291822 272.24 
-1.64852e-05 -8.36208e-06 2.68684e+25 0.0151093 0.210157 272.511 
-1.45739e-05 -8.36208e-06 2.69452e+25 -0.224825 1.13721 271.954 
-1.26626e-05 -8.36208e-06 2.69534e+25 -0.8808 1.51638 271.665 
-1.07512e-05 -8.36208e-06 2.69397e+25 -1.61171 1.77038 271.842 
-8.83992e-06 -8.36208e-06 2.69379e+25 -2.01932 1.85168 271.825 
-6.92858e-06 -8.36208e-06 2.69088e+25 -2.905 1.61571 272.113 
-5.01725e-06 -8.36208e-06 2.69455e+25 -3.6599 1.16912 271.706 
-3.10592e-06 -8.36208e-06 2.6925e+25 -4.52744 1.0232 272.005 
-1.19458e-06 -8.36208e-06 2.68964e+25 -4.91905 0.218026 272.289 
-1.64852e-05 -7.88425e-06 2.6897e+25 0.0304339 0.356788 272.449 
-1.45739e-05 -7.88425e-06 2.69369e+25 -0.305969 1.18128 271.902 
-1.26626e-05 -7.88425e-06 2.6937e+25 -0.939943 1.7018 271.65 
-1.07512e-05 -7.88425e-06 2.69232e+25 -1.51203 1.82084 271.95 
-8.83992e-06 -7.88425e-06 2.69384e+25 -2.18516 2.08579 271.928 
-6.92858e-06 -7.88425e-06 2.69191e+25 -3.04102 1.83886 271.979 
-5.01725e-06 -7.88425e-06 2.69341e+25 -3.72318 1.39668 271.813 
-3.10592e-06 -7.88425e-06 2.69211e+25 -4.52978 1.18039 272.019 
-1.19458e-06 -7.88425e-06 2.69082e+25 -5.0872 0.247399 272.246 
-1.64852e-05 -7.40642e-06 2.68932e+25 0.139647 0.313446 272.364 
-1.45739e-05 -7.40642e-06 2.69209e+25 -0.521647 1.37254 271.96 
-1.26626e-05 -7.40642e-06 2.69489e+25 -0.891602 1.96592 271.77 
-1.07512e-05 -7.40642e-06 2.69232e+25 -1.55731 2.00121 271.915 
-8.83992e-06 -7.40642e-06 2.69616e+25 -2.19127 2.31042 271.788 
-6.92858e-06 -7.40642e-06 2.69087e+25 -3.16144 2.09995 272.002 
-5.01725e-06 -7.40642e-06 2.69389e+25 -3.88537 1.54315 271.859 
-3.10592e-06 -7.40642e-06 2.69169e+25 -4.70296 1.25718 272.07 
-1.19458e-06 -7.40642e-06 2.6908e+25 -5.06854 0.391355 272.115 
-1.64852e-05 -6.92858e-06 2.68946e+25 0.0166958 0.286155 272.353 
-1.45739e-05 -6.92858e-06 2.69268e+25 -0.471388 1.64321 271.901 
-1.26626e-05 -6.92858e-06 2.69435e+25 -0.92881 2.08267 271.746 
-1.07512e-05 -6.92858e-06 2.6934e+25 -1.76199 2.18746 271.889 
-8.83992e-06 -6.92858e-06 2.69546e+25 -2.41773 2.40436 271.548 
-6.92858e-06 -6.92858e-06 2.6921e+25 -3.38253 2.34476 271.977 
-5.01725e-06 -6.92858e-06 2.69414e+25 -4.02646 1.69121 271.851 
-3.10592e-06 -6.92858e-06 2.693e+25 -4.81202 1.33816 271.926 
-1.19458e-06 -6.92858e-06 2.69259e+25 -5.23889 0.570069 272.059 
-1.64852e-05 -6.45075e-06 2.69e+25 0.0046614 0.174867 272.319 
-1.45739e-05 -6.45075e-06 2.69131e+25 -0.321942 1.80433 272.019 
-1.26626e-05 -6.45075e-06 2.69651e+25 -0.903827 2.21987 271.664 
-1.07512e-05 -6.45075e-06 2.69421e+25 -1.86684 2.52048 271.814 
-8.83992e-06 -6.45075e-06 2.6954e+25 -2.72529 2.58557 271.663 
-6.92858e-06 -6.45075e-06 2.6935e+25 -3.39064 2.60471 271.944 
-5.01725e-06 -6.45075e-06 2.6956e+25 -4.16354 1.86377 271.706 
-3.10592e-06 -6.45075e-06 2.6926e+25 -4.93492 1.57234 271.891 
-1.19458e-06 -6.45075e-06 2.69103e+25 -5.59278 0.700794 272.036 
-1.64852e-05 -5.97292e-06 2.68963e+25 -0.0688786 0.252819 272.414 
-1.45739e-05 -5.97292e-06 2.69209e+25 -0.494318 1.88666 271.976 
-1.26626e-05 -5.97292e-06 2.69418e+25 -1.11084 2.44574 271.782 
-1.07512e-05 -5.97292e-06 2.69476e+25 -2.02191 2.81795 271.724 
-8.83992e-06 -5.97292e-06 2.69609e+25 -2.91116 2.84584 271.599 
-6.92858e-06 -5.97292e-06 2.69466e+25 -3.71437 2.93517 271.668 
-5.01725e-06 -5.97292e-06 2.69527e+25 -4.42519 2.00081 271.636 
-3.10592e-06 -5.97292e-06 2.69193e+25 -5.04872 1.78257 271.943 
-1.19458e-06 -5.97292e-06 2.69283e+25 -5.8066 0.80093 272.031 
-1.64852e-05 -5.49508e-06 2.68754e+25 -0.0571507 0.382287 272.595 
-1.45739e-05 -5.49508e-06 2.69054e+25 -0.629231 2.06334 272.079 
-1.26626e-05 -5.49508e-06 2.69387e+25 -1.3912 2.7152 271.78 
-1.07512e-05 -5.49508e-06 2.69572e+25 -2.12317 3.03762 271.656 
-8.83992e-06 -5.49508e-06 2.69555e+25 -3.02892 3.04218 271.545 
-6.92858e-06 -5.49508e-06 2.69436e+25 -4.00015 3.09277 271.621 
-5.01725e-06 -5.49508e-06 2.69757e+25 -4.72373 2.07495 271.445 
-3.10592e-06 -5.49508e-06 2.69365e+25 -5.36943 1.92897 271.857 
-1.19458e-06 -5.49508e-06 2.68997e+25 -5.87684 0.98964 272.144 
-1.64852e-05 -5.01725e-06 2.68746e+25 -0.0663346 0.553497 272.336 
-1.45739e-05 -5.01725e-06 2.69099e+25 -0.832383 2.0287 272.053 
-1.26626e-05 -5.01725e-06 2.6939e+25 -1.46344 2.88199 271.887 
-1.07512e-05 -5.01725e-06 2.69631e+25 -2.27645 3.17648 271.664 
-8.83992e-06 -5.01725e-06 2.69595e+25 -3.04326 3.32508 271.554 
-6.92858e-06 -5.01725e-06 2.69379e+25 -4.11892 3.23732 271.7 
-5.01725e-06 -5.01725e-06 2.6948e+25 -4.92475 2.29962 271.685 
-3.10592e-06 -5.01725e-06 2.69315e+25 -5.61672 2.02893 271.931 
-1.19458e-06 -5.01725e-06 2.69023e+25 -6.09171 1.1455 272.155 
-1.64852e-05 -4.53942e-06 2.6878e+25 -0.154037 0.643341 272.326 
-1.45739e-05 -4.53942e-06 2.69023e+25 -0.705799 2.07617 272.153 
-1.26626e-05 -4.53942e-06 2.69182e+25 -1.28251 2.92418 271.955 
-1.07512e-05 -4.53942e-06 2.695e+25 -2.29213 3.41409 271.732 
-8.83992e-06 -4.53942e-06 2.6931e+25 -3.15211 3.57559 271.733 
-6.92858e-06 -4.53942e-06 2.69008e+25 -4.15712 3.44643 272.007 
-5.01725e-06 -4.53942e-06 2.69337e+25 -5.00586 2.54902 271.906 
-3.10592e-06 -4.53942e-06 2.69262e+25 -5.65844 2.23907 271.927 
-1.19458e-06 -4.53942e-06 2.69057e+25 -6.04645 1.35073 271.996 
-1.64852e-05 -4.06158e-06 2.68765e+25 -0.138265 0.805571 272.429 
-1.45739e-05 -4.06158e-06 2.69213e+25 -0.764432 2.11075 272.134 
-1.26626e-05 -4.06158e-06 2.69202e+25 -1.32996 3.05007 272.03 
-1.07512e-05 -4.06158e-06 2.69512e+25 -2.33364 3.59408 271.671 
-8.83992e-06 -4.06158e-06 2.6951e+25 -3.39395 3.85612 271.736 
-6.92858e-06 -4.06158e-06 2.68989e+25 -4.06713 3.58584 272.155 
-5.01725e-06 -4.06158e-06 2.6901e+25 -5.0074 2.6894 271.994 
-3.10592e-06 -4.06158e-06 2.69343e+25 -5.58476 2.42355 271.83 
-1.19458e-06 -4.06158e-06 2.69249e+25 -6.13199 1.51477 271.896 
-1.64852e-05 -3.58375e-06 2.68872e+25 -0.230912 0.916687 272.468 
-1.45739e-05 -3.58375e-06 2.69093e+25 -0.559713 2.20114 272.101 
-1.26626e-05 -3.58375e-06 2.69171e+25 -1.19944 3.32175 271.97 
-1.07512e-05 -3.58375e-06 2.69346e+25 -2.26236 3.81072 271.784 
-8.83992e-06 -3.58375e-06 2.69321e+25 -3.26566 4.26755 271.705 
-6.92858e-06 -3.58375e-06 2.68875e+25 -4.11547 3.82865 272.147 
-5.01725e-06 -3.58375e-06 2.69008e+25 -5.20494 2.96784 272.144 
-3.10592e-06 -3.58375e-06 2.69316e+25 -5.74289 2.59305 271.727 
-1.19458e-06 -3.58375e-06 2.69104e+25 -6.40118 1.53535 272.018 
-1.64852e-05 -3.10592e-06 2.68699e+25 -0.122818 1.06392 272.54 
-1.45739e-05 -3.10592e-06 2.69139e+25 -0.565369 2.39384 272.063 
-1.26626e-05 -3.10592e-06 2.69402e+25 -1.33257 3.65437 271.85 
-1.07512e-05 -3.10592e-06 2.69507e+25 -2.01306 3.97083 271.684 
-8.83992e-06 -3.10592e-06 2.6946e+25 -3.17738 4.57578 271.705 
-6.92858e-06 -3.10592e-06 2.69101e+25 -4.18558 4.09155 271.936 
-5.01725e-06 -3.10592e-06 2.69134e+25 -5.32671 3.21177 272.012 
-3.10592e-06 -3.10592e-06 2.69286e+25 -5.88019 2.78141 271.871 
-1.19458e-06 -3.10592e-06 2.69139e+25 -6.50611 1.66831 271.96 
-1.64852e-05 -2.62808e-06 2.68788e+25 0.0251667 1.16801 272.438 
-1.45739e-05 -2.62808e-06 2.69291e+25 -0.489934 2.562 272.021 
-1.26626e-05 -2.62808e-06 2.69208e+25 -1.4356 3.90473 272.019 
-1.07512e-05 -2.62808e-06 2.69233e+25 -1.99338 4.18847 271.779 
-8.83992e-06 -2.62808e-06 2.69374e+25 -3.13239 4.75927 271.813 
-6.92858e-06 -2.62808e-06 2.69157e+25 -4.22283 4.42331 272.016 
-5.01725e-06 -2.62808e-06 2.69312e+25 -5.22466 3.44257 271.761 
-3.10592e-06 -2.62808e-06 2.69221e+25 -5.97962 3.00712 271.832 
-1.19458e-06 -2.62808e-06 2.693e+25 -6.50808 1.69764 271.808 
-1.64852e-05 -2.15025e-06 2.6882e+25 0.0704906 1.27495 272.473 
-1.45739e-05 -2.15025e-06 2.69161e+25 -0.507237 2.81929 272.093 
-1.26626e-05 -2.15025e-06 2.69227e+25 -1.27116 4.07496 271.965 
-1.07512e-05 -2.15025e-06 2.69345e+25 -2.04241 4.59029 271.742 
-8.83992e-06 -2.15025e-06 2.69505e+25 -3.03738 4.96679 271.628 
-6.92858e-06 -2.15025e-06 2.6922e+25 -4.13987 4.64742 272.007 
-5.01725e-06 -2.15025e-06 2.69422e+25 -5.01599 3.65035 271.835 
-3.10592e-06 -2.15025e-06 2.69189e+25 -5.97297 3.19788 271.937 
-1.19458e-06 -2.15025e-06 2.692e+25 -6.52627 1.79613 271.782 
-1.64852e-05 -1.67242e-06 2.68748e+25 -0.0238 1.24029 272.571 
-1.45739e-05 -1.67242e-06 2.69056e+25 -0.316456 3.14374 272.131 
-1.26626e-05 -1.67242e-06 2.69287e+25 -1.17603 4.2258 271.875 
-1.07512e-05 -1.67242e-06 2.69385e+25 -2.18134 4.86675 271.696 
-8.83992e-06 -1.67242e-06 2.69528e+25 -3.02488 5.27425 271.636 
-6.92858e-06 -1.67242e-06 2.6914e+25 -4.10153 4.82354 271.854 
-5.01725e-06 -1.67242e-06 2.6924e+25 -4.88896 3.95251 271.89 
-3.10592e-06 -1.67242e-06 2.69117e+25 -5.92139 3.26956 272.004 
-1.19458e-06 -1.67242e-06 2.69325e+25 -6.70171 2.01971 271.751 
-1.64852e-05 -1.19458e-06 2.68605e+25 -0.0195966 1.18173 272.639 
-1.45739e-05 -1.19458e-06 2.69022e+25 -0.306392 3.46151 272.155 
-1.26626e-05 -1.19458e-06 2.69286e+25 -1.08616 4.40319 271.942 
-1.07512e-05 -1.19458e-06 2.69392e+25 -2.17957 5.09046 271.745 
-8.83992e-06 -1.19458e-06 2.69544e+25 -2.99062 5.53804 271.698 
-6.92858e-06 -1.19458e-06 2.69458e+25 -3.9257 5.06334 271.697 
-5.01725e-06 -1.19458e-06 2.69104e+25 -4.90919 4.25115 271.966 
-3.10592e-06 -1.19458e-06 2.69137e+25 -5.97771 3.33062 271.94 
-1.19458e-06 -1.19458e-06 2.69085e+25 -6.86226 2.26511 271.969 
-1.64852e-05 -7.1675e-07 2.68594e+25 -0.0714959 1.10495 272.668 
-1.45739e-05 -7.1675e-07 2.68917e+25 -0.239227 3.59963 272.231 
-1.26626e-05 -7.1675e-07 2.69301e+25 -1.09803 4.52604 271.993 
-1.07512e-05 -7.1675e-07 2.69275e+25 -2.0297 5.33009 271.77 
-8.83992e-06 -7.1675e-07 2.69276e+25 -2.9585 5.66069 271.83 
-6.92858e-06 -7.1675e-07 2.69204e+25 -3.98446 5.42216 271.719 
-5.01725e-06 -7.1675e-07 2.69019e+25 -5.04497 4.43131 272.019 
-3.10592e-06 -7.1675e-07 2.69253e+25 -6.19756 3.46642 271.886 
-1.19458e-06 -7.1675e-07 2.68993e+25 -6.97398 2.41079 272.023 
-1.64852e-05 -2.38917e-07 2.68419e+25 -0.0567259 1.09274 272.621 
-1.45739e-05 -2.38917e-07 2.6883e+25 -0.208613 3.59295 272.222 
-1.26626e-05 -2.38917e-07 2.68922e+25 -0.938995 4.7426 272.031 
-1.07512e-05 -2.38917e-07 2.69097e+25 -2.01424 5.64757 271.821 
-8.83992e-06 -2.38917e-07 2.68995e+25 -3.12195 5.87851 271.884 
-6.92858e-06 -2.38917e-07 2.69079e+25 -4.00476 5.70242 271.721 
-5.01725e-06 -2.38917e-07 2.68991e+25 -5.15626 4.73939 271.884 
-3.10592e-06 -2.38917e-07 2.68999e+25 -6.1309 3.83564 271.852 
-1.19458e-06 -2.38917e-07 2.68792e+25 -7.0409 2.56058 272.04 
-1.60074e-05 -1.69631e-05 2.68435e+25 0.00280176 0.0146398 272.872 
-1.40961e-05 -1.69631e-05 2.68604e+25 -0.0128616 0.00681347 272.633 
-1.21847e-05 -1.69631e-05 2.68414e+25 -0.0690616 -0.00137199 272.785 
-1.02734e-05 -1.69631e-05 2.68466e+25 -0.131959 -0.0482404 272.773 
-8.36208e-06 -1.69631e-05 2.68617e+25 -0.130749 0.00536049 272.762 
-6.45075e-06 -1.69631e-05 2.68632e+25 0.0419951 0.0280596 272.686 
-4.53942e-06 -1.69631e-05 2.68495e+25 -0.190416 -0.0570924 272.849 
-2.62808e-06 -1.69631e-05 2.68288e+25 -0.0885955 -0.00555345 272.948 
-7.1675e-07 -1.69631e-05 2.68504e+25 -0.215348 0.0103688 272.801 
-1.60074e-05 -1.64852e-05 2.68845e+25 0.0865816 0.0501486 272.405 
-1.40961e-05 -1.64852e-05 2.68809e+25 -0.0657102 0.030594 272.457 
-1.21847e-05 -1.64852e-05 2.68688e+25 -0.220444 0.0455974 272.533 
-1.02734e-05 -1.64852e-05 2.68726e+25 -0.117272 0.00217352 272.62 
-8.36208e-06 -1.64852e-05 2.68867e+25 -0.176569 -0.0352321 272.429 
-6.45075e-06 -1.64852e-05 2.68861e+25 -0.142447 0.134241 272.425 
-4.53942e-06 -1.64852e-05 2.68766e+25 -0.38927 -0.137322 272.388 
-2.62808e-06 -1.64852e-05 2.68521e+25 -0.303399 0.0215758 272.629 
-7.1675e-07 -1.64852e-05 2.68642e+25 -0.292814 0.0123827 272.558 
-1.60074e-05 -1.60074e-05 2.69229e+25 0.14825 0.0804236 272.198 
-1.40961e-05 -1.60074e-05 2.68929e+25 -0.168632 -0.00749348 272.328 
-1.21847e-05 -1.60074e-05 2.68916e+25 -0.214596 0.011861 272.315 
-1.02734e-05 -1.60074e-05 2.68678e+25 -0.130395 0.21398 272.559 
-8.36208e-06 -1.60074e-05 2.69017e+25 -0.210446 -0.0213784 272.306 
-6.45075e-06 -1.60074e-05 2.69033e+25 -0.427536 0.127618 272.212 
-4.53942e-06 -1.60074e-05 2.69005e+25 -0.609544 -0.227173 272.273 
-2.62808e-06 -1.60074e-05 2.68787e+25 -0.517463 0.0337855 272.464 
-7.1675e-07 -1.60074e-05 2.68677e+25 -0.65641 0.0731567 272.578 
-1.60074e-05 -1.55296e-05 2.69143e+25 -0.100863 -0.0569764 272.131 
-1.40961e-05 -1.55296e-05 2.69231e+25 -0.196856 -0.0630011 272.085 
-1.21847e-05 -1.55296e-05 2.68858e+25 -0.303255 -0.0111752 272.363 
-1.02734e-05 -1.55296e-05 2.68702e+25 -0.166342 0.223065 272.505 
-8.36208e-06 -1.55296e-05 2.69068e+25 -0.36106 -0.0225501 272.184 
-6.45075e-06 -1.55296e-05 2.69133e+25 -0.563451 0.190542 272.057 
-4.53942e-06 -1.55296e-05 2.69162e+25 -0.783297 -0.253174 272.167 
-2.62808e-06 -1.55296e-05 2.68939e+25 -0.66788 0.0731034 272.233 
-7.1675e-07 -1.55296e-05 2.68684e+25 -1.06141 0.166805 272.487 
-1.60074e-05 -1.50517e-05 2.69129e+25 -0.178944 -0.021171 272.213 
-1.40961e-05 -1.50517e-05 2.6917e+25 0.0693608 -0.0130847 272.141 
-1.21847e-05 -1.50517e-05 2.68907e+25 -0.201086 0.0236883 272.327 
-1.02734e-05 -1.50517e-05 2.68892e+25 -0.2844 0.270121 272.342 
-8.36208e-06 -1.50517e-05 2.6913e+25 -0.671898 0.0762925 272.109 
-6.45075e-06 -1.50517e-05 2.69157e+25 -0.841235 0.226678 272.107 
-4.53942e-06 -1.50517e-05 2.69203e+25 -0.932164 -0.165752 272.084 
-2.62808e-06 -1.50517e-05 2.69141e+25 -0.872662 0.0548156 272.234 
-7.1675e-07 -1.50517e-05 2.68914e+25 -1.21887 0.232885 272.378 
-1.60074e-05 -1.45739e-05 2.6915e+25 0.0217238 -0.0949973 272.12 
-1.40961e-05 -1.45739e-05 2.69163e+25 0.0985472 0.0541135 272.043 
-1.21847e-05 -1.45739e-05 2.68919e+25 -0.192912 0.069545 272.422 
-1.02734e-05 -1.45739e-05 2.69108e+25 -0.493742 0.243057 272.13 
-8.36208e-06 -1.45739e-05 2.69037e+25 -1.02129 0.12613 272.138 
-6.45075e-06 -1.45739e-05 2.69095e+25 -0.949926 0.285349 272.005 
-4.53942e-06 -1.45739e-05 2.69016e+25 -1.15756 -0.130362 272.161 
-2.62808e-06 -1.45739e-05 2.69039e+25 -1.26298 0.159608 272.129 
-7.1675e-07 -1.45739e-05 2.6871e+25 -1.35272 0.21426 272.444 
-1.60074e-05 -1.40961e-05 2.68981e+25 0.0702218 -0.0736021 272.301 
-1.40961e-05 -1.40961e-05 2.69313e+25 0.00329578 0.0936349 272.004 
-1.21847e-05 -1.40961e-05 2.6917e+25 -0.286176 0.192759 272.288 
-1.02734e-05 -1.40961e-05 2.69203e+25 -0.657628 0.230539 272.015 
-8.36208e-06 -1.40961e-05 2.69021e+25 -1.04246 0.190509 272.055 
-6.45075e-06 -1.40961e-05 2.69359e+25 -1.27812 0.272085 271.928 
-4.53942e-06 -1.40961e-05 2.69313e+25 -1.40294 -0.0277269 271.93 
-2.62808e-06 -1.40961e-05 2.68911e+25 -1.60364 0.189056 272.298 
-7.1675e-07 -1.40961e-05 2.68981e+25 -1.44176 0.13898 272.21 
-1.60074e-05 -1.36182e-05 2.68988e+25 0.0692155 -0.00312072 272.271 
-1.40961e-05 -1.36182e-05 2.69163e+25 -0.198469 0.135906 271.965 
-1.21847e-05 -1.36182e-05 2.69189e+25 -0.434694 0.286933 272.035 
-1.02734e-05 -1.36182e-05 2.692e+25 -0.86366 0.317778 272.052 
-8.36208e-06 -1.36182e-05 2.69269e+25 -1.23741 0.424319 271.858 
-6.45075e-06 -1.36182e-05 2.6929e+25 -1.63471 0.236972 271.91 
-4.53942e-06 -1.36182e-05 2.69358e+25 -1.57506 0.153595 271.978 
-2.62808e-06 -1.36182e-05 2.68938e+25 -1.83255 0.193913 272.307 
-7.1675e-07 -1.36182e-05 2.68958e+25 -1.65081 0.13428 272.128 
-1.60074e-05 -1.31404e-05 2.68884e+25 -0.0311402 0.0888237 272.24 
-1.40961e-05 -1.31404e-05 2.69327e+25 -0.192212 0.0615036 271.846 
-1.21847e-05 -1.31404e-05 2.6926e+25 -0.327484 0.33961 271.903 
-1.02734e-05 -1.31404e-05 2.69389e+25 -0.865323 0.584457 271.904 
-8.36208e-06 -1.31404e-05 2.69365e+25 -1.40871 0.584933 271.852 
-6.45075e-06 -1.31404e-05 2.69296e+25 -1.77539 0.318799 271.815 
-4.53942e-06 -1.31404e-05 2.69624e+25 -1.6986 0.296588 271.678 
-2.62808e-06 -1.31404e-05 2.69281e+25 -2.04885 0.0930874 272.112 
-7.1675e-07 -1.31404e-05 2.68995e+25 -1.99775 0.0626173 272.239 
-1.60074e-05 -1.26626e-05 2.69317e+25 -0.0322086 0.195635 271.947 
-1.40961e-05 -1.26626e-05 2.69278e+25 -0.265447 0.077251 271.958 
-1.21847e-05 -1.26626e-05 2.69293e+25 -0.464279 0.268625 271.883 
-1.02734e-05 -1.26626e-05 2.69325e+25 -1.10407 0.759432 271.875 
-8.36208e-06 -1.26626e-05 2.6925e+25 -1.38699 0.691618 271.977 
-6.45075e-06 -1.26626e-05 2.6931e+25 -2.08434 0.423902 271.852 
-4.53942e-06 -1.26626e-05 2.69279e+25 -2.05388 0.442082 271.839 
-2.62808e-06 -1.26626e-05 2.69149e+25 -2.35396 0.0769355 272.073 
-7.1675e-07 -1.26626e-05 2.69195e+25 -2.12659 0.0282015 271.99 
-1.60074e-05 -1.21847e-05 2.69198e+25 -0.194237 0.251138 272.117 
-1.40961e-05 -1.21847e-05 2.6936e+25 -0.359158 0.224745 271.917 
-1.21847e-05 -1.21847e-05 2.69302e+25 -0.613837 0.403295 271.937 
-1.02734e-05 -1.21847e-05 2.69397e+25 -1.12956 0.893125 271.756 
-8.36208e-06 -1.21847e-05 2.69172e+25 -1.68156 0.824202 271.927 
-6.45075e-06 -1.21847e-05 2.69244e+25 -2.17335 0.4118 272.002 
-4.53942e-06 -1.21847e-05 2.69262e+25 -2.28416 0.491107 271.969 
-2.62808e-06 -1.21847e-05 2.69135e+25 -2.41129 0.0984832 272.024 
-7.1675e-07 -1.21847e-05 2.692e+25 -2.4905 -0.0136582 271.964 
-1.60074e-05 -1.17069e-05 2.69215e+25 -0.108139 0.19568 272.053 
-1.40961e-05 -1.17069e-05 2.69421e+25 -0.429124 0.320598 271.819 
-1.21847e-05 -1.17069e-05 2.69116e+25 -0.734164 0.568493 272.093 
-1.02734e-05 -1.17069e-05 2.69342e+25 -1.24147 0.922547 271.87 
-8.36208e-06 -1.17069e-05 2.69193e+25 -1.67408 0.90083 271.972 
-6.45075e-06 -1.17069e-05 2.69195e+25 -2.01083 0.526301 272.06 
-4.53942e-06 -1.17069e-05 2.69287e+25 -2.50543 0.467052 271.973 
-2.62808e-06 -1.17069e-05 2.69265e+25 -2.59189 0.112357 272.011 
-7.1675e-07 -1.17069e-05 2.69232e+25 -2.67579 0.0845306 272.047 
-1.60074e-05 -1.12291e-05 2.69088e+25 -0.108628 0.199604 272.132 
-1.40961e-05 -1.12291e-05 2.69417e+25 -0.425071 0.480127 271.836 
-1.21847e-05 -1.12291e-05 2.68991e+25 -0.687604 0.756997 272.173 
-1.02734e-05 -1.12291e-05 2.69285e+25 -1.07887 1.00943 271.993 
-8.36208e-06 -1.12291e-05 2.69231e+25 -1.80844 1.07756 271.987 
-6.45075e-06 -1.12291e-05 2.69259e+25 -2.16112 0.626196 272.038 
-4.53942e-06 -1.12291e-05 2.69432e+25 -2.79813 0.425221 271.802 
-2.62808e-06 -1.12291e-05 2.69243e+25 -2.95824 0.188936 272.053 
-7.1675e-07 -1.12291e-05 2.69346e+25 -3.08099 0.158861 272.075 
-1.60074e-05 -1.07512e-05 2.69098e+25 0.054287 0.257624 272.25 
-1.40961e-05 -1.07512e-05 2.69291e+25 -0.426521 0.565613 272.032 
-1.21847e-05 -1.07512e-05 2.69239e+25 -0.83126 0.922083 272.056 
-1.02734e-05 -1.07512e-05 2.69329e+25 -1.37009 1.15001 271.895 
-8.36208e-06 -1.07512e-05 2.6912e+25 -1.92427 1.23115 272.01 
-6.45075e-06 -1.07512e-05 2.69245e+25 -2.34477 0.618921 272.052 
-4.53942e-06 -1.07512e-05 2.69326e+25 -2.83877 0.46275 271.855 
-2.62808e-06 -1.07512e-05 2.69105e+25 -3.25411 0.218327 272.103 
-7.1675e-07 -1.07512e-05 2.69039e+25 -3.53045 0.156928 272.034 
-1.60074e-05 -1.02734e-05 2.69033e+25 -0.151855 0.337192 272.198 
-1.40961e-05 -1.02734e-05 2.69249e+25 -0.404421 0.693997 272.009 
-1.21847e-05 -1.02734e-05 2.69233e+25 -0.997618 0.980177 272.018 
-1.02734e-05 -1.02734e-05 2.6923e+25 -1.60117 1.23952 271.938 
-8.36208e-06 -1.02734e-05 2.69338e+25 -2.12041 1.35451 271.856 
-6.45075e-06 -1.02734e-05 2.69313e+25 -2.62645 0.751235 271.892 
-4.53942e-06 -1.02734e-05 2.69562e+25 -3.03546 0.500246 271.663 
-2.62808e-06 -1.02734e-05 2.69106e+25 -3.61989 0.387811 272.136 
-7.1675e-07 -1.02734e-05 2.68982e+25 -3.98825 0.217823 272.225 
-1.60074e-05 -9.79558e-06 2.69094e+25 -0.0145749 0.379999 272.1 
-1.40961e-05 -9.79558e-06 2.6918e+25 -0.197793 0.824674 271.943 
-1.21847e-05 -9.79558e-06 2.69324e+25 -1.02344 1.1399 271.856 
-1.02734e-05 -9.79558e-06 2.69401e+25 -1.4352 1.47667 272.01 
-8.36208e-06 -9.79558e-06 2.69237e+25 -2.13193 1.50513 271.817 
-6.45075e-06 -9.79558e-06 2.69223e+25 -2.95107 1.02981 271.941 
-4.53942e-06 -9.79558e-06 2.69433e+25 -3.4259 0.553376 271.665 
-2.62808e-06 -9.79558e-06 2.69096e+25 -3.9576 0.573207 272.092 
-7.1675e-07 -9.79558e-06 2.68946e+25 -4.21877 0.147237 272.177 
-1.60074e-05 -9.31775e-06 2.68915e+25 -0.0142946 0.359291 272.328 
-1.40961e-05 -9.31775e-06 2.69321e+25 -0.143243 1.05363 271.773 
-1.21847e-05 -9.31775e-06 2.69607e+25 -0.845399 1.25677 271.688 
-1.02734e-05 -9.31775e-06 2.69316e+25 -1.49639 1.77581 271.92 
-8.36208e-06 -9.31775e-06 2.69535e+25 -2.14843 1.59646 271.885 
-6.45075e-06 -9.31775e-06 2.6925e+25 -2.91449 1.19151 271.921 
-4.53942e-06 -9.31775e-06 2.69479e+25 -3.7048 0.652942 271.681 
-2.62808e-06 -9.31775e-06 2.69187e+25 -4.29443 0.721203 272.089 
-7.1675e-07 -9.31775e-06 2.69202e+25 -4.37002 0.0989034 272.159 
-1.60074e-05 -8.83992e-06 2.68774e+25 -0.0812836 0.282848 272.413 
-1.40961e-05 -8.83992e-06 2.69346e+25 -0.26306 1.21823 271.814 
-1.21847e-05 -8.83992e-06 2.69552e+25 -0.777545 1.37361 271.635 
-1.02734e-05 -8.83992e-06 2.69355e+25 -1.55855 1.94365 271.961 
-8.36208e-06 -8.83992e-06 2.69256e+25 -2.18952 1.74575 271.999 
-6.45075e-06 -8.83992e-06 2.6929e+25 -3.07344 1.32949 271.899 
-4.53942e-06 -8.83992e-06 2.69461e+25 -3.74794 0.82763 271.798 
-2.62808e-06 -8.83992e-06 2.69215e+25 -4.51311 0.868302 272.144 
-7.1675e-07 -8.83992e-06 2.69121e+25 -4.67539 0.0494836 272.227 
-1.60074e-05 -8.36208e-06 2.68888e+25 -0.108946 0.339243 272.341 
-1.40961e-05 -8.36208e-06 2.69219e+25 -0.37539 1.3434 272.036 
-1.21847e-05 -8.36208e-06 2.69414e+25 -1.02616 1.63077 271.8 
-1.02734e-05 -8.36208e-06 2.69439e+25 -1.64506 1.98524 271.776 
-8.36208e-06 -8.36208e-06 2.69277e+25 -2.19868 1.88728 271.913 
-6.45075e-06 -8.36208e-06 2.69307e+25 -3.1767 1.56647 271.875 
-4.53942e-06 -8.36208e-06 2.69387e+25 -3.85958 1.03063 271.802 
-2.62808e-06 -8.36208e-06 2.69135e+25 -4.62135 0.998826 272.047 
-7.1675e-07 -8.36208e-06 2.69002e+25 -4.91889 0.0713159 272.263 
-1.60074e-05 -7.88425e-06 2.69023e+25 0.0129777 0.324597 272.177 
-1.40961e-05 -7.88425e-06 2.69307e+25 -0.378327 1.5171 271.897 
-1.21847e-05 -7.88425e-06 2.69304e+25 -1.15173 1.76335 271.77 
-1.02734e-05 -7.88425e-06 2.69388e+25 -1.62897 2.08879 271.851 
-8.36208e-06 -7.88425e-06 2.69288e+25 -2.30951 2.03785 271.907 
-6.45075e-06 -7.88425e-06 2.69326e+25 -3.29911 1.87411 271.917 
-4.53942e-06 -7.88425e-06 2.69327e+25 -3.9487 1.2318 271.88 
-2.62808e-06 -7.88425e-06 2.69342e+25 -4.62112 1.07918 271.959 
-7.1675e-07 -7.88425e-06 2.69023e+25 -5.14421 0.175197 272.131 
-1.60074e-05 -7.40642e-06 2.69088e+25 0.0790553 0.369495 272.074 
-1.40961e-05 -7.40642e-06 2.69234e+25 -0.758567 1.672 271.933 
-1.21847e-05 -7.40642e-06 2.69318e+25 -1.09789 1.89293 271.848 
-1.02734e-05 -7.40642e-06 2.69359e+25 -1.70191 2.16282 271.856 
-8.36208e-06 -7.40642e-06 2.69488e+25 -2.40181 2.17521 271.698 
-6.45075e-06 -7.40642e-06 2.69412e+25 -3.35577 2.0452 271.793 
-4.53942e-06 -7.40642e-06 2.69191e+25 -4.02978 1.46424 271.943 
-2.62808e-06 -7.40642e-06 2.693e+25 -4.72684 1.14518 272.051 
-7.1675e-07 -7.40642e-06 2.69108e+25 -5.29428 0.248191 272.062 
-1.60074e-05 -6.92858e-06 2.69175e+25 0.0538572 0.441374 272.071 
-1.40961e-05 -6.92858e-06 2.69452e+25 -0.642446 1.79542 271.805 
-1.21847e-05 -6.92858e-06 2.69322e+25 -1.06227 2.14597 271.812 
-1.02734e-05 -6.92858e-06 2.69305e+25 -2.0241 2.37279 271.89 
-8.36208e-06 -6.92858e-06 2.69459e+25 -2.59638 2.49099 271.7 
-6.45075e-06 -6.92858e-06 2.69284e+25 -3.59597 2.21884 271.881 
-4.53942e-06 -6.92858e-06 2.69372e+25 -4.22526 1.65311 271.756 
-2.62808e-06 -6.92858e-06 2.6908e+25 -4.96714 1.2826 272.057 
-7.1675e-07 -6.92858e-06 2.68968e+25 -5.40222 0.387948 272.19 
-1.60074e-05 -6.45075e-06 2.69259e+25 -0.0269646 0.60386 272.013 
-1.40961e-05 -6.45075e-06 2.69159e+25 -0.386554 1.91258 271.952 
-1.21847e-05 -6.45075e-06 2.69428e+25 -1.13704 2.4097 271.735 
-1.02734e-05 -6.45075e-06 2.69325e+25 -2.14707 2.51373 271.76 
-8.36208e-06 -6.45075e-06 2.69652e+25 -2.93564 2.6902 271.617 
-6.45075e-06 -6.45075e-06 2.69392e+25 -3.66017 2.37987 271.847 
-4.53942e-06 -6.45075e-06 2.69417e+25 -4.41299 1.9085 271.757 
-2.62808e-06 -6.45075e-06 2.6926e+25 -5.17582 1.43083 271.994 
-7.1675e-07 -6.45075e-06 2.69089e+25 -5.61286 0.459126 272.155 
-1.60074e-05 -5.97292e-06 2.69132e+25 -0.162033 0.622556 272.107 
-1.40961e-05 -5.97292e-06 2.69336e+25 -0.656645 2.07808 271.906 
-1.21847e-05 -5.97292e-06 2.69325e+25 -1.39677 2.60447 271.759 
-1.02734e-05 -5.97292e-06 2.69508e+25 -2.29325 2.75765 271.657 
-8.36208e-06 -5.97292e-06 2.69516e+25 -3.11837 2.77842 271.588 
-6.45075e-06 -5.97292e-06 2.69319e+25 -3.95176 2.60531 271.822 
-4.53942e-06 -5.97292e-06 2.69408e+25 -4.55091 2.08396 271.787 
-2.62808e-06 -5.97292e-06 2.69017e+25 -5.26187 1.59759 272.025 
-7.1675e-07 -5.97292e-06 2.69119e+25 -5.84847 0.483097 272.065 
-1.60074e-05 -5.49508e-06 2.69011e+25 -0.262404 0.742859 272.252 
-1.40961e-05 -5.49508e-06 2.69227e+25 -0.740786 2.15981 272.03 
-1.21847e-05 -5.49508e-06 2.69356e+25 -1.60196 2.8307 271.837 
-1.02734e-05 -5.49508e-06 2.69555e+25 -2.25266 2.9738 271.614 
-8.36208e-06 -5.49508e-06 2.69848e+25 -3.25691 3.01591 271.4 
-6.45075e-06 -5.49508e-06 2.69239e+25 -4.16329 2.8019 271.787 
-4.53942e-06 -5.49508e-06 2.6969e+25 -4.79565 2.21742 271.488 
-2.62808e-06 -5.49508e-06 2.69145e+25 -5.48571 1.78362 271.993 
-7.1675e-07 -5.49508e-06 2.69099e+25 -6.07067 0.544419 272.17 
-1.60074e-05 -5.01725e-06 2.69026e+25 -0.258845 0.959694 272.167 
-1.40961e-05 -5.01725e-06 2.69184e+25 -0.846875 2.25009 272.123 
-1.21847e-05 -5.01725e-06 2.69167e+25 -1.52695 3.00315 271.939 
-1.02734e-05 -5.01725e-06 2.69662e+25 -2.5132 3.21644 271.485 
-8.36208e-06 -5.01725e-06 2.69621e+25 -3.42247 3.36599 271.544 
-6.45075e-06 -5.01725e-06 2.69286e+25 -4.28841 2.993 271.813 
-4.53942e-06 -5.01725e-06 2.69536e+25 -5.14439 2.365 271.713 
-2.62808e-06 -5.01725e-06 2.69092e+25 -5.72557 1.8913 271.992 
-7.1675e-07 -5.01725e-06 2.69224e+25 -6.28366 0.737556 272.044 
-1.60074e-05 -4.53942e-06 2.69191e+25 -0.246106 1.18907 272.12 
-1.40961e-05 -4.53942e-06 2.69094e+25 -0.761377 2.38148 272.099 
-1.21847e-05 -4.53942e-06 2.69309e+25 -1.41492 3.15903 271.919 
-1.02734e-05 -4.53942e-06 2.69537e+25 -2.53727 3.46874 271.568 
-8.36208e-06 -4.53942e-06 2.69394e+25 -3.44724 3.80245 271.806 
-6.45075e-06 -4.53942e-06 2.69106e+25 -4.36879 3.20382 272.048 
-4.53942e-06 -4.53942e-06 2.69399e+25 -5.22993 2.56643 271.686 
-2.62808e-06 -4.53942e-06 2.69133e+25 -5.83376 1.94227 271.999 
-7.1675e-07 -4.53942e-06 2.6916e+25 -6.28236 0.964691 271.983 
-1.60074e-05 -4.06158e-06 2.68989e+25 -0.325128 1.34643 272.221 
-1.40961e-05 -4.06158e-06 2.69121e+25 -0.804426 2.47803 272.12 
-1.21847e-05 -4.06158e-06 2.69222e+25 -1.54456 3.36561 271.913 
-1.02734e-05 -4.06158e-06 2.69512e+25 -2.56269 3.76217 271.683 
-8.36208e-06 -4.06158e-06 2.69573e+25 -3.64369 4.06476 271.68 
-6.45075e-06 -4.06158e-06 2.68944e+25 -4.25068 3.3781 272.142 
-4.53942e-06 -4.06158e-06 2.69295e+25 -5.1761 2.82437 271.851 
-2.62808e-06 -4.06158e-06 2.6929e+25 -5.78805 2.08196 271.931 
-7.1675e-07 -4.06158e-06 2.69149e+25 -6.23861 1.1839 272.058 
-1.60074e-05 -3.58375e-06 2.68994e+25 -0.335139 1.45298 272.188 
-1.40961e-05 -3.58375e-06 2.68982e+25 -0.704728 2.51878 272.103 
-1.21847e-05 -3.58375e-06 2.69149e+25 -1.4545 3.60572 271.888 
-1.02734e-05 -3.58375e-06 2.69379e+25 -2.3968 3.92074 271.747 
-8.36208e-06 -3.58375e-06 2.69518e+25 -3.548 4.19166 271.572 
-6.45075e-06 -3.58375e-06 2.69082e+25 -4.38765 3.63302 272.019 
-4.53942e-06 -3.58375e-06 2.69325e+25 -5.36203 2.95365 271.927 
-2.62808e-06 -3.58375e-06 2.69326e+25 -5.91926 2.28737 271.875 
-7.1675e-07 -3.58375e-06 2.69172e+25 -6.3761 1.24349 272.055 
-1.60074e-05 -3.10592e-06 2.68929e+25 -0.23918 1.48872 272.173 
-1.40961e-05 -3.10592e-06 2.69176e+25 -0.751801 2.6636 272.018 
-1.21847e-05 -3.10592e-06 2.69189e+25 -1.61221 3.83522 271.871 
-1.02734e-05 -3.10592e-06 2.69252e+25 -2.17094 4.11184 271.781 
-8.36208e-06 -3.10592e-06 2.69547e+25 -3.39923 4.39691 271.661 
-6.45075e-06 -3.10592e-06 2.69253e+25 -4.53253 3.96319 271.97 
-4.53942e-06 -3.10592e-06 2.69254e+25 -5.54237 3.02309 271.997 
-2.62808e-06 -3.10592e-06 2.69292e+25 -6.0791 2.44975 271.857 
-7.1675e-07 -3.10592e-06 2.6899e+25 -6.4842 1.19349 272.118 
-1.60074e-05 -2.62808e-06 2.68892e+25 -0.0777068 1.58263 272.257 
-1.40961e-05 -2.62808e-06 2.69095e+25 -0.78553 2.89267 272.035 
-1.21847e-05 -2.62808e-06 2.69254e+25 -1.57496 4.00784 271.949 
-1.02734e-05 -2.62808e-06 2.69359e+25 -2.29358 4.31428 271.879 
-8.36208e-06 -2.62808e-06 2.69343e+25 -3.30138 4.57654 271.767 
-6.45075e-06 -2.62808e-06 2.69228e+25 -4.47231 4.23796 271.984 
-4.53942e-06 -2.62808e-06 2.69235e+25 -5.39772 3.21032 272.01 
-2.62808e-06 -2.62808e-06 2.69292e+25 -6.2629 2.68727 271.844 
-7.1675e-07 -2.62808e-06 2.69016e+25 -6.70711 1.30901 272.059 
-1.60074e-05 -2.15025e-06 2.68791e+25 -0.138859 1.75887 272.415 
-1.40961e-05 -2.15025e-06 2.68929e+25 -0.768355 3.19783 272.213 
-1.21847e-05 -2.15025e-06 2.69323e+25 -1.45628 4.17065 271.917 
-1.02734e-05 -2.15025e-06 2.69439e+25 -2.34819 4.51409 271.812 
-8.36208e-06 -2.15025e-06 2.69469e+25 -3.36448 4.87534 271.692 
-6.45075e-06 -2.15025e-06 2.69127e+25 -4.42811 4.55428 272.111 
-4.53942e-06 -2.15025e-06 2.69162e+25 -5.34381 3.46309 272.051 
-2.62808e-06 -2.15025e-06 2.69286e+25 -6.0709 2.88441 271.788 
-7.1675e-07 -2.15025e-06 2.69179e+25 -6.72588 1.56792 271.869 
-1.60074e-05 -1.67242e-06 2.68695e+25 0.0745526 1.92205 272.39 
-1.40961e-05 -1.67242e-06 2.69055e+25 -0.598088 3.39472 272.151 
-1.21847e-05 -1.67242e-06 2.69329e+25 -1.38257 4.41263 271.847 
-1.02734e-05 -1.67242e-06 2.69327e+25 -2.40998 4.79947 271.882 
-8.36208e-06 -1.67242e-06 2.69435e+25 -3.34332 5.26282 271.762 
-6.45075e-06 -1.67242e-06 2.6903e+25 -4.23057 4.79764 271.97 
-4.53942e-06 -1.67242e-06 2.69115e+25 -5.16018 3.73515 272.007 
-2.62808e-06 -1.67242e-06 2.69274e+25 -6.03411 3.00294 271.792 
-7.1675e-07 -1.67242e-06 2.69136e+25 -6.90389 1.7699 271.851 
-1.60074e-05 -1.19458e-06 2.68682e+25 0.0848835 1.86644 272.451 
-1.40961e-05 -1.19458e-06 2.69038e+25 -0.553093 3.6503 272.179 
-1.21847e-05 -1.19458e-06 2.69232e+25 -1.2226 4.58802 271.849 
-1.02734e-05 -1.19458e-06 2.69404e+25 -2.4326 5.10102 271.595 
-8.36208e-06 -1.19458e-06 2.69434e+25 -3.219 5.46925 271.669 
-6.45075e-06 -1.19458e-06 2.69249e+25 -4.25046 4.99212 271.881 
-4.53942e-06 -1.19458e-06 2.69114e+25 -5.23244 4.04468 271.999 
-2.62808e-06 -1.19458e-06 2.69287e+25 -6.00625 3.12738 271.71 
-7.1675e-07 -1.19458e-06 2.69076e+25 -7.09252 1.98598 271.969 
-1.60074e-05 -7.1675e-07 2.68722e+25 -0.0176119 1.77636 272.383 
-1.40961e-05 -7.1675e-07 2.68777e+25 -0.327186 3.86791 272.269 
-1.21847e-05 -7.1675e-07 2.69229e+25 -1.2487 4.78168 271.969 
-1.02734e-05 -7.1675e-07 2.69449e+25 -2.30112 5.44204 271.745 
-8.36208e-06 -7.1675e-07 2.69213e+25 -3.13215 5.71548 271.726 
-6.45075e-06 -7.1675e-07 2.69226e+25 -4.22054 5.18618 271.866 
-4.53942e-06 -7.1675e-07 2.69041e+25 -5.30157 4.37754 271.952 
-2.62808e-06 -7.1675e-07 2.69598e+25 -6.3763 3.21229 271.589 
-7.1675e-07 -7.1675e-07 2.69183e+25 -7.07893 2.23708 271.838 
-1.60074e-05 -2.38917e-07 2.68393e+25 -0.105482 1.80087 272.463 
-1.40961e-05 -2.38917e-07 2.68635e+25 -0.302271 4.05112 272.211 
-1.21847e-05 -2.38917e-07 2.68978e+25 -1.23653 5.04083 272.005 
-1.02734e-05 -2.38917e-07 2.69148e+25 -2.32602 5.71102 271.803 
-8.36208e-06 -2.38917e-07 2.69059e+25 -3.35426 5.9404 271.84 
-6.45075e-06 -2.38917e-07 2.68834e+25 -4.21897 5.39766 271.898 
-4.53942e-06 -2.38917e-07 2.69155e+25 -5.39523 4.60599 271.763 
-2.62808e-06 -2.38917e-07 2.68978e+25 -6.52161 3.49781 271.804 
-7.1675e-07 -2.38917e-07 2.68828e+25 -7.13492 2.31396 272.023 
-1.55296e-05 -1.69631e-05 2.68446e+25 -0.0339875 -0.0208483 272.82 
-1.36182e-05 -1.69631e-05 2.68455e+25 -0.015647 0.0104253 272.763 
-1.17069e-05 -1.69631e-05 2.68587e+25 -0.0949219 0.0444249 272.701 
-9.79558e-06 -1.69631e-05 2.68501e+25 -0.153719 0.0152292 272.769 
-7.88425e-06 -1.69631e-05 2.6845e+25 -0.0805161 -0.0293863 272.792 
-5.97292e-06 -1.69631e-05 2.68527e+25 -0.0976835 0.0815476 272.752 
-4.06158e-06 -1.69631e-05 2.6858e+25 -0.124081 -0.0190688 272.825 
-2.15025e-06 -1.69631e-05 2.68323e+25 -0.113311 0.0291238 272.859 
-2.38917e-07 -1.69631e-05 2.68228e+25 -0.165585 -0.0596409 272.799 
-1.55296e-05 -1.64852e-05 2.68748e+25 0.0195922 0.055288 272.529 
-1.36182e-05 -1.64852e-05 2.68884e+25 -0.0437162 -0.0220756 272.482 
-1.17069e-05 -1.64852e-05 2.68787e+25 -0.174597 0.017099 272.452 
-9.79558e-06 -1.64852e-05 2.68707e+25 -0.236477 0.122391 272.517 
-7.88425e-06 -1.64852e-05 2.68708e+25 -0.166338 -0.0763528 272.547 
-5.97292e-06 -1.64852e-05 2.68719e+25 -0.222532 0.185732 272.544 
-4.06158e-06 -1.64852e-05 2.68751e+25 -0.319997 -0.114512 272.523 
-2.15025e-06 -1.64852e-05 2.68551e+25 -0.283817 0.0108951 272.71 
-2.38917e-07 -1.64852e-05 2.68456e+25 -0.351123 -0.0119734 272.455 
-1.55296e-05 -1.60074e-05 2.68927e+25 0.0736783 0.15564 272.296 
-1.36182e-05 -1.60074e-05 2.68886e+25 -0.167108 -0.0356715 272.325 
-1.17069e-05 -1.60074e-05 2.68873e+25 -0.0975539 -0.119021 272.405 
-9.79558e-06 -1.60074e-05 2.68884e+25 -0.225959 0.175292 272.42 
-7.88425e-06 -1.60074e-05 2.68904e+25 -0.314967 0.00013323 272.327 
-5.97292e-06 -1.60074e-05 2.68913e+25 -0.424619 0.302217 272.246 
-4.06158e-06 -1.60074e-05 2.68963e+25 -0.480669 -0.183341 272.348 
-2.15025e-06 -1.60074e-05 2.68755e+25 -0.523747 0.0101754 272.483 
-2.38917e-07 -1.60074e-05 2.68492e+25 -0.78573 0.118504 272.482 
-1.55296e-05 -1.55296e-05 2.68914e+25 -0.0212078 0.258557 272.279 
-1.36182e-05 -1.55296e-05 2.68945e+25 -0.194295 0.0558122 272.211 
-1.17069e-05 -1.55296e-05 2.68841e+25 -0.263823 -0.265947 272.393 
-9.79558e-06 -1.55296e-05 2.68959e+25 -0.26451 0.219884 272.283 
-7.88425e-06 -1.55296e-05 2.69042e+25 -0.386935 0.119409 272.184 
-5.97292e-06 -1.55296e-05 2.6913e+25 -0.678941 0.359393 272.129 
-4.06158e-06 -1.55296e-05 2.69016e+25 -0.772961 -0.243977 272.202 
-2.15025e-06 -1.55296e-05 2.68887e+25 -0.666149 -0.0324254 272.294 
-2.38917e-07 -1.55296e-05 2.6867e+25 -1.04744 0.11604 272.307 
-1.55296e-05 -1.50517e-05 2.69106e+25 -0.0862766 0.169929 272.101 
-1.36182e-05 -1.50517e-05 2.69046e+25 -0.0121497 0.106549 272.182 
-1.17069e-05 -1.50517e-05 2.68924e+25 -0.363219 -0.172908 272.309 
-9.79558e-06 -1.50517e-05 2.69187e+25 -0.302227 0.31419 272.075 
-7.88425e-06 -1.50517e-05 2.69077e+25 -0.711245 0.0820454 272.124 
-5.97292e-06 -1.50517e-05 2.69014e+25 -0.820483 0.372093 272.226 
-4.06158e-06 -1.50517e-05 2.69334e+25 -0.953466 -0.338517 271.963 
-2.15025e-06 -1.50517e-05 2.69038e+25 -1.00484 0.0763797 272.283 
-2.38917e-07 -1.50517e-05 2.68863e+25 -1.21334 0.0626631 272.212 
-1.55296e-05 -1.45739e-05 2.69014e+25 0.11658 0.114135 272.144 
-1.36182e-05 -1.45739e-05 2.68934e+25 0.0756081 0.157146 272.187 
-1.17069e-05 -1.45739e-05 2.6887e+25 -0.297129 0.019306 272.374 
-9.79558e-06 -1.45739e-05 2.69511e+25 -0.466927 0.336518 271.896 
-7.88425e-06 -1.45739e-05 2.69023e+25 -1.01232 0.0383998 272.183 
-5.97292e-06 -1.45739e-05 2.69075e+25 -1.02504 0.400242 272.077 
-4.06158e-06 -1.45739e-05 2.69211e+25 -1.20241 -0.327657 272.075 
-2.15025e-06 -1.45739e-05 2.68941e+25 -1.38985 0.249779 272.342 
-2.38917e-07 -1.45739e-05 2.68639e+25 -1.38069 0.04769 272.419 
-1.55296e-05 -1.40961e-05 2.69031e+25 -0.0334004 0.0377733 272.216 
-1.36182e-05 -1.40961e-05 2.69237e+25 -0.137351 0.26839 272.034 
-1.17069e-05 -1.40961e-05 2.68995e+25 -0.393679 0.112486 272.235 
-9.79558e-06 -1.40961e-05 2.69294e+25 -0.705931 0.404829 271.878 
-7.88425e-06 -1.40961e-05 2.69155e+25 -1.16773 0.0818805 271.91 
-5.97292e-06 -1.40961e-05 2.69244e+25 -1.29637 0.537479 272.054 
-4.06158e-06 -1.40961e-05 2.6927e+25 -1.56498 -0.230258 272.001 
-2.15025e-06 -1.40961e-05 2.68907e+25 -1.5674 0.295177 272.32 
-2.38917e-07 -1.40961e-05 2.68689e+25 -1.43132 0.160839 272.322 
-1.55296e-05 -1.36182e-05 2.69216e+25 -0.0188242 0.107543 272.067 
-1.36182e-05 -1.36182e-05 2.69328e+25 -0.137173 0.344165 271.875 
-1.17069e-05 -1.36182e-05 2.69167e+25 -0.470647 0.139353 272.041 
-9.79558e-06 -1.36182e-05 2.6921e+25 -0.986444 0.410836 271.964 
-7.88425e-06 -1.36182e-05 2.69632e+25 -1.42432 0.222635 271.803 
-5.97292e-06 -1.36182e-05 2.69161e+25 -1.48562 0.413316 271.979 
-4.06158e-06 -1.36182e-05 2.69263e+25 -1.80781 -0.0336754 271.962 
-2.15025e-06 -1.36182e-05 2.68857e+25 -1.78607 0.25591 272.359 
-2.38917e-07 -1.36182e-05 2.68786e+25 -1.64249 0.177614 272.234 
-1.55296e-05 -1.31404e-05 2.69175e+25 -0.130038 0.208069 272.094 
-1.36182e-05 -1.31404e-05 2.69325e+25 -0.15191 0.297397 271.956 
-1.17069e-05 -1.31404e-05 2.69373e+25 -0.356903 0.224249 271.915 
-9.79558e-06 -1.31404e-05 2.69349e+25 -1.09272 0.554862 271.882 
-7.88425e-06 -1.31404e-05 2.69601e+25 -1.54157 0.351296 271.751 
-5.97292e-06 -1.31404e-05 2.69373e+25 -1.84384 0.275758 271.882 
-4.06158e-06 -1.31404e-05 2.69276e+25 -1.87103 0.163588 272.02 
-2.15025e-06 -1.31404e-05 2.69074e+25 -2.0101 0.20307 272.146 
-2.38917e-07 -1.31404e-05 2.68832e+25 -1.87003 0.137579 272.256 
-1.55296e-05 -1.26626e-05 2.6915e+25 -0.168574 0.319947 272.099 
-1.36182e-05 -1.26626e-05 2.69372e+25 -0.35086 0.330963 271.847 
-1.17069e-05 -1.26626e-05 2.69262e+25 -0.485716 0.370452 271.916 
-9.79558e-06 -1.26626e-05 2.6945e+25 -1.2084 0.713096 271.704 
-7.88425e-06 -1.26626e-05 2.69469e+25 -1.52446 0.509235 271.818 
-5.97292e-06 -1.26626e-05 2.69228e+25 -2.02344 0.147096 272.053 
-4.06158e-06 -1.26626e-05 2.69064e+25 -2.07841 0.3099 272.041 
-2.15025e-06 -1.26626e-05 2.69206e+25 -2.40619 0.216284 272.015 
-2.38917e-07 -1.26626e-05 2.68957e+25 -2.09366 0.00547271 272.131 
-1.55296e-05 -1.21847e-05 2.69288e+25 -0.153983 0.292236 271.956 
-1.36182e-05 -1.21847e-05 2.69347e+25 -0.529547 0.435891 271.842 
-1.17069e-05 -1.21847e-05 2.69292e+25 -0.809337 0.420185 271.945 
-9.79558e-06 -1.21847e-05 2.69448e+25 -1.28739 0.817113 271.733 
-7.88425e-06 -1.21847e-05 2.69283e+25 -1.78951 0.670819 271.902 
-5.97292e-06 -1.21847e-05 2.69006e+25 -2.21734 0.121994 272.08 
-4.06158e-06 -1.21847e-05 2.69367e+25 -2.31946 0.335912 271.869 
-2.15025e-06 -1.21847e-05 2.69411e+25 -2.39772 0.244338 271.984 
-2.38917e-07 -1.21847e-05 2.68945e+25 -2.42753 -0.0165896 272.045 
-1.55296e-05 -1.17069e-05 2.69119e+25 -0.0673665 0.309023 272.026 
-1.36182e-05 -1.17069e-05 2.69233e+25 -0.45017 0.527383 271.882 
-1.17069e-05 -1.17069e-05 2.69099e+25 -0.842651 0.550663 272.087 
-9.79558e-06 -1.17069e-05 2.69552e+25 -1.32537 0.953009 271.755 
-7.88425e-06 -1.17069e-05 2.69145e+25 -1.8543 0.847585 272.012 
-5.97292e-06 -1.17069e-05 2.69144e+25 -2.22865 0.254388 272.15 
-4.06158e-06 -1.17069e-05 2.69337e+25 -2.48644 0.322655 271.902 
-2.15025e-06 -1.17069e-05 2.69228e+25 -2.61633 0.249409 271.934 
-2.38917e-07 -1.17069e-05 2.69058e+25 -2.75654 -0.0361537 271.974 
-1.55296e-05 -1.12291e-05 2.69107e+25 -0.137991 0.312875 271.995 
-1.36182e-05 -1.12291e-05 2.69371e+25 -0.587103 0.57729 271.952 
-1.17069e-05 -1.12291e-05 2.69119e+25 -0.933477 0.747393 272.127 
-9.79558e-06 -1.12291e-05 2.69519e+25 -1.24946 1.1103 271.777 
-7.88425e-06 -1.12291e-05 2.69189e+25 -1.947 1.00806 272.033 
-5.97292e-06 -1.12291e-05 2.69368e+25 -2.21297 0.462451 271.925 
-4.06158e-06 -1.12291e-05 2.69304e+25 -2.85131 0.382582 271.944 
-2.15025e-06 -1.12291e-05 2.69109e+25 -2.94482 0.202351 272.036 
-2.38917e-07 -1.12291e-05 2.69134e+25 -3.1045 -0.0026648 271.893 
-1.55296e-05 -1.07512e-05 2.69172e+25 -0.120728 0.498964 272.085 
-1.36182e-05 -1.07512e-05 2.6925e+25 -0.462709 0.629373 271.985 
-1.17069e-05 -1.07512e-05 2.69061e+25 -0.915961 0.916355 272.075 
-9.79558e-06 -1.07512e-05 2.69387e+25 -1.44869 1.26969 271.82 
-7.88425e-06 -1.07512e-05 2.69218e+25 -2.06726 1.15973 272.045 
-5.97292e-06 -1.07512e-05 2.69429e+25 -2.48313 0.697671 271.881 
-4.06158e-06 -1.07512e-05 2.69393e+25 -2.90189 0.449062 271.841 
-2.15025e-06 -1.07512e-05 2.68978e+25 -3.29885 0.187467 272.242 
-2.38917e-07 -1.07512e-05 2.69086e+25 -3.58441 0.0847227 271.987 
-1.55296e-05 -1.02734e-05 2.69335e+25 -0.0335537 0.519377 271.934 
-1.36182e-05 -1.02734e-05 2.69108e+25 -0.541077 0.687438 272.07 
-1.17069e-05 -1.02734e-05 2.69204e+25 -1.05752 0.995089 272.152 
-9.79558e-06 -1.02734e-05 2.69407e+25 -1.6938 1.34046 271.87 
-7.88425e-06 -1.02734e-05 2.69241e+25 -2.18891 1.23165 271.962 
-5.97292e-06 -1.02734e-05 2.69469e+25 -2.78014 0.842948 271.781 
-4.06158e-06 -1.02734e-05 2.69417e+25 -3.08228 0.571019 271.726 
-2.15025e-06 -1.02734e-05 2.6894e+25 -3.81997 0.272467 272.22 
-2.38917e-07 -1.02734e-05 2.68706e+25 -3.99573 0.0957788 272.266 
-1.55296e-05 -9.79558e-06 2.69335e+25 -0.0645415 0.429702 271.819 
-1.36182e-05 -9.79558e-06 2.69194e+25 -0.38753 0.898816 272.095 
-1.17069e-05 -9.79558e-06 2.69305e+25 -1.13447 1.0078 271.92 
-9.79558e-06 -9.79558e-06 2.69272e+25 -1.71191 1.44916 271.975 
-7.88425e-06 -9.79558e-06 2.69417e+25 -2.21513 1.23301 271.918 
-5.97292e-06 -9.79558e-06 2.69401e+25 -3.13192 0.971961 271.943 
-4.06158e-06 -9.79558e-06 2.69458e+25 -3.40262 0.614653 271.753 
-2.15025e-06 -9.79558e-06 2.68875e+25 -4.08574 0.424403 272.207 
-2.38917e-07 -9.79558e-06 2.68662e+25 -4.09074 0.0240961 272.205 
-1.55296e-05 -9.31775e-06 2.68995e+25 0.0132071 0.437869 272.111 
-1.36182e-05 -9.31775e-06 2.69198e+25 -0.384194 1.11936 272.02 
-1.17069e-05 -9.31775e-06 2.69486e+25 -0.944531 1.14542 271.711 
-9.79558e-06 -9.31775e-06 2.69198e+25 -1.71292 1.6774 271.935 
-7.88425e-06 -9.31775e-06 2.69395e+25 -2.32722 1.3484 271.905 
-5.97292e-06 -9.31775e-06 2.69635e+25 -3.18583 1.24408 271.652 
-4.06158e-06 -9.31775e-06 2.69185e+25 -3.83869 0.625176 271.943 
-2.15025e-06 -9.31775e-06 2.69003e+25 -4.4965 0.555534 272.219 
-2.38917e-07 -9.31775e-06 2.68654e+25 -4.39925 -0.00239352 272.283 
-1.55296e-05 -8.83992e-06 2.68889e+25 -0.0503032 0.375452 272.154 
-1.36182e-05 -8.83992e-06 2.69267e+25 -0.367596 1.30481 271.899 
-1.17069e-05 -8.83992e-06 2.69507e+25 -1.0361 1.34057 271.747 
-9.79558e-06 -8.83992e-06 2.69276e+25 -1.73981 1.94248 271.899 
-7.88425e-06 -8.83992e-06 2.69138e+25 -2.40828 1.66288 272.074 
-5.97292e-06 -8.83992e-06 2.69494e+25 -3.24046 1.54041 271.73 
-4.06158e-06 -8.83992e-06 2.69259e+25 -4.02126 0.809498 271.955 
-2.15025e-06 -8.83992e-06 2.69178e+25 -4.58288 0.673544 272.011 
-2.38917e-07 -8.83992e-06 2.68802e+25 -4.62003 0.0205126 272.213 
-1.55296e-05 -8.36208e-06 2.69027e+25 -0.140769 0.388135 272.114 
-1.36182e-05 -8.36208e-06 2.69345e+25 -0.547191 1.44855 272.028 
-1.17069e-05 -8.36208e-06 2.69555e+25 -1.27119 1.60837 271.791 
-9.79558e-06 -8.36208e-06 2.69267e+25 -1.67042 2.07398 271.901 
-7.88425e-06 -8.36208e-06 2.69172e+25 -2.42657 1.90579 271.898 
-5.97292e-06 -8.36208e-06 2.69498e+25 -3.37008 1.65554 271.825 
-4.06158e-06 -8.36208e-06 2.69341e+25 -4.10758 1.1512 271.921 
-2.15025e-06 -8.36208e-06 2.69106e+25 -4.7386 0.796038 272.096 
-2.38917e-07 -8.36208e-06 2.68835e+25 -4.96937 0.0189435 272.144 
-1.55296e-05 -7.88425e-06 2.68982e+25 -0.068612 0.503207 272.13 
-1.36182e-05 -7.88425e-06 2.69322e+25 -0.572969 1.65225 271.894 
-1.17069e-05 -7.88425e-06 2.69571e+25 -1.32762 1.82549 271.712 
-9.79558e-06 -7.88425e-06 2.69332e+25 -1.75413 2.14955 271.869 
-7.88425e-06 -7.88425e-06 2.69491e+25 -2.48784 2.15937 271.744 
-5.97292e-06 -7.88425e-06 2.69521e+25 -3.47565 1.71513 271.707 
-4.06158e-06 -7.88425e-06 2.69129e+25 -4.17355 1.37927 271.937 
-2.15025e-06 -7.88425e-06 2.69122e+25 -4.76485 0.97552 272.061 
-2.38917e-07 -7.88425e-06 2.68964e+25 -5.16225 -0.00315675 271.991 
-1.55296e-05 -7.40642e-06 2.6916e+25 0.0338618 0.651234 272.031 
-1.36182e-05 -7.40642e-06 2.69577e+25 -0.813576 1.72787 271.803 
-1.17069e-05 -7.40642e-06 2.69252e+25 -1.25225 2.01873 271.951 
-9.79558e-06 -7.40642e-06 2.69287e+25 -1.86677 2.31997 271.936 
-7.88425e-06 -7.40642e-06 2.69509e+25 -2.69226 2.41929 271.681 
-5.97292e-06 -7.40642e-06 2.69439e+25 -3.55427 1.92596 271.749 
-4.06158e-06 -7.40642e-06 2.69152e+25 -4.31578 1.58826 272 
-2.15025e-06 -7.40642e-06 2.69007e+25 -4.82241 1.14033 272.137 
-2.38917e-07 -7.40642e-06 2.68759e+25 -5.39146 0.0653892 272.169 
-1.55296e-05 -6.92858e-06 2.69346e+25 -0.112482 0.712322 271.91 
-1.36182e-05 -6.92858e-06 2.69433e+25 -0.741725 1.71542 271.776 
-1.17069e-05 -6.92858e-06 2.69266e+25 -1.34574 2.20905 271.844 
-9.79558e-06 -6.92858e-06 2.69266e+25 -2.16695 2.4598 271.81 
-7.88425e-06 -6.92858e-06 2.69389e+25 -2.83737 2.64077 271.768 
-5.97292e-06 -6.92858e-06 2.69343e+25 -3.70108 2.07005 271.868 
-4.06158e-06 -6.92858e-06 2.69139e+25 -4.42861 1.87303 271.934 
-2.15025e-06 -6.92858e-06 2.69059e+25 -5.06106 1.23356 272.035 
-2.38917e-07 -6.92858e-06 2.68733e+25 -5.50414 0.153388 272.063 
-1.55296e-05 -6.45075e-06 2.69432e+25 -0.163825 0.875589 271.85 
-1.36182e-05 -6.45075e-06 2.69353e+25 -0.584474 1.87154 271.805 
-1.17069e-05 -6.45075e-06 2.69674e+25 -1.32219 2.37278 271.662 
-9.79558e-06 -6.45075e-06 2.69413e+25 -2.38376 2.69431 271.747 
-7.88425e-06 -6.45075e-06 2.69463e+25 -3.0754 2.80621 271.749 
-5.97292e-06 -6.45075e-06 2.69424e+25 -3.7749 2.23474 271.76 
-4.06158e-06 -6.45075e-06 2.69241e+25 -4.59333 2.04406 271.841 
-2.15025e-06 -6.45075e-06 2.69106e+25 -5.31917 1.32395 272.1 
-2.38917e-07 -6.45075e-06 2.68955e+25 -5.69518 0.232504 272.003 
-1.55296e-05 -5.97292e-06 2.69157e+25 -0.210849 1.02022 272.076 
-1.36182e-05 -5.97292e-06 2.6936e+25 -0.800376 2.01462 271.764 
-1.17069e-05 -5.97292e-06 2.6953e+25 -1.55711 2.57646 271.734 
-9.79558e-06 -5.97292e-06 2.69371e+25 -2.50145 2.84074 271.802 
-7.88425e-06 -5.97292e-06 2.69524e+25 -3.27121 2.92029 271.657 
-5.97292e-06 -5.97292e-06 2.69372e+25 -4.19554 2.38946 271.762 
-4.06158e-06 -5.97292e-06 2.69474e+25 -4.72344 2.18624 271.755 
-2.15025e-06 -5.97292e-06 2.69066e+25 -5.40519 1.47814 272.013 
-2.38917e-07 -5.97292e-06 2.6891e+25 -5.87233 0.296833 272.103 
-1.55296e-05 -5.49508e-06 2.6911e+25 -0.416677 1.08611 272.142 
-1.36182e-05 -5.49508e-06 2.69301e+25 -0.841549 2.21007 271.954 
-1.17069e-05 -5.49508e-06 2.69319e+25 -1.80673 2.7128 271.869 
-9.79558e-06 -5.49508e-06 2.69557e+25 -2.53263 3.06823 271.575 
-7.88425e-06 -5.49508e-06 2.69819e+25 -3.54075 3.19936 271.493 
-5.97292e-06 -5.49508e-06 2.6936e+25 -4.35528 2.60938 271.822 
-4.06158e-06 -5.49508e-06 2.69424e+25 -4.98385 2.40897 271.733 
-2.15025e-06 -5.49508e-06 2.69244e+25 -5.56622 1.61335 271.972 
-2.38917e-07 -5.49508e-06 2.6883e+25 -6.11734 0.298696 272.113 
-1.55296e-05 -5.01725e-06 2.69159e+25 -0.601626 1.34913 272.053 
-1.36182e-05 -5.01725e-06 2.69221e+25 -1.08987 2.45983 271.964 
-1.17069e-05 -5.01725e-06 2.69313e+25 -1.72264 2.97332 271.924 
-9.79558e-06 -5.01725e-06 2.69608e+25 -2.62774 3.26178 271.549 
-7.88425e-06 -5.01725e-06 2.69557e+25 -3.78109 3.44907 271.555 
-5.97292e-06 -5.01725e-06 2.69271e+25 -4.50756 2.86116 271.883 
-4.06158e-06 -5.01725e-06 2.69334e+25 -5.3246 2.58268 271.834 
-2.15025e-06 -5.01725e-06 2.69112e+25 -5.79059 1.66987 271.97 
-2.38917e-07 -5.01725e-06 2.68829e+25 -6.44995 0.369356 272.168 
-1.55296e-05 -4.53942e-06 2.69053e+25 -0.48148 1.69495 272.118 
-1.36182e-05 -4.53942e-06 2.6904e+25 -0.970892 2.74917 272.177 
-1.17069e-05 -4.53942e-06 2.6919e+25 -1.73834 3.26506 271.895 
-9.79558e-06 -4.53942e-06 2.6939e+25 -2.76997 3.34339 271.771 
-7.88425e-06 -4.53942e-06 2.69342e+25 -3.76582 3.69214 271.813 
-5.97292e-06 -4.53942e-06 2.6923e+25 -4.58431 3.06961 271.941 
-4.06158e-06 -4.53942e-06 2.69452e+25 -5.37685 2.67002 271.717 
-2.15025e-06 -4.53942e-06 2.69023e+25 -5.93729 1.72695 271.999 
-2.38917e-07 -4.53942e-06 2.68874e+25 -6.42744 0.435957 272.078 
-1.55296e-05 -4.06158e-06 2.69174e+25 -0.425665 1.85264 272.064 
-1.36182e-05 -4.06158e-06 2.69157e+25 -0.899526 2.92617 272.095 
-1.17069e-05 -4.06158e-06 2.69348e+25 -1.77487 3.56359 271.84 
-9.79558e-06 -4.06158e-06 2.69438e+25 -2.78433 3.51217 271.656 
-7.88425e-06 -4.06158e-06 2.69328e+25 -3.79452 3.87393 271.783 
-5.97292e-06 -4.06158e-06 2.69019e+25 -4.41353 3.27191 272.083 
-4.06158e-06 -4.06158e-06 2.69333e+25 -5.3742 2.75736 271.764 
-2.15025e-06 -4.06158e-06 2.6943e+25 -5.92411 1.85168 271.793 
-2.38917e-07 -4.06158e-06 2.6903e+25 -6.44179 0.604836 271.952 
-1.55296e-05 -3.58375e-06 2.69161e+25 -0.358025 1.91654 272.025 
-1.36182e-05 -3.58375e-06 2.69015e+25 -0.75545 3.09242 272.091 
-1.17069e-05 -3.58375e-06 2.69249e+25 -1.68441 3.82483 271.862 
-9.79558e-06 -3.58375e-06 2.69407e+25 -2.68097 3.79428 271.727 
-7.88425e-06 -3.58375e-06 2.694e+25 -3.71003 4.03926 271.775 
-5.97292e-06 -3.58375e-06 2.69199e+25 -4.72511 3.52912 271.954 
-4.06158e-06 -3.58375e-06 2.69255e+25 -5.45005 2.89615 271.845 
-2.15025e-06 -3.58375e-06 2.69334e+25 -6.08567 1.94422 271.777 
-2.38917e-07 -3.58375e-06 2.68882e+25 -6.46792 0.786673 271.927 
-1.55296e-05 -3.10592e-06 2.69069e+25 -0.257246 1.91158 272.113 
-1.36182e-05 -3.10592e-06 2.69255e+25 -0.882182 3.1557 271.996 
-1.17069e-05 -3.10592e-06 2.69193e+25 -1.82728 4.03564 271.91 
-9.79558e-06 -3.10592e-06 2.69142e+25 -2.51139 4.26585 271.85 
-7.88425e-06 -3.10592e-06 2.69519e+25 -3.54684 4.14902 271.698 
-5.97292e-06 -3.10592e-06 2.69191e+25 -4.7917 3.8007 271.871 
-4.06158e-06 -3.10592e-06 2.69132e+25 -5.62407 3.02696 272.044 
-2.15025e-06 -3.10592e-06 2.69374e+25 -6.3012 2.14341 271.73 
-2.38917e-07 -3.10592e-06 2.68899e+25 -6.63644 0.996051 272.067 
-1.55296e-05 -2.62808e-06 2.69065e+25 -0.232894 2.07041 272.158 
-1.36182e-05 -2.62808e-06 2.69035e+25 -1.04746 3.30332 272.192 
-1.17069e-05 -2.62808e-06 2.69437e+25 -1.66836 4.14233 271.779 
-9.79558e-06 -2.62808e-06 2.69347e+25 -2.47397 4.58926 271.775 
-7.88425e-06 -2.62808e-06 2.69276e+25 -3.6744 4.50236 271.877 
-5.97292e-06 -2.62808e-06 2.69135e+25 -4.77257 4.09809 271.977 
-4.06158e-06 -2.62808e-06 2.69142e+25 -5.59716 3.14739 271.955 
-2.15025e-06 -2.62808e-06 2.69239e+25 -6.43651 2.29867 271.808 
-2.38917e-07 -2.62808e-06 2.68763e+25 -6.83778 1.14263 272.124 
-1.55296e-05 -2.15025e-06 2.69075e+25 -0.275447 2.16347 272.229 
-1.36182e-05 -2.15025e-06 2.68956e+25 -0.98525 3.4653 272.208 
-1.17069e-05 -2.15025e-06 2.69347e+25 -1.73152 4.27618 271.783 
-9.79558e-06 -2.15025e-06 2.69289e+25 -2.58685 4.84435 271.863 
-7.88425e-06 -2.15025e-06 2.69428e+25 -3.71214 4.92392 271.879 
-5.97292e-06 -2.15025e-06 2.68884e+25 -4.63504 4.27254 272.018 
-4.06158e-06 -2.15025e-06 2.69298e+25 -5.58857 3.29562 271.893 
-2.15025e-06 -2.15025e-06 2.69257e+25 -6.2331 2.46056 271.772 
-2.38917e-07 -2.15025e-06 2.68873e+25 -6.89462 1.2955 271.959 
-1.55296e-05 -1.67242e-06 2.68793e+25 -0.0299771 2.25714 272.402 
-1.36182e-05 -1.67242e-06 2.69138e+25 -0.812283 3.68453 272.048 
-1.17069e-05 -1.67242e-06 2.69521e+25 -1.57899 4.4912 271.648 
-9.79558e-06 -1.67242e-06 2.69377e+25 -2.69037 5.0582 271.789 
-7.88425e-06 -1.67242e-06 2.69288e+25 -3.61271 5.19717 271.876 
-5.97292e-06 -1.67242e-06 2.68896e+25 -4.49252 4.50906 272.2 
-4.06158e-06 -1.67242e-06 2.69076e+25 -5.47115 3.59417 271.968 
-2.15025e-06 -1.67242e-06 2.69172e+25 -6.19822 2.62707 271.773 
-2.38917e-07 -1.67242e-06 2.69046e+25 -7.09831 1.45209 271.953 
-1.55296e-05 -1.19458e-06 2.68772e+25 0.0424631 2.4145 272.316 
-1.36182e-05 -1.19458e-06 2.68953e+25 -0.784922 3.8801 272.135 
-1.17069e-05 -1.19458e-06 2.69441e+25 -1.4836 4.75595 271.75 
-9.79558e-06 -1.19458e-06 2.69459e+25 -2.63751 5.16758 271.67 
-7.88425e-06 -1.19458e-06 2.6949e+25 -3.37726 5.43647 271.597 
-5.97292e-06 -1.19458e-06 2.69163e+25 -4.43477 4.74909 272.016 
-4.06158e-06 -1.19458e-06 2.69196e+25 -5.54055 3.8683 271.972 
-2.15025e-06 -1.19458e-06 2.69449e+25 -6.17792 2.88243 271.77 
-2.38917e-07 -1.19458e-06 2.68849e+25 -7.32843 1.59293 271.932 
-1.55296e-05 -7.1675e-07 2.68976e+25 0.010247 2.49134 272.2 
-1.36182e-05 -7.1675e-07 2.68975e+25 -0.631575 4.17898 272.193 
-1.17069e-05 -7.1675e-07 2.69168e+25 -1.4512 5.06597 272.033 
-9.79558e-06 -7.1675e-07 2.69519e+25 -2.60765 5.35386 271.669 
-7.88425e-06 -7.1675e-07 2.69471e+25 -3.33671 5.59454 271.785 
-5.97292e-06 -7.1675e-07 2.69193e+25 -4.45185 5.00435 271.864 
-4.06158e-06 -7.1675e-07 2.69228e+25 -5.63412 4.25275 271.905 
-2.15025e-06 -7.1675e-07 2.69332e+25 -6.62708 3.20666 271.708 
-2.38917e-07 -7.1675e-07 2.68795e+25 -7.29056 1.75573 271.896 
-1.55296e-05 -2.38917e-07 2.68867e+25 -0.138995 2.54573 272.266 
-1.36182e-05 -2.38917e-07 2.68898e+25 -0.451959 4.49673 272.036 
-1.17069e-05 -2.38917e-07 2.68797e+25 -1.60191 5.37337 272.133 
-9.79558e-06 -2.38917e-07 2.69025e+25 -2.61643 5.68664 271.932 
-7.88425e-06 -2.38917e-07 2.69117e+25 -3.60677 5.86575 271.813 
-5.97292e-06 -2.38917e-07 2.69062e+25 -4.48051 5.29884 271.778 
-4.06158e-06 -2.38917e-07 2.69018e+25 -5.63681 4.56097 271.872 
-2.15025e-06 -2.38917e-07 2.68914e+25 -6.66025 3.33268 271.877 
-2.38917e-07 -2.38917e-07 2.68576e+25 -7.19264 1.94083 272.044 
-1.64852e-05 2.38917e-07 2.68429e+25 -0.0667055 1.23911 272.506 
-1.45739e-05 2.38917e-07 2.68655e+25 -0.367058 3.66649 272.214 
-1.26626e-05 2.38917e-07 2.69117e+25 -1.05549 5.00878 271.908 
-1.07512e-05 2.38917e-07 2.69168e+25 -2.30874 5.96062 271.847 
-8.83992e-06 2.38917e-07 2.68806e+25 -3.32137 6.09867 271.961 
-6.92858e-06 2.38917e-07 2.69282e+25 -3.94996 5.83004 271.727 
-5.01725e-06 2.38917e-07 2.68969e+25 -5.13413 5.03949 271.866 
-3.10592e-06 2.38917e-07 2.68832e+25 -5.99754 4.20866 272.006 
-1.19458e-06 2.38917e-07 2.68832e+25 -7.05057 2.77135 271.965 
-1.64852e-05 7.1675e-07 2.68513e+25 -0.0193053 1.31062 272.546 
-1.45739e-05 7.1675e-07 2.69048e+25 -0.436868 3.75883 271.984 
-1.26626e-05 7.1675e-07 2.69043e+25 -1.08781 5.3985 271.896 
-1.07512e-05 7.1675e-07 2.69356e+25 -2.59885 6.27177 271.805 
-8.83992e-06 7.1675e-07 2.69235e+25 -3.23817 6.28647 271.9 
-6.92858e-06 7.1675e-07 2.69237e+25 -3.95357 6.03259 271.783 
-5.01725e-06 7.1675e-07 2.69319e+25 -4.89766 5.28628 271.749 
-3.10592e-06 7.1675e-07 2.69004e+25 -5.78757 4.45688 272.036 
-1.19458e-06 7.1675e-07 2.68977e+25 -6.81536 3.01595 272.07 
-1.64852e-05 1.19458e-06 2.68756e+25 -0.118037 1.42381 272.393 
-1.45739e-05 1.19458e-06 2.69191e+25 -0.428942 3.79827 271.984 
-1.26626e-05 1.19458e-06 2.69305e+25 -1.24262 5.81054 271.81 
-1.07512e-05 1.19458e-06 2.69249e+25 -2.52531 6.51953 271.815 
-8.83992e-06 1.19458e-06 2.69258e+25 -3.15032 6.4327 271.845 
-6.92858e-06 1.19458e-06 2.69219e+25 -3.90018 6.22823 271.755 
-5.01725e-06 1.19458e-06 2.69109e+25 -4.71737 5.60439 271.831 
-3.10592e-06 1.19458e-06 2.68885e+25 -5.71023 4.67831 272.076 
-1.19458e-06 1.19458e-06 2.6889e+25 -6.6546 3.21983 272.199 
-1.64852e-05 1.67242e-06 2.68525e+25 0.0474502 1.45149 272.568 
-1.45739e-05 1.67242e-06 2.68973e+25 -0.500554 3.94115 272.206 
-1.26626e-05 1.67242e-06 2.69231e+25 -1.29608 6.11647 271.803 
-1.07512e-05 1.67242e-06 2.69233e+25 -2.32548 6.76451 271.918 
-8.83992e-06 1.67242e-06 2.69134e+25 -3.19569 6.54689 271.857 
-6.92858e-06 1.67242e-06 2.69232e+25 -3.86042 6.30245 271.859 
-5.01725e-06 1.67242e-06 2.69236e+25 -4.49261 5.87426 271.717 
-3.10592e-06 1.67242e-06 2.68748e+25 -5.52887 4.80564 272.251 
-1.19458e-06 1.67242e-06 2.68789e+25 -6.3444 3.40002 272.133 
-1.64852e-05 2.15025e-06 2.68499e+25 0.104642 1.35607 272.487 
-1.45739e-05 2.15025e-06 2.6884e+25 -0.354389 4.13039 272.235 
-1.26626e-05 2.15025e-06 2.69493e+25 -1.36686 6.35097 271.581 
-1.07512e-05 2.15025e-06 2.69112e+25 -2.09972 6.98756 271.931 
-8.83992e-06 2.15025e-06 2.69067e+25 -3.06737 6.69791 271.912 
-6.92858e-06 2.15025e-06 2.69423e+25 -3.8507 6.50072 271.619 
-5.01725e-06 2.15025e-06 2.69263e+25 -4.50958 6.07957 271.716 
-3.10592e-06 2.15025e-06 2.68792e+25 -5.44598 4.97766 272.215 
-1.19458e-06 2.15025e-06 2.68744e+25 -6.09734 3.63028 272.246 
-1.64852e-05 2.62808e-06 2.68406e+25 0.0251432 1.2885 272.579 
-1.45739e-05 2.62808e-06 2.69013e+25 -0.327496 4.44643 272.056 
-1.26626e-05 2.62808e-06 2.69496e+25 -1.27856 6.47996 271.523 
-1.07512e-05 2.62808e-06 2.69181e+25 -2.01873 7.16971 271.894 
-8.83992e-06 2.62808e-06 2.69021e+25 -3.06853 6.91079 271.879 
-6.92858e-06 2.62808e-06 2.69276e+25 -3.9491 6.86096 271.776 
-5.01725e-06 2.62808e-06 2.6917e+25 -4.62751 6.1765 271.887 
-3.10592e-06 2.62808e-06 2.68685e+25 -5.18742 5.26809 272.244 
-1.19458e-06 2.62808e-06 2.68619e+25 -5.70796 3.84144 272.384 
-1.64852e-05 3.10592e-06 2.68468e+25 -0.0663003 1.38259 272.634 
-1.45739e-05 3.10592e-06 2.6887e+25 -0.382771 4.75546 272.128 
-1.26626e-05 3.10592e-06 2.69371e+25 -1.25464 6.71271 271.598 
-1.07512e-05 3.10592e-06 2.69367e+25 -2.02576 7.28857 271.669 
-8.83992e-06 3.10592e-06 2.69337e+25 -2.68816 7.15366 271.677 
-6.92858e-06 3.10592e-06 2.6919e+25 -3.76345 7.1657 271.865 
-5.01725e-06 3.10592e-06 2.68983e+25 -4.52643 6.32381 271.936 
-3.10592e-06 3.10592e-06 2.6876e+25 -4.90114 5.4265 272.21 
-1.19458e-06 3.10592e-06 2.68524e+25 -5.4887 3.95799 272.263 
-1.64852e-05 3.58375e-06 2.68515e+25 -0.0332222 1.35074 272.538 
-1.45739e-05 3.58375e-06 2.69217e+25 -0.246845 4.90339 271.95 
-1.26626e-05 3.58375e-06 2.69308e+25 -1.06673 6.90643 271.723 
-1.07512e-05 3.58375e-06 2.69412e+25 -1.72546 7.5436 271.76 
-8.83992e-06 3.58375e-06 2.69291e+25 -2.61723 7.41177 271.774 
-6.92858e-06 3.58375e-06 2.68876e+25 -3.6314 7.32327 271.973 
-5.01725e-06 3.58375e-06 2.68955e+25 -4.30648 6.46532 271.934 
-3.10592e-06 3.58375e-06 2.68651e+25 -4.72724 5.53623 272.302 
-1.19458e-06 3.58375e-06 2.68485e+25 -5.22969 4.11822 272.31 
-1.64852e-05 4.06158e-06 2.68638e+25 -0.00736696 1.36395 272.47 
-1.45739e-05 4.06158e-06 2.69066e+25 -0.244433 4.9706 271.909 
-1.26626e-05 4.06158e-06 2.69148e+25 -1.11993 7.05408 271.84 
-1.07512e-05 4.06158e-06 2.69454e+25 -1.42585 7.71166 271.673 
-8.83992e-06 4.06158e-06 2.69256e+25 -2.535 7.66712 271.783 
-6.92858e-06 4.06158e-06 2.69025e+25 -3.38199 7.50767 272.078 
-5.01725e-06 4.06158e-06 2.68917e+25 -3.94707 6.55444 271.953 
-3.10592e-06 4.06158e-06 2.68634e+25 -4.37504 5.66405 272.282 
-1.19458e-06 4.06158e-06 2.68613e+25 -4.85984 4.19518 272.367 
-1.64852e-05 4.53942e-06 2.68434e+25 -0.00229019 1.47773 272.584 
-1.45739e-05 4.53942e-06 2.68929e+25 -0.48231 5.08985 272.123 
-1.26626e-05 4.53942e-06 2.69076e+25 -0.901405 7.22484 271.914 
-1.07512e-05 4.53942e-06 2.69482e+25 -1.40034 7.82241 271.716 
-8.83992e-06 4.53942e-06 2.69233e+25 -2.28581 8.00973 271.737 
-6.92858e-06 4.53942e-06 2.68901e+25 -3.16082 7.70643 272.033 
-5.01725e-06 4.53942e-06 2.68744e+25 -3.57332 6.67758 272.144 
-3.10592e-06 4.53942e-06 2.68634e+25 -3.98133 5.86942 272.238 
-1.19458e-06 4.53942e-06 2.68629e+25 -4.41664 4.23077 272.345 
-1.64852e-05 5.01725e-06 2.68681e+25 -0.0570811 1.5627 272.442 
-1.45739e-05 5.01725e-06 2.69102e+25 -0.563127 5.22228 271.97 
-1.26626e-05 5.01725e-06 2.68913e+25 -0.68925 7.32364 272.008 
-1.07512e-05 5.01725e-06 2.69177e+25 -1.42375 7.90221 271.703 
-8.83992e-06 5.01725e-06 2.69268e+25 -2.1214 8.27418 271.65 
-6.92858e-06 5.01725e-06 2.68944e+25 -2.91415 7.76393 272.04 
-5.01725e-06 5.01725e-06 2.68996e+25 -3.25171 6.81165 271.975 
-3.10592e-06 5.01725e-06 2.68889e+25 -3.6752 5.92019 272.17 
-1.19458e-06 5.01725e-06 2.68804e+25 -4.20114 4.4151 272.03 
-1.64852e-05 5.49508e-06 2.68615e+25 -0.110341 1.54985 272.457 
-1.45739e-05 5.49508e-06 2.68836e+25 -0.687446 5.3112 272.028 
-1.26626e-05 5.49508e-06 2.69179e+25 -0.701106 7.42053 271.792 
-1.07512e-05 5.49508e-06 2.69245e+25 -1.55211 8.03447 271.64 
-8.83992e-06 5.49508e-06 2.69198e+25 -2.02748 8.38097 271.717 
-6.92858e-06 5.49508e-06 2.69254e+25 -2.73419 7.90424 271.822 
-5.01725e-06 5.49508e-06 2.69085e+25 -3.0749 6.90465 271.828 
-3.10592e-06 5.49508e-06 2.68698e+25 -3.24847 5.93619 272.123 
-1.19458e-06 5.49508e-06 2.68791e+25 -3.75547 4.5867 271.904 
-1.64852e-05 5.97292e-06 2.68659e+25 -0.126061 1.6394 272.342 
-1.45739e-05 5.97292e-06 2.68869e+25 -0.634374 5.36441 272.028 
-1.26626e-05 5.97292e-06 2.6908e+25 -0.939608 7.48117 271.847 
-1.07512e-05 5.97292e-06 2.69405e+25 -1.56473 8.12835 271.575 
-8.83992e-06 5.97292e-06 2.69265e+25 -2.05412 8.55734 271.613 
-6.92858e-06 5.97292e-06 2.69206e+25 -2.5102 7.99932 271.657 
-5.01725e-06 5.97292e-06 2.68902e+25 -2.82512 7.00501 271.923 
-3.10592e-06 5.97292e-06 2.68879e+25 -2.86446 5.99631 271.976 
-1.19458e-06 5.97292e-06 2.68768e+25 -3.30661 4.6635 272.001 
-1.64852e-05 6.45075e-06 2.68641e+25 -0.0328694 1.69497 272.314 
-1.45739e-05 6.45075e-06 2.68768e+25 -0.615898 5.55262 272.061 
-1.26626e-05 6.45075e-06 2.69217e+25 -1.11074 7.47683 271.763 
-1.07512e-05 6.45075e-06 2.69381e+25 -1.42155 8.35825 271.579 
-8.83992e-06 6.45075e-06 2.69174e+25 -2.05544 8.74079 271.802 
-6.92858e-06 6.45075e-06 2.69012e+25 -2.27993 8.03341 271.868 
-5.01725e-06 6.45075e-06 2.68871e+25 -2.51915 7.08067 271.939 
-3.10592e-06 6.45075e-06 2.68941e+25 -2.65435 6.17069 271.982 
-1.19458e-06 6.45075e-06 2.69122e+25 -2.69822 4.72904 271.712 
-1.64852e-05 6.92858e-06 2.68424e+25 0.102357 1.71372 272.549 
-1.45739e-05 6.92858e-06 2.68875e+25 -0.524937 5.85604 272.003 
-1.26626e-05 6.92858e-06 2.69169e+25 -1.26156 7.57147 271.687 
-1.07512e-05 6.92858e-06 2.692e+25 -1.37852 8.53537 271.662 
-8.83992e-06 6.92858e-06 2.68996e+25 -1.79324 8.75123 271.874 
-6.92858e-06 6.92858e-06 2.6905e+25 -2.01935 8.01709 271.718 
-5.01725e-06 6.92858e-06 2.68878e+25 -1.98741 7.09198 271.912 
-3.10592e-06 6.92858e-06 2.69047e+25 -2.14776 6.15601 271.924 
-1.19458e-06 6.92858e-06 2.68853e+25 -2.24009 4.74252 271.97 
-1.64852e-05 7.40642e-06 2.68597e+25 -0.0957243 1.7947 272.496 
-1.45739e-05 7.40642e-06 2.69101e+25 -0.476938 6.07514 271.982 
-1.26626e-05 7.40642e-06 2.69045e+25 -1.15983 7.71037 271.905 
-1.07512e-05 7.40642e-06 2.69255e+25 -1.30444 8.58286 271.744 
-8.83992e-06 7.40642e-06 2.68885e+25 -1.63861 8.81479 271.91 
-6.92858e-06 7.40642e-06 2.69325e+25 -1.72163 7.95718 271.721 
-5.01725e-06 7.40642e-06 2.6876e+25 -1.55951 7.07465 272.014 
-3.10592e-06 7.40642e-06 2.68992e+25 -1.70556 6.01096 271.833 
-1.19458e-06 7.40642e-06 2.69091e+25 -1.64569 4.77832 271.752 
-1.64852e-05 7.88425e-06 2.68309e+25 -0.0364819 1.80513 272.585 
-1.45739e-05 7.88425e-06 2.69027e+25 -0.546008 6.11873 271.85 
-1.26626e-05 7.88425e-06 2.69082e+25 -1.26373 7.80487 271.947 
-1.07512e-05 7.88425e-06 2.69035e+25 -1.45076 8.58614 271.817 
-8.83992e-06 7.88425e-06 2.68757e+25 -1.6137 8.89053 272.119 
-6.92858e-06 7.88425e-06 2.69102e+25 -1.36361 7.9413 271.814 
-5.01725e-06 7.88425e-06 2.68832e+25 -1.19291 7.03632 272.015 
-3.10592e-06 7.88425e-06 2.68857e+25 -1.30993 5.99058 271.962 
-1.19458e-06 7.88425e-06 2.68949e+25 -0.852691 4.82654 271.85 
-1.64852e-05 8.36208e-06 2.68644e+25 0.0230229 1.84007 272.323 
-1.45739e-05 8.36208e-06 2.68993e+25 -0.559937 6.20176 271.905 
-1.26626e-05 8.36208e-06 2.68933e+25 -1.53953 8.06966 271.978 
-1.07512e-05 8.36208e-06 2.6899e+25 -1.59256 8.60868 271.857 
-8.83992e-06 8.36208e-06 2.68876e+25 -1.54133 8.85129 272.062 
-6.92858e-06 8.36208e-06 2.69117e+25 -1.00984 7.88947 271.749 
-5.01725e-06 8.36208e-06 2.68754e+25 -0.922239 7.00883 272.098 
-3.10592e-06 8.36208e-06 2.68818e+25 -0.729572 5.96887 271.967 
-1.19458e-06 8.36208e-06 2.68969e+25 -0.120142 4.69584 271.783 
-1.64852e-05 8.83992e-06 2.68391e+25 -0.0686007 1.96819 272.472 
-1.45739e-05 8.83992e-06 2.6898e+25 -0.675126 6.33247 272.005 
-1.26626e-05 8.83992e-06 2.6882e+25 -1.60232 8.35824 271.885 
-1.07512e-05 8.83992e-06 2.69075e+25 -1.95302 8.55311 271.878 
-8.83992e-06 8.83992e-06 2.69017e+25 -1.70198 8.75819 271.913 
-6.92858e-06 8.83992e-06 2.68741e+25 -0.78168 7.77227 272.126 
-5.01725e-06 8.83992e-06 2.6874e+25 -0.496076 6.77385 272.097 
-3.10592e-06 8.83992e-06 2.6869e+25 0.118427 5.91772 272.084 
-1.19458e-06 8.83992e-06 2.68886e+25 0.580953 4.51968 271.827 
-1.64852e-05 9.31775e-06 2.68196e+25 -0.178319 2.1509 272.634 
-1.45739e-05 9.31775e-06 2.68616e+25 -0.843494 6.57988 272.083 
-1.26626e-05 9.31775e-06 2.68756e+25 -1.89189 8.58317 271.928 
-1.07512e-05 9.31775e-06 2.69103e+25 -2.14723 8.64818 271.807 
-8.83992e-06 9.31775e-06 2.69058e+25 -1.54458 8.5595 271.95 
-6.92858e-06 9.31775e-06 2.68618e+25 -0.776908 7.55987 272.201 
-5.01725e-06 9.31775e-06 2.68966e+25 -0.011716 6.52881 271.896 
-3.10592e-06 9.31775e-06 2.68682e+25 0.785237 5.82823 272.066 
-1.19458e-06 9.31775e-06 2.68711e+25 1.32024 4.40734 272.006 
-1.64852e-05 9.79558e-06 2.68184e+25 -0.166473 2.25035 272.58 
-1.45739e-05 9.79558e-06 2.68799e+25 -1.03843 6.83852 272.022 
-1.26626e-05 9.79558e-06 2.69093e+25 -2.0051 8.69296 271.79 
-1.07512e-05 9.79558e-06 2.69084e+25 -2.43333 8.65839 271.805 
-8.83992e-06 9.79558e-06 2.69011e+25 -1.54403 8.34022 271.958 
-6.92858e-06 9.79558e-06 2.68999e+25 -0.763266 7.52775 272.014 
-5.01725e-06 9.79558e-06 2.68907e+25 0.532728 6.27394 271.964 
-3.10592e-06 9.79558e-06 2.68855e+25 1.63736 5.63838 272.003 
-1.19458e-06 9.79558e-06 2.68552e+25 2.11974 4.32296 272.116 
-1.64852e-05 1.02734e-05 2.6823e+25 -0.282333 2.42825 272.556 
-1.45739e-05 1.02734e-05 2.68867e+25 -1.32003 7.12811 271.956 
-1.26626e-05 1.02734e-05 2.68877e+25 -2.03098 8.75881 271.868 
-1.07512e-05 1.02734e-05 2.69e+25 -2.27951 8.50492 271.867 
-8.83992e-06 1.02734e-05 2.68914e+25 -1.41046 8.06151 272.061 
-6.92858e-06 1.02734e-05 2.68802e+25 -0.466172 7.33297 272.075 
-5.01725e-06 1.02734e-05 2.69074e+25 0.935582 5.96352 271.916 
-3.10592e-06 1.02734e-05 2.68752e+25 2.26005 5.43956 272.032 
-1.19458e-06 1.02734e-05 2.68632e+25 3.23955 4.19368 272.132 
-1.64852e-05 1.07512e-05 2.68255e+25 -0.151879 2.60675 272.527 
-1.45739e-05 1.07512e-05 2.68776e+25 -1.46418 7.39641 271.938 
-1.26626e-05 1.07512e-05 2.68992e+25 -2.23354 8.76532 271.838 
-1.07512e-05 1.07512e-05 2.69133e+25 -2.0227 8.37132 271.801 
-8.83992e-06 1.07512e-05 2.68891e+25 -1.25912 7.71736 272.039 
-6.92858e-06 1.07512e-05 2.68784e+25 -0.0320676 6.90611 272.153 
-5.01725e-06 1.07512e-05 2.68962e+25 1.49067 5.57264 271.882 
-3.10592e-06 1.07512e-05 2.68666e+25 3.06379 5.14141 272.122 
-1.19458e-06 1.07512e-05 2.68588e+25 4.25749 3.94906 272.08 
-1.64852e-05 1.12291e-05 2.68191e+25 -0.157243 2.85378 272.478 
-1.45739e-05 1.12291e-05 2.68742e+25 -1.68524 7.73703 271.97 
-1.26626e-05 1.12291e-05 2.68931e+25 -2.16508 8.81027 271.746 
-1.07512e-05 1.12291e-05 2.69235e+25 -2.00638 8.13616 271.747 
-8.83992e-06 1.12291e-05 2.68871e+25 -0.897513 7.41524 272.035 
-6.92858e-06 1.12291e-05 2.68919e+25 0.773652 6.47257 272.083 
-5.01725e-06 1.12291e-05 2.68839e+25 2.22342 5.18949 271.963 
-3.10592e-06 1.12291e-05 2.69008e+25 3.68438 4.77599 271.949 
-1.19458e-06 1.12291e-05 2.68832e+25 5.26976 3.71074 271.907 
-1.64852e-05 1.17069e-05 2.68269e+25 -0.207118 3.15617 272.428 
-1.45739e-05 1.17069e-05 2.68716e+25 -1.76413 8.09009 271.951 
-1.26626e-05 1.17069e-05 2.68749e+25 -2.31899 8.90199 271.926 
-1.07512e-05 1.17069e-05 2.69146e+25 -1.98695 7.97546 271.792 
-8.83992e-06 1.17069e-05 2.68732e+25 -0.463012 7.07878 272.132 
-6.92858e-06 1.17069e-05 2.68857e+25 1.60511 6.06754 272.161 
-5.01725e-06 1.17069e-05 2.68665e+25 3.10371 4.83861 272.067 
-3.10592e-06 1.17069e-05 2.68821e+25 4.74823 4.33882 271.935 
-1.19458e-06 1.17069e-05 2.68939e+25 6.53932 3.45067 271.803 
-1.64852e-05 1.21847e-05 2.68081e+25 -0.3359 3.4575 272.545 
-1.45739e-05 1.21847e-05 2.687e+25 -2.00707 8.37389 271.919 
-1.26626e-05 1.21847e-05 2.68861e+25 -2.55377 8.94813 271.899 
-1.07512e-05 1.21847e-05 2.69135e+25 -1.62271 7.72158 271.763 
-8.83992e-06 1.21847e-05 2.68948e+25 0.162546 6.66471 272.145 
-6.92858e-06 1.21847e-05 2.68668e+25 2.20315 5.553 272.211 
-5.01725e-06 1.21847e-05 2.68684e+25 4.01181 4.52964 272.039 
-3.10592e-06 1.21847e-05 2.68848e+25 5.85881 3.80858 271.987 
-1.19458e-06 1.21847e-05 2.68766e+25 7.78032 3.11797 271.96 
-1.64852e-05 1.26626e-05 2.68155e+25 -0.436104 3.9087 272.461 
-1.45739e-05 1.26626e-05 2.68401e+25 -2.34195 8.67244 272.062 
-1.26626e-05 1.26626e-05 2.68927e+25 -2.63582 8.76887 271.883 
-1.07512e-05 1.26626e-05 2.6896e+25 -1.15101 7.43818 271.969 
-8.83992e-06 1.26626e-05 2.68833e+25 1.01481 6.01437 272.132 
-6.92858e-06 1.26626e-05 2.68714e+25 3.18664 4.99907 272.21 
-5.01725e-06 1.26626e-05 2.68639e+25 5.44383 4.24231 272.215 
-3.10592e-06 1.26626e-05 2.68819e+25 7.32235 3.22618 272.065 
-1.19458e-06 1.26626e-05 2.68814e+25 9.30505 2.70613 271.983 
-1.64852e-05 1.31404e-05 2.68119e+25 -0.581893 4.42741 272.481 
-1.45739e-05 1.31404e-05 2.68435e+25 -3.01397 8.92562 272.117 
-1.26626e-05 1.31404e-05 2.689e+25 -2.58143 8.43033 271.871 
-1.07512e-05 1.31404e-05 2.69145e+25 -0.3786 6.82008 271.871 
-8.83992e-06 1.31404e-05 2.68736e+25 2.31803 5.396 272.184 
-6.92858e-06 1.31404e-05 2.68705e+25 4.75561 4.46483 272.302 
-5.01725e-06 1.31404e-05 2.68714e+25 6.92781 3.73103 272.212 
-3.10592e-06 1.31404e-05 2.68826e+25 9.25037 2.7291 272.08 
-1.19458e-06 1.31404e-05 2.68617e+25 10.9842 2.23599 272.145 
-1.64852e-05 1.36182e-05 2.67976e+25 -0.792967 5.16473 272.51 
-1.45739e-05 1.36182e-05 2.68309e+25 -3.36058 9.19554 272.139 
-1.26626e-05 1.36182e-05 2.6874e+25 -2.06223 7.92135 272.011 
-1.07512e-05 1.36182e-05 2.68741e+25 0.740019 6.04979 272.05 
-8.83992e-06 1.36182e-05 2.68799e+25 3.95343 4.71029 272.127 
-6.92858e-06 1.36182e-05 2.68797e+25 6.64335 3.91449 272.201 
-5.01725e-06 1.36182e-05 2.68701e+25 9.0625 3.10176 272.226 
-3.10592e-06 1.36182e-05 2.6879e+25 11.2594 2.10654 272.026 
-1.19458e-06 1.36182e-05 2.68631e+25 12.7182 1.83243 272.237 
-1.64852e-05 1.40961e-05 2.6768e+25 -0.870289 5.9907 272.516 
-1.45739e-05 1.40961e-05 2.68273e+25 -3.32182 9.28653 272.14 
-1.26626e-05 1.40961e-05 2.68799e+25 -1.09983 7.26098 271.924 
-1.07512e-05 1.40961e-05 2.68715e+25 2.475 5.1057 272.141 
-8.83992e-06 1.40961e-05 2.68879e+25 5.66634 3.99866 272.114 
-6.92858e-06 1.40961e-05 2.68691e+25 8.82411 3.20859 272.249 
-5.01725e-06 1.40961e-05 2.6863e+25 11.4691 2.48571 272.308 
-3.10592e-06 1.40961e-05 2.6884e+25 13.3883 1.72597 272.009 
-1.19458e-06 1.40961e-05 2.68552e+25 14.7146 1.42822 272.233 
-1.64852e-05 1.45739e-05 2.67452e+25 -1.33499 7.03713 272.522 
-1.45739e-05 1.45739e-05 2.68219e+25 -2.91767 9.02879 272.1 
-1.26626e-05 1.45739e-05 2.68749e+25 0.560221 6.30659 271.97 
-1.07512e-05 1.45739e-05 2.68669e+25 4.77937 4.11891 272.318 
-8.83992e-06 1.45739e-05 2.68833e+25 8.16878 3.1041 272.214 
-6.92858e-06 1.45739e-05 2.68628e+25 11.4636 2.44374 272.392 
-5.01725e-06 1.45739e-05 2.68767e+25 14.0329 1.86888 272.157 
-3.10592e-06 1.45739e-05 2.68787e+25 15.821 1.34108 272.07 
-1.19458e-06 1.45739e-05 2.68461e+25 17.2494 1.09822 272.357 
-1.64852e-05 1.50518e-05 2.67073e+25 -1.78279 8.26821 272.647 
-1.45739e-05 1.50518e-05 2.6795e+25 -1.91942 8.39052 272.236 
-1.26626e-05 1.50518e-05 2.68491e+25 3.26802 5.0549 272.236 
-1.07512e-05 1.50518e-05 2.68486e+25 7.89774 3.20658 272.484 
-8.83992e-06 1.50518e-05 2.68689e+25 11.4828 2.20799 272.409 
-6.92858e-06 1.50518e-05 2.68492e+25 14.3721 1.77956 272.388 
-5.01725e-06 1.50518e-05 2.6854e+25 16.7969 1.35551 272.326 
-3.10592e-06 1.50518e-05 2.6858e+25 18.8182 1.07462 272.242 
-1.19458e-06 1.50518e-05 2.68562e+25 20.0291 0.708505 272.339 
-1.64852e-05 1.55296e-05 2.66751e+25 -2.16866 9.68417 272.546 
-1.45739e-05 1.55296e-05 2.6775e+25 0.745491 6.98803 272.379 
-1.26626e-05 1.55296e-05 2.68173e+25 7.463 3.72285 272.523 
-1.07512e-05 1.55296e-05 2.68195e+25 12.2183 2.21365 272.762 
-8.83992e-06 1.55296e-05 2.68527e+25 15.7226 1.43639 272.41 
-6.92858e-06 1.55296e-05 2.68621e+25 18.3781 1.20246 272.551 
-5.01725e-06 1.55296e-05 2.68566e+25 20.346 0.840195 272.495 
-3.10592e-06 1.55296e-05 2.6849e+25 21.9572 0.742698 272.434 
-1.19458e-06 1.55296e-05 2.68416e+25 23.1964 0.456792 272.535 
-1.64852e-05 1.60074e-05 2.6603e+25 -1.8906 10.5362 272.542 
-1.45739e-05 1.60074e-05 2.67669e+25 5.97301 4.99597 272.538 
-1.26626e-05 1.60074e-05 2.68176e+25 13.1938 2.2989 272.635 
-1.07512e-05 1.60074e-05 2.68193e+25 17.6899 1.23804 272.738 
-8.83992e-06 1.60074e-05 2.68675e+25 20.4683 0.739423 272.449 
-6.92858e-06 1.60074e-05 2.68169e+25 22.7212 0.677226 272.834 
-5.01725e-06 1.60074e-05 2.68348e+25 24.4524 0.383316 272.608 
-3.10592e-06 1.60074e-05 2.6845e+25 25.4736 0.418427 272.481 
-1.19458e-06 1.60074e-05 2.68354e+25 26.4164 0.195844 272.566 
-1.64852e-05 1.64852e-05 2.64597e+25 0.81887 9.30124 272.858 
-1.45739e-05 1.64852e-05 2.67406e+25 14.4753 2.46042 272.867 
-1.26626e-05 1.64852e-05 2.68135e+25 20.6697 0.973324 272.721 
-1.07512e-05 1.64852e-05 2.68239e+25 24.0044 0.466607 272.844 
-8.83992e-06 1.64852e-05 2.68543e+25 26.1014 0.206097 272.789 
-6.92858e-06 1.64852e-05 2.68345e+25 27.5213 0.311883 272.951 
-5.01725e-06 1.64852e-05 2.68219e+25 28.4996 0.110857 272.757 
-3.10592e-06 1.64852e-05 2.68395e+25 29.09 0.23079 272.538 
-1.19458e-06 1.64852e-05 2.68269e+25 29.7787 0.101363 272.654 
-1.64852e-05 1.69631e-05 2.62291e+25 12.4081 3.51872 273.54 
-1.45739e-05 1.69631e-05 2.67519e+25 25.9048 0.549316 273.061 
-1.26626e-05 1.69631e-05 2.68165e+25 29.035 0.157268 272.956 
-1.07512e-05 1.69631e-05 2.68266e+25 30.5614 0.0713255 272.946 
-8.83992e-06 1.69631e-05 2.68365e+25 31.4086 0.0137689 272.854 
-6.92858e-06 1.69631e-05 2.68089e+25 31.8384 0.0614279 273.131 
-5.01725e-06 1.69631e-05 2.682e+25 32.1951 -0.0104392 272.898 
-3.10592e-06 1.69631e-05 2.68237e+25 32.5704 0.065875 272.78 
-1.19458e-06 1.69631e-05 2.68106e+25 32.8019 0.0285756 272.878 
-1.69631e-05 2.38917e-07 2.68261e+25 -0.0177601 0.497808 272.734 
-1.50517e-05 2.38917e-07 2.68684e+25 -0.284311 3.08529 272.183 
-1.31404e-05 2.38917e-07 2.68902e+25 -0.724012 4.77718 271.93 
-1.12291e-05 2.38917e-07 2.68928e+25 -1.98801 5.69458 272.011 
-9.31775e-06 2.38917e-07 2.68951e+25 -3.09831 5.94049 271.854 
-7.40642e-06 2.38917e-07 2.69079e+25 -3.80829 5.87571 271.793 
-5.49508e-06 2.38917e-07 2.68945e+25 -4.83585 5.32442 271.829 
-3.58375e-06 2.38917e-07 2.6893e+25 -5.74069 4.50046 271.867 
-1.67242e-06 2.38917e-07 2.68689e+25 -6.79621 3.27428 272.059 
-1.69631e-05 7.1675e-07 2.68568e+25 -0.0198469 0.516357 272.697 
-1.50517e-05 7.1675e-07 2.69039e+25 -0.383152 3.13223 272.11 
-1.31404e-05 7.1675e-07 2.69001e+25 -0.718247 5.05401 271.996 
-1.12291e-05 7.1675e-07 2.69243e+25 -2.28516 6.03458 271.916 
-9.31775e-06 7.1675e-07 2.69101e+25 -3.04891 6.10734 271.956 
-7.40642e-06 7.1675e-07 2.69276e+25 -3.72816 6.01135 271.741 
-5.49508e-06 7.1675e-07 2.69104e+25 -4.64742 5.58048 271.878 
-3.58375e-06 7.1675e-07 2.68999e+25 -5.65356 4.65573 272.01 
-1.67242e-06 7.1675e-07 2.68843e+25 -6.70091 3.40356 272.158 
-1.69631e-05 1.19458e-06 2.68463e+25 0.0143946 0.554026 272.756 
-1.50517e-05 1.19458e-06 2.68875e+25 -0.383786 3.18611 272.211 
-1.31404e-05 1.19458e-06 2.69103e+25 -0.896013 5.34614 272.043 
-1.12291e-05 1.19458e-06 2.6932e+25 -2.20763 6.43181 271.879 
-9.31775e-06 1.19458e-06 2.69164e+25 -3.0767 6.22059 271.939 
-7.40642e-06 1.19458e-06 2.68989e+25 -3.72155 6.24244 271.964 
-5.49508e-06 1.19458e-06 2.69186e+25 -4.42134 5.81192 271.717 
-3.58375e-06 1.19458e-06 2.69053e+25 -5.52207 4.8037 271.988 
-1.67242e-06 1.19458e-06 2.6885e+25 -6.40541 3.56292 272.13 
-1.69631e-05 1.67242e-06 2.68386e+25 0.0156235 0.568722 272.738 
-1.50517e-05 1.67242e-06 2.68837e+25 -0.242452 3.29195 272.171 
-1.31404e-05 1.67242e-06 2.68973e+25 -1.10008 5.62156 272.032 
-1.12291e-05 1.67242e-06 2.69155e+25 -2.04364 6.78839 271.872 
-9.31775e-06 1.67242e-06 2.69183e+25 -3.03492 6.36219 271.926 
-7.40642e-06 1.67242e-06 2.69223e+25 -3.63359 6.51591 271.794 
-5.49508e-06 1.67242e-06 2.69401e+25 -4.24352 6.11336 271.692 
-3.58375e-06 1.67242e-06 2.68954e+25 -5.38393 5.00536 272.067 
-1.67242e-06 1.67242e-06 2.68721e+25 -6.15725 3.84841 272.14 
-1.69631e-05 2.15025e-06 2.68328e+25 0.0342598 0.529405 272.821 
-1.50517e-05 2.15025e-06 2.6893e+25 -0.0798753 3.634 272.207 
-1.31404e-05 2.15025e-06 2.69426e+25 -1.22934 5.82309 271.75 
-1.12291e-05 2.15025e-06 2.69245e+25 -1.94873 6.96742 271.779 
-9.31775e-06 2.15025e-06 2.69084e+25 -2.83339 6.57926 271.934 
-7.40642e-06 2.15025e-06 2.69211e+25 -3.62016 6.73076 271.802 
-5.49508e-06 2.15025e-06 2.69319e+25 -4.38939 6.27468 271.662 
-3.58375e-06 2.15025e-06 2.68837e+25 -5.11094 5.26257 272.094 
-1.67242e-06 2.15025e-06 2.68753e+25 -5.84483 4.02611 272.2 
-1.69631e-05 2.62808e-06 2.6836e+25 0.00322259 0.505203 272.798 
-1.50517e-05 2.62808e-06 2.69085e+25 -0.209098 3.69786 272.1 
-1.31404e-05 2.62808e-06 2.69583e+25 -1.10033 5.99094 271.546 
-1.12291e-05 2.62808e-06 2.69521e+25 -1.82605 7.09549 271.697 
-9.31775e-06 2.62808e-06 2.69156e+25 -2.78993 6.86813 271.894 
-7.40642e-06 2.62808e-06 2.69303e+25 -3.55517 6.99204 271.678 
-5.49508e-06 2.62808e-06 2.69237e+25 -4.47553 6.44015 271.848 
-3.58375e-06 2.62808e-06 2.68778e+25 -4.96587 5.50392 272.217 
-1.67242e-06 2.62808e-06 2.68722e+25 -5.54359 4.2336 272.217 
-1.69631e-05 3.10592e-06 2.681e+25 -0.0413087 0.491226 273.025 
-1.50517e-05 3.10592e-06 2.68848e+25 -0.137403 3.83409 272.23 
-1.31404e-05 3.10592e-06 2.69528e+25 -1.00204 6.18615 271.557 
-1.12291e-05 3.10592e-06 2.69474e+25 -1.92153 7.28643 271.61 
-9.31775e-06 3.10592e-06 2.69189e+25 -2.52235 7.09072 271.806 
-7.40642e-06 3.10592e-06 2.69349e+25 -3.57374 7.30038 271.754 
-5.49508e-06 3.10592e-06 2.69146e+25 -4.39903 6.53475 271.906 
-3.58375e-06 3.10592e-06 2.68832e+25 -4.81034 5.63855 272.149 
-1.67242e-06 3.10592e-06 2.68709e+25 -5.38463 4.4437 272.238 
-1.69631e-05 3.58375e-06 2.68255e+25 0.00556494 0.543918 272.891 
-1.50517e-05 3.58375e-06 2.69032e+25 -0.0909164 4.0176 272.141 
-1.31404e-05 3.58375e-06 2.69403e+25 -0.90605 6.37785 271.646 
-1.12291e-05 3.58375e-06 2.69173e+25 -1.46296 7.38765 271.738 
-9.31775e-06 3.58375e-06 2.69354e+25 -2.29685 7.29933 271.757 
-7.40642e-06 3.58375e-06 2.69198e+25 -3.43281 7.4747 271.844 
-5.49508e-06 3.58375e-06 2.69151e+25 -4.21697 6.59417 271.867 
-3.58375e-06 3.58375e-06 2.68634e+25 -4.61176 5.73148 272.203 
-1.67242e-06 3.58375e-06 2.68609e+25 -5.11931 4.52332 272.263 
-1.69631e-05 4.06158e-06 2.68367e+25 0.0195744 0.560304 272.711 
-1.50517e-05 4.06158e-06 2.6892e+25 -0.196127 4.10948 272.084 
-1.31404e-05 4.06158e-06 2.69336e+25 -0.942428 6.62701 271.748 
-1.12291e-05 4.06158e-06 2.69252e+25 -1.34804 7.53945 271.804 
-9.31775e-06 4.06158e-06 2.6929e+25 -2.25993 7.66391 271.762 
-7.40642e-06 4.06158e-06 2.69009e+25 -3.2265 7.65181 271.997 
-5.49508e-06 4.06158e-06 2.69081e+25 -3.76843 6.76014 271.965 
-3.58375e-06 4.06158e-06 2.6865e+25 -4.22793 5.84378 272.293 
-1.67242e-06 4.06158e-06 2.68701e+25 -4.81722 4.59584 272.135 
-1.69631e-05 4.53942e-06 2.6817e+25 0.00733953 0.525336 272.959 
-1.50517e-05 4.53942e-06 2.68823e+25 -0.334404 4.22365 272.144 
-1.31404e-05 4.53942e-06 2.69176e+25 -0.78411 6.75513 271.804 
-1.12291e-05 4.53942e-06 2.69262e+25 -1.21207 7.6842 271.712 
-9.31775e-06 4.53942e-06 2.69379e+25 -1.86238 8.01992 271.65 
-7.40642e-06 4.53942e-06 2.69037e+25 -3.02696 7.7685 272.007 
-5.49508e-06 4.53942e-06 2.69035e+25 -3.49517 6.87568 271.918 
-3.58375e-06 4.53942e-06 2.68719e+25 -3.86034 5.9679 272.185 
-1.67242e-06 4.53942e-06 2.68716e+25 -4.28183 4.72428 272.171 
-1.69631e-05 5.01725e-06 2.68116e+25 -0.00838055 0.52903 272.917 
-1.50517e-05 5.01725e-06 2.68745e+25 -0.425775 4.33336 272.173 
-1.31404e-05 5.01725e-06 2.69196e+25 -0.619341 6.85393 271.91 
-1.12291e-05 5.01725e-06 2.6935e+25 -1.35501 7.8952 271.742 
-9.31775e-06 5.01725e-06 2.69215e+25 -2.01062 8.30449 271.817 
-7.40642e-06 5.01725e-06 2.691e+25 -2.83238 7.91638 271.899 
-5.49508e-06 5.01725e-06 2.68923e+25 -3.11236 6.9941 271.884 
-3.58375e-06 5.01725e-06 2.68694e+25 -3.61208 6.08902 272.091 
-1.67242e-06 5.01725e-06 2.68704e+25 -3.98302 4.88024 272.089 
-1.69631e-05 5.49508e-06 2.68452e+25 -0.0441257 0.592011 272.718 
-1.50517e-05 5.49508e-06 2.6885e+25 -0.522416 4.51882 272.118 
-1.31404e-05 5.49508e-06 2.69134e+25 -0.698284 6.81059 271.832 
-1.12291e-05 5.49508e-06 2.69236e+25 -1.40929 8.02531 271.759 
-9.31775e-06 5.49508e-06 2.69144e+25 -1.89762 8.47708 271.764 
-7.40642e-06 5.49508e-06 2.69221e+25 -2.56384 7.98145 271.778 
-5.49508e-06 5.49508e-06 2.68972e+25 -3.01916 7.08185 271.856 
-3.58375e-06 5.49508e-06 2.68908e+25 -3.19423 6.13695 271.976 
-1.67242e-06 5.49508e-06 2.68715e+25 -3.59627 5.07398 272.033 
-1.69631e-05 5.97292e-06 2.68524e+25 -0.0220129 0.684863 272.583 
-1.50517e-05 5.97292e-06 2.68828e+25 -0.456224 4.7974 272.207 
-1.31404e-05 5.97292e-06 2.69207e+25 -0.800113 6.85987 271.812 
-1.12291e-05 5.97292e-06 2.69359e+25 -1.4031 8.25354 271.656 
-9.31775e-06 5.97292e-06 2.6933e+25 -1.86744 8.60791 271.656 
-7.40642e-06 5.97292e-06 2.69192e+25 -2.39928 8.1372 271.681 
-5.49508e-06 5.97292e-06 2.68823e+25 -2.67693 7.16572 271.932 
-3.58375e-06 5.97292e-06 2.68956e+25 -2.82583 6.18678 271.969 
-1.67242e-06 5.97292e-06 2.68931e+25 -3.2911 5.21746 271.878 
-1.69631e-05 6.45075e-06 2.68201e+25 0.0094252 0.734153 272.772 
-1.50517e-05 6.45075e-06 2.68739e+25 -0.386548 5.0264 272.218 
-1.31404e-05 6.45075e-06 2.6914e+25 -1.13697 6.97075 271.908 
-1.12291e-05 6.45075e-06 2.69403e+25 -1.20753 8.42423 271.548 
-9.31775e-06 6.45075e-06 2.69398e+25 -2.01746 8.69967 271.693 
-7.40642e-06 6.45075e-06 2.69151e+25 -2.24152 8.27932 271.762 
-5.49508e-06 6.45075e-06 2.68957e+25 -2.4989 7.24454 271.943 
-3.58375e-06 6.45075e-06 2.68988e+25 -2.52934 6.15725 271.964 
-1.67242e-06 6.45075e-06 2.69143e+25 -2.66292 5.16597 271.76 
-1.69631e-05 6.92858e-06 2.68375e+25 0.012641 0.677431 272.738 
-1.50517e-05 6.92858e-06 2.68838e+25 -0.333676 5.13894 272.156 
-1.31404e-05 6.92858e-06 2.68987e+25 -1.09289 7.09377 271.918 
-1.12291e-05 6.92858e-06 2.69297e+25 -1.25005 8.53652 271.549 
-9.31775e-06 6.92858e-06 2.69078e+25 -1.75085 8.74112 271.719 
-7.40642e-06 6.92858e-06 2.69145e+25 -2.04373 8.30591 271.768 
-5.49508e-06 6.92858e-06 2.68857e+25 -1.99594 7.2724 271.965 
-3.58375e-06 6.92858e-06 2.68896e+25 -2.12332 6.27168 271.832 
-1.67242e-06 6.92858e-06 2.69021e+25 -2.22005 5.25926 271.673 
-1.69631e-05 7.40642e-06 2.68256e+25 0.00734901 0.643082 272.765 
-1.50517e-05 7.40642e-06 2.68992e+25 -0.3865 5.23346 272.128 
-1.31404e-05 7.40642e-06 2.69075e+25 -1.06098 7.20013 271.947 
-1.12291e-05 7.40642e-06 2.69368e+25 -1.37198 8.49967 271.608 
-9.31775e-06 7.40642e-06 2.69111e+25 -1.66143 8.72993 271.813 
-7.40642e-06 7.40642e-06 2.6931e+25 -1.69087 8.36856 271.613 
-5.49508e-06 7.40642e-06 2.69046e+25 -1.59855 7.26725 271.821 
-3.58375e-06 7.40642e-06 2.68901e+25 -1.81859 6.33674 271.858 
-1.67242e-06 7.40642e-06 2.69266e+25 -1.51743 5.32013 271.614 
-1.69631e-05 7.88425e-06 2.68096e+25 -0.00671291 0.703365 272.853 
-1.50517e-05 7.88425e-06 2.68931e+25 -0.441408 5.36569 272.008 
-1.31404e-05 7.88425e-06 2.69019e+25 -1.07147 7.42198 271.945 
-1.12291e-05 7.88425e-06 2.69203e+25 -1.42964 8.49434 271.683 
-9.31775e-06 7.88425e-06 2.68955e+25 -1.44567 8.8159 271.97 
-7.40642e-06 7.88425e-06 2.69231e+25 -1.39977 8.3831 271.67 
-5.49508e-06 7.88425e-06 2.68719e+25 -1.29994 7.19236 272.042 
-3.58375e-06 7.88425e-06 2.68816e+25 -1.28205 6.31282 271.992 
-1.67242e-06 7.88425e-06 2.6911e+25 -0.971708 5.30447 271.734 
-1.69631e-05 8.36208e-06 2.68162e+25 0.00912542 0.703332 272.752 
-1.50517e-05 8.36208e-06 2.68931e+25 -0.467554 5.51979 271.913 
-1.31404e-05 8.36208e-06 2.6895e+25 -1.22142 7.70049 272.041 
-1.12291e-05 8.36208e-06 2.68956e+25 -1.6339 8.51009 271.81 
-9.31775e-06 8.36208e-06 2.6878e+25 -1.63613 8.87864 272.037 
-7.40642e-06 8.36208e-06 2.69176e+25 -1.17236 8.22541 271.711 
-5.49508e-06 8.36208e-06 2.68591e+25 -0.979887 7.03716 272.129 
-3.58375e-06 8.36208e-06 2.68835e+25 -0.707089 6.40966 271.996 
-1.67242e-06 8.36208e-06 2.69106e+25 -0.328474 5.12653 271.739 
-1.69631e-05 8.83992e-06 2.6827e+25 0.00529821 0.673672 272.723 
-1.50517e-05 8.83992e-06 2.6876e+25 -0.512105 5.62014 272.087 
-1.31404e-05 8.83992e-06 2.68913e+25 -1.36297 7.95809 272.054 
-1.12291e-05 8.83992e-06 2.68943e+25 -1.93271 8.47199 271.968 
-9.31775e-06 8.83992e-06 2.68975e+25 -1.73357 8.80178 271.931 
-7.40642e-06 8.83992e-06 2.68925e+25 -1.00106 7.95958 271.91 
-5.49508e-06 8.83992e-06 2.68512e+25 -0.633466 7.04807 272.255 
-3.58375e-06 8.83992e-06 2.68874e+25 0.0509545 6.37417 271.988 
-1.67242e-06 8.83992e-06 2.69079e+25 0.444428 4.94909 271.761 
-1.69631e-05 9.31775e-06 2.68084e+25 -0.0324495 0.715084 272.674 
-1.50517e-05 9.31775e-06 2.6859e+25 -0.603308 5.78743 272.114 
-1.31404e-05 9.31775e-06 2.68892e+25 -1.69932 8.19329 271.948 
-1.12291e-05 9.31775e-06 2.69111e+25 -2.13038 8.35495 271.711 
-9.31775e-06 9.31775e-06 2.68827e+25 -1.81753 8.6843 272.018 
-7.40642e-06 9.31775e-06 2.68968e+25 -1.02701 7.68178 271.933 
-5.49508e-06 9.31775e-06 2.68814e+25 -0.175637 7.00054 271.999 
-3.58375e-06 9.31775e-06 2.68848e+25 0.592634 6.21661 271.981 
-1.67242e-06 9.31775e-06 2.6887e+25 1.17631 4.80482 271.928 
-1.69631e-05 9.79558e-06 2.68181e+25 -0.0718421 0.831236 272.762 
-1.50517e-05 9.79558e-06 2.68801e+25 -0.746863 6.00648 272.066 
-1.31404e-05 9.79558e-06 2.68904e+25 -1.84633 8.41133 271.933 
-1.12291e-05 9.79558e-06 2.6912e+25 -2.42742 8.39765 271.695 
-9.31775e-06 9.79558e-06 2.68736e+25 -1.68437 8.46467 272.075 
-7.40642e-06 9.79558e-06 2.68978e+25 -0.755423 7.51318 272.022 
-5.49508e-06 9.79558e-06 2.68984e+25 0.166492 6.69483 272.042 
-3.58375e-06 9.79558e-06 2.68957e+25 1.35619 5.91827 271.899 
-1.67242e-06 9.79558e-06 2.68975e+25 1.99874 4.60857 271.898 
-1.69631e-05 1.02734e-05 2.67925e+25 -0.0681607 0.996363 272.844 
-1.50517e-05 1.02734e-05 2.68623e+25 -1.08703 6.26445 272.104 
-1.31404e-05 1.02734e-05 2.68958e+25 -2.01552 8.54667 271.89 
-1.12291e-05 1.02734e-05 2.68876e+25 -2.33614 8.51128 271.835 
-9.31775e-06 1.02734e-05 2.6885e+25 -1.71251 8.30281 272.047 
-7.40642e-06 1.02734e-05 2.68729e+25 -0.788999 7.44587 272.124 
-5.49508e-06 1.02734e-05 2.68861e+25 0.593516 6.23308 272.025 
-3.58375e-06 1.02734e-05 2.68917e+25 1.99997 5.59119 271.953 
-1.67242e-06 1.02734e-05 2.68673e+25 3.00957 4.42456 272.113 
-1.69631e-05 1.07512e-05 2.68147e+25 -0.0276012 1.13736 272.7 
-1.50517e-05 1.07512e-05 2.68767e+25 -1.10957 6.57584 271.936 
-1.31404e-05 1.07512e-05 2.69138e+25 -2.11011 8.71731 271.763 
-1.12291e-05 1.07512e-05 2.68927e+25 -2.14408 8.48269 271.84 
-9.31775e-06 1.07512e-05 2.68962e+25 -1.57461 8.06931 271.89 
-7.40642e-06 1.07512e-05 2.68532e+25 -0.366049 7.25276 272.303 
-5.49508e-06 1.07512e-05 2.68915e+25 1.11158 5.9378 271.992 
-3.58375e-06 1.07512e-05 2.68889e+25 2.64624 5.31801 272.002 
-1.67242e-06 1.07512e-05 2.68827e+25 3.98329 4.17173 271.997 
-1.69631e-05 1.12291e-05 2.68112e+25 -0.0219662 1.17426 272.725 
-1.50517e-05 1.12291e-05 2.68859e+25 -1.31432 6.96542 271.954 
-1.31404e-05 1.12291e-05 2.68883e+25 -2.05957 8.86943 271.977 
-1.12291e-05 1.12291e-05 2.69117e+25 -2.11815 8.42692 271.82 
-9.31775e-06 1.12291e-05 2.69034e+25 -1.21134 7.68995 271.912 
-7.40642e-06 1.12291e-05 2.68701e+25 0.361653 6.86887 272.212 
-5.49508e-06 1.12291e-05 2.68894e+25 1.94155 5.64117 271.941 
-3.58375e-06 1.12291e-05 2.68936e+25 3.3557 4.89161 271.991 
-1.67242e-06 1.12291e-05 2.68852e+25 4.98131 3.88883 271.823 
-1.69631e-05 1.17069e-05 2.68074e+25 -0.0215197 1.22713 272.765 
-1.50517e-05 1.17069e-05 2.68719e+25 -1.42122 7.32929 272.054 
-1.31404e-05 1.17069e-05 2.68577e+25 -2.21611 8.98152 272.14 
-1.12291e-05 1.17069e-05 2.69078e+25 -2.14752 8.34604 271.747 
-9.31775e-06 1.17069e-05 2.68741e+25 -0.872217 7.31593 272.113 
-7.40642e-06 1.17069e-05 2.68729e+25 1.03072 6.3848 272.28 
-5.49508e-06 1.17069e-05 2.68917e+25 2.76491 5.39131 271.987 
-3.58375e-06 1.17069e-05 2.68905e+25 4.25294 4.44394 271.948 
-1.67242e-06 1.17069e-05 2.68918e+25 6.1104 3.46599 271.882 
-1.69631e-05 1.21847e-05 2.67927e+25 -0.0586121 1.35113 272.877 
-1.50517e-05 1.21847e-05 2.68694e+25 -1.61821 7.8138 271.998 
-1.31404e-05 1.21847e-05 2.68627e+25 -2.60719 9.08152 272.17 
-1.12291e-05 1.21847e-05 2.68863e+25 -1.91919 8.11586 271.796 
-9.31775e-06 1.21847e-05 2.6902e+25 -0.39261 6.77353 271.868 
-7.40642e-06 1.21847e-05 2.68612e+25 1.66954 5.7813 272.313 
-5.49508e-06 1.21847e-05 2.68826e+25 3.62528 4.95606 272.106 
-3.58375e-06 1.21847e-05 2.6885e+25 5.29346 3.96984 272.074 
-1.67242e-06 1.21847e-05 2.6893e+25 7.41269 2.9998 271.974 
-1.69631e-05 1.26626e-05 2.68029e+25 -0.0900486 1.5178 272.702 
-1.50517e-05 1.26626e-05 2.68416e+25 -2.04853 8.18784 272.128 
-1.31404e-05 1.26626e-05 2.68773e+25 -2.7537 9.04645 271.943 
-1.12291e-05 1.26626e-05 2.68843e+25 -1.51304 7.73669 271.813 
-9.31775e-06 1.26626e-05 2.68904e+25 0.415347 6.26102 272.066 
-7.40642e-06 1.26626e-05 2.68692e+25 2.66363 5.28892 272.278 
-5.49508e-06 1.26626e-05 2.68784e+25 4.97257 4.39354 272.228 
-3.58375e-06 1.26626e-05 2.6888e+25 6.80516 3.44246 272.101 
-1.67242e-06 1.26626e-05 2.68735e+25 8.82023 2.54295 272.046 
-1.69631e-05 1.31404e-05 2.67874e+25 -0.109327 1.80129 272.693 
-1.50517e-05 1.31404e-05 2.6833e+25 -2.52761 8.70883 272.075 
-1.31404e-05 1.31404e-05 2.68704e+25 -2.97397 8.88723 271.894 
-1.12291e-05 1.31404e-05 2.68951e+25 -1.01234 7.30021 271.968 
-9.31775e-06 1.31404e-05 2.69012e+25 1.67737 5.69169 272.047 
-7.40642e-06 1.31404e-05 2.68479e+25 4.22833 4.77455 272.282 
-5.49508e-06 1.31404e-05 2.68826e+25 6.35102 3.79407 272.221 
-3.58375e-06 1.31404e-05 2.68834e+25 8.64944 2.82174 272.02 
-1.67242e-06 1.31404e-05 2.68822e+25 10.6457 2.16055 272.036 
-1.69631e-05 1.36182e-05 2.67806e+25 -0.188851 2.13792 272.752 
-1.50517e-05 1.36182e-05 2.68314e+25 -3.09887 9.22016 272.056 
-1.31404e-05 1.36182e-05 2.68757e+25 -2.65313 8.41049 271.943 
-1.12291e-05 1.36182e-05 2.68785e+25 -0.0459311 6.60256 272.159 
-9.31775e-06 1.36182e-05 2.68942e+25 3.19684 4.95626 271.985 
-7.40642e-06 1.36182e-05 2.68801e+25 6.03623 4.18369 272.132 
-5.49508e-06 1.36182e-05 2.68901e+25 8.38649 3.15824 272.173 
-3.58375e-06 1.36182e-05 2.68886e+25 10.7693 2.29637 272.117 
-1.67242e-06 1.36182e-05 2.68685e+25 12.2653 1.75004 272.184 
-1.69631e-05 1.40961e-05 2.67316e+25 -0.180368 2.58095 272.896 
-1.50517e-05 1.40961e-05 2.68078e+25 -3.19609 9.56366 272.183 
-1.31404e-05 1.40961e-05 2.69002e+25 -1.88292 7.75047 271.709 
-1.12291e-05 1.40961e-05 2.68454e+25 1.37206 5.68396 272.299 
-9.31775e-06 1.40961e-05 2.68805e+25 4.93726 4.16221 272.153 
-7.40642e-06 1.40961e-05 2.68843e+25 8.06154 3.50405 272.131 
-5.49508e-06 1.40961e-05 2.68775e+25 10.8809 2.573 272.28 
-3.58375e-06 1.40961e-05 2.68643e+25 13.0453 1.91856 272.133 
-1.67242e-06 1.40961e-05 2.6858e+25 14.4146 1.50005 272.345 
-1.69631e-05 1.45739e-05 2.67221e+25 -0.32303 3.18437 272.809 
-1.50517e-05 1.45739e-05 2.68059e+25 -3.16344 9.69439 272.263 
-1.31404e-05 1.45739e-05 2.68689e+25 -0.546313 6.83272 271.893 
-1.12291e-05 1.45739e-05 2.68604e+25 3.76276 4.56753 272.298 
-9.31775e-06 1.45739e-05 2.68753e+25 7.30856 3.43365 272.142 
-7.40642e-06 1.45739e-05 2.68772e+25 10.7368 2.76272 272.276 
-5.49508e-06 1.45739e-05 2.68719e+25 13.4222 1.97272 272.272 
-3.58375e-06 1.45739e-05 2.68528e+25 15.5483 1.60011 272.223 
-1.67242e-06 1.45739e-05 2.68429e+25 16.9043 1.19506 272.389 
-1.69631e-05 1.50518e-05 2.66948e+25 -0.457052 4.09959 272.832 
-1.50517e-05 1.50518e-05 2.67678e+25 -2.75735 9.38409 272.35 
-1.31404e-05 1.50518e-05 2.68667e+25 1.94773 5.70211 272.035 
-1.12291e-05 1.50518e-05 2.68526e+25 6.94399 3.53132 272.339 
-9.31775e-06 1.50518e-05 2.68707e+25 10.6316 2.63939 272.252 
-7.40642e-06 1.50518e-05 2.68547e+25 13.7412 2.06043 272.521 
-5.49508e-06 1.50518e-05 2.6839e+25 16.2801 1.35534 272.503 
-3.58375e-06 1.50518e-05 2.68536e+25 18.3774 1.18322 272.26 
-1.67242e-06 1.50518e-05 2.68616e+25 19.7464 0.930964 272.392 
-1.69631e-05 1.55296e-05 2.66221e+25 -0.678202 5.38698 272.801 
-1.50517e-05 1.55296e-05 2.67495e+25 -0.917861 8.29149 272.486 
-1.31404e-05 1.55296e-05 2.68279e+25 5.89743 4.1432 272.395 
-1.12291e-05 1.55296e-05 2.68187e+25 11.2536 2.56628 272.797 
-9.31775e-06 1.55296e-05 2.68795e+25 14.8847 1.707 272.328 
-7.40642e-06 1.55296e-05 2.68391e+25 17.7781 1.39514 272.662 
-5.49508e-06 1.55296e-05 2.68535e+25 19.9106 0.895633 272.48 
-3.58375e-06 1.55296e-05 2.686e+25 21.5955 0.732789 272.38 
-1.67242e-06 1.55296e-05 2.68466e+25 22.8705 0.647429 272.536 
-1.69631e-05 1.60074e-05 2.65038e+25 -0.830158 7.01704 272.876 
-1.50517e-05 1.60074e-05 2.67425e+25 3.54397 6.21177 272.682 
-1.31404e-05 1.60074e-05 2.6811e+25 11.7129 2.44145 272.606 
-1.12291e-05 1.60074e-05 2.68144e+25 16.6929 1.56415 272.867 
-9.31775e-06 1.60074e-05 2.68517e+25 19.8371 0.950378 272.504 
-7.40642e-06 1.60074e-05 2.68225e+25 22.1881 0.788467 272.751 
-5.49508e-06 1.60074e-05 2.68305e+25 24.0129 0.490792 272.68 
-3.58375e-06 1.60074e-05 2.68555e+25 25.2675 0.413595 272.428 
-1.67242e-06 1.60074e-05 2.68424e+25 26.2211 0.363328 272.59 
-1.69631e-05 1.64852e-05 2.62658e+25 -0.368588 8.48871 272.904 
-1.50517e-05 1.64852e-05 2.67188e+25 11.7306 3.45066 272.886 
-1.31404e-05 1.64852e-05 2.68023e+25 19.516 1.04667 272.72 
-1.12291e-05 1.64852e-05 2.68211e+25 23.3056 0.634772 272.833 
-9.31775e-06 1.64852e-05 2.68493e+25 25.6876 0.399428 272.548 
-7.40642e-06 1.64852e-05 2.68199e+25 27.1717 0.281216 272.865 
-5.49508e-06 1.64852e-05 2.68181e+25 28.2955 0.157823 272.849 
-3.58375e-06 1.64852e-05 2.68484e+25 28.8729 0.236826 272.589 
-1.67242e-06 1.64852e-05 2.68437e+25 29.6378 0.176198 272.538 
-1.69631e-05 1.69631e-05 2.5533e+25 4.00987 6.20567 273.103 
-1.50517e-05 1.69631e-05 2.67248e+25 24.3606 0.849232 273.103 
-1.31404e-05 1.69631e-05 2.67977e+25 28.595 0.222432 273.054 
-1.12291e-05 1.69631e-05 2.68111e+25 30.3525 0.113943 273.085 
-9.31775e-06 1.69631e-05 2.6835e+25 31.3172 0.0748067 272.86 
-7.40642e-06 1.69631e-05 2.68262e+25 31.7452 0.023435 272.931 
-5.49508e-06 1.69631e-05 2.67979e+25 32.2183 0.0246812 273.076 
-3.58375e-06 1.69631e-05 2.68111e+25 32.4258 0.0450165 272.943 
-1.67242e-06 1.69631e-05 2.68291e+25 32.6696 -0.000153695 272.768 
-1.60074e-05 2.38917e-07 2.68466e+25 -0.193248 1.83964 272.352 
-1.40961e-05 2.38917e-07 2.68756e+25 -0.524462 4.16819 272.155 
-1.21847e-05 2.38917e-07 2.68796e+25 -1.36161 5.31329 272.18 
-1.02734e-05 2.38917e-07 2.69083e+25 -2.67715 6.05967 271.773 
-8.36208e-06 2.38917e-07 2.69079e+25 -3.53506 6.12596 271.912 
-6.45075e-06 2.38917e-07 2.68892e+25 -4.25695 5.6745 272.009 
-4.53942e-06 2.38917e-07 2.69016e+25 -5.42916 4.83151 271.782 
-2.62808e-06 2.38917e-07 2.68737e+25 -6.34898 3.76712 272.071 
-7.1675e-07 2.38917e-07 2.68827e+25 -7.27782 2.35327 272.111 
-1.60074e-05 7.1675e-07 2.68728e+25 -0.167574 2.00805 272.458 
-1.40961e-05 7.1675e-07 2.68952e+25 -0.488705 4.30773 272.114 
-1.21847e-05 7.1675e-07 2.691e+25 -1.49049 5.68351 271.95 
-1.02734e-05 7.1675e-07 2.69195e+25 -2.84124 6.26612 271.766 
-8.36208e-06 7.1675e-07 2.69142e+25 -3.45609 6.33525 271.9 
-6.45075e-06 7.1675e-07 2.69254e+25 -4.17216 6.003 271.81 
-4.53942e-06 7.1675e-07 2.69061e+25 -5.17433 5.115 271.908 
-2.62808e-06 7.1675e-07 2.68896e+25 -6.12245 4.18065 272.095 
-7.1675e-07 7.1675e-07 2.69157e+25 -7.04721 2.5569 271.995 
-1.60074e-05 1.19458e-06 2.68872e+25 -0.237144 2.21798 272.315 
-1.40961e-05 1.19458e-06 2.68875e+25 -0.486321 4.37418 272.18 
-1.21847e-05 1.19458e-06 2.6936e+25 -1.64105 6.05765 271.736 
-1.02734e-05 1.19458e-06 2.69437e+25 -2.71516 6.52834 271.76 
-8.36208e-06 1.19458e-06 2.69293e+25 -3.27066 6.50851 271.88 
-6.45075e-06 1.19458e-06 2.69389e+25 -3.98604 6.13968 271.694 
-4.53942e-06 1.19458e-06 2.69121e+25 -5.03635 5.47665 271.896 
-2.62808e-06 1.19458e-06 2.69104e+25 -5.89421 4.4813 272.021 
-7.1675e-07 1.19458e-06 2.69077e+25 -6.82896 2.75089 272.026 
-1.60074e-05 1.67242e-06 2.68815e+25 0.0760028 2.28363 272.336 
-1.40961e-05 1.67242e-06 2.6904e+25 -0.675679 4.44147 272.071 
-1.21847e-05 1.67242e-06 2.69414e+25 -1.57202 6.3887 271.718 
-1.02734e-05 1.67242e-06 2.69132e+25 -2.51433 6.71212 271.934 
-8.36208e-06 1.67242e-06 2.69239e+25 -3.25832 6.61486 271.726 
-6.45075e-06 1.67242e-06 2.69314e+25 -3.93746 6.26692 271.712 
-4.53942e-06 1.67242e-06 2.69151e+25 -4.7463 5.72361 271.836 
-2.62808e-06 1.67242e-06 2.68903e+25 -5.64368 4.65716 272.084 
-7.1675e-07 1.67242e-06 2.6888e+25 -6.51927 2.93624 272.058 
-1.60074e-05 2.15025e-06 2.68752e+25 0.235513 2.25267 272.414 
-1.40961e-05 2.15025e-06 2.69011e+25 -0.594106 4.70327 272.075 
-1.21847e-05 2.15025e-06 2.69552e+25 -1.55228 6.56413 271.535 
-1.02734e-05 2.15025e-06 2.69113e+25 -2.28416 6.86719 271.937 
-8.36208e-06 2.15025e-06 2.69286e+25 -3.22258 6.73776 271.832 
-6.45075e-06 2.15025e-06 2.69527e+25 -4.15817 6.46123 271.584 
-4.53942e-06 2.15025e-06 2.69204e+25 -4.6546 5.9642 271.795 
-2.62808e-06 2.15025e-06 2.68813e+25 -5.62628 4.82273 272.13 
-7.1675e-07 2.15025e-06 2.68815e+25 -6.27033 3.10861 272.088 
-1.60074e-05 2.62808e-06 2.68902e+25 -0.0183958 2.25129 272.286 
-1.40961e-05 2.62808e-06 2.69088e+25 -0.709028 5.02967 271.99 
-1.21847e-05 2.62808e-06 2.69725e+25 -1.45544 6.78157 271.449 
-1.02734e-05 2.62808e-06 2.69203e+25 -2.20723 7.1259 271.805 
-8.36208e-06 2.62808e-06 2.6919e+25 -3.17954 6.84324 271.842 
-6.45075e-06 2.62808e-06 2.6931e+25 -4.16562 6.6188 271.67 
-4.53942e-06 2.62808e-06 2.69101e+25 -4.67929 6.07252 271.856 
-2.62808e-06 2.62808e-06 2.68751e+25 -5.34176 4.9545 272.273 
-7.1675e-07 2.62808e-06 2.68781e+25 -5.92671 3.30088 272.196 
-1.60074e-05 3.10592e-06 2.68894e+25 -0.108478 2.25494 272.189 
-1.40961e-05 3.10592e-06 2.69296e+25 -0.622194 5.29987 271.826 
-1.21847e-05 3.10592e-06 2.69484e+25 -1.4117 6.93516 271.652 
-1.02734e-05 3.10592e-06 2.69237e+25 -2.22435 7.30453 271.807 
-8.36208e-06 3.10592e-06 2.69238e+25 -3.04745 7.04793 271.78 
-6.45075e-06 3.10592e-06 2.69218e+25 -4.03445 6.77345 271.829 
-4.53942e-06 3.10592e-06 2.68963e+25 -4.71338 6.16146 271.978 
-2.62808e-06 3.10592e-06 2.68694e+25 -5.03637 5.02141 272.263 
-7.1675e-07 3.10592e-06 2.68659e+25 -5.69193 3.62208 272.247 
-1.60074e-05 3.58375e-06 2.68863e+25 -0.0423367 2.33232 272.171 
-1.40961e-05 3.58375e-06 2.69196e+25 -0.365189 5.49435 271.807 
-1.21847e-05 3.58375e-06 2.69279e+25 -1.26456 7.16937 271.729 
-1.02734e-05 3.58375e-06 2.69299e+25 -1.93545 7.48823 271.767 
-8.36208e-06 3.58375e-06 2.69285e+25 -2.88114 7.41439 271.791 
-6.45075e-06 3.58375e-06 2.68987e+25 -3.81594 7.11883 271.905 
-4.53942e-06 3.58375e-06 2.68818e+25 -4.38648 6.33275 272.038 
-2.62808e-06 3.58375e-06 2.68578e+25 -4.84282 5.21481 272.237 
-7.1675e-07 3.58375e-06 2.68655e+25 -5.30738 3.77011 272.247 
-1.60074e-05 4.06158e-06 2.6895e+25 -0.0642071 2.42718 272.082 
-1.40961e-05 4.06158e-06 2.69227e+25 -0.421984 5.76533 271.742 
-1.21847e-05 4.06158e-06 2.69292e+25 -1.30261 7.31918 271.698 
-1.02734e-05 4.06158e-06 2.693e+25 -1.57312 7.68048 271.682 
-8.36208e-06 4.06158e-06 2.69263e+25 -2.80443 7.68035 271.772 
-6.45075e-06 4.06158e-06 2.68987e+25 -3.57411 7.29457 271.968 
-4.53942e-06 4.06158e-06 2.68736e+25 -4.00269 6.38495 272.244 
-2.62808e-06 4.06158e-06 2.6881e+25 -4.51641 5.36731 272.171 
-7.1675e-07 4.06158e-06 2.68655e+25 -4.91683 3.85686 272.349 
-1.60074e-05 4.53942e-06 2.68836e+25 -0.156767 2.44462 272.251 
-1.40961e-05 4.53942e-06 2.68993e+25 -0.60997 5.96605 271.895 
-1.21847e-05 4.53942e-06 2.69212e+25 -1.03931 7.42612 271.788 
-1.02734e-05 4.53942e-06 2.6933e+25 -1.51659 7.84459 271.694 
-8.36208e-06 4.53942e-06 2.69458e+25 -2.66303 7.94655 271.59 
-6.45075e-06 4.53942e-06 2.69038e+25 -3.29072 7.4344 271.915 
-4.53942e-06 4.53942e-06 2.68679e+25 -3.65296 6.42154 272.277 
-2.62808e-06 4.53942e-06 2.68849e+25 -4.10431 5.46519 272.073 
-7.1675e-07 4.53942e-06 2.68602e+25 -4.60549 3.99913 272.318 
-1.60074e-05 5.01725e-06 2.68963e+25 -0.0815219 2.53524 272.148 
-1.40961e-05 5.01725e-06 2.68999e+25 -0.609329 5.9573 271.874 
-1.21847e-05 5.01725e-06 2.69141e+25 -0.839381 7.57342 271.977 
-1.02734e-05 5.01725e-06 2.69179e+25 -1.59578 7.99152 271.667 
-8.36208e-06 5.01725e-06 2.6909e+25 -2.32743 8.28615 271.773 
-6.45075e-06 5.01725e-06 2.68867e+25 -3.00111 7.50584 271.991 
-4.53942e-06 5.01725e-06 2.69027e+25 -3.4212 6.52085 271.973 
-2.62808e-06 5.01725e-06 2.68945e+25 -3.7359 5.59016 271.964 
-7.1675e-07 5.01725e-06 2.68652e+25 -4.30255 4.13639 272.123 
-1.60074e-05 5.49508e-06 2.68824e+25 -0.166682 2.66675 272.146 
-1.40961e-05 5.49508e-06 2.68878e+25 -0.706008 5.96736 271.959 
-1.21847e-05 5.49508e-06 2.69193e+25 -0.906147 7.80578 271.832 
-1.02734e-05 5.49508e-06 2.69281e+25 -1.65746 8.17593 271.706 
-8.36208e-06 5.49508e-06 2.69198e+25 -2.19833 8.53544 271.69 
-6.45075e-06 5.49508e-06 2.69055e+25 -2.85594 7.60255 271.95 
-4.53942e-06 5.49508e-06 2.69057e+25 -3.19043 6.68434 271.797 
-2.62808e-06 5.49508e-06 2.68938e+25 -3.27938 5.61892 271.979 
-7.1675e-07 5.49508e-06 2.68628e+25 -3.8567 4.2263 271.987 
-1.60074e-05 5.97292e-06 2.68839e+25 -0.197403 2.69329 272.253 
-1.40961e-05 5.97292e-06 2.68902e+25 -0.742592 6.03118 272.012 
-1.21847e-05 5.97292e-06 2.69035e+25 -0.953661 8.02438 271.894 
-1.02734e-05 5.97292e-06 2.69324e+25 -1.62023 8.19543 271.639 
-8.36208e-06 5.97292e-06 2.69257e+25 -2.18847 8.69839 271.701 
-6.45075e-06 5.97292e-06 2.69087e+25 -2.51964 7.68813 271.803 
-4.53942e-06 5.97292e-06 2.69041e+25 -2.89592 6.72076 271.894 
-2.62808e-06 5.97292e-06 2.69004e+25 -3.04027 5.75508 271.88 
-7.1675e-07 5.97292e-06 2.68656e+25 -3.38464 4.27302 272.148 
-1.60074e-05 6.45075e-06 2.68791e+25 -0.0963017 2.73783 272.197 
-1.40961e-05 6.45075e-06 2.68882e+25 -0.864719 6.12679 271.968 
-1.21847e-05 6.45075e-06 2.69071e+25 -1.16822 8.08982 271.933 
-1.02734e-05 6.45075e-06 2.69285e+25 -1.70867 8.30062 271.637 
-8.36208e-06 6.45075e-06 2.69347e+25 -2.10041 8.68422 271.641 
-6.45075e-06 6.45075e-06 2.69246e+25 -2.27746 7.67031 271.77 
-4.53942e-06 6.45075e-06 2.69075e+25 -2.47855 6.70927 271.879 
-2.62808e-06 6.45075e-06 2.68945e+25 -2.73159 5.86391 271.94 
-7.1675e-07 6.45075e-06 2.68768e+25 -2.70951 4.26056 272.04 
-1.60074e-05 6.92858e-06 2.68543e+25 -0.0611905 2.93027 272.373 
-1.40961e-05 6.92858e-06 2.69158e+25 -0.772447 6.31066 271.829 
-1.21847e-05 6.92858e-06 2.69115e+25 -1.26512 8.03841 271.826 
-1.02734e-05 6.92858e-06 2.6913e+25 -1.49634 8.58226 271.639 
-8.36208e-06 6.92858e-06 2.69166e+25 -1.81631 8.77397 271.714 
-6.45075e-06 6.92858e-06 2.68912e+25 -1.98829 7.67288 271.866 
-4.53942e-06 6.92858e-06 2.69083e+25 -2.04363 6.73244 271.875 
-2.62808e-06 6.92858e-06 2.68937e+25 -2.09308 5.92279 271.882 
-7.1675e-07 6.92858e-06 2.68807e+25 -2.31857 4.32824 271.95 
-1.60074e-05 7.40642e-06 2.68726e+25 -0.141255 3.0866 272.244 
-1.40961e-05 7.40642e-06 2.69082e+25 -0.647562 6.52462 271.9 
-1.21847e-05 7.40642e-06 2.69061e+25 -1.32225 8.07929 271.811 
-1.02734e-05 7.40642e-06 2.69196e+25 -1.39673 8.77994 271.79 
-8.36208e-06 7.40642e-06 2.69035e+25 -1.75648 8.84265 271.753 
-6.45075e-06 7.40642e-06 2.69087e+25 -1.66698 7.69058 271.692 
-4.53942e-06 7.40642e-06 2.68874e+25 -1.60516 6.84729 272.083 
-2.62808e-06 7.40642e-06 2.68884e+25 -1.581 5.91242 271.943 
-7.1675e-07 7.40642e-06 2.68855e+25 -1.61158 4.36247 271.923 
-1.60074e-05 7.88425e-06 2.68531e+25 -0.0688876 3.16063 272.355 
-1.40961e-05 7.88425e-06 2.68976e+25 -0.623593 6.75236 271.851 
-1.21847e-05 7.88425e-06 2.69178e+25 -1.3168 8.19813 271.719 
-1.02734e-05 7.88425e-06 2.69099e+25 -1.42737 8.80336 271.866 
-8.36208e-06 7.88425e-06 2.68925e+25 -1.5857 8.85653 271.909 
-6.45075e-06 7.88425e-06 2.69182e+25 -1.35668 7.6386 271.78 
-4.53942e-06 7.88425e-06 2.68767e+25 -1.19503 6.88617 272.146 
-2.62808e-06 7.88425e-06 2.6888e+25 -1.23904 5.75394 271.936 
-7.1675e-07 7.88425e-06 2.68803e+25 -0.879619 4.27801 271.947 
-1.60074e-05 8.36208e-06 2.68582e+25 -0.117715 3.28002 272.191 
-1.40961e-05 8.36208e-06 2.68878e+25 -0.662339 6.91231 271.932 
-1.21847e-05 8.36208e-06 2.69128e+25 -1.71891 8.16406 271.731 
-1.02734e-05 8.36208e-06 2.69033e+25 -1.59259 8.76908 271.919 
-8.36208e-06 8.36208e-06 2.68812e+25 -1.4645 8.80718 271.996 
-6.45075e-06 8.36208e-06 2.68901e+25 -0.938827 7.63888 271.986 
-4.53942e-06 8.36208e-06 2.68794e+25 -0.717662 6.72322 272.095 
-2.62808e-06 8.36208e-06 2.6875e+25 -0.657999 5.57109 271.85 
-7.1675e-07 8.36208e-06 2.68822e+25 -0.0291405 4.31256 272.036 
-1.60074e-05 8.83992e-06 2.68621e+25 -0.265687 3.46166 272.266 
-1.40961e-05 8.83992e-06 2.68776e+25 -0.829225 7.02437 272.003 
-1.21847e-05 8.83992e-06 2.68983e+25 -1.88354 8.32298 271.834 
-1.02734e-05 8.83992e-06 2.69036e+25 -1.90747 8.79533 271.879 
-8.36208e-06 8.83992e-06 2.6891e+25 -1.47217 8.64553 271.949 
-6.45075e-06 8.83992e-06 2.6868e+25 -0.729466 7.66067 272.219 
-4.53942e-06 8.83992e-06 2.68831e+25 -0.247344 6.54872 272.067 
-2.62808e-06 8.83992e-06 2.68785e+25 0.145248 5.51833 271.933 
-7.1675e-07 8.83992e-06 2.68745e+25 0.699152 4.26267 272.108 
-1.60074e-05 9.31775e-06 2.68631e+25 -0.354576 3.6196 272.324 
-1.40961e-05 9.31775e-06 2.68711e+25 -1.12821 7.29808 272.015 
-1.21847e-05 9.31775e-06 2.68995e+25 -2.11655 8.59718 271.818 
-1.02734e-05 9.31775e-06 2.69052e+25 -2.1592 8.72682 271.964 
-8.36208e-06 9.31775e-06 2.69029e+25 -1.44546 8.46677 271.937 
-6.45075e-06 9.31775e-06 2.68734e+25 -0.597843 7.55604 272.133 
-4.53942e-06 9.31775e-06 2.69015e+25 0.259437 6.2954 271.847 
-2.62808e-06 9.31775e-06 2.6875e+25 0.933959 5.45008 271.955 
-7.1675e-07 9.31775e-06 2.68696e+25 1.4338 4.1369 272.105 
-1.60074e-05 9.79558e-06 2.68596e+25 -0.343466 3.8006 272.303 
-1.40961e-05 9.79558e-06 2.68665e+25 -1.35 7.62487 272.093 
-1.21847e-05 9.79558e-06 2.69147e+25 -2.02735 8.71634 271.749 
-1.02734e-05 9.79558e-06 2.69054e+25 -2.2747 8.58418 271.769 
-8.36208e-06 9.79558e-06 2.68947e+25 -1.23717 8.31892 271.925 
-6.45075e-06 9.79558e-06 2.68919e+25 -0.593038 7.25979 271.942 
-4.53942e-06 9.79558e-06 2.68986e+25 0.772717 6.0643 271.943 
-2.62808e-06 9.79558e-06 2.6857e+25 1.77468 5.33194 272.089 
-7.1675e-07 9.79558e-06 2.68653e+25 2.23068 4.01318 272.069 
-1.60074e-05 1.02734e-05 2.68517e+25 -0.414597 3.94275 272.287 
-1.40961e-05 1.02734e-05 2.6881e+25 -1.6487 7.95322 272.012 
-1.21847e-05 1.02734e-05 2.6918e+25 -2.10643 8.81713 271.746 
-1.02734e-05 1.02734e-05 2.68835e+25 -2.09093 8.28412 271.971 
-8.36208e-06 1.02734e-05 2.68842e+25 -1.07018 7.97211 272.115 
-6.45075e-06 1.02734e-05 2.68915e+25 -0.14696 7.0164 271.939 
-4.53942e-06 1.02734e-05 2.68961e+25 1.23145 5.80061 271.889 
-2.62808e-06 1.02734e-05 2.68577e+25 2.47581 5.15183 272.123 
-7.1675e-07 1.02734e-05 2.68757e+25 3.46398 3.80846 272.039 
-1.60074e-05 1.07512e-05 2.68373e+25 -0.467636 4.2007 272.314 
-1.40961e-05 1.07512e-05 2.68888e+25 -1.66162 8.21814 271.905 
-1.21847e-05 1.07512e-05 2.69063e+25 -2.19203 8.81042 271.789 
-1.02734e-05 1.07512e-05 2.69118e+25 -1.86572 8.1171 271.744 
-8.36208e-06 1.07512e-05 2.68825e+25 -0.964809 7.66652 272.125 
-6.45075e-06 1.07512e-05 2.68983e+25 0.398017 6.64869 271.938 
-4.53942e-06 1.07512e-05 2.68971e+25 1.91776 5.43432 271.882 
-2.62808e-06 1.07512e-05 2.68718e+25 3.39416 4.88219 272.011 
-7.1675e-07 1.07512e-05 2.68684e+25 4.43027 3.65101 272.072 
-1.60074e-05 1.12291e-05 2.68595e+25 -0.450715 4.57713 272.199 
-1.40961e-05 1.12291e-05 2.68617e+25 -1.91329 8.3281 272.06 
-1.21847e-05 1.12291e-05 2.69037e+25 -2.1756 8.7725 271.821 
-1.02734e-05 1.12291e-05 2.6926e+25 -1.81996 8.00549 271.67 
-8.36208e-06 1.12291e-05 2.68818e+25 -0.524659 7.30426 272.117 
-6.45075e-06 1.12291e-05 2.68962e+25 1.18632 6.24274 272.017 
-4.53942e-06 1.12291e-05 2.68936e+25 2.56158 5.05143 271.927 
-2.62808e-06 1.12291e-05 2.68786e+25 4.08867 4.4888 271.972 
-7.1675e-07 1.12291e-05 2.68662e+25 5.49086 3.50897 271.998 
-1.60074e-05 1.17069e-05 2.68435e+25 -0.591133 4.93607 272.321 
-1.40961e-05 1.17069e-05 2.68622e+25 -2.00818 8.46288 272.08 
-1.21847e-05 1.17069e-05 2.68915e+25 -2.36196 8.78186 271.881 
-1.02734e-05 1.17069e-05 2.6906e+25 -1.66435 7.71058 271.862 
-8.36208e-06 1.17069e-05 2.68707e+25 -0.016091 6.84122 272.097 
-6.45075e-06 1.17069e-05 2.68842e+25 2.00744 5.79049 272.084 
-4.53942e-06 1.17069e-05 2.68884e+25 3.44943 4.7567 271.89 
-2.62808e-06 1.17069e-05 2.68926e+25 5.26344 4.03783 271.942 
-7.1675e-07 1.17069e-05 2.68929e+25 6.77549 3.27247 271.914 
-1.60074e-05 1.21847e-05 2.68367e+25 -0.735196 5.38368 272.307 
-1.40961e-05 1.21847e-05 2.68667e+25 -2.27187 8.62177 272.019 
-1.21847e-05 1.21847e-05 2.68897e+25 -2.46836 8.6366 271.892 
-1.02734e-05 1.21847e-05 2.69075e+25 -1.27791 7.35883 271.88 
-8.36208e-06 1.21847e-05 2.68939e+25 0.620291 6.3415 272.128 
-6.45075e-06 1.21847e-05 2.68831e+25 2.70889 5.32505 272.078 
-4.53942e-06 1.21847e-05 2.69032e+25 4.34259 4.35956 271.896 
-2.62808e-06 1.21847e-05 2.68889e+25 6.42063 3.50642 272.062 
-7.1675e-07 1.21847e-05 2.68706e+25 8.1166 3.04526 271.986 
-1.60074e-05 1.26626e-05 2.68264e+25 -1.03299 5.89766 272.301 
-1.40961e-05 1.26626e-05 2.6858e+25 -2.54567 8.86461 272.057 
-1.21847e-05 1.26626e-05 2.6892e+25 -2.29875 8.40161 271.883 
-1.02734e-05 1.26626e-05 2.68797e+25 -0.647612 6.86773 271.991 
-8.36208e-06 1.26626e-05 2.68459e+25 1.61533 5.91658 272.292 
-6.45075e-06 1.26626e-05 2.68789e+25 3.77237 4.82948 272.106 
-4.53942e-06 1.26626e-05 2.68789e+25 5.79759 3.97252 272.057 
-2.62808e-06 1.26626e-05 2.68691e+25 7.92621 2.94714 272.135 
-7.1675e-07 1.26626e-05 2.68488e+25 9.8424 2.58714 272.188 
-1.60074e-05 1.31404e-05 2.6832e+25 -1.22789 6.57613 272.266 
-1.40961e-05 1.31404e-05 2.68668e+25 -3.32616 9.10408 271.928 
-1.21847e-05 1.31404e-05 2.68828e+25 -2.11295 7.97952 271.926 
-1.02734e-05 1.31404e-05 2.68815e+25 0.355186 6.24743 272.009 
-8.36208e-06 1.31404e-05 2.68536e+25 3.0168 5.21644 272.388 
-6.45075e-06 1.31404e-05 2.68741e+25 5.24326 4.24767 272.198 
-4.53942e-06 1.31404e-05 2.68564e+25 7.50947 3.53475 272.279 
-2.62808e-06 1.31404e-05 2.68826e+25 9.65721 2.46834 272.086 
-7.1675e-07 1.31404e-05 2.68618e+25 11.431 2.12333 272.215 
-1.60074e-05 1.36182e-05 2.67983e+25 -1.6821 7.31138 272.428 
-1.40961e-05 1.36182e-05 2.68607e+25 -3.34121 9.13816 271.929 
-1.21847e-05 1.36182e-05 2.68554e+25 -1.50385 7.45156 272.262 
-1.02734e-05 1.36182e-05 2.6872e+25 1.56759 5.49939 272.105 
-8.36208e-06 1.36182e-05 2.68643e+25 4.63705 4.54442 272.379 
-6.45075e-06 1.36182e-05 2.6862e+25 7.22381 3.75366 272.259 
-4.53942e-06 1.36182e-05 2.68706e+25 9.72207 2.94336 272.244 
-2.62808e-06 1.36182e-05 2.68834e+25 11.6761 2.16459 271.949 
-7.1675e-07 1.36182e-05 2.68527e+25 13.1563 1.69418 272.279 
-1.60074e-05 1.40961e-05 2.67896e+25 -1.8829 8.27772 272.264 
-1.40961e-05 1.40961e-05 2.68506e+25 -3.13411 8.91575 271.916 
-1.21847e-05 1.40961e-05 2.68666e+25 -0.324168 6.79374 272.178 
-1.02734e-05 1.40961e-05 2.6857e+25 3.32312 4.73786 272.268 
-8.36208e-06 1.40961e-05 2.68961e+25 6.513 3.76079 272.19 
-6.45075e-06 1.40961e-05 2.68699e+25 9.59389 3.11542 272.325 
-4.53942e-06 1.40961e-05 2.6865e+25 12.0733 2.26055 272.311 
-2.62808e-06 1.40961e-05 2.68855e+25 13.8493 1.699 272.086 
-7.1675e-07 1.40961e-05 2.68461e+25 15.0985 1.2894 272.368 
-1.60074e-05 1.45739e-05 2.67676e+25 -2.33609 9.26506 272.179 
-1.40961e-05 1.45739e-05 2.68334e+25 -2.32244 8.43781 272.093 
-1.21847e-05 1.45739e-05 2.68657e+25 1.6679 5.87731 272.086 
-1.02734e-05 1.45739e-05 2.68647e+25 5.67011 3.93745 272.324 
-8.36208e-06 1.45739e-05 2.68906e+25 9.04772 2.88983 272.171 
-6.45075e-06 1.45739e-05 2.68739e+25 12.1545 2.39879 272.268 
-4.53942e-06 1.45739e-05 2.68606e+25 14.656 1.6791 272.22 
-2.62808e-06 1.45739e-05 2.68688e+25 16.1702 1.27629 272.172 
-7.1675e-07 1.45739e-05 2.68543e+25 17.5663 0.945375 272.306 
-1.60074e-05 1.50518e-05 2.67286e+25 -2.86723 10.1236 272.368 
-1.40961e-05 1.50518e-05 2.68199e+25 -0.718614 7.3666 272.179 
-1.21847e-05 1.50518e-05 2.68461e+25 4.56533 4.67821 272.359 
-1.02734e-05 1.50518e-05 2.68762e+25 8.84126 3.06686 272.352 
-8.36208e-06 1.50518e-05 2.68527e+25 12.2984 2.08512 272.383 
-6.45075e-06 1.50518e-05 2.68664e+25 15.0402 1.75519 272.284 
-4.53942e-06 1.50518e-05 2.68515e+25 17.3083 1.09948 272.328 
-2.62808e-06 1.50518e-05 2.68695e+25 19.0933 0.907349 272.328 
-7.1675e-07 1.50518e-05 2.68667e+25 20.3387 0.659422 272.225 
-1.60074e-05 1.55296e-05 2.67078e+25 -2.87895 10.5462 272.453 
-1.40961e-05 1.55296e-05 2.68136e+25 2.49306 5.81139 272.315 
-1.21847e-05 1.55296e-05 2.68139e+25 8.84708 3.3393 272.721 
-1.02734e-05 1.55296e-05 2.68526e+25 13.18 2.1246 272.484 
-8.36208e-06 1.55296e-05 2.68596e+25 16.4771 1.26382 272.466 
-6.45075e-06 1.55296e-05 2.68411e+25 18.8749 1.12347 272.516 
-4.53942e-06 1.55296e-05 2.68499e+25 20.8093 0.646845 272.419 
-2.62808e-06 1.55296e-05 2.68345e+25 22.315 0.572884 272.515 
-7.1675e-07 1.55296e-05 2.68423e+25 23.4837 0.290474 272.428 
-1.60074e-05 1.60074e-05 2.66333e+25 -1.02569 9.86492 272.837 
-1.40961e-05 1.60074e-05 2.67863e+25 8.17587 3.88708 272.495 
-1.21847e-05 1.60074e-05 2.68136e+25 14.4983 2.04191 272.709 
-1.02734e-05 1.60074e-05 2.68452e+25 18.5303 1.2594 272.656 
-8.36208e-06 1.60074e-05 2.68461e+25 21.0882 0.659925 272.608 
-6.45075e-06 1.60074e-05 2.6815e+25 23.2112 0.688303 272.899 
-4.53942e-06 1.60074e-05 2.68332e+25 24.7404 0.289409 272.768 
-2.62808e-06 1.60074e-05 2.68402e+25 25.7284 0.315595 272.501 
-7.1675e-07 1.60074e-05 2.68533e+25 26.4982 0.157088 272.424 
-1.60074e-05 1.64852e-05 2.65567e+25 4.6967 6.98227 273.147 
-1.40961e-05 1.64852e-05 2.67953e+25 16.5324 1.95149 272.637 
-1.21847e-05 1.64852e-05 2.68078e+25 21.7077 0.926696 272.911 
-1.02734e-05 1.64852e-05 2.68309e+25 24.6166 0.523448 272.841 
-8.36208e-06 1.64852e-05 2.68388e+25 26.4113 0.208815 272.698 
-6.45075e-06 1.64852e-05 2.68127e+25 27.8579 0.293053 273.03 
-4.53942e-06 1.64852e-05 2.68254e+25 28.6366 0.133806 272.786 
-2.62808e-06 1.64852e-05 2.68433e+25 29.2292 0.0902018 272.527 
-7.1675e-07 1.64852e-05 2.68325e+25 29.867 0.0907274 272.603 
-1.60074e-05 1.69631e-05 2.65127e+25 18.245 2.16311 273.429 
-1.40961e-05 1.69631e-05 2.67902e+25 27.0623 0.473397 272.874 
-1.21847e-05 1.69631e-05 2.6807e+25 29.5465 0.196004 273.019 
-1.02734e-05 1.69631e-05 2.68191e+25 30.7758 0.0843941 272.984 
-8.36208e-06 1.69631e-05 2.68234e+25 31.5135 0.0390789 272.931 
-6.45075e-06 1.69631e-05 2.68227e+25 31.9874 0.0783199 273.068 
-4.53942e-06 1.69631e-05 2.68005e+25 32.311 0.0676442 272.983 
-2.62808e-06 1.69631e-05 2.68235e+25 32.6719 -0.00544973 272.713 
-7.1675e-07 1.69631e-05 2.68113e+25 32.8385 0.0309366 272.834 
-1.55296e-05 2.38917e-07 2.68586e+25 -0.283524 2.55896 272.291 
-1.36182e-05 2.38917e-07 2.68785e+25 -0.607237 4.56349 272.078 
-1.17069e-05 2.38917e-07 2.68624e+25 -1.64186 5.66657 272.158 
-9.79558e-06 2.38917e-07 2.6906e+25 -2.9381 5.87242 271.825 
-7.88425e-06 2.38917e-07 2.69083e+25 -3.72827 6.03454 271.898 
-5.97292e-06 2.38917e-07 2.68945e+25 -4.52704 5.57289 271.845 
-4.06158e-06 2.38917e-07 2.6907e+25 -5.57368 4.6759 271.814 
-2.15025e-06 2.38917e-07 2.68748e+25 -6.65635 3.46851 272.089 
-2.38917e-07 2.38917e-07 2.68532e+25 -7.33755 2.01896 272.147 
-1.55296e-05 7.1675e-07 2.68958e+25 -0.327745 2.60832 272.275 
-1.36182e-05 7.1675e-07 2.69021e+25 -0.524543 4.55637 272.144 
-1.17069e-05 7.1675e-07 2.69057e+25 -1.91687 6.05458 271.998 
-9.79558e-06 7.1675e-07 2.68918e+25 -2.9692 6.06286 271.976 
-7.88425e-06 7.1675e-07 2.69218e+25 -3.60049 6.15686 271.88 
-5.97292e-06 7.1675e-07 2.69239e+25 -4.41771 5.82321 271.826 
-4.06158e-06 7.1675e-07 2.69065e+25 -5.48611 4.85723 271.939 
-2.15025e-06 7.1675e-07 2.69021e+25 -6.45903 3.77434 272.101 
-2.38917e-07 7.1675e-07 2.68595e+25 -7.26266 2.14946 272.044 
-1.55296e-05 1.19458e-06 2.69096e+25 -0.367693 2.64489 272.069 
-1.36182e-05 1.19458e-06 2.69033e+25 -0.673353 4.72145 272.13 
-1.17069e-05 1.19458e-06 2.69275e+25 -1.89697 6.3296 271.841 
-9.79558e-06 1.19458e-06 2.69132e+25 -2.9488 6.1418 271.848 
-7.88425e-06 1.19458e-06 2.69261e+25 -3.44595 6.33641 271.882 
-5.97292e-06 1.19458e-06 2.6939e+25 -4.15675 6.09476 271.711 
-4.06158e-06 1.19458e-06 2.68951e+25 -5.30733 5.05677 272.046 
-2.15025e-06 1.19458e-06 2.68942e+25 -6.15149 4.05042 272.078 
-2.38917e-07 1.19458e-06 2.68757e+25 -6.9305 2.32156 272.002 
-1.55296e-05 1.67242e-06 2.68979e+25 0.00431519 2.81027 272.106 
-1.36182e-05 1.67242e-06 2.69065e+25 -0.811061 4.98254 272.035 
-1.17069e-05 1.67242e-06 2.68959e+25 -1.77358 6.54141 271.968 
-9.79558e-06 1.67242e-06 2.68975e+25 -2.76949 6.41167 271.978 
-7.88425e-06 1.67242e-06 2.69248e+25 -3.43274 6.54667 271.826 
-5.97292e-06 1.67242e-06 2.69366e+25 -4.07101 6.23492 271.67 
-4.06158e-06 1.67242e-06 2.6908e+25 -5.10115 5.40052 271.975 
-2.15025e-06 1.67242e-06 2.68879e+25 -5.9178 4.34348 272.052 
-2.38917e-07 1.67242e-06 2.68657e+25 -6.6618 2.38924 271.997 
-1.55296e-05 2.15025e-06 2.68777e+25 0.158963 3.01789 272.217 
-1.36182e-05 2.15025e-06 2.68911e+25 -0.968585 5.23328 272.051 
-1.17069e-05 2.15025e-06 2.69304e+25 -1.78121 6.75125 271.652 
-9.79558e-06 2.15025e-06 2.69134e+25 -2.55288 6.71037 271.887 
-7.88425e-06 2.15025e-06 2.69251e+25 -3.40651 6.78282 271.855 
-5.97292e-06 2.15025e-06 2.69393e+25 -4.30077 6.29034 271.62 
-4.06158e-06 2.15025e-06 2.69069e+25 -4.8823 5.67436 271.858 
-2.15025e-06 2.15025e-06 2.68681e+25 -5.72182 4.56648 272.195 
-2.38917e-07 2.15025e-06 2.68636e+25 -6.5309 2.54511 272.091 
-1.55296e-05 2.62808e-06 2.68923e+25 -0.156377 3.19254 272.179 
-1.36182e-05 2.62808e-06 2.69258e+25 -0.918703 5.49183 271.819 
-1.17069e-05 2.62808e-06 2.69583e+25 -1.67679 6.96347 271.479 
-9.79558e-06 2.62808e-06 2.69132e+25 -2.46686 7.04731 271.93 
-7.88425e-06 2.62808e-06 2.69364e+25 -3.33543 6.9504 271.784 
-5.97292e-06 2.62808e-06 2.69189e+25 -4.28113 6.43839 271.777 
-4.06158e-06 2.62808e-06 2.69016e+25 -4.74755 5.89032 271.965 
-2.15025e-06 2.62808e-06 2.68651e+25 -5.40302 4.58477 272.385 
-2.38917e-07 2.62808e-06 2.68558e+25 -6.14626 2.83081 272.176 
-1.55296e-05 3.10592e-06 2.68889e+25 -0.0585634 3.19488 272.202 
-1.36182e-05 3.10592e-06 2.69478e+25 -0.785964 5.6367 271.809 
-1.17069e-05 3.10592e-06 2.69486e+25 -1.64804 7.24034 271.564 
-9.79558e-06 3.10592e-06 2.69172e+25 -2.36477 7.285 271.863 
-7.88425e-06 3.10592e-06 2.69295e+25 -3.29687 7.15099 271.784 
-5.97292e-06 3.10592e-06 2.69169e+25 -4.28553 6.67266 271.8 
-4.06158e-06 3.10592e-06 2.69122e+25 -4.81679 5.97286 271.984 
-2.15025e-06 3.10592e-06 2.68759e+25 -5.1612 4.67871 272.231 
-2.38917e-07 3.10592e-06 2.6829e+25 -5.96526 3.04317 272.287 
-1.55296e-05 3.58375e-06 2.68957e+25 -0.0850506 3.11684 272.221 
-1.36182e-05 3.58375e-06 2.69383e+25 -0.652923 5.91251 271.692 
-1.17069e-05 3.58375e-06 2.69307e+25 -1.41734 7.42135 271.698 
-9.79558e-06 3.58375e-06 2.69346e+25 -2.05292 7.37708 271.68 
-7.88425e-06 3.58375e-06 2.69253e+25 -3.23156 7.44705 271.784 
-5.97292e-06 3.58375e-06 2.69056e+25 -4.05461 6.85906 271.725 
-4.06158e-06 3.58375e-06 2.68786e+25 -4.47024 5.98859 272.156 
-2.15025e-06 3.58375e-06 2.68661e+25 -5.03652 4.86528 272.185 
-2.38917e-07 3.58375e-06 2.68242e+25 -5.51244 3.3279 272.335 
-1.55296e-05 4.06158e-06 2.68953e+25 -0.113706 3.12775 272.034 
-1.36182e-05 4.06158e-06 2.69326e+25 -0.700542 6.19851 271.715 
-1.17069e-05 4.06158e-06 2.69373e+25 -1.29116 7.41426 271.757 
-9.79558e-06 4.06158e-06 2.69331e+25 -1.87054 7.63874 271.703 
-7.88425e-06 4.06158e-06 2.69111e+25 -3.04437 7.71861 271.881 
-5.97292e-06 4.06158e-06 2.69036e+25 -3.67944 6.99054 272.001 
-4.06158e-06 4.06158e-06 2.68775e+25 -4.07254 6.08688 272.15 
-2.15025e-06 4.06158e-06 2.68834e+25 -4.68026 5.03382 272.128 
-2.38917e-07 4.06158e-06 2.68311e+25 -5.05511 3.61483 272.253 
-1.55296e-05 4.53942e-06 2.68777e+25 -0.21288 3.20301 272.15 
-1.36182e-05 4.53942e-06 2.69121e+25 -0.733784 6.41611 271.851 
-1.17069e-05 4.53942e-06 2.69163e+25 -1.11363 7.40254 271.809 
-9.79558e-06 4.53942e-06 2.69161e+25 -1.63836 7.89846 271.717 
-7.88425e-06 4.53942e-06 2.69079e+25 -2.88207 7.9055 271.872 
-5.97292e-06 4.53942e-06 2.69039e+25 -3.35172 7.06883 271.915 
-4.06158e-06 4.53942e-06 2.6857e+25 -3.74172 6.23896 272.218 
-2.15025e-06 4.53942e-06 2.68718e+25 -4.2001 5.12285 272.102 
-2.38917e-07 4.53942e-06 2.68368e+25 -4.75276 3.75818 272.335 
-1.55296e-05 5.01725e-06 2.68821e+25 -0.292321 3.40366 272.162 
-1.36182e-05 5.01725e-06 2.69009e+25 -0.561497 6.45438 271.921 
-1.17069e-05 5.01725e-06 2.69163e+25 -1.03599 7.57447 271.884 
-9.79558e-06 5.01725e-06 2.6922e+25 -1.74932 8.07144 271.773 
-7.88425e-06 5.01725e-06 2.69084e+25 -2.64611 8.12831 271.986 
-5.97292e-06 5.01725e-06 2.68932e+25 -3.07033 7.14671 271.897 
-4.06158e-06 5.01725e-06 2.68795e+25 -3.56642 6.32259 272.103 
-2.15025e-06 5.01725e-06 2.68738e+25 -3.82355 5.21581 272.072 
-2.38917e-07 5.01725e-06 2.68523e+25 -4.40084 3.88001 272.184 
-1.55296e-05 5.49508e-06 2.68816e+25 -0.273077 3.58411 272.172 
-1.36182e-05 5.49508e-06 2.69243e+25 -0.743386 6.45357 271.777 
-1.17069e-05 5.49508e-06 2.69102e+25 -1.211 7.89042 271.763 
-9.79558e-06 5.49508e-06 2.69137e+25 -1.76202 8.21133 271.73 
-7.88425e-06 5.49508e-06 2.69153e+25 -2.43128 8.41529 271.734 
-5.97292e-06 5.49508e-06 2.6925e+25 -2.96136 7.1543 271.861 
-4.06158e-06 5.49508e-06 2.68884e+25 -3.15813 6.34495 271.93 
-2.15025e-06 5.49508e-06 2.68801e+25 -3.39534 5.37743 271.972 
-2.38917e-07 5.49508e-06 2.68545e+25 -3.91546 3.93877 272.147 
-1.55296e-05 5.97292e-06 2.6861e+25 -0.291334 3.754 272.283 
-1.36182e-05 5.97292e-06 2.69092e+25 -0.717011 6.45694 271.838 
-1.17069e-05 5.97292e-06 2.69067e+25 -1.1579 8.18701 271.829 
-9.79558e-06 5.97292e-06 2.69173e+25 -1.73003 8.33799 271.689 
-7.88425e-06 5.97292e-06 2.69292e+25 -2.258 8.54291 271.64 
-5.97292e-06 5.97292e-06 2.69063e+25 -2.58124 7.25253 271.801 
-4.06158e-06 5.97292e-06 2.69074e+25 -2.87386 6.26936 271.862 
-2.15025e-06 5.97292e-06 2.6891e+25 -3.19041 5.53904 271.946 
-2.38917e-07 5.97292e-06 2.68332e+25 -3.34537 3.91881 272.134 
-1.55296e-05 6.45075e-06 2.68651e+25 -0.181751 3.87013 272.211 
-1.36182e-05 6.45075e-06 2.69079e+25 -0.965372 6.53452 271.871 
-1.17069e-05 6.45075e-06 2.69244e+25 -1.15195 8.2801 271.744 
-9.79558e-06 6.45075e-06 2.69271e+25 -1.86478 8.50479 271.727 
-7.88425e-06 6.45075e-06 2.69284e+25 -2.17655 8.61917 271.677 
-5.97292e-06 6.45075e-06 2.69062e+25 -2.38068 7.42948 271.919 
-4.06158e-06 6.45075e-06 2.68894e+25 -2.48078 6.29429 271.996 
-2.15025e-06 6.45075e-06 2.68996e+25 -2.71345 5.57663 271.856 
-2.38917e-07 6.45075e-06 2.68618e+25 -2.73939 3.9404 272.006 
-1.55296e-05 6.92858e-06 2.6853e+25 -0.23961 4.05852 272.397 
-1.36182e-05 6.92858e-06 2.69088e+25 -0.990231 6.66077 271.847 
-1.17069e-05 6.92858e-06 2.69186e+25 -1.22532 8.25983 271.682 
-9.79558e-06 6.92858e-06 2.69306e+25 -1.73354 8.69228 271.62 
-7.88425e-06 6.92858e-06 2.69133e+25 -1.92162 8.73362 271.689 
-5.97292e-06 6.92858e-06 2.68804e+25 -1.9603 7.51318 271.997 
-4.06158e-06 6.92858e-06 2.69046e+25 -2.09582 6.28785 271.813 
-2.15025e-06 6.92858e-06 2.69165e+25 -2.11823 5.52652 271.788 
-2.38917e-07 6.92858e-06 2.68523e+25 -2.29467 3.88206 271.918 
-1.55296e-05 7.40642e-06 2.68705e+25 -0.271436 4.16239 272.234 
-1.36182e-05 7.40642e-06 2.69001e+25 -0.872916 6.83963 271.889 
-1.17069e-05 7.40642e-06 2.69239e+25 -1.41443 8.29172 271.724 
-9.79558e-06 7.40642e-06 2.69055e+25 -1.54901 8.82424 271.797 
-7.88425e-06 7.40642e-06 2.69194e+25 -1.70229 8.75418 271.725 
-5.97292e-06 7.40642e-06 2.69106e+25 -1.65793 7.42953 271.798 
-4.06158e-06 7.40642e-06 2.68862e+25 -1.7232 6.32571 272.039 
-2.15025e-06 7.40642e-06 2.68974e+25 -1.50401 5.52184 271.838 
-2.38917e-07 7.40642e-06 2.68606e+25 -1.59126 3.84779 271.893 
-1.55296e-05 7.88425e-06 2.68784e+25 -0.24661 4.36854 272.17 
-1.36182e-05 7.88425e-06 2.69016e+25 -0.850823 7.01835 271.86 
-1.17069e-05 7.88425e-06 2.69255e+25 -1.39869 8.31395 271.648 
-9.79558e-06 7.88425e-06 2.68942e+25 -1.41393 8.93334 271.93 
-7.88425e-06 7.88425e-06 2.69039e+25 -1.49925 8.6252 271.748 
-5.97292e-06 7.88425e-06 2.68861e+25 -1.34925 7.4209 271.993 
-4.06158e-06 7.88425e-06 2.68665e+25 -1.20754 6.50306 272.091 
-2.15025e-06 7.88425e-06 2.68923e+25 -1.09875 5.47225 271.88 
-2.38917e-07 7.88425e-06 2.68502e+25 -0.819723 3.85017 271.99 
-1.55296e-05 8.36208e-06 2.68714e+25 -0.270944 4.57501 272.192 
-1.36182e-05 8.36208e-06 2.68927e+25 -0.897326 7.30379 272.09 
-1.17069e-05 8.36208e-06 2.69174e+25 -1.62955 8.32342 271.672 
-9.79558e-06 8.36208e-06 2.69005e+25 -1.63845 8.95014 271.928 
-7.88425e-06 8.36208e-06 2.69086e+25 -1.41559 8.51183 271.767 
-5.97292e-06 8.36208e-06 2.6881e+25 -0.991285 7.51853 272.195 
-4.06158e-06 8.36208e-06 2.68717e+25 -0.599472 6.55986 272.136 
-2.15025e-06 8.36208e-06 2.68754e+25 -0.493101 5.34739 271.866 
-2.38917e-07 8.36208e-06 2.68492e+25 -0.028891 3.82111 272.134 
-1.55296e-05 8.83992e-06 2.68689e+25 -0.398635 4.7319 272.176 
-1.36182e-05 8.83992e-06 2.68979e+25 -1.09191 7.64914 272.012 
-1.17069e-05 8.83992e-06 2.6922e+25 -2.05401 8.29035 271.773 
-9.79558e-06 8.83992e-06 2.68885e+25 -1.84038 8.92174 271.968 
-7.88425e-06 8.83992e-06 2.68958e+25 -1.26464 8.36339 271.834 
-5.97292e-06 8.83992e-06 2.68542e+25 -0.68434 7.47507 272.306 
-4.06158e-06 8.83992e-06 2.69081e+25 -0.0914956 6.53964 271.844 
-2.15025e-06 8.83992e-06 2.68932e+25 0.251965 5.16219 271.796 
-2.38917e-07 8.83992e-06 2.68353e+25 0.851165 3.71908 272.146 
-1.55296e-05 9.31775e-06 2.68679e+25 -0.473646 4.8262 272.161 
-1.36182e-05 9.31775e-06 2.68933e+25 -1.41979 7.91608 272.055 
-1.17069e-05 9.31775e-06 2.68944e+25 -2.16127 8.24227 271.776 
-9.79558e-06 9.31775e-06 2.6921e+25 -1.98227 8.76406 271.785 
-7.88425e-06 9.31775e-06 2.69041e+25 -1.25097 8.14695 271.822 
-5.97292e-06 9.31775e-06 2.68775e+25 -0.362452 7.3217 272.241 
-4.06158e-06 9.31775e-06 2.69071e+25 0.416514 6.37806 271.796 
-2.15025e-06 9.31775e-06 2.68723e+25 1.0352 5.02619 271.953 
-2.38917e-07 9.31775e-06 2.6851e+25 1.59478 3.58668 272.029 
-1.55296e-05 9.79558e-06 2.68653e+25 -0.509258 4.98324 272.077 
-1.36182e-05 9.79558e-06 2.687e+25 -1.63738 8.22002 272.019 
-1.17069e-05 9.79558e-06 2.6908e+25 -2.23079 8.35948 271.815 
-9.79558e-06 9.79558e-06 2.68898e+25 -1.96264 8.48353 271.795 
-7.88425e-06 9.79558e-06 2.69058e+25 -0.985088 7.83904 271.99 
-5.97292e-06 9.79558e-06 2.68814e+25 -0.323696 7.00835 272.049 
-4.06158e-06 9.79558e-06 2.69019e+25 1.01129 6.18485 271.827 
-2.15025e-06 9.79558e-06 2.68734e+25 1.87756 4.95095 272.02 
-2.38917e-07 9.79558e-06 2.68257e+25 2.39685 3.36854 272.063 
-1.55296e-05 1.02734e-05 2.68753e+25 -0.720157 5.31394 272.152 
-1.36182e-05 1.02734e-05 2.688e+25 -1.87552 8.38754 272.01 
-1.17069e-05 1.02734e-05 2.69023e+25 -2.21885 8.58885 271.775 
-9.79558e-06 1.02734e-05 2.68945e+25 -1.86116 8.24441 271.96 
-7.88425e-06 1.02734e-05 2.687e+25 -0.810693 7.65164 272.075 
-5.97292e-06 1.02734e-05 2.68781e+25 0.208504 6.5788 272.027 
-4.06158e-06 1.02734e-05 2.69051e+25 1.65082 5.84151 271.741 
-2.15025e-06 1.02734e-05 2.68675e+25 2.73481 4.75675 272.086 
-2.38917e-07 1.02734e-05 2.68394e+25 3.49649 3.36192 272.065 
-1.55296e-05 1.07512e-05 2.68719e+25 -0.826539 5.6717 272.094 
-1.36182e-05 1.07512e-05 2.69012e+25 -1.87344 8.56887 271.889 
-1.17069e-05 1.07512e-05 2.68972e+25 -2.17051 8.68511 271.81 
-9.79558e-06 1.07512e-05 2.69185e+25 -1.78524 8.08433 271.734 
-7.88425e-06 1.07512e-05 2.6845e+25 -0.636198 7.5033 272.247 
-5.97292e-06 1.07512e-05 2.68895e+25 0.82124 6.24061 271.968 
-4.06158e-06 1.07512e-05 2.68932e+25 2.29826 5.39792 271.776 
-2.15025e-06 1.07512e-05 2.68686e+25 3.73587 4.46283 272.066 
-2.38917e-07 1.07512e-05 2.6852e+25 4.52791 3.40689 271.901 
-1.55296e-05 1.12291e-05 2.68887e+25 -0.870814 6.02303 271.979 
-1.36182e-05 1.12291e-05 2.68788e+25 -1.98131 8.72341 272.062 
-1.17069e-05 1.12291e-05 2.69006e+25 -2.18648 8.6607 271.867 
-9.79558e-06 1.12291e-05 2.69127e+25 -1.58703 7.88801 271.648 
-7.88425e-06 1.12291e-05 2.68668e+25 -0.101938 7.12819 272.267 
-5.97292e-06 1.12291e-05 2.68987e+25 1.59458 5.82267 271.956 
-4.06158e-06 1.12291e-05 2.6877e+25 2.93032 5.02772 271.963 
-2.15025e-06 1.12291e-05 2.68849e+25 4.58437 4.02079 271.984 
-2.38917e-07 1.12291e-05 2.68677e+25 5.6836 3.35131 271.882 
-1.55296e-05 1.17069e-05 2.68697e+25 -0.974433 6.48362 271.986 
-1.36182e-05 1.17069e-05 2.68672e+25 -2.12439 8.8344 272.122 
-1.17069e-05 1.17069e-05 2.69065e+25 -2.23993 8.55463 271.767 
-9.79558e-06 1.17069e-05 2.69195e+25 -1.29419 7.5695 271.763 
-7.88425e-06 1.17069e-05 2.68618e+25 0.500835 6.59744 272.253 
-5.97292e-06 1.17069e-05 2.68713e+25 2.44795 5.43008 272.121 
-4.06158e-06 1.17069e-05 2.68942e+25 3.80594 4.64632 272.044 
-2.15025e-06 1.17069e-05 2.68776e+25 5.68639 3.62402 271.983 
-2.38917e-07 1.17069e-05 2.68448e+25 7.06807 3.1274 272.07 
-1.55296e-05 1.21847e-05 2.68472e+25 -1.19587 6.88444 272.128 
-1.36182e-05 1.21847e-05 2.68703e+25 -2.45692 8.93405 272.132 
-1.17069e-05 1.21847e-05 2.69042e+25 -2.21989 8.38715 271.817 
-9.79558e-06 1.21847e-05 2.68899e+25 -0.91985 7.12477 271.93 
-7.88425e-06 1.21847e-05 2.68771e+25 1.07728 6.12048 272.238 
-5.97292e-06 1.21847e-05 2.68854e+25 3.14562 5.09619 272.113 
-4.06158e-06 1.21847e-05 2.68991e+25 4.80933 4.17208 271.852 
-2.15025e-06 1.21847e-05 2.68789e+25 6.91152 3.15729 272.084 
-2.38917e-07 1.21847e-05 2.68295e+25 8.54688 2.75679 272.209 
-1.55296e-05 1.26626e-05 2.68443e+25 -1.62916 7.37682 272.217 
-1.36182e-05 1.26626e-05 2.68776e+25 -2.75243 9.11946 272.002 
-1.17069e-05 1.26626e-05 2.68973e+25 -1.92663 8.06966 271.922 
-9.79558e-06 1.26626e-05 2.6886e+25 -0.0619513 6.67594 272 
-7.88425e-06 1.26626e-05 2.68589e+25 2.20012 5.53369 272.376 
-5.97292e-06 1.26626e-05 2.68658e+25 4.3497 4.5483 272.229 
-4.06158e-06 1.26626e-05 2.68926e+25 6.20855 3.69446 271.959 
-2.15025e-06 1.26626e-05 2.68762e+25 8.39586 2.72786 272.11 
-2.38917e-07 1.26626e-05 2.68176e+25 10.2555 2.36338 272.317 
-1.55296e-05 1.31404e-05 2.68398e+25 -1.82783 7.93212 272.042 
-1.36182e-05 1.31404e-05 2.68915e+25 -3.24088 9.03898 271.711 
-1.17069e-05 1.31404e-05 2.68785e+25 -1.58861 7.55755 272.065 
-9.79558e-06 1.31404e-05 2.68888e+25 0.985895 6.05946 271.983 
-7.88425e-06 1.31404e-05 2.68598e+25 3.65067 5.02903 272.403 
-5.97292e-06 1.31404e-05 2.68851e+25 5.77418 4.02044 272.093 
-4.06158e-06 1.31404e-05 2.68576e+25 8.08081 3.15039 272.243 
-2.15025e-06 1.31404e-05 2.68775e+25 10.1311 2.17014 272.06 
-2.38917e-07 1.31404e-05 2.68184e+25 11.8844 1.98861 272.346 
-1.55296e-05 1.36182e-05 2.683e+25 -2.5475 8.68506 272.151 
-1.36182e-05 1.36182e-05 2.68838e+25 -3.13436 8.75284 271.823 
-1.17069e-05 1.36182e-05 2.68499e+25 -0.829427 6.91519 272.223 
-9.79558e-06 1.36182e-05 2.6884e+25 2.38252 5.33733 271.994 
-7.88425e-06 1.36182e-05 2.68621e+25 5.38129 4.33242 272.39 
-5.97292e-06 1.36182e-05 2.68987e+25 7.79383 3.43798 272.119 
-4.06158e-06 1.36182e-05 2.68561e+25 10.2898 2.60326 272.32 
-2.15025e-06 1.36182e-05 2.68639e+25 12.0138 1.79471 272.153 
-2.38917e-07 1.36182e-05 2.68176e+25 13.5653 1.62022 272.347 
-1.55296e-05 1.40961e-05 2.67941e+25 -2.72427 9.43099 272.278 
-1.36182e-05 1.40961e-05 2.68844e+25 -2.5798 8.23128 271.776 
-1.17069e-05 1.40961e-05 2.68283e+25 0.42018 6.18075 272.423 
-9.79558e-06 1.40961e-05 2.68827e+25 4.10808 4.44454 272.093 
-7.88425e-06 1.40961e-05 2.68711e+25 7.36012 3.58964 272.267 
-5.97292e-06 1.40961e-05 2.68785e+25 10.2763 2.81585 272.173 
-4.06158e-06 1.40961e-05 2.68588e+25 12.6987 2.0757 272.324 
-2.15025e-06 1.40961e-05 2.68665e+25 14.2285 1.55505 272.349 
-2.38917e-07 1.40961e-05 2.68084e+25 15.5576 1.18621 272.335 
-1.55296e-05 1.45739e-05 2.6794e+25 -3.02865 9.94199 272.176 
-1.36182e-05 1.45739e-05 2.68474e+25 -1.53762 7.49171 272.045 
-1.17069e-05 1.45739e-05 2.68572e+25 2.7147 5.24653 272.371 
-9.79558e-06 1.45739e-05 2.68739e+25 6.54606 3.62704 272.277 
-7.88425e-06 1.45739e-05 2.68784e+25 9.88716 2.78488 272.342 
-5.97292e-06 1.45739e-05 2.68722e+25 12.7755 2.20057 272.222 
-4.06158e-06 1.45739e-05 2.68627e+25 15.1087 1.61151 272.23 
-2.15025e-06 1.45739e-05 2.6861e+25 16.6048 1.28051 272.282 
-2.38917e-07 1.45739e-05 2.68255e+25 17.8861 0.791153 272.294 
-1.55296e-05 1.50518e-05 2.67654e+25 -3.16366 10.125 272.324 
-1.36182e-05 1.50518e-05 2.68453e+25 0.663605 6.3603 272.119 
-1.17069e-05 1.50518e-05 2.68299e+25 5.88596 4.1488 272.426 
-9.79558e-06 1.50518e-05 2.68628e+25 9.72413 2.71684 272.336 
-7.88425e-06 1.50518e-05 2.68583e+25 13.0766 1.97041 272.42 
-5.97292e-06 1.50518e-05 2.68611e+25 15.6982 1.52033 272.316 
-4.06158e-06 1.50518e-05 2.68816e+25 17.8386 1.13611 272.183 
-2.15025e-06 1.50518e-05 2.68592e+25 19.4351 0.897157 272.339 
-2.38917e-07 1.50518e-05 2.6851e+25 20.7706 0.428593 272.227 
-1.55296e-05 1.55296e-05 2.67334e+25 -2.28433 9.547 272.528 
-1.36182e-05 1.55296e-05 2.68288e+25 4.17321 4.92462 272.35 
-1.17069e-05 1.55296e-05 2.68115e+25 10.0961 2.86692 272.772 
-9.79558e-06 1.55296e-05 2.68584e+25 14.0129 1.86414 272.419 
-7.88425e-06 1.55296e-05 2.68505e+25 17.1409 1.35109 272.54 
-5.97292e-06 1.55296e-05 2.68435e+25 19.4249 0.979921 272.548 
-4.06158e-06 1.55296e-05 2.68515e+25 21.219 0.628858 272.42 
-2.15025e-06 1.55296e-05 2.68512e+25 22.5635 0.605817 272.491 
-2.38917e-07 1.55296e-05 2.68172e+25 23.6717 0.237264 272.411 
-1.55296e-05 1.60074e-05 2.66901e+25 1.05986 7.86382 272.766 
-1.36182e-05 1.60074e-05 2.6794e+25 10.0102 3.16194 272.556 
-1.17069e-05 1.60074e-05 2.68121e+25 15.7026 1.73152 272.882 
-9.79558e-06 1.60074e-05 2.6846e+25 19.2523 1.14809 272.599 
-7.88425e-06 1.60074e-05 2.68367e+25 21.6386 0.713732 272.645 
-5.97292e-06 1.60074e-05 2.68406e+25 23.5922 0.433853 272.626 
-4.06158e-06 1.60074e-05 2.68491e+25 25.0024 0.320865 272.542 
-2.15025e-06 1.60074e-05 2.68335e+25 26.0302 0.329419 272.614 
-2.38917e-07 1.60074e-05 2.6827e+25 26.6655 0.0915929 272.398 
-1.55296e-05 1.64852e-05 2.66437e+25 8.55735 4.80588 273.071 
-1.36182e-05 1.64852e-05 2.67777e+25 18.1991 1.48126 272.93 
-1.17069e-05 1.64852e-05 2.68278e+25 22.5549 0.783973 272.824 
-9.79558e-06 1.64852e-05 2.68187e+25 25.1739 0.588999 272.759 
-7.88425e-06 1.64852e-05 2.68325e+25 26.7357 0.289756 272.69 
-5.97292e-06 1.64852e-05 2.68199e+25 28.1038 0.164235 272.885 
-4.06158e-06 1.64852e-05 2.68396e+25 28.7044 0.068442 272.775 
-2.15025e-06 1.64852e-05 2.68363e+25 29.4298 0.107576 272.574 
-2.38917e-07 1.64852e-05 2.68081e+25 29.9037 0.0287433 272.607 
-1.55296e-05 1.69631e-05 2.66639e+25 21.9245 1.36895 273.238 
-1.36182e-05 1.69631e-05 2.67896e+25 27.9819 0.267164 272.977 
-1.17069e-05 1.69631e-05 2.68137e+25 29.9738 0.197529 273.065 
-9.79558e-06 1.69631e-05 2.68239e+25 31.0827 0.127374 272.963 
-7.88425e-06 1.69631e-05 2.68225e+25 31.6108 0.026193 272.878 
-5.97292e-06 1.69631e-05 2.68076e+25 32.1123 -0.000320077 273.108 
-4.06158e-06 1.69631e-05 2.68042e+25 32.3652 0.0157119 273.051 
-2.15025e-06 1.69631e-05 2.68022e+25 32.6562 0.0322906 272.876 
-2.38917e-07 1.69631e-05 2.68047e+25 32.9017 -0.0138113 272.761 
1.19458e-06 -1.69631e-05 2.6824e+25 -0.135399 0.00876907 272.963 
3.10592e-06 -1.69631e-05 2.68403e+25 -0.231341 -0.0406029 272.979 
5.01725e-06 -1.69631e-05 2.6857e+25 -0.143294 0.0325888 272.856 
6.92858e-06 -1.69631e-05 2.68395e+25 -0.170465 0.0168359 272.841 
8.83992e-06 -1.69631e-05 2.68637e+25 -0.161182 -0.0405838 272.761 
1.07512e-05 -1.69631e-05 2.68515e+25 -0.108318 -0.083569 272.787 
1.26626e-05 -1.69631e-05 2.68417e+25 0.00473557 -0.0121728 272.849 
1.45739e-05 -1.69631e-05 2.68358e+25 -0.0825083 0.00773473 272.852 
1.64852e-05 -1.69631e-05 2.68227e+25 -0.043314 -0.0182686 272.946 
1.19458e-06 -1.64852e-05 2.68658e+25 -0.436083 0.00349652 272.625 
3.10592e-06 -1.64852e-05 2.68592e+25 -0.51494 -0.0671442 272.835 
5.01725e-06 -1.64852e-05 2.68374e+25 -0.303133 0.124127 272.831 
6.92858e-06 -1.64852e-05 2.68653e+25 -0.44868 0.0425457 272.626 
8.83992e-06 -1.64852e-05 2.68769e+25 -0.148852 -0.0663516 272.602 
1.07512e-05 -1.64852e-05 2.68913e+25 -0.144728 -0.194367 272.433 
1.26626e-05 -1.64852e-05 2.68523e+25 0.00551104 0.036228 272.718 
1.45739e-05 -1.64852e-05 2.68765e+25 -0.191956 0.0212649 272.615 
1.64852e-05 -1.64852e-05 2.68361e+25 -0.0549943 -0.0504893 272.817 
1.19458e-06 -1.60074e-05 2.68919e+25 -0.740975 -0.0888572 272.243 
3.10592e-06 -1.60074e-05 2.68828e+25 -0.722072 -0.00737913 272.429 
5.01725e-06 -1.60074e-05 2.68858e+25 -0.694726 0.143465 272.555 
6.92858e-06 -1.60074e-05 2.68822e+25 -0.578135 -0.0376615 272.61 
8.83992e-06 -1.60074e-05 2.686e+25 -0.403486 -0.148401 272.618 
1.07512e-05 -1.60074e-05 2.6917e+25 -0.362423 -0.155491 272.151 
1.26626e-05 -1.60074e-05 2.68829e+25 -0.258496 0.0140455 272.403 
1.45739e-05 -1.60074e-05 2.68807e+25 -0.128112 -0.0144397 272.393 
1.64852e-05 -1.60074e-05 2.68697e+25 0.017902 -0.0305663 272.682 
1.19458e-06 -1.55296e-05 2.69136e+25 -1.05574 -0.0903763 272.212 
3.10592e-06 -1.55296e-05 2.68806e+25 -0.814557 0.0271302 272.404 
5.01725e-06 -1.55296e-05 2.68981e+25 -0.881267 0.112248 272.362 
6.92858e-06 -1.55296e-05 2.68727e+25 -0.735129 -0.0966473 272.636 
8.83992e-06 -1.55296e-05 2.68602e+25 -0.676778 -0.235 272.628 
1.07512e-05 -1.55296e-05 2.69007e+25 -0.38716 -0.0925239 272.31 
1.26626e-05 -1.55296e-05 2.68842e+25 -0.394318 0.007042 272.349 
1.45739e-05 -1.55296e-05 2.68982e+25 -0.315105 -0.101652 272.391 
1.64852e-05 -1.55296e-05 2.68933e+25 0.0739209 0.0317506 272.426 
1.19458e-06 -1.50517e-05 2.69009e+25 -1.35928 -0.0669013 272.144 
3.10592e-06 -1.50517e-05 2.68925e+25 -0.947689 -0.0657526 272.312 
5.01725e-06 -1.50517e-05 2.6885e+25 -0.889112 0.0515715 272.282 
6.92858e-06 -1.50517e-05 2.68934e+25 -0.81669 -0.128788 272.419 
8.83992e-06 -1.50517e-05 2.68694e+25 -0.791248 -0.386644 272.537 
1.07512e-05 -1.50517e-05 2.68764e+25 -0.468577 -0.0071176 272.491 
1.26626e-05 -1.50517e-05 2.69095e+25 -0.451037 -0.0411464 272.197 
1.45739e-05 -1.50517e-05 2.68678e+25 -0.277259 -0.126797 272.436 
1.64852e-05 -1.50517e-05 2.68833e+25 0.0108388 -0.0304324 272.397 
1.19458e-06 -1.45739e-05 2.69411e+25 -1.36774 -0.0188938 271.831 
3.10592e-06 -1.45739e-05 2.68969e+25 -1.21295 -0.175697 272.259 
5.01725e-06 -1.45739e-05 2.69011e+25 -1.11927 -0.0659118 272.305 
6.92858e-06 -1.45739e-05 2.68858e+25 -1.08461 -0.111867 272.498 
8.83992e-06 -1.45739e-05 2.68587e+25 -0.902192 -0.278893 272.511 
1.07512e-05 -1.45739e-05 2.68802e+25 -0.522435 -0.0915091 272.508 
1.26626e-05 -1.45739e-05 2.6901e+25 -0.143039 -0.10926 272.153 
1.45739e-05 -1.45739e-05 2.68883e+25 -0.087748 -0.14403 272.507 
1.64852e-05 -1.45739e-05 2.68814e+25 -0.0305124 -0.0641325 272.452 
1.19458e-06 -1.40961e-05 2.69564e+25 -1.45185 -0.0682283 271.756 
3.10592e-06 -1.40961e-05 2.69159e+25 -1.43229 -0.180557 272.095 
5.01725e-06 -1.40961e-05 2.69248e+25 -1.4231 -0.0631765 272.142 
6.92858e-06 -1.40961e-05 2.68835e+25 -1.35703 -0.200403 272.528 
8.83992e-06 -1.40961e-05 2.6863e+25 -1.01873 -0.168069 272.566 
1.07512e-05 -1.40961e-05 2.68914e+25 -0.563838 -0.314312 272.405 
1.26626e-05 -1.40961e-05 2.6885e+25 -0.306465 -0.150381 272.265 
1.45739e-05 -1.40961e-05 2.68872e+25 0.0428068 -0.132774 272.418 
1.64852e-05 -1.40961e-05 2.68705e+25 -0.0560945 -0.0904185 272.634 
1.19458e-06 -1.36182e-05 2.69408e+25 -1.73933 -0.0773206 271.796 
3.10592e-06 -1.36182e-05 2.6933e+25 -1.80796 -0.12421 272.045 
5.01725e-06 -1.36182e-05 2.69049e+25 -1.56805 0.111353 272.265 
6.92858e-06 -1.36182e-05 2.68811e+25 -1.65965 -0.263121 272.468 
8.83992e-06 -1.36182e-05 2.68817e+25 -1.15741 -0.218065 272.454 
1.07512e-05 -1.36182e-05 2.68793e+25 -0.63467 -0.482967 272.498 
1.26626e-05 -1.36182e-05 2.68895e+25 -0.498323 -0.222733 272.323 
1.45739e-05 -1.36182e-05 2.68746e+25 0.29351 -0.213035 272.447 
1.64852e-05 -1.36182e-05 2.68708e+25 -0.0336596 0.00646888 272.523 
1.19458e-06 -1.31404e-05 2.69201e+25 -1.84657 -0.0257347 272.033 
3.10592e-06 -1.31404e-05 2.69152e+25 -1.79024 -0.167839 272.052 
5.01725e-06 -1.31404e-05 2.6892e+25 -1.81345 0.12555 272.39 
6.92858e-06 -1.31404e-05 2.68729e+25 -1.85503 -0.185615 272.503 
8.83992e-06 -1.31404e-05 2.68982e+25 -1.11731 -0.368648 272.351 
1.07512e-05 -1.31404e-05 2.68839e+25 -0.748857 -0.500005 272.482 
1.26626e-05 -1.31404e-05 2.6898e+25 -0.529226 -0.401267 272.264 
1.45739e-05 -1.31404e-05 2.68719e+25 -0.0461276 -0.222058 272.58 
1.64852e-05 -1.31404e-05 2.68829e+25 -0.0302519 -0.0437781 272.512 
1.19458e-06 -1.26626e-05 2.69223e+25 -2.12936 -0.0376448 272.067 
3.10592e-06 -1.26626e-05 2.69131e+25 -1.90395 -0.136781 271.974 
5.01725e-06 -1.26626e-05 2.69002e+25 -1.90136 -0.0632229 272.317 
6.92858e-06 -1.26626e-05 2.6884e+25 -1.71862 -0.222307 272.499 
8.83992e-06 -1.26626e-05 2.69046e+25 -1.23914 -0.668208 272.381 
1.07512e-05 -1.26626e-05 2.6888e+25 -0.678429 -0.448238 272.448 
1.26626e-05 -1.26626e-05 2.68874e+25 -0.442499 -0.584925 272.359 
1.45739e-05 -1.26626e-05 2.68599e+25 -0.289419 -0.275496 272.643 
1.64852e-05 -1.26626e-05 2.68687e+25 -0.079445 -0.109278 272.491 
1.19458e-06 -1.21847e-05 2.6903e+25 -2.29427 -0.106503 272.202 
3.10592e-06 -1.21847e-05 2.69273e+25 -2.22427 -0.13168 272 
5.01725e-06 -1.21847e-05 2.68946e+25 -2.11227 -0.135674 272.347 
6.92858e-06 -1.21847e-05 2.69057e+25 -1.59454 -0.391891 272.292 
8.83992e-06 -1.21847e-05 2.68831e+25 -1.23806 -0.855766 272.391 
1.07512e-05 -1.21847e-05 2.68921e+25 -0.700845 -0.506482 272.339 
1.26626e-05 -1.21847e-05 2.68985e+25 -0.514473 -0.708923 272.273 
1.45739e-05 -1.21847e-05 2.68694e+25 -0.325588 -0.278879 272.583 
1.64852e-05 -1.21847e-05 2.6887e+25 0.00477502 -0.215468 272.319 
1.19458e-06 -1.17069e-05 2.69175e+25 -2.6106 -0.253948 272.101 
3.10592e-06 -1.17069e-05 2.69184e+25 -2.60685 -0.114089 272.051 
5.01725e-06 -1.17069e-05 2.68943e+25 -2.13872 -0.265973 272.36 
6.92858e-06 -1.17069e-05 2.69034e+25 -1.69868 -0.576758 272.236 
8.83992e-06 -1.17069e-05 2.68963e+25 -1.32672 -0.977702 272.35 
1.07512e-05 -1.17069e-05 2.6886e+25 -1.05384 -0.703093 272.401 
1.26626e-05 -1.17069e-05 2.69091e+25 -0.508046 -0.800472 272.237 
1.45739e-05 -1.17069e-05 2.68834e+25 -0.295623 -0.205955 272.401 
1.64852e-05 -1.17069e-05 2.6901e+25 -0.0707235 -0.377755 272.33 
1.19458e-06 -1.12291e-05 2.69123e+25 -3.13096 -0.177883 272.148 
3.10592e-06 -1.12291e-05 2.6911e+25 -2.86962 -0.163239 272.104 
5.01725e-06 -1.12291e-05 2.69056e+25 -2.56755 -0.412245 272.152 
6.92858e-06 -1.12291e-05 2.69105e+25 -1.77784 -0.616699 272.267 
8.83992e-06 -1.12291e-05 2.69077e+25 -1.41009 -1.04564 272.322 
1.07512e-05 -1.12291e-05 2.69099e+25 -1.24447 -0.895307 272.128 
1.26626e-05 -1.12291e-05 2.69158e+25 -0.547575 -0.967927 272.1 
1.45739e-05 -1.12291e-05 2.6904e+25 -0.25843 -0.202111 272.182 
1.64852e-05 -1.12291e-05 2.68771e+25 -0.108052 -0.391453 272.436 
1.19458e-06 -1.07512e-05 2.69245e+25 -3.56695 -0.206512 272.047 
3.10592e-06 -1.07512e-05 2.69069e+25 -2.99189 -0.334624 272.147 
5.01725e-06 -1.07512e-05 2.69105e+25 -2.90011 -0.516655 272.278 
6.92858e-06 -1.07512e-05 2.69032e+25 -2.0189 -0.763252 272.221 
8.83992e-06 -1.07512e-05 2.69062e+25 -1.78031 -1.03723 272.286 
1.07512e-05 -1.07512e-05 2.69043e+25 -1.61692 -1.08083 272.024 
1.26626e-05 -1.07512e-05 2.69103e+25 -0.531137 -1.08776 272.111 
1.45739e-05 -1.07512e-05 2.69121e+25 0.0487455 -0.236356 272.149 
1.64852e-05 -1.07512e-05 2.68783e+25 0.00107665 -0.384593 272.51 
1.19458e-06 -1.02734e-05 2.69015e+25 -3.70546 -0.256914 272.097 
3.10592e-06 -1.02734e-05 2.69126e+25 -3.36725 -0.440292 272.192 
5.01725e-06 -1.02734e-05 2.68988e+25 -3.17503 -0.560658 272.239 
6.92858e-06 -1.02734e-05 2.69004e+25 -2.22061 -1.0578 272.297 
8.83992e-06 -1.02734e-05 2.68792e+25 -1.80807 -1.04443 272.342 
1.07512e-05 -1.02734e-05 2.6929e+25 -1.61894 -1.17944 271.954 
1.26626e-05 -1.02734e-05 2.69105e+25 -0.424403 -1.18428 272.114 
1.45739e-05 -1.02734e-05 2.69098e+25 -0.137071 -0.451727 272.096 
1.64852e-05 -1.02734e-05 2.68876e+25 0.138154 -0.415167 272.479 
1.19458e-06 -9.79558e-06 2.69236e+25 -3.94739 -0.256182 272.092 
3.10592e-06 -9.79558e-06 2.69001e+25 -3.98809 -0.609274 272.231 
5.01725e-06 -9.79558e-06 2.6908e+25 -3.38495 -0.740433 272.273 
6.92858e-06 -9.79558e-06 2.6897e+25 -2.54435 -1.37857 272.261 
8.83992e-06 -9.79558e-06 2.68901e+25 -1.77913 -1.10534 272.278 
1.07512e-05 -9.79558e-06 2.69365e+25 -1.36747 -1.37251 271.991 
1.26626e-05 -9.79558e-06 2.69267e+25 -0.538722 -1.29845 272.045 
1.45739e-05 -9.79558e-06 2.69293e+25 -0.229056 -0.695587 271.935 
1.64852e-05 -9.79558e-06 2.6876e+25 0.137919 -0.333199 272.482 
1.19458e-06 -9.31775e-06 2.6916e+25 -4.28922 -0.186607 272.137 
3.10592e-06 -9.31775e-06 2.69038e+25 -4.45411 -0.71636 272.075 
5.01725e-06 -9.31775e-06 2.69004e+25 -3.50615 -1.00069 272.081 
6.92858e-06 -9.31775e-06 2.69015e+25 -2.82131 -1.61841 272.28 
8.83992e-06 -9.31775e-06 2.68908e+25 -2.12155 -1.37547 272.243 
1.07512e-05 -9.31775e-06 2.69245e+25 -1.32193 -1.55859 272.011 
1.26626e-05 -9.31775e-06 2.69037e+25 -0.76579 -1.52678 272.233 
1.45739e-05 -9.31775e-06 2.69278e+25 -0.119501 -0.792828 271.995 
1.64852e-05 -9.31775e-06 2.68683e+25 0.0514157 -0.283075 272.556 
1.19458e-06 -8.83992e-06 2.6896e+25 -4.75903 -0.171772 272.214 
3.10592e-06 -8.83992e-06 2.68961e+25 -4.5461 -0.932648 272.107 
5.01725e-06 -8.83992e-06 2.69192e+25 -3.76456 -1.12104 272.137 
6.92858e-06 -8.83992e-06 2.69006e+25 -3.07524 -1.62591 272.359 
8.83992e-06 -8.83992e-06 2.69127e+25 -2.40457 -1.5732 272.111 
1.07512e-05 -8.83992e-06 2.69119e+25 -1.45928 -1.70365 272.109 
1.26626e-05 -8.83992e-06 2.69179e+25 -0.855222 -1.74721 272.054 
1.45739e-05 -8.83992e-06 2.69151e+25 -0.210521 -0.936925 272.12 
1.64852e-05 -8.83992e-06 2.68781e+25 0.125254 -0.287692 272.434 
1.19458e-06 -8.36208e-06 2.69082e+25 -5.10349 -0.157287 272.107 
3.10592e-06 -8.36208e-06 2.68886e+25 -4.63968 -1.09585 272.244 
5.01725e-06 -8.36208e-06 2.68856e+25 -4.132 -1.23715 272.377 
6.92858e-06 -8.36208e-06 2.6904e+25 -3.08756 -1.82805 272.179 
8.83992e-06 -8.36208e-06 2.69041e+25 -2.60702 -1.7437 272.195 
1.07512e-05 -8.36208e-06 2.69017e+25 -1.57682 -1.93559 272.177 
1.26626e-05 -8.36208e-06 2.69277e+25 -0.873126 -1.84217 272.029 
1.45739e-05 -8.36208e-06 2.69178e+25 -0.238416 -1.04919 272.144 
1.64852e-05 -8.36208e-06 2.68859e+25 -0.0955437 -0.247484 272.396 
1.19458e-06 -7.88425e-06 2.69174e+25 -5.32468 -0.222128 272.087 
3.10592e-06 -7.88425e-06 2.69036e+25 -4.67966 -1.19874 272.071 
5.01725e-06 -7.88425e-06 2.69155e+25 -4.27142 -1.48046 272.138 
6.92858e-06 -7.88425e-06 2.69258e+25 -3.60927 -2.02608 272.067 
8.83992e-06 -7.88425e-06 2.69034e+25 -2.72693 -1.95676 272.12 
1.07512e-05 -7.88425e-06 2.69121e+25 -1.78052 -2.13762 272.152 
1.26626e-05 -7.88425e-06 2.69175e+25 -1.09988 -1.96481 272.07 
1.45739e-05 -7.88425e-06 2.68948e+25 -0.231712 -1.12844 272.256 
1.64852e-05 -7.88425e-06 2.68633e+25 -0.0925597 -0.182336 272.586 
1.19458e-06 -7.40642e-06 2.69188e+25 -5.28142 -0.217545 272.057 
3.10592e-06 -7.40642e-06 2.6901e+25 -4.90162 -1.37898 272.228 
5.01725e-06 -7.40642e-06 2.69081e+25 -4.38778 -1.64296 272.25 
6.92858e-06 -7.40642e-06 2.69216e+25 -3.92608 -2.26981 272.127 
8.83992e-06 -7.40642e-06 2.69252e+25 -2.96468 -2.05975 272.029 
1.07512e-05 -7.40642e-06 2.69289e+25 -1.92221 -2.40026 271.953 
1.26626e-05 -7.40642e-06 2.69318e+25 -0.989973 -1.98798 272.065 
1.45739e-05 -7.40642e-06 2.69004e+25 -0.375895 -1.29031 272.236 
1.64852e-05 -7.40642e-06 2.68488e+25 0.0120949 -0.192423 272.619 
1.19458e-06 -6.92858e-06 2.69258e+25 -5.55256 -0.30005 272.036 
3.10592e-06 -6.92858e-06 2.68907e+25 -5.43172 -1.53835 272.315 
5.01725e-06 -6.92858e-06 2.69216e+25 -4.69065 -1.86926 272.128 
6.92858e-06 -6.92858e-06 2.69036e+25 -4.1998 -2.37334 272.171 
8.83992e-06 -6.92858e-06 2.69161e+25 -3.25481 -2.2886 271.992 
1.07512e-05 -6.92858e-06 2.69267e+25 -2.07966 -2.65288 272.03 
1.26626e-05 -6.92858e-06 2.69366e+25 -1.10522 -2.12632 271.87 
1.45739e-05 -6.92858e-06 2.69073e+25 -0.473218 -1.49131 272.282 
1.64852e-05 -6.92858e-06 2.68636e+25 -0.0623283 -0.341699 272.57 
1.19458e-06 -6.45075e-06 2.69064e+25 -5.78927 -0.23472 272.047 
3.10592e-06 -6.45075e-06 2.69042e+25 -5.66964 -1.55943 272.167 
5.01725e-06 -6.45075e-06 2.69127e+25 -5.23983 -1.98052 272.076 
6.92858e-06 -6.45075e-06 2.69083e+25 -4.5706 -2.49706 272.116 
8.83992e-06 -6.45075e-06 2.69236e+25 -3.2978 -2.66899 272.007 
1.07512e-05 -6.45075e-06 2.69322e+25 -2.08543 -2.85118 272.004 
1.26626e-05 -6.45075e-06 2.69145e+25 -1.43856 -2.30259 272.086 
1.45739e-05 -6.45075e-06 2.69033e+25 -0.634943 -1.66301 272.269 
1.64852e-05 -6.45075e-06 2.68403e+25 -0.0571771 -0.48415 272.73 
1.19458e-06 -5.97292e-06 2.69198e+25 -5.82591 -0.22292 272.12 
3.10592e-06 -5.97292e-06 2.6938e+25 -5.85221 -1.523 271.955 
5.01725e-06 -5.97292e-06 2.69018e+25 -5.50015 -2.12495 272.207 
6.92858e-06 -5.97292e-06 2.69139e+25 -4.94661 -2.78138 272.075 
8.83992e-06 -5.97292e-06 2.69081e+25 -3.66156 -3.10576 272.138 
1.07512e-05 -5.97292e-06 2.69088e+25 -2.37576 -3.10105 272.108 
1.26626e-05 -5.97292e-06 2.69073e+25 -1.50165 -2.46241 272.172 
1.45739e-05 -5.97292e-06 2.69115e+25 -0.785624 -1.69292 272.254 
1.64852e-05 -5.97292e-06 2.68548e+25 -0.090834 -0.463175 272.693 
1.19458e-06 -5.49508e-06 2.68982e+25 -6.07531 -0.333203 272.208 
3.10592e-06 -5.49508e-06 2.6928e+25 -5.96894 -1.43668 272.02 
5.01725e-06 -5.49508e-06 2.6898e+25 -5.73618 -2.298 272.252 
6.92858e-06 -5.49508e-06 2.69017e+25 -5.04882 -3.05235 272.113 
8.83992e-06 -5.49508e-06 2.69093e+25 -3.95338 -3.49389 272.135 
1.07512e-05 -5.49508e-06 2.69045e+25 -2.61122 -3.38677 272.224 
1.26626e-05 -5.49508e-06 2.69048e+25 -1.62102 -2.75739 272.311 
1.45739e-05 -5.49508e-06 2.69103e+25 -0.840031 -1.81741 272.223 
1.64852e-05 -5.49508e-06 2.68815e+25 -0.0283453 -0.524414 272.508 
1.19458e-06 -5.01725e-06 2.68755e+25 -6.42823 -0.376381 272.321 
3.10592e-06 -5.01725e-06 2.69145e+25 -6.23388 -1.45989 272.006 
5.01725e-06 -5.01725e-06 2.68688e+25 -5.75586 -2.4514 272.423 
6.92858e-06 -5.01725e-06 2.6895e+25 -5.03486 -3.24471 272.309 
8.83992e-06 -5.01725e-06 2.6906e+25 -4.03109 -3.72686 272.224 
1.07512e-05 -5.01725e-06 2.69112e+25 -2.84856 -3.68262 272.133 
1.26626e-05 -5.01725e-06 2.69167e+25 -1.608 -3.07503 272.184 
1.45739e-05 -5.01725e-06 2.68927e+25 -0.672664 -2.07757 272.285 
1.64852e-05 -5.01725e-06 2.69015e+25 -0.076605 -0.579076 272.301 
1.19458e-06 -4.53942e-06 2.69113e+25 -6.57577 -0.477722 272.079 
3.10592e-06 -4.53942e-06 2.69098e+25 -6.47286 -1.55072 272.058 
5.01725e-06 -4.53942e-06 2.68993e+25 -6.18477 -2.55656 272.272 
6.92858e-06 -4.53942e-06 2.68821e+25 -5.24866 -3.45784 272.413 
8.83992e-06 -4.53942e-06 2.69081e+25 -4.32402 -4.01231 272.228 
1.07512e-05 -4.53942e-06 2.68877e+25 -2.9681 -3.96692 272.305 
1.26626e-05 -4.53942e-06 2.69083e+25 -1.66948 -3.39269 272.265 
1.45739e-05 -4.53942e-06 2.68982e+25 -0.521303 -2.29378 272.198 
1.64852e-05 -4.53942e-06 2.68836e+25 0.0520438 -0.61761 272.357 
1.19458e-06 -4.06158e-06 2.68891e+25 -6.72703 -0.529121 272.255 
3.10592e-06 -4.06158e-06 2.69186e+25 -6.97216 -1.5221 272.014 
5.01725e-06 -4.06158e-06 2.6898e+25 -6.65716 -2.73128 272.288 
6.92858e-06 -4.06158e-06 2.691e+25 -5.75079 -3.69516 272.201 
8.83992e-06 -4.06158e-06 2.68971e+25 -4.67013 -4.22376 272.214 
1.07512e-05 -4.06158e-06 2.68846e+25 -3.07375 -4.35848 272.354 
1.26626e-05 -4.06158e-06 2.68834e+25 -1.74432 -3.7861 272.397 
1.45739e-05 -4.06158e-06 2.68941e+25 -0.410928 -2.58597 272.219 
1.64852e-05 -4.06158e-06 2.68991e+25 -0.0568243 -0.653011 272.383 
1.19458e-06 -3.58375e-06 2.68962e+25 -6.98607 -0.46147 272.167 
3.10592e-06 -3.58375e-06 2.68924e+25 -7.45148 -1.57824 272.053 
5.01725e-06 -3.58375e-06 2.69107e+25 -6.91613 -2.91657 272.196 
6.92858e-06 -3.58375e-06 2.69005e+25 -6.06993 -3.86093 272.134 
8.83992e-06 -3.58375e-06 2.69058e+25 -4.98612 -4.56746 272.205 
1.07512e-05 -3.58375e-06 2.6887e+25 -3.17833 -4.72203 272.317 
1.26626e-05 -3.58375e-06 2.68788e+25 -1.72779 -4.0486 272.438 
1.45739e-05 -3.58375e-06 2.68868e+25 -0.452335 -2.89743 272.287 
1.64852e-05 -3.58375e-06 2.69036e+25 -0.163256 -0.687219 272.319 
1.19458e-06 -3.10592e-06 2.68935e+25 -7.25992 -0.318898 272.182 
3.10592e-06 -3.10592e-06 2.69111e+25 -7.66718 -1.60293 272.129 
5.01725e-06 -3.10592e-06 2.6906e+25 -7.23038 -2.97435 272.041 
6.92858e-06 -3.10592e-06 2.6899e+25 -6.68924 -4.07396 272.111 
8.83992e-06 -3.10592e-06 2.69132e+25 -5.11903 -4.99863 272.08 
1.07512e-05 -3.10592e-06 2.68967e+25 -3.46051 -5.14407 272.31 
1.26626e-05 -3.10592e-06 2.68892e+25 -1.69872 -4.41817 272.358 
1.45739e-05 -3.10592e-06 2.69143e+25 -0.48539 -3.09715 272.084 
1.64852e-05 -3.10592e-06 2.68785e+25 -0.0872764 -0.708462 272.256 
1.19458e-06 -2.62808e-06 2.69023e+25 -7.36393 -0.21345 272.109 
3.10592e-06 -2.62808e-06 2.68874e+25 -7.73571 -1.58736 272.223 
5.01725e-06 -2.62808e-06 2.69032e+25 -7.47406 -3.08627 272.176 
6.92858e-06 -2.62808e-06 2.68969e+25 -7.01443 -4.34901 272.231 
8.83992e-06 -2.62808e-06 2.6934e+25 -5.42045 -5.53343 271.901 
1.07512e-05 -2.62808e-06 2.6901e+25 -3.75581 -5.57528 272.109 
1.26626e-05 -2.62808e-06 2.68948e+25 -1.96898 -4.83857 272.254 
1.45739e-05 -2.62808e-06 2.6889e+25 -0.683131 -3.39913 272.165 
1.64852e-05 -2.62808e-06 2.68607e+25 -0.00443275 -0.71843 272.476 
1.19458e-06 -2.15025e-06 2.69255e+25 -7.41383 -0.0177053 271.928 
3.10592e-06 -2.15025e-06 2.68681e+25 -7.7291 -1.58163 272.464 
5.01725e-06 -2.15025e-06 2.68887e+25 -7.69634 -3.26658 272.243 
6.92858e-06 -2.15025e-06 2.68888e+25 -7.08691 -4.56395 272.297 
8.83992e-06 -2.15025e-06 2.69232e+25 -5.74552 -6.02755 271.931 
1.07512e-05 -2.15025e-06 2.68997e+25 -3.95999 -5.97151 272.196 
1.26626e-05 -2.15025e-06 2.68995e+25 -2.05174 -5.24006 272.266 
1.45739e-05 -2.15025e-06 2.69161e+25 -0.63621 -3.74769 272.13 
1.64852e-05 -2.15025e-06 2.68708e+25 -0.0104019 -0.825217 272.46 
1.19458e-06 -1.67242e-06 2.69143e+25 -7.60129 0.172804 271.902 
3.10592e-06 -1.67242e-06 2.68819e+25 -7.83227 -1.64888 272.4 
5.01725e-06 -1.67242e-06 2.68941e+25 -7.75374 -3.2793 272.174 
6.92858e-06 -1.67242e-06 2.68828e+25 -7.18109 -4.75802 272.346 
8.83992e-06 -1.67242e-06 2.69196e+25 -5.91539 -6.4922 272.055 
1.07512e-05 -1.67242e-06 2.68993e+25 -4.23382 -6.50936 272.293 
1.26626e-05 -1.67242e-06 2.69174e+25 -2.27313 -5.7417 272.168 
1.45739e-05 -1.67242e-06 2.69066e+25 -0.729846 -4.04116 272.091 
1.64852e-05 -1.67242e-06 2.68825e+25 -0.0250522 -0.873234 272.463 
1.19458e-06 -1.19458e-06 2.69202e+25 -7.75439 0.359062 271.91 
3.10592e-06 -1.19458e-06 2.6887e+25 -7.73658 -1.67624 272.204 
5.01725e-06 -1.19458e-06 2.68989e+25 -7.80646 -3.30758 272.135 
6.92858e-06 -1.19458e-06 2.68883e+25 -7.20965 -5.04264 272.26 
8.83992e-06 -1.19458e-06 2.69188e+25 -6.054 -6.85339 271.93 
1.07512e-05 -1.19458e-06 2.69172e+25 -4.34665 -7.13592 272.062 
1.26626e-05 -1.19458e-06 2.69109e+25 -2.55451 -6.23671 272.177 
1.45739e-05 -1.19458e-06 2.69049e+25 -0.961879 -4.26714 272.092 
1.64852e-05 -1.19458e-06 2.687e+25 -0.016001 -0.971758 272.438 
1.19458e-06 -7.1675e-07 2.69197e+25 -7.71679 0.463905 271.806 
3.10592e-06 -7.1675e-07 2.68909e+25 -7.89756 -1.67789 272.219 
5.01725e-06 -7.1675e-07 2.69043e+25 -7.81606 -3.39885 272.225 
6.92858e-06 -7.1675e-07 2.69041e+25 -7.41039 -5.45378 272.154 
8.83992e-06 -7.1675e-07 2.69171e+25 -6.33231 -7.0545 271.981 
1.07512e-05 -7.1675e-07 2.6912e+25 -4.62939 -7.51971 272.086 
1.26626e-05 -7.1675e-07 2.69006e+25 -2.80471 -6.71328 272.129 
1.45739e-05 -7.1675e-07 2.69116e+25 -1.24774 -4.47208 272.15 
1.64852e-05 -7.1675e-07 2.68875e+25 -0.11255 -1.16111 272.333 
1.19458e-06 -2.38917e-07 2.69055e+25 -7.70532 0.520275 271.802 
3.10592e-06 -2.38917e-07 2.68718e+25 -8.05182 -1.68212 272.137 
5.01725e-06 -2.38917e-07 2.68484e+25 -7.75007 -3.41214 272.296 
6.92858e-06 -2.38917e-07 2.68865e+25 -7.34498 -5.63079 272.044 
8.83992e-06 -2.38917e-07 2.68961e+25 -6.45922 -7.34697 272.084 
1.07512e-05 -2.38917e-07 2.68981e+25 -4.88532 -7.96736 272.041 
1.26626e-05 -2.38917e-07 2.68719e+25 -3.03702 -7.16982 272.102 
1.45739e-05 -2.38917e-07 2.68844e+25 -1.38581 -4.76418 272.171 
1.64852e-05 -2.38917e-07 2.68672e+25 -0.198783 -1.3554 272.348 
2.38917e-07 -1.69631e-05 2.68404e+25 -0.144738 0.0436134 272.673 
2.15025e-06 -1.69631e-05 2.68534e+25 -0.243384 0.023183 272.932 
4.06158e-06 -1.69631e-05 2.68326e+25 -0.198664 0.0116636 272.914 
5.97292e-06 -1.69631e-05 2.68369e+25 -0.218932 -0.0429435 272.947 
7.88425e-06 -1.69631e-05 2.68446e+25 -0.199796 -0.0550977 272.868 
9.79558e-06 -1.69631e-05 2.68529e+25 -0.110321 -0.00765696 272.722 
1.17069e-05 -1.69631e-05 2.68623e+25 0.0527016 -0.00238668 272.767 
1.36182e-05 -1.69631e-05 2.68452e+25 0.0211265 0.00567508 272.874 
1.55296e-05 -1.69631e-05 2.68548e+25 -0.0492178 0.0111371 272.798 
2.38917e-07 -1.64852e-05 2.68296e+25 -0.527885 0.103329 272.584 
2.15025e-06 -1.64852e-05 2.68562e+25 -0.327257 0.0128953 272.825 
4.06158e-06 -1.64852e-05 2.68482e+25 -0.360886 -0.0549174 272.809 
5.97292e-06 -1.64852e-05 2.68422e+25 -0.532449 -0.0219004 272.777 
7.88425e-06 -1.64852e-05 2.68623e+25 -0.241358 -0.102097 272.695 
9.79558e-06 -1.64852e-05 2.68881e+25 -0.21673 0.0376867 272.427 
1.17069e-05 -1.64852e-05 2.68811e+25 -0.0690159 0.000389578 272.452 
1.36182e-05 -1.64852e-05 2.68663e+25 -0.149085 0.0743442 272.59 
1.55296e-05 -1.64852e-05 2.68722e+25 -0.104731 -0.0294006 272.563 
2.38917e-07 -1.60074e-05 2.6866e+25 -0.789349 0.116645 272.411 
2.15025e-06 -1.60074e-05 2.68873e+25 -0.677457 -0.00448368 272.327 
4.06158e-06 -1.60074e-05 2.68682e+25 -0.68033 -0.15482 272.681 
5.97292e-06 -1.60074e-05 2.68578e+25 -0.715185 -0.0579509 272.728 
7.88425e-06 -1.60074e-05 2.68687e+25 -0.569478 -0.157381 272.597 
9.79558e-06 -1.60074e-05 2.68897e+25 -0.26911 0.16264 272.323 
1.17069e-05 -1.60074e-05 2.68962e+25 -0.380774 -0.0155542 272.342 
1.36182e-05 -1.60074e-05 2.68725e+25 -0.280558 0.106691 272.603 
1.55296e-05 -1.60074e-05 2.68971e+25 -0.0365513 -0.145028 272.325 
2.38917e-07 -1.55296e-05 2.6888e+25 -1.01231 0.0579679 272.186 
2.15025e-06 -1.55296e-05 2.69098e+25 -1.02982 0.000381453 272.115 
4.06158e-06 -1.55296e-05 2.68808e+25 -0.843668 -0.176398 272.447 
5.97292e-06 -1.55296e-05 2.68979e+25 -0.69578 -0.0279356 272.458 
7.88425e-06 -1.55296e-05 2.68454e+25 -0.769829 -0.0984683 272.784 
9.79558e-06 -1.55296e-05 2.68751e+25 -0.436063 0.100862 272.453 
1.17069e-05 -1.55296e-05 2.69088e+25 -0.510637 -0.0984094 272.255 
1.36182e-05 -1.55296e-05 2.68886e+25 -0.382865 0.061032 272.391 
1.55296e-05 -1.55296e-05 2.69026e+25 -0.117106 -0.21571 272.146 
2.38917e-07 -1.50517e-05 2.68821e+25 -1.22364 0.0730774 272.18 
2.15025e-06 -1.50517e-05 2.69121e+25 -1.23162 -0.0615886 272.009 
4.06158e-06 -1.50517e-05 2.68939e+25 -0.903773 -0.156001 272.282 
5.97292e-06 -1.50517e-05 2.68982e+25 -0.813946 -0.00802964 272.273 
7.88425e-06 -1.50517e-05 2.68754e+25 -0.766602 -0.103601 272.639 
9.79558e-06 -1.50517e-05 2.68499e+25 -0.517623 -0.0771995 272.581 
1.17069e-05 -1.50517e-05 2.69009e+25 -0.406415 -0.175109 272.255 
1.36182e-05 -1.50517e-05 2.6914e+25 -0.288624 0.0661209 272.209 
1.55296e-05 -1.50517e-05 2.69021e+25 -0.135924 -0.340248 272.189 
2.38917e-07 -1.45739e-05 2.68968e+25 -1.39315 0.0928515 272.149 
2.15025e-06 -1.45739e-05 2.6931e+25 -1.38874 -0.182644 271.866 
4.06158e-06 -1.45739e-05 2.69068e+25 -1.2487 -0.0721967 272.177 
5.97292e-06 -1.45739e-05 2.69131e+25 -1.03797 -0.0849864 272.184 
7.88425e-06 -1.45739e-05 2.68517e+25 -0.933504 -0.232345 272.594 
9.79558e-06 -1.45739e-05 2.68541e+25 -0.83972 -0.20715 272.635 
1.17069e-05 -1.45739e-05 2.68911e+25 -0.207869 -0.192143 272.352 
1.36182e-05 -1.45739e-05 2.69238e+25 -0.112273 0.100999 272.125 
1.55296e-05 -1.45739e-05 2.689e+25 -0.111462 -0.397351 272.4 
2.38917e-07 -1.40961e-05 2.68944e+25 -1.5122 0.00121091 272.038 
2.15025e-06 -1.40961e-05 2.69395e+25 -1.30942 -0.180216 271.857 
4.06158e-06 -1.40961e-05 2.69057e+25 -1.34219 -0.114233 272.241 
5.97292e-06 -1.40961e-05 2.69078e+25 -1.56563 -0.0375485 272.193 
7.88425e-06 -1.40961e-05 2.68721e+25 -1.17688 -0.315834 272.546 
9.79558e-06 -1.40961e-05 2.68767e+25 -1.07192 -0.342293 272.561 
1.17069e-05 -1.40961e-05 2.68954e+25 -0.446909 -0.171858 272.294 
1.36182e-05 -1.40961e-05 2.68816e+25 -0.175843 -0.0226727 272.512 
1.55296e-05 -1.40961e-05 2.68957e+25 0.0580748 -0.293431 272.373 
2.38917e-07 -1.36182e-05 2.68983e+25 -1.67701 0.029826 272.045 
2.15025e-06 -1.36182e-05 2.6945e+25 -1.73268 -0.122445 271.811 
4.06158e-06 -1.36182e-05 2.69025e+25 -1.63728 -0.224937 272.186 
5.97292e-06 -1.36182e-05 2.68961e+25 -1.63221 -0.14401 272.258 
7.88425e-06 -1.36182e-05 2.68792e+25 -1.42531 -0.422891 272.531 
9.79558e-06 -1.36182e-05 2.68754e+25 -1.0362 -0.444126 272.518 
1.17069e-05 -1.36182e-05 2.69133e+25 -0.621749 -0.192912 272.173 
1.36182e-05 -1.36182e-05 2.6875e+25 -0.0868467 -0.268715 272.575 
1.55296e-05 -1.36182e-05 2.68767e+25 0.0999932 -0.223982 272.438 
2.38917e-07 -1.31404e-05 2.68997e+25 -1.84991 0.0784627 272.028 
2.15025e-06 -1.31404e-05 2.69351e+25 -1.8985 -0.189207 271.962 
4.06158e-06 -1.31404e-05 2.69278e+25 -1.77898 -0.223642 272.069 
5.97292e-06 -1.31404e-05 2.68854e+25 -1.58365 -0.0648476 272.392 
7.88425e-06 -1.31404e-05 2.68733e+25 -1.67281 -0.604054 272.477 
9.79558e-06 -1.31404e-05 2.68834e+25 -0.79367 -0.591812 272.512 
1.17069e-05 -1.31404e-05 2.69098e+25 -0.667543 -0.214827 272.197 
1.36182e-05 -1.31404e-05 2.68812e+25 -0.175502 -0.537147 272.498 
1.55296e-05 -1.31404e-05 2.68895e+25 0.0339373 -0.157437 272.318 
2.38917e-07 -1.26626e-05 2.68879e+25 -2.11056 0.0990668 272.133 
2.15025e-06 -1.26626e-05 2.69142e+25 -1.95089 -0.290988 272.18 
4.06158e-06 -1.26626e-05 2.69056e+25 -2.05988 -0.179544 272.031 
5.97292e-06 -1.26626e-05 2.6886e+25 -1.80375 -0.0789708 272.455 
7.88425e-06 -1.26626e-05 2.68868e+25 -1.5604 -0.719134 272.505 
9.79558e-06 -1.26626e-05 2.68461e+25 -0.741207 -0.755541 272.645 
1.17069e-05 -1.26626e-05 2.69027e+25 -0.666987 -0.248188 272.203 
1.36182e-05 -1.26626e-05 2.68852e+25 -0.20729 -0.498028 272.367 
1.55296e-05 -1.26626e-05 2.68821e+25 -0.193509 -0.0976093 272.336 
2.38917e-07 -1.21847e-05 2.68886e+25 -2.47365 0.149706 272.153 
2.15025e-06 -1.21847e-05 2.69103e+25 -2.26077 -0.36547 272.149 
4.06158e-06 -1.21847e-05 2.68969e+25 -2.2403 -0.188856 272.206 
5.97292e-06 -1.21847e-05 2.68921e+25 -1.77307 -0.106532 272.238 
7.88425e-06 -1.21847e-05 2.68741e+25 -1.47649 -0.775801 272.377 
9.79558e-06 -1.21847e-05 2.68757e+25 -0.895807 -0.849015 272.429 
1.17069e-05 -1.21847e-05 2.69132e+25 -0.585525 -0.244074 272.164 
1.36182e-05 -1.21847e-05 2.68932e+25 -0.167382 -0.557889 272.33 
1.55296e-05 -1.21847e-05 2.69062e+25 -0.329412 -0.251026 272.142 
2.38917e-07 -1.17069e-05 2.69108e+25 -2.72305 0.0910684 271.998 
2.15025e-06 -1.17069e-05 2.69168e+25 -2.69193 -0.348289 272.166 
4.06158e-06 -1.17069e-05 2.68989e+25 -2.39884 -0.27745 272.304 
5.97292e-06 -1.17069e-05 2.69061e+25 -1.93556 -0.239085 272.246 
7.88425e-06 -1.17069e-05 2.6903e+25 -1.38235 -0.90347 272.302 
9.79558e-06 -1.17069e-05 2.68847e+25 -1.24079 -0.936282 272.494 
1.17069e-05 -1.17069e-05 2.68909e+25 -0.729241 -0.334857 272.263 
1.36182e-05 -1.17069e-05 2.69118e+25 -0.389058 -0.619109 272.23 
1.55296e-05 -1.17069e-05 2.68957e+25 -0.27233 -0.329266 272.208 
2.38917e-07 -1.12291e-05 2.69046e+25 -3.1476 0.0666412 271.937 
2.15025e-06 -1.12291e-05 2.69058e+25 -3.01758 -0.326608 272.161 
4.06158e-06 -1.12291e-05 2.69271e+25 -2.6755 -0.306471 272.038 
5.97292e-06 -1.12291e-05 2.68954e+25 -2.16156 -0.42557 272.425 
7.88425e-06 -1.12291e-05 2.69002e+25 -1.57703 -1.01916 272.109 
9.79558e-06 -1.12291e-05 2.68702e+25 -1.47139 -0.976523 272.524 
1.17069e-05 -1.12291e-05 2.69031e+25 -0.939585 -0.424038 272.161 
1.36182e-05 -1.12291e-05 2.6914e+25 -0.391255 -0.683006 272.188 
1.55296e-05 -1.12291e-05 2.69033e+25 -0.157873 -0.406057 272.144 
2.38917e-07 -1.07512e-05 2.68966e+25 -3.63694 0.036416 272.046 
2.15025e-06 -1.07512e-05 2.69136e+25 -3.32097 -0.459293 272.094 
4.06158e-06 -1.07512e-05 2.69172e+25 -2.93354 -0.380178 272.217 
5.97292e-06 -1.07512e-05 2.68966e+25 -2.55128 -0.668129 272.352 
7.88425e-06 -1.07512e-05 2.69046e+25 -1.72356 -1.04373 272.172 
9.79558e-06 -1.07512e-05 2.68937e+25 -1.80706 -0.994787 272.285 
1.17069e-05 -1.07512e-05 2.69278e+25 -0.937481 -0.667909 272.173 
1.36182e-05 -1.07512e-05 2.69116e+25 -0.296197 -0.767129 272.201 
1.55296e-05 -1.07512e-05 2.69198e+25 0.0505447 -0.374085 272.09 
2.38917e-07 -1.02734e-05 2.68743e+25 -3.92737 -0.0336582 272.275 
2.15025e-06 -1.02734e-05 2.69154e+25 -3.60551 -0.557271 272.105 
4.06158e-06 -1.02734e-05 2.69071e+25 -3.2326 -0.404757 272.156 
5.97292e-06 -1.02734e-05 2.68886e+25 -2.81129 -0.863067 272.273 
7.88425e-06 -1.02734e-05 2.68942e+25 -1.90859 -1.09107 272.357 
9.79558e-06 -1.02734e-05 2.6906e+25 -1.81448 -1.0073 272.25 
1.17069e-05 -1.02734e-05 2.69053e+25 -1.05975 -1.05828 272.125 
1.36182e-05 -1.02734e-05 2.69189e+25 -0.379436 -0.874077 272.042 
1.55296e-05 -1.02734e-05 2.6915e+25 0.250936 -0.403678 272.082 
2.38917e-07 -9.79558e-06 2.68654e+25 -4.0246 -0.128598 272.263 
2.15025e-06 -9.79558e-06 2.69159e+25 -4.1356 -0.600368 272.193 
4.06158e-06 -9.79558e-06 2.69091e+25 -3.71144 -0.450611 272.268 
5.97292e-06 -9.79558e-06 2.69066e+25 -3.01136 -1.08139 272.251 
7.88425e-06 -9.79558e-06 2.68923e+25 -2.08996 -1.14378 272.321 
9.79558e-06 -9.79558e-06 2.68983e+25 -1.68006 -1.0696 272.302 
1.17069e-05 -9.79558e-06 2.6893e+25 -0.980556 -1.39223 272.198 
1.36182e-05 -9.79558e-06 2.69294e+25 -0.354449 -0.81496 271.995 
1.55296e-05 -9.79558e-06 2.69177e+25 0.172332 -0.458788 272.043 
2.38917e-07 -9.31775e-06 2.68837e+25 -4.36648 -0.253795 272.241 
2.15025e-06 -9.31775e-06 2.69068e+25 -4.43687 -0.547092 272.103 
4.06158e-06 -9.31775e-06 2.69031e+25 -4.00474 -0.615624 272.198 
5.97292e-06 -9.31775e-06 2.69154e+25 -3.07066 -1.24954 272.183 
7.88425e-06 -9.31775e-06 2.69038e+25 -2.50511 -1.29292 272.254 
9.79558e-06 -9.31775e-06 2.6882e+25 -1.63605 -1.15669 272.314 
1.17069e-05 -9.31775e-06 2.69161e+25 -1.14082 -1.65306 272.015 
1.36182e-05 -9.31775e-06 2.69081e+25 -0.363746 -0.917612 272.113 
1.55296e-05 -9.31775e-06 2.69323e+25 -0.0809783 -0.569262 272.013 
2.38917e-07 -8.83992e-06 2.6874e+25 -4.74615 -0.172453 272.17 
2.15025e-06 -8.83992e-06 2.69058e+25 -4.81314 -0.510786 272.134 
4.06158e-06 -8.83992e-06 2.6904e+25 -4.10283 -0.874158 272.12 
5.97292e-06 -8.83992e-06 2.68931e+25 -3.44208 -1.46724 272.229 
7.88425e-06 -8.83992e-06 2.69094e+25 -2.68444 -1.51594 272.13 
9.79558e-06 -8.83992e-06 2.69043e+25 -1.86555 -1.38388 272.301 
1.17069e-05 -8.83992e-06 2.69277e+25 -1.21011 -1.76764 271.966 
1.36182e-05 -8.83992e-06 2.69081e+25 -0.520028 -1.10448 272.115 
1.55296e-05 -8.83992e-06 2.69117e+25 -0.0633749 -0.715236 272.138 
2.38917e-07 -8.36208e-06 2.6879e+25 -5.01773 -0.0871098 272.226 
2.15025e-06 -8.36208e-06 2.69115e+25 -4.9039 -0.627386 272.133 
4.06158e-06 -8.36208e-06 2.69029e+25 -4.42421 -1.04939 272.124 
5.97292e-06 -8.36208e-06 2.68895e+25 -3.69496 -1.8006 272.349 
7.88425e-06 -8.36208e-06 2.68997e+25 -2.86854 -1.67501 272.164 
9.79558e-06 -8.36208e-06 2.68947e+25 -2.07971 -1.62792 272.297 
1.17069e-05 -8.36208e-06 2.69137e+25 -1.08546 -1.95091 272.077 
1.36182e-05 -8.36208e-06 2.69241e+25 -0.644966 -1.27368 272.001 
1.55296e-05 -8.36208e-06 2.69075e+25 -0.0360436 -0.760114 272.209 
2.38917e-07 -7.88425e-06 2.688e+25 -5.24346 -0.0132425 272.067 
2.15025e-06 -7.88425e-06 2.69061e+25 -5.09987 -0.853779 272.18 
4.06158e-06 -7.88425e-06 2.6896e+25 -4.49441 -1.15827 272.213 
5.97292e-06 -7.88425e-06 2.689e+25 -3.93485 -1.95233 272.291 
7.88425e-06 -7.88425e-06 2.69182e+25 -3.09507 -1.85169 272.103 
9.79558e-06 -7.88425e-06 2.69104e+25 -2.22691 -1.84561 272.095 
1.17069e-05 -7.88425e-06 2.69132e+25 -1.26663 -2.05066 272.188 
1.36182e-05 -7.88425e-06 2.69043e+25 -0.764099 -1.53765 272.175 
1.55296e-05 -7.88425e-06 2.69095e+25 -0.0566891 -0.827249 272.23 
2.38917e-07 -7.40642e-06 2.68951e+25 -5.38532 -0.0135967 272.029 
2.15025e-06 -7.40642e-06 2.69031e+25 -5.22307 -1.03509 272.192 
4.06158e-06 -7.40642e-06 2.68797e+25 -4.69672 -1.20632 272.267 
5.97292e-06 -7.40642e-06 2.69184e+25 -4.08647 -2.03106 272.117 
7.88425e-06 -7.40642e-06 2.693e+25 -3.47699 -2.15511 272.057 
9.79558e-06 -7.40642e-06 2.69099e+25 -2.44873 -2.0925 272.096 
1.17069e-05 -7.40642e-06 2.69018e+25 -1.39741 -2.26414 272.154 
1.36182e-05 -7.40642e-06 2.69113e+25 -0.752329 -1.87336 272.162 
1.55296e-05 -7.40642e-06 2.68928e+25 -0.135602 -0.887228 272.324 
2.38917e-07 -6.92858e-06 2.68706e+25 -5.58639 -0.0366318 272.157 
2.15025e-06 -6.92858e-06 2.68853e+25 -5.49831 -1.0169 272.196 
4.06158e-06 -6.92858e-06 2.69018e+25 -5.06839 -1.35139 272.256 
5.97292e-06 -6.92858e-06 2.69228e+25 -4.3837 -2.16488 272.055 
7.88425e-06 -6.92858e-06 2.69247e+25 -3.81615 -2.40862 272.067 
9.79558e-06 -6.92858e-06 2.68993e+25 -2.57828 -2.48779 272.195 
1.17069e-05 -6.92858e-06 2.69248e+25 -1.59469 -2.47493 272.077 
1.36182e-05 -6.92858e-06 2.69149e+25 -0.856835 -2.03486 272.059 
1.55296e-05 -6.92858e-06 2.68849e+25 -0.363057 -0.907147 272.359 
2.38917e-07 -6.45075e-06 2.68808e+25 -5.72218 -0.023683 272.163 
2.15025e-06 -6.45075e-06 2.69048e+25 -5.63182 -1.00808 272.178 
4.06158e-06 -6.45075e-06 2.69247e+25 -5.54166 -1.58698 272.07 
5.97292e-06 -6.45075e-06 2.69318e+25 -4.92168 -2.29235 271.927 
7.88425e-06 -6.45075e-06 2.69099e+25 -4.0305 -2.66858 272.204 
9.79558e-06 -6.45075e-06 2.6914e+25 -2.65308 -2.85361 272.196 
1.17069e-05 -6.45075e-06 2.69144e+25 -1.74743 -2.64554 271.976 
1.36182e-05 -6.45075e-06 2.69121e+25 -0.967008 -2.20849 272.164 
1.55296e-05 -6.45075e-06 2.68804e+25 -0.315299 -1.01533 272.407 
2.38917e-07 -5.97292e-06 2.68693e+25 -5.89627 -0.153946 272.19 
2.15025e-06 -5.97292e-06 2.69093e+25 -5.80898 -1.03704 272.121 
4.06158e-06 -5.97292e-06 2.68902e+25 -5.8079 -1.71637 272.336 
5.97292e-06 -5.97292e-06 2.69291e+25 -5.24647 -2.43719 271.942 
7.88425e-06 -5.97292e-06 2.69025e+25 -4.24337 -2.95092 272.193 
9.79558e-06 -5.97292e-06 2.69336e+25 -2.90997 -3.17184 271.987 
1.17069e-05 -5.97292e-06 2.69176e+25 -1.91077 -2.95089 272.138 
1.36182e-05 -5.97292e-06 2.69077e+25 -1.03325 -2.38645 272.277 
1.55296e-05 -5.97292e-06 2.68896e+25 -0.381678 -1.23153 272.301 
2.38917e-07 -5.49508e-06 2.68646e+25 -6.22429 -0.0619633 272.186 
2.15025e-06 -5.49508e-06 2.69041e+25 -5.85321 -1.09586 272.137 
4.06158e-06 -5.49508e-06 2.68891e+25 -5.88363 -1.68842 272.301 
5.97292e-06 -5.49508e-06 2.69076e+25 -5.40928 -2.56055 272.056 
7.88425e-06 -5.49508e-06 2.68974e+25 -4.49578 -3.27054 272.287 
9.79558e-06 -5.49508e-06 2.69263e+25 -3.16253 -3.4434 272.01 
1.17069e-05 -5.49508e-06 2.69001e+25 -2.07688 -3.13734 272.19 
1.36182e-05 -5.49508e-06 2.68996e+25 -1.15822 -2.48524 272.331 
1.55296e-05 -5.49508e-06 2.6893e+25 -0.432902 -1.55227 272.259 
2.38917e-07 -5.01725e-06 2.68686e+25 -6.45241 -0.0530367 272.229 
2.15025e-06 -5.01725e-06 2.68965e+25 -6.33049 -1.08881 272.2 
4.06158e-06 -5.01725e-06 2.68786e+25 -6.17359 -1.76391 272.295 
5.97292e-06 -5.01725e-06 2.69062e+25 -5.49358 -2.67949 272.126 
7.88425e-06 -5.01725e-06 2.68781e+25 -4.74489 -3.58372 272.372 
9.79558e-06 -5.01725e-06 2.69186e+25 -3.50027 -3.72594 272.058 
1.17069e-05 -5.01725e-06 2.69022e+25 -2.20388 -3.43851 272.258 
1.36182e-05 -5.01725e-06 2.69041e+25 -1.10296 -2.68285 272.227 
1.55296e-05 -5.01725e-06 2.69028e+25 -0.347028 -1.68594 272.185 
2.38917e-07 -4.53942e-06 2.68855e+25 -6.60354 -0.0102872 272.18 
2.15025e-06 -4.53942e-06 2.69032e+25 -6.50326 -1.05116 272.239 
4.06158e-06 -4.53942e-06 2.68983e+25 -6.44243 -1.94421 272.116 
5.97292e-06 -4.53942e-06 2.6908e+25 -5.81974 -3.0075 272.092 
7.88425e-06 -4.53942e-06 2.68973e+25 -4.8383 -3.78524 272.132 
9.79558e-06 -4.53942e-06 2.69274e+25 -3.75181 -4.05603 272.082 
1.17069e-05 -4.53942e-06 2.68862e+25 -2.35492 -3.76545 272.294 
1.36182e-05 -4.53942e-06 2.69027e+25 -1.11559 -2.957 272.209 
1.55296e-05 -4.53942e-06 2.69224e+25 -0.0781495 -1.84351 272.111 
2.38917e-07 -4.06158e-06 2.68797e+25 -6.63059 0.148906 272.069 
2.15025e-06 -4.06158e-06 2.68951e+25 -6.97061 -1.03591 272.236 
4.06158e-06 -4.06158e-06 2.69108e+25 -6.88134 -1.9859 272.084 
5.97292e-06 -4.06158e-06 2.69227e+25 -6.28375 -3.28956 272.072 
7.88425e-06 -4.06158e-06 2.69213e+25 -5.21452 -4.02676 271.971 
9.79558e-06 -4.06158e-06 2.69102e+25 -3.92509 -4.48322 272.251 
1.17069e-05 -4.06158e-06 2.68846e+25 -2.37771 -4.11729 272.324 
1.36182e-05 -4.06158e-06 2.68982e+25 -1.00833 -3.17889 272.248 
1.55296e-05 -4.06158e-06 2.69193e+25 0.00973714 -1.95382 272.013 
2.38917e-07 -3.58375e-06 2.68839e+25 -6.63224 0.296649 272.013 
2.15025e-06 -3.58375e-06 2.68835e+25 -7.27611 -0.956045 272.176 
4.06158e-06 -3.58375e-06 2.69216e+25 -7.07317 -2.16995 272.022 
5.97292e-06 -3.58375e-06 2.69249e+25 -6.60334 -3.5072 271.845 
7.88425e-06 -3.58375e-06 2.69173e+25 -5.60113 -4.31228 272.011 
9.79558e-06 -3.58375e-06 2.69273e+25 -4.1245 -4.99506 272.138 
1.17069e-05 -3.58375e-06 2.68872e+25 -2.34907 -4.43555 272.392 
1.36182e-05 -3.58375e-06 2.6897e+25 -1.0511 -3.5088 272.341 
1.55296e-05 -3.58375e-06 2.69355e+25 -0.211791 -1.98052 271.959 
2.38917e-07 -3.10592e-06 2.68791e+25 -6.89391 0.511442 272.182 
2.15025e-06 -3.10592e-06 2.6892e+25 -7.50806 -0.774155 272.156 
4.06158e-06 -3.10592e-06 2.69013e+25 -7.46741 -2.37387 272.09 
5.97292e-06 -3.10592e-06 2.69162e+25 -6.80387 -3.66604 271.989 
7.88425e-06 -3.10592e-06 2.68944e+25 -6.10598 -4.70342 272.196 
9.79558e-06 -3.10592e-06 2.6912e+25 -4.30945 -5.36691 272.104 
1.17069e-05 -3.10592e-06 2.68624e+25 -2.6035 -4.88374 272.463 
1.36182e-05 -3.10592e-06 2.68872e+25 -0.986467 -3.86618 272.259 
1.55296e-05 -3.10592e-06 2.69266e+25 -0.118879 -2.03056 271.966 
2.38917e-07 -2.62808e-06 2.68872e+25 -7.09081 0.773851 272.096 
2.15025e-06 -2.62808e-06 2.68983e+25 -7.52889 -0.584272 272.14 
4.06158e-06 -2.62808e-06 2.68668e+25 -7.71109 -2.42426 272.404 
5.97292e-06 -2.62808e-06 2.68908e+25 -7.24484 -3.73766 272.215 
7.88425e-06 -2.62808e-06 2.69035e+25 -6.39685 -5.10925 272.194 
9.79558e-06 -2.62808e-06 2.69167e+25 -4.4958 -5.77409 271.989 
1.17069e-05 -2.62808e-06 2.68969e+25 -2.88394 -5.39076 272.224 
1.36182e-05 -2.62808e-06 2.68775e+25 -1.18092 -4.16127 272.357 
1.55296e-05 -2.62808e-06 2.69098e+25 -0.107695 -2.1802 272.127 
2.38917e-07 -2.15025e-06 2.68838e+25 -7.11207 0.979177 272.048 
2.15025e-06 -2.15025e-06 2.69035e+25 -7.71303 -0.462861 271.957 
4.06158e-06 -2.15025e-06 2.6882e+25 -7.74862 -2.37522 272.376 
5.97292e-06 -2.15025e-06 2.68914e+25 -7.48197 -3.84506 272.24 
7.88425e-06 -2.15025e-06 2.68901e+25 -6.57297 -5.54415 272.286 
9.79558e-06 -2.15025e-06 2.69233e+25 -4.8304 -6.30123 272.046 
1.17069e-05 -2.15025e-06 2.68993e+25 -3.11552 -5.75885 272.289 
1.36182e-05 -2.15025e-06 2.68842e+25 -1.35056 -4.49369 272.396 
1.55296e-05 -2.15025e-06 2.68984e+25 -0.132011 -2.30021 272.26 
2.38917e-07 -1.67242e-06 2.68872e+25 -7.25283 1.17795 271.939 
2.15025e-06 -1.67242e-06 2.69116e+25 -7.81209 -0.427638 272.041 
4.06158e-06 -1.67242e-06 2.68885e+25 -7.71236 -2.33489 272.298 
5.97292e-06 -1.67242e-06 2.69125e+25 -7.55422 -3.97947 272.115 
7.88425e-06 -1.67242e-06 2.68951e+25 -6.59017 -5.87488 272.102 
9.79558e-06 -1.67242e-06 2.69208e+25 -5.06495 -6.7133 271.961 
1.17069e-05 -1.67242e-06 2.69074e+25 -3.18292 -6.1914 272.154 
1.36182e-05 -1.67242e-06 2.68905e+25 -1.47151 -4.91432 272.178 
1.55296e-05 -1.67242e-06 2.68919e+25 -0.167433 -2.36039 272.289 
2.38917e-07 -1.19458e-06 2.68862e+25 -7.39891 1.27559 271.94 
2.15025e-06 -1.19458e-06 2.69107e+25 -7.85927 -0.508635 272.013 
4.06158e-06 -1.19458e-06 2.68848e+25 -7.88671 -2.33899 272.26 
5.97292e-06 -1.19458e-06 2.69032e+25 -7.69288 -4.09664 272.083 
7.88425e-06 -1.19458e-06 2.69075e+25 -6.5649 -6.12042 272.18 
9.79558e-06 -1.19458e-06 2.6906e+25 -5.34216 -7.14483 272.138 
1.17069e-05 -1.19458e-06 2.69033e+25 -3.37016 -6.65596 272.202 
1.36182e-05 -1.19458e-06 2.69078e+25 -1.66162 -5.31265 272.105 
1.55296e-05 -1.19458e-06 2.69053e+25 -0.518245 -2.59352 272.127 
2.38917e-07 -7.1675e-07 2.68872e+25 -7.50662 1.34456 271.958 
2.15025e-06 -7.1675e-07 2.69071e+25 -7.75779 -0.595832 271.939 
4.06158e-06 -7.1675e-07 2.68845e+25 -7.9359 -2.33097 272.227 
5.97292e-06 -7.1675e-07 2.69014e+25 -7.86356 -4.22804 272.176 
7.88425e-06 -7.1675e-07 2.6901e+25 -6.70998 -6.28088 272.139 
9.79558e-06 -7.1675e-07 2.69178e+25 -5.50253 -7.57761 272.134 
1.17069e-05 -7.1675e-07 2.69159e+25 -3.68507 -7.08988 272.144 
1.36182e-05 -7.1675e-07 2.69094e+25 -1.85006 -5.65385 272.091 
1.55296e-05 -7.1675e-07 2.69097e+25 -0.759786 -2.90006 272.129 
2.38917e-07 -2.38917e-07 2.68455e+25 -7.43754 1.62426 272.058 
2.15025e-06 -2.38917e-07 2.6892e+25 -7.95044 -0.532653 271.877 
4.06158e-06 -2.38917e-07 2.68621e+25 -7.8788 -2.35811 272.253 
5.97292e-06 -2.38917e-07 2.68592e+25 -7.65754 -4.23019 272.354 
7.88425e-06 -2.38917e-07 2.68808e+25 -7.0384 -6.48494 272.109 
9.79558e-06 -2.38917e-07 2.69112e+25 -5.77422 -7.93837 271.974 
1.17069e-05 -2.38917e-07 2.68638e+25 -4.01694 -7.5224 272.264 
1.36182e-05 -2.38917e-07 2.6882e+25 -2.07426 -6.06065 272.038 
1.55296e-05 -2.38917e-07 2.68883e+25 -0.717909 -3.18208 272.162 
7.1675e-07 -1.69631e-05 2.68707e+25 -0.177992 -0.0299484 272.734 
2.62808e-06 -1.69631e-05 2.68445e+25 -0.24783 -0.0172443 272.927 
4.53942e-06 -1.69631e-05 2.6829e+25 -0.141256 -0.018402 272.912 
6.45075e-06 -1.69631e-05 2.68576e+25 -0.137961 0.0252534 272.81 
8.36208e-06 -1.69631e-05 2.68512e+25 -0.144478 0.0442862 272.792 
1.02734e-05 -1.69631e-05 2.68512e+25 -0.132887 0.0533363 272.876 
1.21847e-05 -1.69631e-05 2.68611e+25 0.0549374 0.0330119 272.764 
1.40961e-05 -1.69631e-05 2.68611e+25 -0.0343739 0.0584525 272.752 
1.60074e-05 -1.69631e-05 2.68436e+25 -0.0489263 0.0178972 272.941 
7.1675e-07 -1.64852e-05 2.6885e+25 -0.479099 -0.0815673 272.495 
2.62808e-06 -1.64852e-05 2.68554e+25 -0.379349 0.069712 272.755 
4.53942e-06 -1.64852e-05 2.68392e+25 -0.265973 -0.102598 272.874 
6.45075e-06 -1.64852e-05 2.686e+25 -0.518432 -0.0777415 272.729 
8.36208e-06 -1.64852e-05 2.68687e+25 -0.187713 0.00421993 272.583 
1.02734e-05 -1.64852e-05 2.68813e+25 -0.218779 0.028481 272.426 
1.21847e-05 -1.64852e-05 2.68595e+25 -0.0496564 0.0124299 272.648 
1.40961e-05 -1.64852e-05 2.68549e+25 -0.208777 0.0855667 272.71 
1.60074e-05 -1.64852e-05 2.68631e+25 -0.0475598 -0.00184135 272.683 
7.1675e-07 -1.60074e-05 2.69124e+25 -0.784771 -0.0969405 272.173 
2.62808e-06 -1.60074e-05 2.6873e+25 -0.690697 0.188914 272.578 
4.53942e-06 -1.60074e-05 2.68656e+25 -0.727996 -0.0712407 272.608 
6.45075e-06 -1.60074e-05 2.68701e+25 -0.705312 -0.123537 272.717 
8.36208e-06 -1.60074e-05 2.6872e+25 -0.494569 -0.058919 272.625 
1.02734e-05 -1.60074e-05 2.68964e+25 -0.344184 -0.0467446 272.199 
1.21847e-05 -1.60074e-05 2.68853e+25 -0.28087 -0.0695634 272.437 
1.40961e-05 -1.60074e-05 2.68837e+25 -0.208228 0.048515 272.39 
1.60074e-05 -1.60074e-05 2.68928e+25 0.0221101 0.0052382 272.378 
7.1675e-07 -1.55296e-05 2.69078e+25 -0.990237 -0.0597235 272.139 
2.62808e-06 -1.55296e-05 2.68981e+25 -0.922553 0.0882947 272.286 
4.53942e-06 -1.55296e-05 2.6891e+25 -0.869049 -0.0524981 272.346 
6.45075e-06 -1.55296e-05 2.68942e+25 -0.713714 -0.153408 272.492 
8.36208e-06 -1.55296e-05 2.68472e+25 -0.799744 -0.185989 272.803 
1.02734e-05 -1.55296e-05 2.68901e+25 -0.340099 -0.0255827 272.409 
1.21847e-05 -1.55296e-05 2.69112e+25 -0.424064 -0.173072 272.169 
1.40961e-05 -1.55296e-05 2.68996e+25 -0.369526 -0.0243444 272.383 
1.60074e-05 -1.55296e-05 2.68939e+25 -0.0219474 -0.0938016 272.293 
7.1675e-07 -1.50517e-05 2.69204e+25 -1.33653 -0.00370512 272.154 
2.62808e-06 -1.50517e-05 2.69204e+25 -1.09324 -0.100758 272.091 
4.53942e-06 -1.50517e-05 2.69033e+25 -0.899449 -0.0100224 272.162 
6.45075e-06 -1.50517e-05 2.68881e+25 -0.791149 -0.15662 272.457 
8.36208e-06 -1.50517e-05 2.68597e+25 -0.782375 -0.140943 272.634 
1.02734e-05 -1.50517e-05 2.68578e+25 -0.440768 -0.0158355 272.674 
1.21847e-05 -1.50517e-05 2.69048e+25 -0.412786 -0.145771 272.206 
1.40961e-05 -1.50517e-05 2.68905e+25 -0.29778 -0.0232205 272.28 
1.60074e-05 -1.50517e-05 2.68988e+25 -0.0427091 -0.210328 272.267 
7.1675e-07 -1.45739e-05 2.69303e+25 -1.32563 0.0352656 272.011 
2.62808e-06 -1.45739e-05 2.69112e+25 -1.29989 -0.210841 272.08 
4.53942e-06 -1.45739e-05 2.69199e+25 -1.26468 -0.0461817 272.156 
6.45075e-06 -1.45739e-05 2.68866e+25 -1.04397 -0.0751857 272.411 
8.36208e-06 -1.45739e-05 2.68753e+25 -0.82279 -0.15133 272.557 
1.02734e-05 -1.45739e-05 2.68582e+25 -0.673898 -0.089436 272.631 
1.21847e-05 -1.45739e-05 2.69082e+25 -0.262362 -0.072394 272.198 
1.40961e-05 -1.45739e-05 2.68907e+25 -0.100582 -0.0364038 272.367 
1.60074e-05 -1.45739e-05 2.68942e+25 -0.0766476 -0.280211 272.402 
7.1675e-07 -1.40961e-05 2.69234e+25 -1.4841 0.0672872 271.987 
2.62808e-06 -1.40961e-05 2.69274e+25 -1.39455 -0.247418 271.962 
4.53942e-06 -1.40961e-05 2.69198e+25 -1.33631 -0.0941296 272.031 
6.45075e-06 -1.40961e-05 2.68719e+25 -1.47546 -0.153089 272.502 
8.36208e-06 -1.40961e-05 2.68721e+25 -1.06831 -0.233965 272.555 
1.02734e-05 -1.40961e-05 2.68571e+25 -0.869035 -0.293347 272.61 
1.21847e-05 -1.40961e-05 2.69161e+25 -0.36688 -0.214415 272.154 
1.40961e-05 -1.40961e-05 2.68853e+25 -0.0172255 -0.078134 272.462 
1.60074e-05 -1.40961e-05 2.68866e+25 -0.00290758 -0.292501 272.437 
7.1675e-07 -1.36182e-05 2.69274e+25 -1.72967 0.0792583 271.931 
2.62808e-06 -1.36182e-05 2.69541e+25 -1.73514 -0.176554 271.794 
4.53942e-06 -1.36182e-05 2.69189e+25 -1.49625 -0.0934091 272.128 
6.45075e-06 -1.36182e-05 2.68878e+25 -1.62586 -0.180397 272.366 
8.36208e-06 -1.36182e-05 2.68771e+25 -1.27007 -0.356557 272.462 
1.02734e-05 -1.36182e-05 2.68714e+25 -0.84134 -0.600592 272.591 
1.21847e-05 -1.36182e-05 2.69062e+25 -0.57456 -0.268198 272.278 
1.40961e-05 -1.36182e-05 2.68617e+25 0.169444 -0.247845 272.529 
1.60074e-05 -1.36182e-05 2.6881e+25 0.039108 -0.252887 272.457 
7.1675e-07 -1.31404e-05 2.69087e+25 -1.8285 0.104949 272.035 
2.62808e-06 -1.31404e-05 2.69252e+25 -1.83961 -0.18078 271.984 
4.53942e-06 -1.31404e-05 2.69163e+25 -1.89437 -0.135818 272.218 
6.45075e-06 -1.31404e-05 2.68769e+25 -1.73701 -0.137357 272.407 
8.36208e-06 -1.31404e-05 2.68915e+25 -1.42325 -0.603804 272.394 
1.02734e-05 -1.31404e-05 2.68647e+25 -0.705232 -0.714034 272.653 
1.21847e-05 -1.31404e-05 2.6904e+25 -0.674123 -0.319674 272.223 
1.40961e-05 -1.31404e-05 2.68713e+25 -0.10782 -0.375957 272.462 
1.60074e-05 -1.31404e-05 2.68811e+25 -0.0364022 -0.163864 272.365 
7.1675e-07 -1.26626e-05 2.69113e+25 -2.12531 0.1126 272.115 
2.62808e-06 -1.26626e-05 2.6915e+25 -1.87973 -0.235652 272.077 
4.53942e-06 -1.26626e-05 2.6912e+25 -2.01247 -0.115424 272.221 
6.45075e-06 -1.26626e-05 2.6879e+25 -1.78343 -0.0252466 272.395 
8.36208e-06 -1.26626e-05 2.68967e+25 -1.41363 -0.851585 272.404 
1.02734e-05 -1.26626e-05 2.6869e+25 -0.669534 -0.726152 272.619 
1.21847e-05 -1.26626e-05 2.69062e+25 -0.595776 -0.390511 272.215 
1.40961e-05 -1.26626e-05 2.68714e+25 -0.247045 -0.398814 272.526 
1.60074e-05 -1.26626e-05 2.689e+25 -0.167417 -0.175465 272.335 
7.1675e-07 -1.21847e-05 2.68953e+25 -2.43274 0.0540689 272.134 
2.62808e-06 -1.21847e-05 2.68975e+25 -2.24875 -0.197984 272.176 
4.53942e-06 -1.21847e-05 2.68946e+25 -2.14364 -0.216161 272.186 
6.45075e-06 -1.21847e-05 2.68805e+25 -1.75659 -0.0701171 272.42 
8.36208e-06 -1.21847e-05 2.688e+25 -1.36228 -1.02059 272.461 
1.02734e-05 -1.21847e-05 2.68802e+25 -0.844807 -0.806038 272.618 
1.21847e-05 -1.21847e-05 2.69129e+25 -0.491142 -0.503203 272.217 
1.40961e-05 -1.21847e-05 2.6884e+25 -0.217294 -0.200587 272.459 
1.60074e-05 -1.21847e-05 2.69088e+25 -0.161857 -0.280263 272.205 
7.1675e-07 -1.17069e-05 2.69163e+25 -2.68814 0.0213213 271.995 
2.62808e-06 -1.17069e-05 2.69281e+25 -2.61626 -0.287086 271.983 
4.53942e-06 -1.17069e-05 2.69028e+25 -2.32978 -0.296721 272.217 
6.45075e-06 -1.17069e-05 2.68703e+25 -1.81429 -0.163643 272.395 
8.36208e-06 -1.17069e-05 2.68942e+25 -1.34915 -1.07924 272.361 
1.02734e-05 -1.17069e-05 2.68795e+25 -1.16189 -0.855076 272.372 
1.21847e-05 -1.17069e-05 2.69017e+25 -0.687608 -0.567611 272.183 
1.40961e-05 -1.17069e-05 2.68913e+25 -0.341516 -0.204132 272.278 
1.60074e-05 -1.17069e-05 2.69212e+25 -0.198882 -0.411702 272.247 
7.1675e-07 -1.12291e-05 2.69052e+25 -3.06719 -0.0457282 272.155 
2.62808e-06 -1.12291e-05 2.6899e+25 -2.99238 -0.414542 272.146 
4.53942e-06 -1.12291e-05 2.68966e+25 -2.62408 -0.454964 272.154 
6.45075e-06 -1.12291e-05 2.68777e+25 -1.88806 -0.335143 272.414 
8.36208e-06 -1.12291e-05 2.68924e+25 -1.43905 -1.08739 272.358 
1.02734e-05 -1.12291e-05 2.68969e+25 -1.39238 -0.978688 272.284 
1.21847e-05 -1.12291e-05 2.68931e+25 -0.775346 -0.751047 272.192 
1.40961e-05 -1.12291e-05 2.68878e+25 -0.282198 -0.281624 272.327 
1.60074e-05 -1.12291e-05 2.68904e+25 -0.107337 -0.525949 272.294 
7.1675e-07 -1.07512e-05 2.69098e+25 -3.60258 -0.0719544 272.17 
2.62808e-06 -1.07512e-05 2.69025e+25 -3.1476 -0.478812 272.131 
4.53942e-06 -1.07512e-05 2.69007e+25 -2.92408 -0.411055 272.174 
6.45075e-06 -1.07512e-05 2.68901e+25 -2.3051 -0.620358 272.292 
8.36208e-06 -1.07512e-05 2.68938e+25 -1.76388 -1.15554 272.34 
1.02734e-05 -1.07512e-05 2.69019e+25 -1.71575 -1.04367 272.178 
1.21847e-05 -1.07512e-05 2.69074e+25 -0.654485 -0.924681 272.206 
1.40961e-05 -1.07512e-05 2.68952e+25 -0.103922 -0.432684 272.232 
1.60074e-05 -1.07512e-05 2.68989e+25 0.0108546 -0.512325 272.313 
7.1675e-07 -1.02734e-05 2.69084e+25 -3.82645 -0.147309 272.067 
2.62808e-06 -1.02734e-05 2.69085e+25 -3.48893 -0.638523 272.163 
4.53942e-06 -1.02734e-05 2.68864e+25 -3.21661 -0.445918 272.284 
6.45075e-06 -1.02734e-05 2.6909e+25 -2.52936 -0.909142 272.279 
8.36208e-06 -1.02734e-05 2.68914e+25 -1.86902 -1.13753 272.365 
1.02734e-05 -1.02734e-05 2.69077e+25 -1.7552 -1.1983 272.22 
1.21847e-05 -1.02734e-05 2.69172e+25 -0.64734 -1.19808 272.212 
1.40961e-05 -1.02734e-05 2.69289e+25 -0.351902 -0.603713 271.99 
1.60074e-05 -1.02734e-05 2.68915e+25 0.232081 -0.392329 272.299 
7.1675e-07 -9.79558e-06 2.69078e+25 -3.90134 -0.216124 272.179 
2.62808e-06 -9.79558e-06 2.69059e+25 -4.11255 -0.713243 272.122 
4.53942e-06 -9.79558e-06 2.69089e+25 -3.55872 -0.508476 272.288 
6.45075e-06 -9.79558e-06 2.69346e+25 -2.85213 -1.21107 272.046 
8.36208e-06 -9.79558e-06 2.69e+25 -1.99785 -1.27015 272.264 
1.02734e-05 -9.79558e-06 2.69068e+25 -1.56688 -1.30905 272.18 
1.21847e-05 -9.79558e-06 2.69013e+25 -0.735381 -1.53832 272.222 
1.40961e-05 -9.79558e-06 2.69276e+25 -0.334328 -0.666887 271.975 
1.60074e-05 -9.79558e-06 2.69018e+25 0.215729 -0.353911 272.276 
7.1675e-07 -9.31775e-06 2.68845e+25 -4.3266 -0.243254 272.19 
2.62808e-06 -9.31775e-06 2.691e+25 -4.49736 -0.762881 272.199 
4.53942e-06 -9.31775e-06 2.69198e+25 -3.78144 -0.745081 272.105 
6.45075e-06 -9.31775e-06 2.69288e+25 -2.93146 -1.33733 272.108 
8.36208e-06 -9.31775e-06 2.69006e+25 -2.32668 -1.4159 272.221 
1.02734e-05 -9.31775e-06 2.68953e+25 -1.47725 -1.48006 272.302 
1.21847e-05 -9.31775e-06 2.68968e+25 -0.972289 -1.69072 272.22 
1.40961e-05 -9.31775e-06 2.69134e+25 -0.203648 -0.778798 271.912 
1.60074e-05 -9.31775e-06 2.6906e+25 0.0334319 -0.353157 272.225 
7.1675e-07 -8.83992e-06 2.69053e+25 -4.75852 -0.323552 272.155 
2.62808e-06 -8.83992e-06 2.69061e+25 -4.75534 -0.800734 272.114 
4.53942e-06 -8.83992e-06 2.69312e+25 -3.87157 -0.966774 272.089 
6.45075e-06 -8.83992e-06 2.68896e+25 -3.13258 -1.4909 272.292 
8.36208e-06 -8.83992e-06 2.69293e+25 -2.51204 -1.59157 272.078 
1.02734e-05 -8.83992e-06 2.6902e+25 -1.64038 -1.64311 272.36 
1.21847e-05 -8.83992e-06 2.69097e+25 -1.05106 -1.85289 271.97 
1.40961e-05 -8.83992e-06 2.69046e+25 -0.410585 -0.839772 272.061 
1.60074e-05 -8.83992e-06 2.69063e+25 0.0583506 -0.424232 272.176 
7.1675e-07 -8.36208e-06 2.69082e+25 -5.08244 -0.27255 272.132 
2.62808e-06 -8.36208e-06 2.68996e+25 -4.72319 -0.933513 272.244 
4.53942e-06 -8.36208e-06 2.69063e+25 -4.31194 -1.15775 272.132 
6.45075e-06 -8.36208e-06 2.68926e+25 -3.39791 -1.75537 272.32 
8.36208e-06 -8.36208e-06 2.69072e+25 -2.73158 -1.69112 272.167 
1.02734e-05 -8.36208e-06 2.6911e+25 -1.84587 -1.90404 272.286 
1.21847e-05 -8.36208e-06 2.68912e+25 -0.974468 -1.98071 272.24 
1.40961e-05 -8.36208e-06 2.69109e+25 -0.395944 -1.06098 272.179 
1.60074e-05 -8.36208e-06 2.69131e+25 -0.0249672 -0.496683 272.231 
7.1675e-07 -7.88425e-06 2.69063e+25 -5.3251 -0.169516 272.094 
2.62808e-06 -7.88425e-06 2.69035e+25 -4.85047 -1.07713 272.139 
4.53942e-06 -7.88425e-06 2.69141e+25 -4.40741 -1.24685 272.129 
6.45075e-06 -7.88425e-06 2.69152e+25 -3.75456 -2.0327 272.123 
8.36208e-06 -7.88425e-06 2.69201e+25 -2.89319 -1.81567 272.144 
1.02734e-05 -7.88425e-06 2.68988e+25 -1.9802 -2.15302 272.276 
1.21847e-05 -7.88425e-06 2.69135e+25 -1.17736 -2.04472 272.15 
1.40961e-05 -7.88425e-06 2.69024e+25 -0.420492 -1.34443 272.326 
1.60074e-05 -7.88425e-06 2.68753e+25 -0.0273545 -0.441111 272.354 
7.1675e-07 -7.40642e-06 2.69078e+25 -5.35567 -0.205943 272.128 
2.62808e-06 -7.40642e-06 2.69039e+25 -5.11803 -1.31555 272.243 
4.53942e-06 -7.40642e-06 2.68983e+25 -4.61318 -1.38118 272.174 
6.45075e-06 -7.40642e-06 2.69286e+25 -4.13857 -2.11115 272.083 
8.36208e-06 -7.40642e-06 2.69122e+25 -3.17879 -2.06386 272.138 
1.02734e-05 -7.40642e-06 2.69124e+25 -2.19866 -2.42049 272.138 
1.21847e-05 -7.40642e-06 2.6913e+25 -1.17598 -2.17268 272.064 
1.40961e-05 -7.40642e-06 2.68963e+25 -0.551644 -1.54095 272.285 
1.60074e-05 -7.40642e-06 2.68861e+25 -0.0997383 -0.472934 272.368 
7.1675e-07 -6.92858e-06 2.68957e+25 -5.60845 -0.213169 272.14 
2.62808e-06 -6.92858e-06 2.68921e+25 -5.50364 -1.41779 272.202 
4.53942e-06 -6.92858e-06 2.69097e+25 -4.84242 -1.56273 272.143 
6.45075e-06 -6.92858e-06 2.69118e+25 -4.20102 -2.15023 272.112 
8.36208e-06 -6.92858e-06 2.69035e+25 -3.53941 -2.34102 272.088 
1.02734e-05 -6.92858e-06 2.69059e+25 -2.27496 -2.63701 272.254 
1.21847e-05 -6.92858e-06 2.69302e+25 -1.34075 -2.47138 271.965 
1.40961e-05 -6.92858e-06 2.69011e+25 -0.715024 -1.76 272.269 
1.60074e-05 -6.92858e-06 2.68879e+25 -0.224679 -0.5994 272.344 
7.1675e-07 -6.45075e-06 2.69119e+25 -5.66789 -0.191384 272.022 
2.62808e-06 -6.45075e-06 2.69192e+25 -5.60874 -1.39365 272.01 
4.53942e-06 -6.45075e-06 2.69113e+25 -5.33784 -1.71598 272.122 
6.45075e-06 -6.45075e-06 2.6908e+25 -4.80478 -2.33867 272.044 
8.36208e-06 -6.45075e-06 2.69045e+25 -3.77728 -2.68907 272.115 
1.02734e-05 -6.45075e-06 2.69151e+25 -2.31769 -2.88185 272.143 
1.21847e-05 -6.45075e-06 2.69149e+25 -1.57296 -2.74682 272.026 
1.40961e-05 -6.45075e-06 2.69062e+25 -0.759276 -1.9144 272.195 
1.60074e-05 -6.45075e-06 2.68514e+25 -0.206282 -0.775356 272.683 
7.1675e-07 -5.97292e-06 2.68938e+25 -5.85631 -0.111148 272.256 
2.62808e-06 -5.97292e-06 2.69351e+25 -5.77237 -1.37044 271.934 
4.53942e-06 -5.97292e-06 2.689e+25 -5.72738 -1.85141 272.284 
6.45075e-06 -5.97292e-06 2.69195e+25 -5.14473 -2.45652 271.979 
8.36208e-06 -5.97292e-06 2.68846e+25 -4.01619 -2.97579 272.234 
1.02734e-05 -5.97292e-06 2.69097e+25 -2.68057 -3.13611 272.157 
1.21847e-05 -5.97292e-06 2.69064e+25 -1.68612 -2.81842 272.315 
1.40961e-05 -5.97292e-06 2.69034e+25 -0.888474 -2.11532 272.233 
1.60074e-05 -5.97292e-06 2.68588e+25 -0.0899268 -0.922023 272.599 
7.1675e-07 -5.49508e-06 2.68886e+25 -6.16358 -0.200119 272.345 
2.62808e-06 -5.49508e-06 2.69139e+25 -5.91511 -1.2926 272.106 
4.53942e-06 -5.49508e-06 2.68819e+25 -5.87675 -1.98204 272.361 
6.45075e-06 -5.49508e-06 2.69136e+25 -5.23752 -2.60805 272.059 
8.36208e-06 -5.49508e-06 2.69084e+25 -4.19391 -3.19838 272.177 
1.02734e-05 -5.49508e-06 2.69081e+25 -2.90863 -3.41077 272.091 
1.21847e-05 -5.49508e-06 2.68851e+25 -1.89318 -3.05969 272.347 
1.40961e-05 -5.49508e-06 2.68989e+25 -1.05085 -2.27613 272.234 
1.60074e-05 -5.49508e-06 2.68868e+25 -0.225194 -1.09919 272.376 
7.1675e-07 -5.01725e-06 2.68859e+25 -6.47338 -0.274737 272.365 
2.62808e-06 -5.01725e-06 2.69059e+25 -6.33962 -1.2931 272.094 
4.53942e-06 -5.01725e-06 2.6877e+25 -5.96972 -2.14145 272.369 
6.45075e-06 -5.01725e-06 2.69019e+25 -5.27833 -2.85634 272.154 
8.36208e-06 -5.01725e-06 2.69106e+25 -4.37216 -3.59662 272.191 
1.02734e-05 -5.01725e-06 2.69112e+25 -3.13113 -3.69763 272.06 
1.21847e-05 -5.01725e-06 2.6902e+25 -1.8797 -3.25684 272.321 
1.40961e-05 -5.01725e-06 2.68898e+25 -0.860006 -2.42311 272.28 
1.60074e-05 -5.01725e-06 2.68903e+25 -0.202004 -1.33611 272.259 
7.1675e-07 -4.53942e-06 2.68966e+25 -6.63531 -0.242776 272.306 
2.62808e-06 -4.53942e-06 2.69103e+25 -6.45725 -1.31058 272.023 
4.53942e-06 -4.53942e-06 2.68828e+25 -6.29384 -2.32215 272.385 
6.45075e-06 -4.53942e-06 2.68864e+25 -5.50978 -3.10236 272.316 
8.36208e-06 -4.53942e-06 2.69242e+25 -4.58526 -3.88172 272.22 
1.02734e-05 -4.53942e-06 2.68958e+25 -3.36636 -4.10624 272.18 
1.21847e-05 -4.53942e-06 2.68967e+25 -2.02841 -3.61778 272.241 
1.40961e-05 -4.53942e-06 2.69027e+25 -0.842866 -2.7028 272.266 
1.60074e-05 -4.53942e-06 2.68871e+25 0.0306409 -1.43726 272.233 
7.1675e-07 -4.06158e-06 2.68737e+25 -6.75396 -0.249868 272.376 
2.62808e-06 -4.06158e-06 2.69148e+25 -6.98756 -1.35471 272.037 
4.53942e-06 -4.06158e-06 2.68864e+25 -6.84164 -2.45561 272.334 
6.45075e-06 -4.06158e-06 2.69151e+25 -6.00844 -3.39731 272.121 
8.36208e-06 -4.06158e-06 2.691e+25 -4.96448 -4.20019 272.117 
1.02734e-05 -4.06158e-06 2.68929e+25 -3.43483 -4.48856 272.312 
1.21847e-05 -4.06158e-06 2.68708e+25 -2.03445 -3.89264 272.467 
1.40961e-05 -4.06158e-06 2.6906e+25 -0.704878 -3.03917 272.171 
1.60074e-05 -4.06158e-06 2.69067e+25 -0.0659594 -1.39923 272.123 
7.1675e-07 -3.58375e-06 2.6886e+25 -6.82058 -0.129062 272.206 
2.62808e-06 -3.58375e-06 2.68945e+25 -7.44307 -1.27201 272.14 
4.53942e-06 -3.58375e-06 2.68986e+25 -6.90953 -2.47296 272.122 
6.45075e-06 -3.58375e-06 2.69261e+25 -6.30313 -3.72578 271.978 
8.36208e-06 -3.58375e-06 2.69128e+25 -5.26933 -4.45396 271.986 
1.02734e-05 -3.58375e-06 2.69071e+25 -3.64661 -4.99495 272.236 
1.21847e-05 -3.58375e-06 2.68679e+25 -1.99243 -4.23639 272.618 
1.40961e-05 -3.58375e-06 2.68862e+25 -0.753776 -3.31326 272.323 
1.60074e-05 -3.58375e-06 2.69187e+25 -0.154119 -1.39104 272.044 
7.1675e-07 -3.10592e-06 2.68848e+25 -7.08153 0.0856894 272.225 
2.62808e-06 -3.10592e-06 2.68836e+25 -7.62423 -1.20187 272.256 
4.53942e-06 -3.10592e-06 2.68818e+25 -7.34368 -2.57482 272.219 
6.45075e-06 -3.10592e-06 2.6907e+25 -6.79798 -3.8847 272.165 
8.36208e-06 -3.10592e-06 2.69043e+25 -5.65281 -4.85965 272.093 
1.02734e-05 -3.10592e-06 2.6919e+25 -3.88812 -5.45602 272.113 
1.21847e-05 -3.10592e-06 2.68729e+25 -2.16984 -4.57163 272.409 
1.40961e-05 -3.10592e-06 2.68867e+25 -0.659109 -3.6006 272.362 
1.60074e-05 -3.10592e-06 2.69125e+25 -0.127234 -1.40555 272.032 
7.1675e-07 -2.62808e-06 2.69001e+25 -7.23892 0.213466 272.156 
2.62808e-06 -2.62808e-06 2.68971e+25 -7.67548 -1.08573 272.235 
4.53942e-06 -2.62808e-06 2.68814e+25 -7.64553 -2.69743 272.354 
6.45075e-06 -2.62808e-06 2.69072e+25 -7.20675 -3.917 272.179 
8.36208e-06 -2.62808e-06 2.69159e+25 -5.90908 -5.38762 272.169 
1.02734e-05 -2.62808e-06 2.69084e+25 -4.10194 -5.8338 272.072 
1.21847e-05 -2.62808e-06 2.68796e+25 -2.38085 -5.03139 272.353 
1.40961e-05 -2.62808e-06 2.68747e+25 -0.981259 -3.81466 272.335 
1.60074e-05 -2.62808e-06 2.69343e+25 -0.0177013 -1.38066 272.04 
7.1675e-07 -2.15025e-06 2.69101e+25 -7.28064 0.349717 272.007 
2.62808e-06 -2.15025e-06 2.69189e+25 -7.76948 -1.09705 272.099 
4.53942e-06 -2.15025e-06 2.68875e+25 -7.78141 -2.8215 272.297 
6.45075e-06 -2.15025e-06 2.69179e+25 -7.25235 -4.0545 272.11 
8.36208e-06 -2.15025e-06 2.69207e+25 -6.19141 -5.80885 272.08 
1.02734e-05 -2.15025e-06 2.69134e+25 -4.36685 -6.20488 272.096 
1.21847e-05 -2.15025e-06 2.68993e+25 -2.59644 -5.60574 272.27 
1.40961e-05 -2.15025e-06 2.68885e+25 -0.946702 -4.07979 272.332 
1.60074e-05 -2.15025e-06 2.68915e+25 -0.12615 -1.40319 272.221 
7.1675e-07 -1.67242e-06 2.69078e+25 -7.44109 0.514739 272.052 
2.62808e-06 -1.67242e-06 2.68777e+25 -7.82132 -1.03453 272.23 
4.53942e-06 -1.67242e-06 2.69023e+25 -7.72692 -2.81123 272.1 
6.45075e-06 -1.67242e-06 2.6902e+25 -7.46451 -4.29072 272.161 
8.36208e-06 -1.67242e-06 2.69154e+25 -6.29445 -6.18514 272.157 
1.02734e-05 -1.67242e-06 2.6938e+25 -4.7159 -6.57977 272.027 
1.21847e-05 -1.67242e-06 2.68999e+25 -2.76664 -6.11095 272.169 
1.40961e-05 -1.67242e-06 2.69099e+25 -1.03397 -4.44852 272.111 
1.60074e-05 -1.67242e-06 2.69094e+25 -0.0347468 -1.46975 272.271 
7.1675e-07 -1.19458e-06 2.6895e+25 -7.50526 0.725099 272.081 
2.62808e-06 -1.19458e-06 2.69118e+25 -7.77206 -1.05061 272.048 
4.53942e-06 -1.19458e-06 2.69111e+25 -7.87893 -2.82575 272.013 
6.45075e-06 -1.19458e-06 2.68837e+25 -7.48478 -4.53141 272.277 
8.36208e-06 -1.19458e-06 2.69109e+25 -6.35575 -6.50635 272.119 
1.02734e-05 -1.19458e-06 2.68982e+25 -4.89437 -6.97033 272.103 
1.21847e-05 -1.19458e-06 2.68933e+25 -2.94272 -6.45764 272.279 
1.40961e-05 -1.19458e-06 2.69132e+25 -1.24686 -4.83876 272.002 
1.60074e-05 -1.19458e-06 2.69041e+25 -0.253272 -1.58556 272.199 
7.1675e-07 -7.1675e-07 2.69299e+25 -7.67758 0.949471 271.853 
2.62808e-06 -7.1675e-07 2.68967e+25 -7.78959 -1.01455 272.147 
4.53942e-06 -7.1675e-07 2.68852e+25 -7.91354 -2.89528 272.193 
6.45075e-06 -7.1675e-07 2.69041e+25 -7.71457 -4.70463 272.152 
8.36208e-06 -7.1675e-07 2.69087e+25 -6.5634 -6.72167 272.063 
1.02734e-05 -7.1675e-07 2.69173e+25 -5.03997 -7.50647 272.016 
1.21847e-05 -7.1675e-07 2.68991e+25 -3.27489 -6.91177 272.37 
1.40961e-05 -7.1675e-07 2.69192e+25 -1.53913 -5.19837 272.032 
1.60074e-05 -7.1675e-07 2.68908e+25 -0.388277 -1.93156 272.199 
7.1675e-07 -2.38917e-07 2.68951e+25 -7.61427 1.05687 271.814 
2.62808e-06 -2.38917e-07 2.68665e+25 -8.04236 -0.905922 272.05 
4.53942e-06 -2.38917e-07 2.68493e+25 -7.77898 -2.93822 272.267 
6.45075e-06 -2.38917e-07 2.68775e+25 -7.5084 -4.95152 272.273 
8.36208e-06 -2.38917e-07 2.68968e+25 -6.72257 -6.92743 272.087 
1.02734e-05 -2.38917e-07 2.69135e+25 -5.32077 -7.9666 271.955 
1.21847e-05 -2.38917e-07 2.68664e+25 -3.52172 -7.38354 272.234 
1.40961e-05 -2.38917e-07 2.68822e+25 -1.70848 -5.50751 272.136 
1.60074e-05 -2.38917e-07 2.68903e+25 -0.450857 -2.24917 272.209 
1.67242e-06 -1.69631e-05 2.68456e+25 -0.188512 0.0485878 272.884 
3.58375e-06 -1.69631e-05 2.68462e+25 -0.14634 0.00697863 272.791 
5.49508e-06 -1.69631e-05 2.68553e+25 -0.212853 0.007266 272.924 
7.40642e-06 -1.69631e-05 2.68451e+25 -0.1885 0.0426266 272.804 
9.31775e-06 -1.69631e-05 2.68469e+25 -0.12022 0.0126758 272.785 
1.12291e-05 -1.69631e-05 2.68461e+25 0.0319575 -0.0382015 272.787 
1.31404e-05 -1.69631e-05 2.68514e+25 6.83875e-05 -0.00853533 272.829 
1.50518e-05 -1.69631e-05 2.68519e+25 -0.0328735 -0.0419065 272.814 
1.69631e-05 -1.69631e-05 2.68379e+25 0.0141389 -0.0128372 272.927 
1.67242e-06 -1.64852e-05 2.68591e+25 -0.393964 0.0465871 272.708 
3.58375e-06 -1.64852e-05 2.68476e+25 -0.490963 -0.0556565 272.748 
5.49508e-06 -1.64852e-05 2.68416e+25 -0.446499 0.103067 272.863 
7.40642e-06 -1.64852e-05 2.68708e+25 -0.386881 -0.053661 272.634 
9.31775e-06 -1.64852e-05 2.68824e+25 -0.151256 -0.000167706 272.462 
1.12291e-05 -1.64852e-05 2.6867e+25 -0.0926606 -0.0885276 272.473 
1.31404e-05 -1.64852e-05 2.68658e+25 -0.0568143 0.00134305 272.606 
1.50518e-05 -1.64852e-05 2.68588e+25 -0.198291 -0.0906898 272.617 
1.69631e-05 -1.64852e-05 2.68163e+25 -0.056655 -0.0173994 272.96 
1.67242e-06 -1.60074e-05 2.69038e+25 -0.686263 -0.0139338 272.277 
3.58375e-06 -1.60074e-05 2.68722e+25 -0.719236 -0.0911034 272.615 
5.49508e-06 -1.60074e-05 2.68599e+25 -0.71646 0.230672 272.669 
7.40642e-06 -1.60074e-05 2.68444e+25 -0.539187 -0.110906 272.731 
9.31775e-06 -1.60074e-05 2.68904e+25 -0.240791 -0.0378022 272.429 
1.12291e-05 -1.60074e-05 2.68938e+25 -0.387631 -0.13682 272.239 
1.31404e-05 -1.60074e-05 2.68829e+25 -0.244234 0.0873607 272.529 
1.50518e-05 -1.60074e-05 2.68837e+25 -0.0904118 -0.0967602 272.355 
1.69631e-05 -1.60074e-05 2.68472e+25 -0.0270917 -0.0720408 272.902 
1.67242e-06 -1.55296e-05 2.69112e+25 -1.02019 -0.0560369 272.172 
3.58375e-06 -1.55296e-05 2.68741e+25 -0.904287 -0.089896 272.56 
5.49508e-06 -1.55296e-05 2.6873e+25 -0.715262 0.144408 272.525 
7.40642e-06 -1.55296e-05 2.68365e+25 -0.720543 -0.116987 272.717 
9.31775e-06 -1.55296e-05 2.68972e+25 -0.590806 -0.119269 272.472 
1.12291e-05 -1.55296e-05 2.69229e+25 -0.509762 -0.0596989 272.172 
1.31404e-05 -1.55296e-05 2.69043e+25 -0.397399 0.132361 272.316 
1.50518e-05 -1.55296e-05 2.69022e+25 -0.233664 -0.156814 272.262 
1.69631e-05 -1.55296e-05 2.68539e+25 0.046644 -0.0652285 272.892 
1.67242e-06 -1.50517e-05 2.69074e+25 -1.36607 -0.0882815 272.103 
3.58375e-06 -1.50517e-05 2.68836e+25 -0.822532 -0.0717192 272.433 
5.49508e-06 -1.50517e-05 2.68942e+25 -0.883293 0.0721704 272.383 
7.40642e-06 -1.50517e-05 2.68705e+25 -0.83305 -0.0591939 272.582 
9.31775e-06 -1.50517e-05 2.68714e+25 -0.705254 -0.230646 272.543 
1.12291e-05 -1.50517e-05 2.68968e+25 -0.457798 -0.0273874 272.337 
1.31404e-05 -1.50517e-05 2.69027e+25 -0.325294 0.0630534 272.347 
1.50518e-05 -1.50517e-05 2.68728e+25 -0.236244 -0.24987 272.383 
1.69631e-05 -1.50517e-05 2.6835e+25 0.0268145 0.0134283 272.956 
1.67242e-06 -1.45739e-05 2.69544e+25 -1.37914 -0.111663 271.769 
3.58375e-06 -1.45739e-05 2.68893e+25 -1.20822 -0.103335 272.308 
5.49508e-06 -1.45739e-05 2.6908e+25 -1.04403 0.0596098 272.147 
7.40642e-06 -1.45739e-05 2.68755e+25 -1.06864 -0.140837 272.507 
9.31775e-06 -1.45739e-05 2.68666e+25 -0.922597 -0.386707 272.544 
1.12291e-05 -1.45739e-05 2.68925e+25 -0.320183 -0.160416 272.461 
1.31404e-05 -1.45739e-05 2.69211e+25 -0.131078 -0.0340067 272.157 
1.50518e-05 -1.45739e-05 2.68912e+25 -0.136854 -0.295584 272.411 
1.69631e-05 -1.45739e-05 2.68467e+25 0.021858 0.0365659 272.838 
1.67242e-06 -1.40961e-05 2.69484e+25 -1.34453 -0.12754 271.761 
3.58375e-06 -1.40961e-05 2.68979e+25 -1.46314 -0.0686574 272.216 
5.49508e-06 -1.40961e-05 2.68775e+25 -1.52229 0.0937391 272.389 
7.40642e-06 -1.40961e-05 2.6873e+25 -1.19788 -0.185262 272.541 
9.31775e-06 -1.40961e-05 2.68931e+25 -1.09415 -0.395431 272.406 
1.12291e-05 -1.40961e-05 2.68969e+25 -0.464828 -0.29249 272.282 
1.31404e-05 -1.40961e-05 2.68814e+25 -0.284905 -0.0384269 272.366 
1.50518e-05 -1.40961e-05 2.68905e+25 0.117216 -0.333649 272.303 
1.69631e-05 -1.40961e-05 2.68449e+25 -0.0475442 -0.00307528 272.788 
1.67242e-06 -1.36182e-05 2.694e+25 -1.76383 -0.222311 271.837 
3.58375e-06 -1.36182e-05 2.68993e+25 -1.75417 -0.159094 272.217 
5.49508e-06 -1.36182e-05 2.68907e+25 -1.69874 0.118038 272.365 
7.40642e-06 -1.36182e-05 2.68492e+25 -1.59353 -0.318025 272.527 
9.31775e-06 -1.36182e-05 2.68874e+25 -1.08708 -0.357587 272.467 
1.12291e-05 -1.36182e-05 2.68987e+25 -0.591908 -0.303675 272.314 
1.31404e-05 -1.36182e-05 2.68693e+25 -0.378231 -0.134603 272.533 
1.50518e-05 -1.36182e-05 2.6878e+25 0.228507 -0.25663 272.445 
1.69631e-05 -1.36182e-05 2.68584e+25 -0.0300369 -0.0872749 272.785 
1.67242e-06 -1.31404e-05 2.69172e+25 -1.9383 -0.216155 271.95 
3.58375e-06 -1.31404e-05 2.69202e+25 -1.7526 -0.234951 272.03 
5.49508e-06 -1.31404e-05 2.68746e+25 -1.63311 0.0404068 272.482 
7.40642e-06 -1.31404e-05 2.68809e+25 -1.8172 -0.433004 272.537 
9.31775e-06 -1.31404e-05 2.68769e+25 -0.90927 -0.442991 272.41 
1.12291e-05 -1.31404e-05 2.69059e+25 -0.744613 -0.31529 272.263 
1.31404e-05 -1.31404e-05 2.68748e+25 -0.273037 -0.298111 272.494 
1.50518e-05 -1.31404e-05 2.6869e+25 0.0303664 -0.218654 272.518 
1.69631e-05 -1.31404e-05 2.68373e+25 0.00592916 -0.103085 272.76 
1.67242e-06 -1.26626e-05 2.69189e+25 -2.05232 -0.184161 272.016 
3.58375e-06 -1.26626e-05 2.6919e+25 -1.97875 -0.210008 272.045 
5.49508e-06 -1.26626e-05 2.68806e+25 -1.80937 -0.0341969 272.384 
7.40642e-06 -1.26626e-05 2.68968e+25 -1.58561 -0.563847 272.317 
9.31775e-06 -1.26626e-05 2.68856e+25 -0.941805 -0.607096 272.36 
1.12291e-05 -1.26626e-05 2.69199e+25 -0.649734 -0.349179 272.248 
1.31404e-05 -1.26626e-05 2.68841e+25 -0.293369 -0.525427 272.317 
1.50518e-05 -1.26626e-05 2.68703e+25 -0.254005 -0.314418 272.466 
1.69631e-05 -1.26626e-05 2.68473e+25 -0.00614727 -0.125427 272.875 
1.67242e-06 -1.21847e-05 2.68977e+25 -2.22008 -0.251423 272.154 
3.58375e-06 -1.21847e-05 2.69106e+25 -2.23508 -0.113754 272.091 
5.49508e-06 -1.21847e-05 2.68886e+25 -1.94869 -0.166011 272.27 
7.40642e-06 -1.21847e-05 2.68878e+25 -1.52901 -0.570757 272.293 
9.31775e-06 -1.21847e-05 2.68982e+25 -1.04341 -0.859416 272.312 
1.12291e-05 -1.21847e-05 2.69044e+25 -0.630478 -0.387713 272.122 
1.31404e-05 -1.21847e-05 2.68771e+25 -0.284773 -0.678579 272.447 
1.50518e-05 -1.21847e-05 2.68949e+25 -0.365008 -0.273037 272.321 
1.69631e-05 -1.21847e-05 2.68558e+25 0.0293899 -0.0959645 272.801 
1.67242e-06 -1.17069e-05 2.69116e+25 -2.67744 -0.177988 272.204 
3.58375e-06 -1.17069e-05 2.68948e+25 -2.5433 -0.207162 272.191 
5.49508e-06 -1.17069e-05 2.69141e+25 -2.06253 -0.279328 272.192 
7.40642e-06 -1.17069e-05 2.69126e+25 -1.5615 -0.61956 272.188 
9.31775e-06 -1.17069e-05 2.68701e+25 -1.28607 -0.939141 272.582 
1.12291e-05 -1.17069e-05 2.68991e+25 -0.812047 -0.454799 272.171 
1.31404e-05 -1.17069e-05 2.68879e+25 -0.439019 -0.831528 272.354 
1.50518e-05 -1.17069e-05 2.68829e+25 -0.319247 -0.264391 272.338 
1.69631e-05 -1.17069e-05 2.686e+25 0.0181439 -0.0848867 272.778 
1.67242e-06 -1.12291e-05 2.69005e+25 -3.06733 -0.200607 272.117 
3.58375e-06 -1.12291e-05 2.69095e+25 -2.75204 -0.329901 272.185 
5.49508e-06 -1.12291e-05 2.6906e+25 -2.3549 -0.437321 272.276 
7.40642e-06 -1.12291e-05 2.69077e+25 -1.62889 -0.795249 272.16 
9.31775e-06 -1.12291e-05 2.68763e+25 -1.40857 -0.890511 272.459 
1.12291e-05 -1.12291e-05 2.68874e+25 -1.07494 -0.588358 272.331 
1.31404e-05 -1.12291e-05 2.69195e+25 -0.470648 -0.843073 272.12 
1.50518e-05 -1.12291e-05 2.69008e+25 -0.242098 -0.307226 272.131 
1.69631e-05 -1.12291e-05 2.68562e+25 -0.0584059 -0.143097 272.695 
1.67242e-06 -1.07512e-05 2.69126e+25 -3.39493 -0.29856 272.097 
3.58375e-06 -1.07512e-05 2.69234e+25 -2.96529 -0.332581 272.151 
5.49508e-06 -1.07512e-05 2.68932e+25 -2.78468 -0.631394 272.305 
7.40642e-06 -1.07512e-05 2.69026e+25 -1.8436 -0.951491 272.195 
9.31775e-06 -1.07512e-05 2.68836e+25 -1.79294 -0.876129 272.33 
1.12291e-05 -1.07512e-05 2.68932e+25 -1.35785 -0.891688 272.201 
1.31404e-05 -1.07512e-05 2.69082e+25 -0.407762 -0.990969 272.197 
1.50518e-05 -1.07512e-05 2.6931e+25 0.0917857 -0.36825 272.101 
1.69631e-05 -1.07512e-05 2.68582e+25 -0.0108049 -0.223042 272.713 
1.67242e-06 -1.02734e-05 2.69232e+25 -3.72057 -0.458793 272.124 
3.58375e-06 -1.02734e-05 2.68879e+25 -3.25325 -0.365975 272.298 
5.49508e-06 -1.02734e-05 2.69013e+25 -2.99777 -0.854612 272.32 
7.40642e-06 -1.02734e-05 2.69095e+25 -1.98375 -1.10243 272.297 
9.31775e-06 -1.02734e-05 2.68802e+25 -1.8131 -0.85224 272.327 
1.12291e-05 -1.02734e-05 2.69257e+25 -1.38023 -1.23763 271.944 
1.31404e-05 -1.02734e-05 2.69235e+25 -0.403486 -1.04779 272.139 
1.50518e-05 -1.02734e-05 2.69223e+25 0.12753 -0.413739 272.073 
1.69631e-05 -1.02734e-05 2.68782e+25 0.0752385 -0.122691 272.588 
1.67242e-06 -9.79558e-06 2.69119e+25 -4.04883 -0.409445 272.147 
3.58375e-06 -9.79558e-06 2.69082e+25 -3.83998 -0.452652 272.156 
5.49508e-06 -9.79558e-06 2.69099e+25 -3.19674 -1.03915 272.194 
7.40642e-06 -9.79558e-06 2.69042e+25 -2.24816 -1.23818 272.281 
9.31775e-06 -9.79558e-06 2.68817e+25 -1.72504 -0.823555 272.39 
1.12291e-05 -9.79558e-06 2.69444e+25 -1.2342 -1.47443 271.883 
1.31404e-05 -9.79558e-06 2.69188e+25 -0.361407 -1.09028 272.038 
1.50518e-05 -9.79558e-06 2.69296e+25 -0.0277498 -0.684304 272.001 
1.69631e-05 -9.79558e-06 2.68491e+25 0.018949 -0.0406927 272.751 
1.67242e-06 -9.31775e-06 2.69046e+25 -4.36889 -0.286195 272.085 
3.58375e-06 -9.31775e-06 2.69219e+25 -4.21284 -0.694878 272.079 
5.49508e-06 -9.31775e-06 2.69081e+25 -3.20764 -1.18513 272.076 
7.40642e-06 -9.31775e-06 2.69108e+25 -2.75002 -1.45152 272.251 
9.31775e-06 -9.31775e-06 2.69082e+25 -1.82131 -0.974774 272.263 
1.12291e-05 -9.31775e-06 2.69264e+25 -1.1894 -1.51365 271.936 
1.31404e-05 -9.31775e-06 2.69182e+25 -0.575484 -1.23685 272.058 
1.50518e-05 -9.31775e-06 2.69222e+25 -0.087357 -0.790249 271.946 
1.69631e-05 -9.31775e-06 2.68494e+25 0.00343763 0.0483304 272.756 
1.67242e-06 -8.83992e-06 2.68897e+25 -4.78683 -0.212228 272.216 
3.58375e-06 -8.83992e-06 2.69168e+25 -4.34038 -0.904745 272.094 
5.49508e-06 -8.83992e-06 2.69103e+25 -3.7338 -1.42657 272.165 
7.40642e-06 -8.83992e-06 2.69067e+25 -2.87529 -1.68565 272.23 
9.31775e-06 -8.83992e-06 2.69147e+25 -2.13469 -1.27703 272.249 
1.12291e-05 -8.83992e-06 2.69254e+25 -1.35608 -1.60378 271.982 
1.31404e-05 -8.83992e-06 2.69064e+25 -0.687108 -1.42141 272.11 
1.50518e-05 -8.83992e-06 2.6919e+25 -0.144948 -0.779923 272.015 
1.69631e-05 -8.83992e-06 2.68521e+25 0.0238427 0.122431 272.863 
1.67242e-06 -8.36208e-06 2.6908e+25 -5.08759 -0.212167 272.113 
3.58375e-06 -8.36208e-06 2.69141e+25 -4.55145 -1.04819 272.126 
5.49508e-06 -8.36208e-06 2.68806e+25 -3.9193 -1.58278 272.378 
7.40642e-06 -8.36208e-06 2.69194e+25 -2.941 -1.78907 272.1 
9.31775e-06 -8.36208e-06 2.69047e+25 -2.36107 -1.53547 272.166 
1.12291e-05 -8.36208e-06 2.69063e+25 -1.27604 -1.79169 272.185 
1.31404e-05 -8.36208e-06 2.69308e+25 -0.793385 -1.57509 271.963 
1.50518e-05 -8.36208e-06 2.69103e+25 -0.122174 -0.870686 272.12 
1.69631e-05 -8.36208e-06 2.68577e+25 -0.0267666 0.098895 272.694 
1.67242e-06 -7.88425e-06 2.69188e+25 -5.24689 -0.33221 272.128 
3.58375e-06 -7.88425e-06 2.68988e+25 -4.56372 -1.15636 272.264 
5.49508e-06 -7.88425e-06 2.68929e+25 -4.07238 -1.7832 272.238 
7.40642e-06 -7.88425e-06 2.6918e+25 -3.37965 -1.96925 272.05 
9.31775e-06 -7.88425e-06 2.69078e+25 -2.49487 -1.85597 272.207 
1.12291e-05 -7.88425e-06 2.69126e+25 -1.50101 -2.13143 272.117 
1.31404e-05 -7.88425e-06 2.6931e+25 -1.00748 -1.7041 272.087 
1.50518e-05 -7.88425e-06 2.69102e+25 -0.104489 -0.984292 272.172 
1.69631e-05 -7.88425e-06 2.68592e+25 -0.0544872 -0.00817719 272.79 
1.67242e-06 -7.40642e-06 2.68952e+25 -5.22838 -0.367337 272.166 
3.58375e-06 -7.40642e-06 2.68892e+25 -4.79415 -1.23296 272.291 
5.49508e-06 -7.40642e-06 2.69168e+25 -4.20293 -1.98333 272.057 
7.40642e-06 -7.40642e-06 2.69207e+25 -3.74335 -2.20903 272.123 
9.31775e-06 -7.40642e-06 2.69203e+25 -2.77056 -2.13759 272.008 
1.12291e-05 -7.40642e-06 2.69237e+25 -1.64603 -2.39633 272.016 
1.31404e-05 -7.40642e-06 2.69204e+25 -0.934938 -1.86568 272.027 
1.50518e-05 -7.40642e-06 2.69049e+25 -0.276738 -1.0759 272.113 
1.69631e-05 -7.40642e-06 2.68392e+25 0.021485 -0.073192 272.741 
1.67242e-06 -6.92858e-06 2.69059e+25 -5.55266 -0.39856 272.128 
3.58375e-06 -6.92858e-06 2.69132e+25 -5.25683 -1.36825 272.187 
5.49508e-06 -6.92858e-06 2.69172e+25 -4.50505 -2.08282 272.039 
7.40642e-06 -6.92858e-06 2.69023e+25 -4.06513 -2.43564 272.205 
9.31775e-06 -6.92858e-06 2.69251e+25 -2.96938 -2.41009 272.011 
1.12291e-05 -6.92858e-06 2.69317e+25 -1.79586 -2.64506 271.959 
1.31404e-05 -6.92858e-06 2.69189e+25 -0.976248 -1.91764 271.962 
1.50518e-05 -6.92858e-06 2.68871e+25 -0.352851 -1.15107 272.308 
1.69631e-05 -6.92858e-06 2.68482e+25 0.0431443 0.0253124 272.798 
1.67242e-06 -6.45075e-06 2.69254e+25 -5.68042 -0.540549 272.146 
3.58375e-06 -6.45075e-06 2.69113e+25 -5.67327 -1.51718 272.01 
5.49508e-06 -6.45075e-06 2.69154e+25 -5.14565 -2.23925 272.026 
7.40642e-06 -6.45075e-06 2.68957e+25 -4.30194 -2.65303 272.214 
9.31775e-06 -6.45075e-06 2.69119e+25 -2.98796 -2.73499 272.121 
1.12291e-05 -6.45075e-06 2.69491e+25 -1.98208 -2.88097 271.837 
1.31404e-05 -6.45075e-06 2.69118e+25 -1.25643 -2.10632 272.137 
1.50518e-05 -6.45075e-06 2.68877e+25 -0.496252 -1.22487 272.326 
1.69631e-05 -6.45075e-06 2.68511e+25 -0.0389588 -0.00198827 272.81 
1.67242e-06 -5.97292e-06 2.69274e+25 -5.81842 -0.636194 272.146 
3.58375e-06 -5.97292e-06 2.69027e+25 -5.86497 -1.53827 272.192 
5.49508e-06 -5.97292e-06 2.69286e+25 -5.38627 -2.42418 272.074 
7.40642e-06 -5.97292e-06 2.68931e+25 -4.61142 -2.97866 272.196 
9.31775e-06 -5.97292e-06 2.69235e+25 -3.20733 -3.05515 271.977 
1.12291e-05 -5.97292e-06 2.69263e+25 -2.13561 -2.99116 271.995 
1.31404e-05 -5.97292e-06 2.69031e+25 -1.22523 -2.396 272.206 
1.50518e-05 -5.97292e-06 2.68962e+25 -0.655908 -1.47624 272.21 
1.69631e-05 -5.97292e-06 2.68353e+25 -0.0311281 -0.0829355 272.897 
1.67242e-06 -5.49508e-06 2.69065e+25 -5.94341 -0.653326 272.206 
3.58375e-06 -5.49508e-06 2.69098e+25 -5.92135 -1.64992 272.153 
5.49508e-06 -5.49508e-06 2.69138e+25 -5.55062 -2.55393 272.272 
7.40642e-06 -5.49508e-06 2.68903e+25 -4.81381 -3.332 272.157 
9.31775e-06 -5.49508e-06 2.69218e+25 -3.56137 -3.48863 272.03 
1.12291e-05 -5.49508e-06 2.69047e+25 -2.33215 -3.25887 272.08 
1.31404e-05 -5.49508e-06 2.69041e+25 -1.31287 -2.65908 272.229 
1.50518e-05 -5.49508e-06 2.69078e+25 -0.669429 -1.64965 272.183 
1.69631e-05 -5.49508e-06 2.68644e+25 -0.0168549 -0.115155 272.763 
1.67242e-06 -5.01725e-06 2.69015e+25 -6.30416 -0.761005 272.165 
3.58375e-06 -5.01725e-06 2.69205e+25 -6.22812 -1.68796 272.029 
5.49508e-06 -5.01725e-06 2.69058e+25 -5.62638 -2.71888 272.198 
7.40642e-06 -5.01725e-06 2.68763e+25 -4.88112 -3.49035 272.423 
9.31775e-06 -5.01725e-06 2.69059e+25 -3.78335 -3.88271 272.209 
1.12291e-05 -5.01725e-06 2.69057e+25 -2.54408 -3.57196 272.237 
1.31404e-05 -5.01725e-06 2.6907e+25 -1.36806 -2.87342 272.225 
1.50518e-05 -5.01725e-06 2.68987e+25 -0.43363 -1.81134 272.182 
1.69631e-05 -5.01725e-06 2.68583e+25 -0.0145478 -0.156991 272.722 
1.67242e-06 -4.53942e-06 2.6909e+25 -6.52786 -0.851218 272.271 
3.58375e-06 -4.53942e-06 2.69129e+25 -6.46973 -1.64729 272.026 
5.49508e-06 -4.53942e-06 2.68874e+25 -6.11761 -2.8124 272.278 
7.40642e-06 -4.53942e-06 2.68813e+25 -5.04829 -3.65642 272.334 
9.31775e-06 -4.53942e-06 2.69222e+25 -4.07475 -4.11652 272.053 
1.12291e-05 -4.53942e-06 2.69081e+25 -2.66299 -3.88383 272.158 
1.31404e-05 -4.53942e-06 2.68989e+25 -1.30494 -3.10601 272.247 
1.50518e-05 -4.53942e-06 2.69237e+25 -0.293036 -2.00816 272.026 
1.69631e-05 -4.53942e-06 2.68487e+25 0.0185404 -0.155271 272.801 
1.67242e-06 -4.06158e-06 2.68896e+25 -6.84695 -0.75446 272.354 
3.58375e-06 -4.06158e-06 2.69117e+25 -6.94421 -1.65618 272.07 
5.49508e-06 -4.06158e-06 2.69091e+25 -6.46365 -2.9714 272.167 
7.40642e-06 -4.06158e-06 2.6901e+25 -5.4767 -3.86899 272.199 
9.31775e-06 -4.06158e-06 2.69036e+25 -4.35087 -4.47387 272.218 
1.12291e-05 -4.06158e-06 2.68896e+25 -2.66113 -4.21913 272.315 
1.31404e-05 -4.06158e-06 2.68956e+25 -1.38626 -3.4414 272.375 
1.50518e-05 -4.06158e-06 2.69087e+25 -0.162677 -2.22851 272.029 
1.69631e-05 -4.06158e-06 2.68485e+25 -0.0189117 -0.130645 272.728 
1.67242e-06 -3.58375e-06 2.68935e+25 -7.1166 -0.557705 272.129 
3.58375e-06 -3.58375e-06 2.68996e+25 -7.30807 -1.76374 272.036 
5.49508e-06 -3.58375e-06 2.69364e+25 -6.74331 -3.09941 272.015 
7.40642e-06 -3.58375e-06 2.69167e+25 -5.91325 -4.1643 272.083 
9.31775e-06 -3.58375e-06 2.69253e+25 -4.55462 -4.8376 272.078 
1.12291e-05 -3.58375e-06 2.68958e+25 -2.79816 -4.59881 272.374 
1.31404e-05 -3.58375e-06 2.68741e+25 -1.39588 -3.81382 272.496 
1.50518e-05 -3.58375e-06 2.6914e+25 -0.277176 -2.39437 272.034 
1.69631e-05 -3.58375e-06 2.68574e+25 -0.0618016 -0.238883 272.664 
1.67242e-06 -3.10592e-06 2.6901e+25 -7.33718 -0.427706 272.176 
3.58375e-06 -3.10592e-06 2.68949e+25 -7.57277 -1.95349 272.169 
5.49508e-06 -3.10592e-06 2.69186e+25 -7.0145 -3.33654 271.971 
7.40642e-06 -3.10592e-06 2.68884e+25 -6.41593 -4.37634 272.21 
9.31775e-06 -3.10592e-06 2.69155e+25 -4.67119 -5.29655 272.042 
1.12291e-05 -3.10592e-06 2.6878e+25 -3.02788 -5.0469 272.513 
1.31404e-05 -3.10592e-06 2.68777e+25 -1.34504 -4.14242 272.439 
1.50518e-05 -3.10592e-06 2.69197e+25 -0.242199 -2.54137 271.991 
1.69631e-05 -3.10592e-06 2.68417e+25 -0.0457382 -0.336515 272.669 
1.67242e-06 -2.62808e-06 2.69079e+25 -7.43586 -0.381135 272.045 
3.58375e-06 -2.62808e-06 2.68736e+25 -7.78452 -2.06552 272.338 
5.49508e-06 -2.62808e-06 2.69052e+25 -7.34193 -3.57419 272.134 
7.40642e-06 -2.62808e-06 2.68923e+25 -6.75465 -4.64449 272.297 
9.31775e-06 -2.62808e-06 2.69273e+25 -4.94082 -5.66156 271.86 
1.12291e-05 -2.62808e-06 2.68887e+25 -3.33306 -5.45132 272.325 
1.31404e-05 -2.62808e-06 2.69084e+25 -1.52353 -4.55764 272.223 
1.50518e-05 -2.62808e-06 2.69113e+25 -0.32562 -2.75269 272.032 
1.69631e-05 -2.62808e-06 2.68402e+25 -0.0279458 -0.395502 272.846 
1.67242e-06 -2.15025e-06 2.69032e+25 -7.62734 -0.309427 271.968 
3.58375e-06 -2.15025e-06 2.68851e+25 -7.67588 -2.04279 272.32 
5.49508e-06 -2.15025e-06 2.69092e+25 -7.60002 -3.60592 272.203 
7.40642e-06 -2.15025e-06 2.68787e+25 -6.89805 -4.87505 272.4 
9.31775e-06 -2.15025e-06 2.6951e+25 -5.26622 -6.08292 271.95 
1.12291e-05 -2.15025e-06 2.68992e+25 -3.48181 -5.89049 272.246 
1.31404e-05 -2.15025e-06 2.69048e+25 -1.69046 -4.91435 272.178 
1.50518e-05 -2.15025e-06 2.68971e+25 -0.312021 -3.06449 272.233 
1.69631e-05 -2.15025e-06 2.68388e+25 0.0585003 -0.344164 272.797 
1.67242e-06 -1.67242e-06 2.69186e+25 -7.78162 -0.198961 271.944 
3.58375e-06 -1.67242e-06 2.68579e+25 -7.78688 -2.10092 272.473 
5.49508e-06 -1.67242e-06 2.68973e+25 -7.65045 -3.78776 272.068 
7.40642e-06 -1.67242e-06 2.68696e+25 -6.93759 -5.14299 272.428 
9.31775e-06 -1.67242e-06 2.69221e+25 -5.46877 -6.52849 271.956 
1.12291e-05 -1.67242e-06 2.68963e+25 -3.63598 -6.3641 272.341 
1.31404e-05 -1.67242e-06 2.69089e+25 -1.87365 -5.24309 272.058 
1.50518e-05 -1.67242e-06 2.69224e+25 -0.429491 -3.39527 272.055 
1.69631e-05 -1.67242e-06 2.68599e+25 -0.0337309 -0.34123 272.673 
1.67242e-06 -1.19458e-06 2.69148e+25 -7.8588 -0.0786611 271.822 
3.58375e-06 -1.19458e-06 2.68809e+25 -7.81031 -2.06353 272.407 
5.49508e-06 -1.19458e-06 2.68983e+25 -7.77375 -3.81218 272.088 
7.40642e-06 -1.19458e-06 2.68965e+25 -6.82312 -5.46363 272.178 
9.31775e-06 -1.19458e-06 2.69195e+25 -5.76273 -6.89723 272.139 
1.12291e-05 -1.19458e-06 2.69039e+25 -3.86019 -6.84715 272.178 
1.31404e-05 -1.19458e-06 2.69259e+25 -2.03753 -5.66633 272.017 
1.50518e-05 -1.19458e-06 2.69069e+25 -0.759745 -3.68967 272.037 
1.69631e-05 -1.19458e-06 2.68492e+25 0.0616108 -0.331906 272.742 
1.67242e-06 -7.1675e-07 2.69172e+25 -7.80834 -0.027846 271.8 
3.58375e-06 -7.1675e-07 2.68973e+25 -7.85646 -1.94383 272.276 
5.49508e-06 -7.1675e-07 2.68905e+25 -7.81714 -3.77255 272.25 
7.40642e-06 -7.1675e-07 2.68912e+25 -7.01453 -5.90015 272.133 
9.31775e-06 -7.1675e-07 2.69345e+25 -5.96916 -7.34876 271.988 
1.12291e-05 -7.1675e-07 2.69093e+25 -4.12665 -7.37103 272.157 
1.31404e-05 -7.1675e-07 2.69268e+25 -2.26141 -6.15421 272.062 
1.50518e-05 -7.1675e-07 2.69105e+25 -1.00103 -3.88317 272.134 
1.69631e-05 -7.1675e-07 2.6862e+25 -0.0206457 -0.292582 272.684 
1.67242e-06 -2.38917e-07 2.68935e+25 -7.80527 0.0990051 271.779 
3.58375e-06 -2.38917e-07 2.68677e+25 -8.02292 -1.98691 272.284 
5.49508e-06 -2.38917e-07 2.68546e+25 -7.71355 -3.80475 272.331 
7.40642e-06 -2.38917e-07 2.68772e+25 -7.25463 -6.17743 272.127 
9.31775e-06 -2.38917e-07 2.68895e+25 -6.09722 -7.79281 272.098 
1.12291e-05 -2.38917e-07 2.68886e+25 -4.50308 -7.82903 272.254 
1.31404e-05 -2.38917e-07 2.68956e+25 -2.59133 -6.63172 272.104 
1.50518e-05 -2.38917e-07 2.69087e+25 -1.04965 -4.177 272.051 
1.69631e-05 -2.38917e-07 2.68376e+25 -0.0138609 -0.359776 272.635 
1.67242e-06 2.38917e-07 2.68799e+25 -7.99682 0.159445 271.981 
3.58375e-06 2.38917e-07 2.68856e+25 -8.21435 -2.17139 272.044 
5.49508e-06 2.38917e-07 2.68599e+25 -7.69338 -3.8705 272.283 
7.40642e-06 2.38917e-07 2.68948e+25 -7.26726 -6.28498 272.104 
9.31775e-06 2.38917e-07 2.6871e+25 -6.12611 -8.08521 272.289 
1.12291e-05 2.38917e-07 2.68864e+25 -4.65398 -8.24561 272.17 
1.31404e-05 2.38917e-07 2.68754e+25 -2.70958 -7.25087 272.232 
1.50518e-05 2.38917e-07 2.69038e+25 -0.820597 -4.51198 272.073 
1.69631e-05 2.38917e-07 2.68177e+25 -0.0952635 -0.478194 272.715 
1.67242e-06 7.1675e-07 2.68968e+25 -7.88814 0.217413 271.964 
3.58375e-06 7.1675e-07 2.68891e+25 -8.16109 -2.18439 272.069 
5.49508e-06 7.1675e-07 2.68846e+25 -7.78174 -4.00865 272.198 
7.40642e-06 7.1675e-07 2.68884e+25 -7.26487 -6.24114 272.189 
9.31775e-06 7.1675e-07 2.69172e+25 -6.42202 -8.39554 272.174 
1.12291e-05 7.1675e-07 2.69055e+25 -4.86928 -8.74375 272.183 
1.31404e-05 7.1675e-07 2.68933e+25 -2.87565 -7.76184 272.317 
1.50518e-05 7.1675e-07 2.68842e+25 -0.88852 -4.84641 272.234 
1.69631e-05 7.1675e-07 2.68292e+25 -0.0678068 -0.597998 272.824 
1.67242e-06 1.19458e-06 2.6888e+25 -7.68037 0.450932 272.02 
3.58375e-06 1.19458e-06 2.69057e+25 -8.18664 -2.1012 272.003 
5.49508e-06 1.19458e-06 2.68855e+25 -7.99144 -4.19371 272.281 
7.40642e-06 1.19458e-06 2.69032e+25 -7.29242 -6.41617 272.177 
9.31775e-06 1.19458e-06 2.68844e+25 -6.54291 -8.8184 272.322 
1.12291e-05 1.19458e-06 2.69114e+25 -5.07615 -9.15868 272.174 
1.31404e-05 1.19458e-06 2.68925e+25 -2.79499 -8.22871 272.28 
1.50518e-05 1.19458e-06 2.69017e+25 -0.961576 -5.08637 272.173 
1.69631e-05 1.19458e-06 2.682e+25 -0.00674619 -0.683781 272.905 
1.67242e-06 1.67242e-06 2.68699e+25 -7.4983 0.675493 272.15 
3.58375e-06 1.67242e-06 2.69017e+25 -8.09631 -2.05756 271.967 
5.49508e-06 1.67242e-06 2.6892e+25 -8.09261 -4.40078 272.115 
7.40642e-06 1.67242e-06 2.68656e+25 -7.41769 -6.65537 272.335 
9.31775e-06 1.67242e-06 2.68754e+25 -6.69122 -9.03936 272.297 
1.12291e-05 1.67242e-06 2.68886e+25 -5.24029 -9.69296 272.285 
1.31404e-05 1.67242e-06 2.68711e+25 -3.04091 -8.79922 272.364 
1.50518e-05 1.67242e-06 2.68842e+25 -1.05441 -5.51118 272.34 
1.69631e-05 1.67242e-06 2.68352e+25 0.00780175 -0.735172 272.972 
1.67242e-06 2.15025e-06 2.68814e+25 -7.26936 0.993387 272.079 
3.58375e-06 2.15025e-06 2.68913e+25 -8.08805 -1.96044 272.092 
5.49508e-06 2.15025e-06 2.68804e+25 -8.13482 -4.45663 272.088 
7.40642e-06 2.15025e-06 2.68588e+25 -7.54159 -6.81672 272.333 
9.31775e-06 2.15025e-06 2.68621e+25 -6.80683 -9.16163 272.373 
1.12291e-05 2.15025e-06 2.68941e+25 -5.34875 -10.2655 272.24 
1.31404e-05 2.15025e-06 2.6898e+25 -3.26581 -9.27103 272.175 
1.50518e-05 2.15025e-06 2.69074e+25 -1.0519 -6.02634 272.221 
1.69631e-05 2.15025e-06 2.68383e+25 -0.0506399 -0.797882 272.839 
1.67242e-06 2.62808e-06 2.6888e+25 -7.03821 1.23174 272.056 
3.58375e-06 2.62808e-06 2.68959e+25 -7.75638 -1.88406 271.97 
5.49508e-06 2.62808e-06 2.68909e+25 -7.91059 -4.50956 272.088 
7.40642e-06 2.62808e-06 2.68687e+25 -7.66085 -6.91987 272.178 
9.31775e-06 2.62808e-06 2.68556e+25 -6.97004 -9.31402 272.505 
1.12291e-05 2.62808e-06 2.68922e+25 -5.6688 -10.6978 272.287 
1.31404e-05 2.62808e-06 2.6899e+25 -3.52185 -9.78787 272.097 
1.50518e-05 2.62808e-06 2.69074e+25 -1.27345 -6.59649 272.262 
1.69631e-05 2.62808e-06 2.68333e+25 0.0278264 -0.819745 272.883 
1.67242e-06 3.10592e-06 2.68798e+25 -6.63899 1.46296 271.978 
3.58375e-06 3.10592e-06 2.68688e+25 -7.4388 -1.7213 272.146 
5.49508e-06 3.10592e-06 2.68915e+25 -7.85448 -4.57396 272.05 
7.40642e-06 3.10592e-06 2.689e+25 -7.76389 -6.97204 272.082 
9.31775e-06 3.10592e-06 2.68754e+25 -7.14397 -9.44247 272.356 
1.12291e-05 3.10592e-06 2.68897e+25 -5.77905 -11.1576 272.211 
1.31404e-05 3.10592e-06 2.69205e+25 -3.70238 -10.3764 272.022 
1.50518e-05 3.10592e-06 2.69072e+25 -1.23436 -7.05716 272.224 
1.69631e-05 3.10592e-06 2.68393e+25 -0.0408326 -0.852287 272.827 
1.67242e-06 3.58375e-06 2.68927e+25 -6.2999 1.64795 271.968 
3.58375e-06 3.58375e-06 2.6867e+25 -7.05906 -1.54512 272.189 
5.49508e-06 3.58375e-06 2.68599e+25 -7.77306 -4.55742 272.278 
7.40642e-06 3.58375e-06 2.68598e+25 -7.65587 -7.11914 272.29 
9.31775e-06 3.58375e-06 2.68858e+25 -7.30688 -9.59673 272.288 
1.12291e-05 3.58375e-06 2.68875e+25 -5.94506 -11.7128 272.323 
1.31404e-05 3.58375e-06 2.69232e+25 -3.88762 -11.1045 271.994 
1.50518e-05 3.58375e-06 2.69161e+25 -1.34658 -7.58941 272.076 
1.69631e-05 3.58375e-06 2.68546e+25 -0.0191803 -0.910104 272.846 
1.67242e-06 4.06158e-06 2.68787e+25 -5.64264 1.74508 272.082 
3.58375e-06 4.06158e-06 2.68685e+25 -6.48424 -1.33265 272.301 
5.49508e-06 4.06158e-06 2.68462e+25 -7.30375 -4.43384 272.398 
7.40642e-06 4.06158e-06 2.6864e+25 -7.42957 -7.087 272.311 
9.31775e-06 4.06158e-06 2.68818e+25 -7.21625 -9.8385 272.275 
1.12291e-05 4.06158e-06 2.69046e+25 -6.05272 -12.0736 272.141 
1.31404e-05 4.06158e-06 2.6912e+25 -3.94393 -11.8001 272.128 
1.50518e-05 4.06158e-06 2.69153e+25 -1.37228 -8.12957 272.059 
1.69631e-05 4.06158e-06 2.68663e+25 -0.0238375 -0.972144 272.858 
1.67242e-06 4.53942e-06 2.68675e+25 -5.23581 1.71594 272.077 
3.58375e-06 4.53942e-06 2.68488e+25 -5.86115 -1.01964 272.342 
5.49508e-06 4.53942e-06 2.68351e+25 -6.71477 -4.2582 272.469 
7.40642e-06 4.53942e-06 2.68756e+25 -7.14565 -7.09977 272.229 
9.31775e-06 4.53942e-06 2.68661e+25 -7.05347 -10.0797 272.262 
1.12291e-05 4.53942e-06 2.68957e+25 -6.11691 -12.406 272.223 
1.31404e-05 4.53942e-06 2.69206e+25 -3.97273 -12.4588 272.027 
1.50518e-05 4.53942e-06 2.69172e+25 -1.31968 -8.69743 272.099 
1.69631e-05 4.53942e-06 2.68439e+25 -0.0695842 -1.11396 272.804 
1.67242e-06 5.01725e-06 2.68721e+25 -4.74687 1.78327 272.196 
3.58375e-06 5.01725e-06 2.68617e+25 -5.32003 -0.7852 272.242 
5.49508e-06 5.01725e-06 2.68607e+25 -6.13091 -4.06848 272.425 
7.40642e-06 5.01725e-06 2.68703e+25 -6.83726 -7.03213 272.31 
9.31775e-06 5.01725e-06 2.68606e+25 -6.82632 -10.2546 272.339 
1.12291e-05 5.01725e-06 2.68748e+25 -6.05207 -12.6539 272.282 
1.31404e-05 5.01725e-06 2.69238e+25 -3.98979 -13.054 272.053 
1.50518e-05 5.01725e-06 2.69143e+25 -1.4804 -9.20141 272.241 
1.69631e-05 5.01725e-06 2.68573e+25 -0.0875688 -1.27033 272.77 
1.67242e-06 5.49508e-06 2.68763e+25 -4.16613 1.93206 272.073 
3.58375e-06 5.49508e-06 2.6863e+25 -4.6768 -0.664311 272.134 
5.49508e-06 5.49508e-06 2.68466e+25 -5.73723 -3.93886 272.394 
7.40642e-06 5.49508e-06 2.68644e+25 -6.52191 -6.92317 272.314 
9.31775e-06 5.49508e-06 2.68758e+25 -6.75395 -10.4411 272.294 
1.12291e-05 5.49508e-06 2.68878e+25 -5.68748 -12.9898 272.181 
1.31404e-05 5.49508e-06 2.68955e+25 -3.94769 -13.5803 272.16 
1.50518e-05 5.49508e-06 2.6911e+25 -1.49553 -9.76171 272.253 
1.69631e-05 5.49508e-06 2.68637e+25 -0.0198147 -1.34094 272.628 
1.67242e-06 5.97292e-06 2.68845e+25 -3.3854 2.06202 272.005 
3.58375e-06 5.97292e-06 2.68565e+25 -4.08618 -0.457346 272.145 
5.49508e-06 5.97292e-06 2.68418e+25 -5.16045 -3.5433 272.286 
7.40642e-06 5.97292e-06 2.68812e+25 -6.0445 -6.82081 272.19 
9.31775e-06 5.97292e-06 2.68837e+25 -6.20933 -10.5121 272.235 
1.12291e-05 5.97292e-06 2.69e+25 -5.55612 -13.4077 272.173 
1.31404e-05 5.97292e-06 2.69078e+25 -3.6768 -14.1597 272.179 
1.50518e-05 5.97292e-06 2.6889e+25 -1.65067 -10.4219 272.257 
1.69631e-05 5.97292e-06 2.68507e+25 -0.0267559 -1.38352 272.707 
1.67242e-06 6.45075e-06 2.68531e+25 -2.84582 2.16824 272.098 
3.58375e-06 6.45075e-06 2.68621e+25 -3.36809 -0.213628 272.139 
5.49508e-06 6.45075e-06 2.68424e+25 -4.32166 -3.12414 272.319 
7.40642e-06 6.45075e-06 2.68655e+25 -5.4967 -6.73548 272.134 
9.31775e-06 6.45075e-06 2.68911e+25 -5.84493 -10.5518 272.028 
1.12291e-05 6.45075e-06 2.69017e+25 -5.45929 -13.6933 272.138 
1.31404e-05 6.45075e-06 2.6896e+25 -4.01563 -14.6648 272.253 
1.50518e-05 6.45075e-06 2.69055e+25 -1.55304 -10.9799 272.351 
1.69631e-05 6.45075e-06 2.68378e+25 -0.0239309 -1.50911 272.893 
1.67242e-06 6.92858e-06 2.68789e+25 -2.18049 2.27679 272.071 
3.58375e-06 6.92858e-06 2.68499e+25 -2.79469 0.0685234 272.156 
5.49508e-06 6.92858e-06 2.68493e+25 -3.6276 -2.78901 272.276 
7.40642e-06 6.92858e-06 2.68675e+25 -4.77024 -6.52718 272.124 
9.31775e-06 6.92858e-06 2.6882e+25 -5.42254 -10.4572 272.171 
1.12291e-05 6.92858e-06 2.68865e+25 -5.22604 -13.7895 272.272 
1.31404e-05 6.92858e-06 2.69092e+25 -4.22189 -15.1615 272.259 
1.50518e-05 6.92858e-06 2.69266e+25 -1.75627 -11.4548 272.071 
1.69631e-05 6.92858e-06 2.684e+25 -0.0958157 -1.63103 272.892 
1.67242e-06 7.40642e-06 2.68752e+25 -1.258 2.22655 272.093 
3.58375e-06 7.40642e-06 2.68537e+25 -2.0162 0.315634 272.237 
5.49508e-06 7.40642e-06 2.68598e+25 -2.68281 -2.58217 272.221 
7.40642e-06 7.40642e-06 2.6865e+25 -3.83043 -6.28328 272.22 
9.31775e-06 7.40642e-06 2.68684e+25 -4.60779 -10.3396 272.27 
1.12291e-05 7.40642e-06 2.68825e+25 -5.06671 -13.806 272.41 
1.31404e-05 7.40642e-06 2.69092e+25 -4.14848 -15.7375 272.196 
1.50518e-05 7.40642e-06 2.69122e+25 -1.96486 -12.0867 272.214 
1.69631e-05 7.40642e-06 2.68508e+25 -0.115595 -1.86779 272.816 
1.67242e-06 7.88425e-06 2.68486e+25 -0.581732 2.20889 272.176 
3.58375e-06 7.88425e-06 2.68512e+25 -0.914431 0.455778 272.162 
5.49508e-06 7.88425e-06 2.68512e+25 -1.7859 -2.46588 272.329 
7.40642e-06 7.88425e-06 2.68335e+25 -2.79044 -6.00964 272.442 
9.31775e-06 7.88425e-06 2.68604e+25 -3.8055 -10.0963 272.393 
1.12291e-05 7.88425e-06 2.68891e+25 -4.88092 -13.8538 272.232 
1.31404e-05 7.88425e-06 2.69169e+25 -4.12266 -16.2097 272.163 
1.50518e-05 7.88425e-06 2.69291e+25 -1.88747 -12.7505 272.316 
1.69631e-05 7.88425e-06 2.68647e+25 -0.0489213 -2.06984 272.763 
1.67242e-06 8.36208e-06 2.6864e+25 -0.0273902 2.20381 271.985 
3.58375e-06 8.36208e-06 2.68509e+25 -0.0261773 0.484869 272.244 
5.49508e-06 8.36208e-06 2.68483e+25 -0.7671 -2.40987 272.384 
7.40642e-06 8.36208e-06 2.68586e+25 -1.78838 -5.62932 272.28 
9.31775e-06 8.36208e-06 2.68629e+25 -3.23067 -9.67415 272.327 
1.12291e-05 8.36208e-06 2.69114e+25 -4.52953 -13.7067 272.255 
1.31404e-05 8.36208e-06 2.69118e+25 -4.25255 -16.6029 272.297 
1.50518e-05 8.36208e-06 2.69174e+25 -2.02228 -13.2888 272.287 
1.69631e-05 8.36208e-06 2.68544e+25 -0.0425253 -2.19302 272.847 
1.67242e-06 8.83992e-06 2.6885e+25 0.723974 2.19667 271.844 
3.58375e-06 8.83992e-06 2.6872e+25 0.885873 0.477934 272.102 
5.49508e-06 8.83992e-06 2.68609e+25 0.326065 -2.25706 272.263 
7.40642e-06 8.83992e-06 2.68593e+25 -0.793682 -5.28837 272.263 
9.31775e-06 8.83992e-06 2.6881e+25 -2.38094 -9.16245 272.264 
1.12291e-05 8.83992e-06 2.68869e+25 -3.88653 -13.439 272.337 
1.31404e-05 8.83992e-06 2.69201e+25 -4.14175 -16.8851 272.343 
1.50518e-05 8.83992e-06 2.69228e+25 -2.12952 -13.9428 272.326 
1.69631e-05 8.83992e-06 2.68715e+25 -0.0593889 -2.27908 272.769 
1.67242e-06 9.31775e-06 2.68579e+25 1.48533 2.31385 271.986 
3.58375e-06 9.31775e-06 2.68494e+25 1.66307 0.419461 272.184 
5.49508e-06 9.31775e-06 2.68358e+25 1.52282 -2.00594 272.298 
7.40642e-06 9.31775e-06 2.68349e+25 0.189501 -5.00515 272.425 
9.31775e-06 9.31775e-06 2.68711e+25 -1.42629 -8.76719 272.344 
1.12291e-05 9.31775e-06 2.6905e+25 -3.11812 -13.1099 272.254 
1.31404e-05 9.31775e-06 2.69087e+25 -3.92938 -16.9837 272.385 
1.50518e-05 9.31775e-06 2.69376e+25 -2.16284 -14.5727 272.365 
1.69631e-05 9.31775e-06 2.68722e+25 -0.0949793 -2.48439 272.897 
1.67242e-06 9.79558e-06 2.68608e+25 2.75025 2.22298 272.001 
3.58375e-06 9.79558e-06 2.68565e+25 2.81509 0.455603 272.132 
5.49508e-06 9.79558e-06 2.68372e+25 2.68712 -1.77279 272.352 
7.40642e-06 9.79558e-06 2.68568e+25 1.62837 -4.62325 272.244 
9.31775e-06 9.79558e-06 2.68906e+25 -0.23611 -8.44825 272.168 
1.12291e-05 9.79558e-06 2.69041e+25 -2.30994 -12.5352 272.105 
1.31404e-05 9.79558e-06 2.6899e+25 -3.59706 -16.9215 272.47 
1.50518e-05 9.79558e-06 2.69217e+25 -2.28346 -15.2047 272.465 
1.69631e-05 9.79558e-06 2.68822e+25 -0.103887 -2.72222 272.815 
1.67242e-06 1.02734e-05 2.68817e+25 3.9068 2.08697 271.939 
3.58375e-06 1.02734e-05 2.68546e+25 4.04165 0.520411 272.178 
5.49508e-06 1.02734e-05 2.68336e+25 3.89235 -1.5541 272.395 
7.40642e-06 1.02734e-05 2.68595e+25 2.91463 -4.27105 272.263 
9.31775e-06 1.02734e-05 2.6877e+25 1.04172 -7.90291 272.331 
1.12291e-05 1.02734e-05 2.69022e+25 -1.41104 -11.967 272.245 
1.31404e-05 1.02734e-05 2.69086e+25 -3.10982 -16.8693 272.611 
1.50518e-05 1.02734e-05 2.69274e+25 -2.04384 -15.9512 272.449 
1.69631e-05 1.02734e-05 2.68856e+25 -0.0928249 -2.94114 272.888 
1.67242e-06 1.07512e-05 2.68734e+25 5.18169 1.99103 271.895 
3.58375e-06 1.07512e-05 2.68772e+25 5.41099 0.526377 272.065 
5.49508e-06 1.07512e-05 2.68359e+25 5.02685 -1.32822 272.476 
7.40642e-06 1.07512e-05 2.68763e+25 4.19395 -3.93829 272.095 
9.31775e-06 1.07512e-05 2.68746e+25 2.15311 -7.23851 272.242 
1.12291e-05 1.07512e-05 2.69095e+25 -0.467247 -11.3563 272.284 
1.31404e-05 1.07512e-05 2.69052e+25 -2.50984 -16.5779 272.526 
1.50518e-05 1.07512e-05 2.69644e+25 -1.99226 -16.5121 272.284 
1.69631e-05 1.07512e-05 2.68944e+25 -0.0681902 -3.12894 272.871 
1.67242e-06 1.12291e-05 2.68675e+25 6.46403 1.79251 272.066 
3.58375e-06 1.12291e-05 2.68742e+25 6.78968 0.590679 272.077 
5.49508e-06 1.12291e-05 2.68428e+25 6.44683 -1.27352 272.368 
7.40642e-06 1.12291e-05 2.68569e+25 5.67141 -3.54048 272.173 
9.31775e-06 1.12291e-05 2.68643e+25 3.63792 -6.66499 272.467 
1.12291e-05 1.12291e-05 2.69027e+25 0.590819 -10.719 272.292 
1.31404e-05 1.12291e-05 2.69215e+25 -1.92322 -16.1294 272.494 
1.50518e-05 1.12291e-05 2.69709e+25 -2.06846 -17.0322 272.29 
1.69631e-05 1.12291e-05 2.69253e+25 -0.0703207 -3.29659 272.829 
1.67242e-06 1.17069e-05 2.68813e+25 7.80818 1.69923 272.013 
3.58375e-06 1.17069e-05 2.68734e+25 8.30099 0.569524 272.097 
5.49508e-06 1.17069e-05 2.68581e+25 7.87065 -1.31677 272.231 
7.40642e-06 1.17069e-05 2.68978e+25 6.97469 -3.23132 271.999 
9.31775e-06 1.17069e-05 2.68485e+25 4.93658 -6.04049 272.544 
1.12291e-05 1.17069e-05 2.69177e+25 1.67682 -9.97734 272.306 
1.31404e-05 1.17069e-05 2.6925e+25 -1.50589 -15.5678 272.391 
1.50518e-05 1.17069e-05 2.69614e+25 -2.15833 -17.4294 272.479 
1.69631e-05 1.17069e-05 2.69142e+25 -0.110274 -3.53836 272.997 
1.67242e-06 1.21847e-05 2.68836e+25 9.29906 1.56559 271.88 
3.58375e-06 1.21847e-05 2.68708e+25 9.69751 0.602655 271.955 
5.49508e-06 1.21847e-05 2.68508e+25 9.50074 -1.2385 272.252 
7.40642e-06 1.21847e-05 2.68771e+25 8.30692 -2.75171 272.123 
9.31775e-06 1.21847e-05 2.68734e+25 6.56496 -5.32031 272.384 
1.12291e-05 1.21847e-05 2.69169e+25 3.30489 -9.14659 272.342 
1.31404e-05 1.21847e-05 2.69354e+25 -0.527903 -14.9731 272.461 
1.50518e-05 1.21847e-05 2.69825e+25 -2.21112 -17.6539 272.489 
1.69631e-05 1.21847e-05 2.69402e+25 -0.0901803 -3.78294 273.021 
1.67242e-06 1.26626e-05 2.68615e+25 10.8963 1.38765 272.026 
3.58375e-06 1.26626e-05 2.6882e+25 11.3558 0.59893 271.909 
5.49508e-06 1.26626e-05 2.68626e+25 11.265 -1.05508 272.191 
7.40642e-06 1.26626e-05 2.68567e+25 10.1582 -2.31229 272.203 
9.31775e-06 1.26626e-05 2.69011e+25 8.35467 -4.60372 272.236 
1.12291e-05 1.26626e-05 2.69102e+25 5.0692 -8.20139 272.4 
1.31404e-05 1.26626e-05 2.69393e+25 0.671474 -14.089 272.454 
1.50518e-05 1.26626e-05 2.69963e+25 -2.0153 -17.7618 272.518 
1.69631e-05 1.26626e-05 2.69752e+25 -0.140363 -4.06485 272.9 
1.67242e-06 1.31404e-05 2.68654e+25 12.6078 1.35593 272.126 
3.58375e-06 1.31404e-05 2.6859e+25 13.2392 0.537038 272.07 
5.49508e-06 1.31404e-05 2.68514e+25 13.2629 -0.892251 272.229 
7.40642e-06 1.31404e-05 2.68762e+25 12.2269 -1.92783 272.212 
9.31775e-06 1.31404e-05 2.6891e+25 10.2499 -3.99148 272.198 
1.12291e-05 1.31404e-05 2.69084e+25 6.96097 -7.13384 272.464 
1.31404e-05 1.31404e-05 2.69645e+25 1.90698 -12.8284 272.485 
1.50518e-05 1.31404e-05 2.69899e+25 -2.04484 -17.7186 272.722 
1.69631e-05 1.31404e-05 2.70042e+25 -0.122432 -4.35936 272.871 
1.67242e-06 1.36182e-05 2.68548e+25 14.6381 1.23346 272.228 
3.58375e-06 1.36182e-05 2.68602e+25 15.1964 0.393231 272.105 
5.49508e-06 1.36182e-05 2.68528e+25 15.2138 -0.700249 272.368 
7.40642e-06 1.36182e-05 2.68534e+25 14.3735 -1.65949 272.285 
9.31775e-06 1.36182e-05 2.68934e+25 12.2693 -3.33106 272.276 
1.12291e-05 1.36182e-05 2.69077e+25 8.93611 -6.13075 272.548 
1.31404e-05 1.36182e-05 2.69583e+25 3.35728 -11.3119 272.624 
1.50518e-05 1.36182e-05 2.70234e+25 -1.88969 -17.4427 272.589 
1.69631e-05 1.36182e-05 2.70232e+25 -0.249923 -4.77745 272.802 
1.67242e-06 1.40961e-05 2.68626e+25 16.7529 1.04399 272.248 
3.58375e-06 1.40961e-05 2.68499e+25 17.3446 0.185138 272.242 
5.49508e-06 1.40961e-05 2.68397e+25 17.2069 -0.429528 272.433 
7.40642e-06 1.40961e-05 2.68748e+25 16.4383 -1.46271 272.34 
9.31775e-06 1.40961e-05 2.68807e+25 14.5421 -2.60878 272.441 
1.12291e-05 1.40961e-05 2.69138e+25 11.1819 -4.99479 272.486 
1.31404e-05 1.40961e-05 2.6959e+25 5.33328 -9.53089 272.731 
1.50518e-05 1.40961e-05 2.70378e+25 -1.31345 -16.6783 272.647 
1.69631e-05 1.40961e-05 2.70619e+25 -0.234907 -5.34544 272.815 
1.67242e-06 1.45739e-05 2.68455e+25 19.1565 0.94302 272.295 
3.58375e-06 1.45739e-05 2.6855e+25 19.4722 0.131731 272.161 
5.49508e-06 1.45739e-05 2.68707e+25 19.5908 -0.156483 272.213 
7.40642e-06 1.45739e-05 2.68546e+25 18.7965 -1.17217 272.428 
9.31775e-06 1.45739e-05 2.68755e+25 16.9129 -2.06397 272.425 
1.12291e-05 1.45739e-05 2.69171e+25 13.6129 -3.77617 272.603 
1.31404e-05 1.45739e-05 2.6963e+25 7.81404 -7.56774 272.723 
1.50518e-05 1.45739e-05 2.70549e+25 -0.26505 -15.4621 272.793 
1.69631e-05 1.45739e-05 2.71166e+25 -0.294889 -5.9481 272.92 
1.67242e-06 1.50518e-05 2.6841e+25 21.7689 0.803725 272.394 
3.58375e-06 1.50518e-05 2.68547e+25 22.1798 0.107363 272.341 
5.49508e-06 1.50518e-05 2.68708e+25 21.9477 0.0140407 272.193 
7.40642e-06 1.50518e-05 2.68644e+25 21.3334 -0.944898 272.377 
9.31775e-06 1.50518e-05 2.68939e+25 19.6996 -1.59339 272.422 
1.12291e-05 1.50518e-05 2.69083e+25 16.5123 -2.71115 272.739 
1.31404e-05 1.50518e-05 2.69541e+25 10.841 -5.63389 272.907 
1.50518e-05 1.50518e-05 2.70707e+25 1.50458 -13.5299 272.834 
1.69631e-05 1.50518e-05 2.71755e+25 -0.415705 -6.70793 273.014 
1.67242e-06 1.55296e-05 2.68284e+25 24.5762 0.656748 272.478 
3.58375e-06 1.55296e-05 2.68453e+25 24.8678 0.0639426 272.308 
5.49508e-06 1.55296e-05 2.6879e+25 24.694 0.0370654 272.216 
7.40642e-06 1.55296e-05 2.6865e+25 24.0453 -0.706899 272.418 
9.31775e-06 1.55296e-05 2.68898e+25 22.5825 -1.05676 272.325 
1.12291e-05 1.55296e-05 2.69071e+25 19.8892 -1.76869 272.68 
1.31404e-05 1.55296e-05 2.69535e+25 14.697 -3.6901 273.054 
1.50518e-05 1.55296e-05 2.71239e+25 4.51648 -10.7751 272.752 
1.69631e-05 1.55296e-05 2.72787e+25 -0.573356 -7.74046 273.134 
1.67242e-06 1.60074e-05 2.68226e+25 27.2971 0.454712 272.621 
3.58375e-06 1.60074e-05 2.68621e+25 27.7203 0.0968703 272.257 
5.49508e-06 1.60074e-05 2.68495e+25 27.5925 -0.021974 272.476 
7.40642e-06 1.60074e-05 2.6853e+25 27.0238 -0.337198 272.579 
9.31775e-06 1.60074e-05 2.68718e+25 25.7815 -0.481623 272.503 
1.12291e-05 1.60074e-05 2.69028e+25 23.7448 -0.994666 272.755 
1.31404e-05 1.60074e-05 2.69517e+25 19.3036 -1.98683 273.033 
1.50518e-05 1.60074e-05 2.71113e+25 9.3804 -7.26978 273.227 
1.69631e-05 1.60074e-05 2.74577e+25 -0.652211 -8.91025 273.041 
1.67242e-06 1.64852e-05 2.67933e+25 30.1472 0.233819 272.841 
3.58375e-06 1.64852e-05 2.6839e+25 30.4431 0.106783 272.423 
5.49508e-06 1.64852e-05 2.68274e+25 30.4316 -0.0273591 272.625 
7.40642e-06 1.64852e-05 2.68405e+25 30.0173 -0.148084 272.554 
9.31775e-06 1.64852e-05 2.68709e+25 29.1953 -0.191234 272.575 
1.12291e-05 1.64852e-05 2.68989e+25 27.8011 -0.478223 272.791 
1.31404e-05 1.64852e-05 2.69328e+25 24.76 -0.739068 273.214 
1.50518e-05 1.64852e-05 2.70989e+25 16.8681 -3.59246 273.355 
1.69631e-05 1.64852e-05 2.77148e+25 -0.0202841 -9.57407 273.283 
1.67242e-06 1.69631e-05 2.679e+25 32.9629 0.0800996 272.959 
3.58375e-06 1.69631e-05 2.68069e+25 32.9227 0.0258173 272.828 
5.49508e-06 1.69631e-05 2.68036e+25 33.0418 -0.0169195 272.912 
7.40642e-06 1.69631e-05 2.68214e+25 32.8705 -0.0351424 272.804 
9.31775e-06 1.69631e-05 2.68437e+25 32.4339 -0.0403193 272.951 
1.12291e-05 1.69631e-05 2.6889e+25 31.7602 -0.106431 272.928 
1.31404e-05 1.69631e-05 2.69332e+25 30.7188 -0.0899001 273.176 
1.50518e-05 1.69631e-05 2.70862e+25 26.8053 -0.809664 273.3 
1.69631e-05 1.69631e-05 2.85272e+25 4.084 -6.16581 273.915 
2.38917e-07 2.38917e-07 2.68615e+25 -7.43904 1.7956 272.056 
2.15025e-06 2.38917e-07 2.68958e+25 -8.11546 -0.41538 271.885 
4.06158e-06 2.38917e-07 2.68595e+25 -8.02337 -2.53854 272.242 
5.97292e-06 2.38917e-07 2.68574e+25 -7.52918 -4.36522 272.317 
7.88425e-06 2.38917e-07 2.68738e+25 -7.20218 -6.74568 272.232 
9.79558e-06 2.38917e-07 2.68824e+25 -5.80106 -8.32222 272.145 
1.17069e-05 2.38917e-07 2.68726e+25 -4.23812 -8.1032 272.286 
1.36182e-05 2.38917e-07 2.68781e+25 -2.09824 -6.58135 272.098 
1.55296e-05 2.38917e-07 2.68697e+25 -0.576037 -3.44333 272.285 
2.38917e-07 7.1675e-07 2.68803e+25 -7.39081 1.83927 272.053 
2.15025e-06 7.1675e-07 2.69034e+25 -8.01252 -0.259976 272.054 
4.06158e-06 7.1675e-07 2.68914e+25 -8.14678 -2.69409 272.13 
5.97292e-06 7.1675e-07 2.68799e+25 -7.55913 -4.58627 272.289 
7.88425e-06 7.1675e-07 2.68905e+25 -7.15026 -6.9003 272.284 
9.79558e-06 7.1675e-07 2.69027e+25 -6.04174 -8.69133 272.141 
1.17069e-05 7.1675e-07 2.68969e+25 -4.34133 -8.51856 272.224 
1.36182e-05 7.1675e-07 2.68977e+25 -2.39118 -7.12138 272.277 
1.55296e-05 7.1675e-07 2.68968e+25 -0.522763 -3.74474 272.323 
2.38917e-07 1.19458e-06 2.68747e+25 -7.13126 2.02511 272.09 
2.15025e-06 1.19458e-06 2.69086e+25 -7.80634 -0.167632 271.938 
4.06158e-06 1.19458e-06 2.68953e+25 -8.13276 -2.76106 272.085 
5.97292e-06 1.19458e-06 2.68742e+25 -7.78129 -4.80357 272.405 
7.88425e-06 1.19458e-06 2.68947e+25 -7.09833 -6.97566 272.205 
9.79558e-06 1.19458e-06 2.68858e+25 -6.22365 -9.01919 272.301 
1.17069e-05 1.19458e-06 2.69086e+25 -4.54553 -9.11699 272.119 
1.36182e-05 1.19458e-06 2.69011e+25 -2.28098 -7.68792 272.3 
1.55296e-05 1.19458e-06 2.69027e+25 -0.664226 -4.16452 272.209 
2.38917e-07 1.67242e-06 2.68596e+25 -6.74837 2.1246 271.988 
2.15025e-06 1.67242e-06 2.68881e+25 -7.77634 -0.0757776 272.079 
4.06158e-06 1.67242e-06 2.69139e+25 -8.10419 -2.83459 271.909 
5.97292e-06 1.67242e-06 2.68822e+25 -7.9079 -5.02074 272.232 
7.88425e-06 1.67242e-06 2.687e+25 -7.17434 -7.20914 272.441 
9.79558e-06 1.67242e-06 2.68713e+25 -6.47778 -9.28933 272.435 
1.17069e-05 1.67242e-06 2.69019e+25 -4.71218 -9.66891 272.246 
1.36182e-05 1.67242e-06 2.68941e+25 -2.46965 -8.177 272.309 
1.55296e-05 1.67242e-06 2.68941e+25 -0.639194 -4.42888 272.249 
2.38917e-07 2.15025e-06 2.68652e+25 -6.76788 2.29535 272.032 
2.15025e-06 2.15025e-06 2.68784e+25 -7.57953 0.228595 272.152 
4.06158e-06 2.15025e-06 2.68932e+25 -8.21114 -2.74709 272.049 
5.97292e-06 2.15025e-06 2.68812e+25 -8.01418 -5.20934 272.24 
7.88425e-06 2.15025e-06 2.68788e+25 -7.37344 -7.43462 272.449 
9.79558e-06 2.15025e-06 2.68781e+25 -6.60764 -9.5703 272.392 
1.17069e-05 2.15025e-06 2.69195e+25 -4.85428 -10.1473 272.082 
1.36182e-05 2.15025e-06 2.69085e+25 -2.80152 -8.66234 272.242 
1.55296e-05 2.15025e-06 2.69025e+25 -0.592282 -4.77326 272.194 
2.38917e-07 2.62808e-06 2.68847e+25 -6.46913 2.54627 271.944 
2.15025e-06 2.62808e-06 2.68843e+25 -7.27781 0.514673 272.119 
4.06158e-06 2.62808e-06 2.68977e+25 -7.88421 -2.63896 272.072 
5.97292e-06 2.62808e-06 2.6878e+25 -7.93298 -5.24956 272.229 
7.88425e-06 2.62808e-06 2.68814e+25 -7.60236 -7.61493 272.243 
9.79558e-06 2.62808e-06 2.68736e+25 -6.79889 -9.84189 272.284 
1.17069e-05 2.62808e-06 2.69165e+25 -5.18528 -10.6293 272.083 
1.36182e-05 2.62808e-06 2.69235e+25 -2.95675 -9.21064 271.966 
1.55296e-05 2.62808e-06 2.69026e+25 -0.770769 -5.20801 272.295 
2.38917e-07 3.10592e-06 2.68492e+25 -6.15647 2.75669 272.159 
2.15025e-06 3.10592e-06 2.68804e+25 -6.9207 0.795763 272.073 
4.06158e-06 3.10592e-06 2.68863e+25 -7.60378 -2.53342 272.124 
5.97292e-06 3.10592e-06 2.68827e+25 -7.923 -5.15296 272.134 
7.88425e-06 3.10592e-06 2.68794e+25 -7.58825 -7.75107 272.37 
9.79558e-06 3.10592e-06 2.68776e+25 -7.02036 -10.0065 272.332 
1.17069e-05 3.10592e-06 2.69026e+25 -5.22701 -11.2727 272.105 
1.36182e-05 3.10592e-06 2.69249e+25 -3.08134 -9.81911 272.022 
1.55296e-05 3.10592e-06 2.68765e+25 -0.829598 -5.64757 272.413 
2.38917e-07 3.58375e-06 2.68527e+25 -5.80671 2.96388 272.176 
2.15025e-06 3.58375e-06 2.68763e+25 -6.39488 0.940982 272.192 
4.06158e-06 3.58375e-06 2.68581e+25 -7.20152 -2.35263 272.285 
5.97292e-06 3.58375e-06 2.68537e+25 -7.81966 -5.09204 272.377 
7.88425e-06 3.58375e-06 2.68679e+25 -7.59348 -7.89125 272.363 
9.79558e-06 3.58375e-06 2.68848e+25 -7.0066 -10.1957 272.393 
1.17069e-05 3.58375e-06 2.69194e+25 -5.48989 -11.7635 272.08 
1.36182e-05 3.58375e-06 2.69061e+25 -3.12883 -10.4595 272.101 
1.55296e-05 3.58375e-06 2.69188e+25 -0.920388 -5.97471 272.075 
2.38917e-07 4.06158e-06 2.68263e+25 -5.35323 3.24422 272.248 
2.15025e-06 4.06158e-06 2.6874e+25 -5.72127 1.00721 272.169 
4.06158e-06 4.06158e-06 2.68442e+25 -6.81225 -2.09652 272.306 
5.97292e-06 4.06158e-06 2.68628e+25 -7.385 -5.05023 272.39 
7.88425e-06 4.06158e-06 2.68588e+25 -7.42285 -7.94377 272.399 
9.79558e-06 4.06158e-06 2.68693e+25 -6.97871 -10.5173 272.388 
1.17069e-05 4.06158e-06 2.69105e+25 -5.6321 -12.1946 272.012 
1.36182e-05 4.06158e-06 2.69283e+25 -3.23725 -11.171 272.006 
1.55296e-05 4.06158e-06 2.68986e+25 -0.813279 -6.47728 272.17 
2.38917e-07 4.53942e-06 2.68109e+25 -4.84739 3.43386 272.399 
2.15025e-06 4.53942e-06 2.68822e+25 -5.32631 1.20921 272.017 
4.06158e-06 4.53942e-06 2.68656e+25 -6.17601 -1.78627 272.186 
5.97292e-06 4.53942e-06 2.68432e+25 -6.87554 -5.11371 272.497 
7.88425e-06 4.53942e-06 2.68692e+25 -7.08422 -7.98272 272.331 
9.79558e-06 4.53942e-06 2.68655e+25 -6.78989 -10.7993 272.438 
1.17069e-05 4.53942e-06 2.69053e+25 -5.76923 -12.6305 272.151 
1.36182e-05 4.53942e-06 2.69201e+25 -3.40896 -11.7758 272.011 
1.55296e-05 4.53942e-06 2.69009e+25 -0.795102 -6.94815 272.26 
2.38917e-07 5.01725e-06 2.68278e+25 -4.51888 3.43341 272.341 
2.15025e-06 5.01725e-06 2.68681e+25 -4.78293 1.30201 272.057 
4.06158e-06 5.01725e-06 2.68846e+25 -5.51504 -1.50878 272.153 
5.97292e-06 5.01725e-06 2.68415e+25 -6.27766 -4.96519 272.432 
7.88425e-06 5.01725e-06 2.686e+25 -6.95778 -7.92327 272.244 
9.79558e-06 5.01725e-06 2.68531e+25 -6.63162 -11.0888 272.399 
1.17069e-05 5.01725e-06 2.69002e+25 -5.65962 -13.1041 272.188 
1.36182e-05 5.01725e-06 2.69157e+25 -3.27396 -12.4466 272.053 
1.55296e-05 5.01725e-06 2.68992e+25 -0.944182 -7.46521 272.198 
2.38917e-07 5.49508e-06 2.68235e+25 -3.92003 3.45846 272.352 
2.15025e-06 5.49508e-06 2.68746e+25 -4.36633 1.44539 271.981 
4.06158e-06 5.49508e-06 2.68711e+25 -4.8661 -1.30858 271.998 
5.97292e-06 5.49508e-06 2.6852e+25 -5.93681 -4.6962 272.347 
7.88425e-06 5.49508e-06 2.686e+25 -6.64325 -7.78045 272.23 
9.79558e-06 5.49508e-06 2.68855e+25 -6.50155 -11.3445 272.231 
1.17069e-05 5.49508e-06 2.6895e+25 -5.26601 -13.6017 272.258 
1.36182e-05 5.49508e-06 2.69238e+25 -3.34635 -13.1657 272.017 
1.55296e-05 5.49508e-06 2.68983e+25 -0.950434 -8.00207 272.334 
2.38917e-07 5.97292e-06 2.68336e+25 -3.40873 3.50754 272.237 
2.15025e-06 5.97292e-06 2.68824e+25 -3.50699 1.56621 271.93 
4.06158e-06 5.97292e-06 2.68684e+25 -4.25129 -1.12212 272.062 
5.97292e-06 5.97292e-06 2.68682e+25 -5.56924 -4.49211 272.237 
7.88425e-06 5.97292e-06 2.68664e+25 -6.12239 -7.69202 272.222 
9.79558e-06 5.97292e-06 2.68905e+25 -6.16989 -11.548 272.185 
1.17069e-05 5.97292e-06 2.68904e+25 -5.16813 -13.9948 272.19 
1.36182e-05 5.97292e-06 2.68926e+25 -3.18517 -13.6716 272.233 
1.55296e-05 5.97292e-06 2.68898e+25 -1.06822 -8.53192 272.434 
2.38917e-07 6.45075e-06 2.68714e+25 -2.68569 3.44818 271.845 
2.15025e-06 6.45075e-06 2.68968e+25 -2.91321 1.62268 271.822 
4.06158e-06 6.45075e-06 2.68561e+25 -3.67043 -0.956126 272.119 
5.97292e-06 6.45075e-06 2.6853e+25 -4.73474 -4.14186 272.252 
7.88425e-06 6.45075e-06 2.6865e+25 -5.67403 -7.56048 272.15 
9.79558e-06 6.45075e-06 2.68898e+25 -5.90783 -11.5163 272.137 
1.17069e-05 6.45075e-06 2.69013e+25 -5.24995 -14.3063 272.141 
1.36182e-05 6.45075e-06 2.6901e+25 -3.41318 -14.2482 272.346 
1.55296e-05 6.45075e-06 2.69088e+25 -1.01451 -8.99435 272.311 
2.38917e-07 6.92858e-06 2.68884e+25 -2.22842 3.31419 271.774 
2.15025e-06 6.92858e-06 2.68721e+25 -2.12782 1.61069 272.018 
4.06158e-06 6.92858e-06 2.68546e+25 -2.97583 -0.724947 272.258 
5.97292e-06 6.92858e-06 2.68454e+25 -3.87101 -3.78962 272.184 
7.88425e-06 6.92858e-06 2.68497e+25 -5.02473 -7.38552 272.228 
9.79558e-06 6.92858e-06 2.68794e+25 -5.41321 -11.5319 272.317 
1.17069e-05 6.92858e-06 2.68738e+25 -5.2363 -14.4733 272.413 
1.36182e-05 6.92858e-06 2.6917e+25 -3.59319 -15.0006 272.147 
1.55296e-05 6.92858e-06 2.68999e+25 -1.21029 -9.5054 272.163 
2.38917e-07 7.40642e-06 2.68572e+25 -1.52629 3.19666 271.957 
2.15025e-06 7.40642e-06 2.6873e+25 -1.3002 1.63386 272.018 
4.06158e-06 7.40642e-06 2.68424e+25 -2.21553 -0.54846 272.375 
5.97292e-06 7.40642e-06 2.68475e+25 -2.92117 -3.52755 272.242 
7.88425e-06 7.40642e-06 2.68745e+25 -4.00828 -7.18483 272.156 
9.79558e-06 7.40642e-06 2.68583e+25 -4.8445 -11.4541 272.415 
1.17069e-05 7.40642e-06 2.68988e+25 -4.99413 -14.4834 272.364 
1.36182e-05 7.40642e-06 2.68981e+25 -3.69143 -15.5087 272.273 
1.55296e-05 7.40642e-06 2.69295e+25 -1.27639 -10.1242 272.091 
2.38917e-07 7.88425e-06 2.68334e+25 -0.931109 3.20958 272.016 
2.15025e-06 7.88425e-06 2.6857e+25 -0.67183 1.84276 272.118 
4.06158e-06 7.88425e-06 2.68427e+25 -1.11539 -0.312384 272.399 
5.97292e-06 7.88425e-06 2.68391e+25 -1.92037 -3.27015 272.269 
7.88425e-06 7.88425e-06 2.68678e+25 -3.11365 -6.95908 272.253 
9.79558e-06 7.88425e-06 2.68511e+25 -4.23654 -11.0744 272.397 
1.17069e-05 7.88425e-06 2.68638e+25 -4.87114 -14.5096 272.575 
1.36182e-05 7.88425e-06 2.69422e+25 -3.63427 -15.902 272.049 
1.55296e-05 7.88425e-06 2.69177e+25 -1.34293 -10.6934 272.186 
2.38917e-07 8.36208e-06 2.68377e+25 0.0259389 3.27945 272.077 
2.15025e-06 8.36208e-06 2.68457e+25 -0.092856 1.97802 272.187 
4.06158e-06 8.36208e-06 2.68418e+25 -0.145761 -0.00861794 272.376 
5.97292e-06 8.36208e-06 2.68506e+25 -0.940737 -3.00718 272.308 
7.88425e-06 8.36208e-06 2.687e+25 -2.15849 -6.61559 272.116 
9.79558e-06 8.36208e-06 2.68641e+25 -3.70497 -10.6258 272.308 
1.17069e-05 8.36208e-06 2.68765e+25 -4.643 -14.5773 272.386 
1.36182e-05 8.36208e-06 2.69143e+25 -3.83459 -16.4018 272.323 
1.55296e-05 8.36208e-06 2.69217e+25 -1.39172 -11.3053 272.259 
2.38917e-07 8.83992e-06 2.68538e+25 0.92699 3.19983 272.043 
2.15025e-06 8.83992e-06 2.68774e+25 0.736022 1.96104 271.964 
4.06158e-06 8.83992e-06 2.68529e+25 0.847472 0.166615 272.169 
5.97292e-06 8.83992e-06 2.68462e+25 0.155287 -2.83593 272.203 
7.88425e-06 8.83992e-06 2.6879e+25 -1.14132 -6.23252 272.113 
9.79558e-06 8.83992e-06 2.68625e+25 -2.76835 -10.2975 272.313 
1.17069e-05 8.83992e-06 2.6894e+25 -4.14705 -14.5278 272.371 
1.36182e-05 8.83992e-06 2.69051e+25 -3.83256 -16.8665 272.422 
1.55296e-05 8.83992e-06 2.69267e+25 -1.51333 -11.9054 272.362 
2.38917e-07 9.31775e-06 2.68721e+25 1.75601 3.08348 271.864 
2.15025e-06 9.31775e-06 2.68619e+25 1.52478 1.89552 272.051 
4.06158e-06 9.31775e-06 2.68435e+25 1.75765 0.106009 272.256 
5.97292e-06 9.31775e-06 2.68486e+25 1.23354 -2.62677 272.286 
7.88425e-06 9.31775e-06 2.68703e+25 -0.0902664 -5.85659 272.228 
9.79558e-06 9.31775e-06 2.68659e+25 -1.78819 -9.89891 272.369 
1.17069e-05 9.31775e-06 2.68968e+25 -3.57556 -14.1746 272.296 
1.36182e-05 9.31775e-06 2.68993e+25 -3.84422 -17.1908 272.484 
1.55296e-05 9.31775e-06 2.69542e+25 -1.55462 -12.4393 272.175 
2.38917e-07 9.79558e-06 2.6862e+25 2.49825 2.9974 271.935 
2.15025e-06 9.79558e-06 2.68716e+25 2.8743 1.87559 272 
4.06158e-06 9.79558e-06 2.68603e+25 2.85079 -0.0122014 272.235 
5.97292e-06 9.79558e-06 2.68483e+25 2.38952 -2.31344 272.316 
7.88425e-06 9.79558e-06 2.68816e+25 1.21407 -5.52009 272.121 
9.79558e-06 9.79558e-06 2.6873e+25 -0.724798 -9.45758 272.325 
1.17069e-05 9.79558e-06 2.69143e+25 -2.84058 -13.7599 272.332 
1.36182e-05 9.79558e-06 2.68995e+25 -3.50296 -17.4253 272.464 
1.55296e-05 9.79558e-06 2.69385e+25 -1.56715 -13.1571 272.394 
2.38917e-07 1.02734e-05 2.68652e+25 3.36591 2.97283 271.906 
2.15025e-06 1.02734e-05 2.6887e+25 4.0544 1.75789 271.907 
4.06158e-06 1.02734e-05 2.68258e+25 4.00508 -0.082376 272.293 
5.97292e-06 1.02734e-05 2.68344e+25 3.61815 -1.95786 272.429 
7.88425e-06 1.02734e-05 2.68671e+25 2.53913 -5.11039 272.172 
9.79558e-06 1.02734e-05 2.68702e+25 0.454457 -8.87451 272.248 
1.17069e-05 1.02734e-05 2.68927e+25 -1.9939 -13.2095 272.434 
1.36182e-05 1.02734e-05 2.69064e+25 -3.16801 -17.5453 272.565 
1.55296e-05 1.02734e-05 2.69448e+25 -1.35534 -13.7811 272.363 
2.38917e-07 1.07512e-05 2.68661e+25 4.54744 2.97993 271.83 
2.15025e-06 1.07512e-05 2.68755e+25 5.28224 1.6492 271.898 
4.06158e-06 1.07512e-05 2.68349e+25 5.38114 -0.00362242 272.268 
5.97292e-06 1.07512e-05 2.68322e+25 4.926 -1.78941 272.457 
7.88425e-06 1.07512e-05 2.68837e+25 3.82351 -4.6694 272.051 
9.79558e-06 1.07512e-05 2.68557e+25 1.53233 -8.33937 272.473 
1.17069e-05 1.07512e-05 2.69108e+25 -1.075 -12.6722 272.41 
1.36182e-05 1.07512e-05 2.69188e+25 -2.79738 -17.4873 272.536 
1.55296e-05 1.07512e-05 2.69415e+25 -1.42432 -14.395 272.541 
2.38917e-07 1.12291e-05 2.68715e+25 5.78479 2.85105 271.826 
2.15025e-06 1.12291e-05 2.68813e+25 6.55086 1.5591 271.997 
4.06158e-06 1.12291e-05 2.68605e+25 6.73667 0.05319 272.172 
5.97292e-06 1.12291e-05 2.68325e+25 6.32748 -1.70803 272.346 
7.88425e-06 1.12291e-05 2.68648e+25 5.1704 -4.21603 272.129 
9.79558e-06 1.12291e-05 2.68719e+25 2.88656 -7.5575 272.398 
1.17069e-05 1.12291e-05 2.69222e+25 -0.052486 -12.0997 272.267 
1.36182e-05 1.12291e-05 2.69306e+25 -2.35188 -17.188 272.422 
1.55296e-05 1.12291e-05 2.69557e+25 -1.51423 -15.0246 272.431 
2.38917e-07 1.17069e-05 2.68452e+25 7.29624 2.66778 272.06 
2.15025e-06 1.17069e-05 2.68776e+25 7.89668 1.4319 271.858 
4.06158e-06 1.17069e-05 2.68626e+25 8.1841 0.226128 272.049 
5.97292e-06 1.17069e-05 2.68606e+25 7.86548 -1.54128 272.311 
7.88425e-06 1.17069e-05 2.68861e+25 6.56193 -3.6757 272.044 
9.79558e-06 1.17069e-05 2.68945e+25 4.30938 -6.76648 272.271 
1.17069e-05 1.17069e-05 2.69216e+25 0.962681 -11.4374 272.355 
1.36182e-05 1.17069e-05 2.69456e+25 -1.94307 -16.8432 272.334 
1.55296e-05 1.17069e-05 2.69572e+25 -1.6936 -15.5656 272.537 
2.38917e-07 1.21847e-05 2.68522e+25 8.8499 2.42871 272.075 
2.15025e-06 1.21847e-05 2.68858e+25 9.48174 1.28905 271.899 
4.06158e-06 1.21847e-05 2.68752e+25 9.65183 0.390515 271.968 
5.97292e-06 1.21847e-05 2.68556e+25 9.32648 -1.40031 272.117 
7.88425e-06 1.21847e-05 2.68798e+25 7.99216 -3.30499 272.139 
9.79558e-06 1.21847e-05 2.68922e+25 5.76739 -6.09167 272.188 
1.17069e-05 1.21847e-05 2.69248e+25 2.33452 -10.5398 272.369 
1.36182e-05 1.21847e-05 2.69515e+25 -1.15815 -16.3901 272.334 
1.55296e-05 1.21847e-05 2.69839e+25 -1.85348 -16.1216 272.563 
2.38917e-07 1.26626e-05 2.68212e+25 10.5395 2.20124 272.276 
2.15025e-06 1.26626e-05 2.68913e+25 11.0041 1.14769 271.904 
4.06158e-06 1.26626e-05 2.68813e+25 11.4569 0.403919 271.906 
5.97292e-06 1.26626e-05 2.68697e+25 11.0863 -1.20452 272.211 
7.88425e-06 1.26626e-05 2.68638e+25 9.73177 -3.05856 272.209 
9.79558e-06 1.26626e-05 2.68949e+25 7.60291 -5.29476 272.323 
1.17069e-05 1.26626e-05 2.69219e+25 3.98912 -9.45137 272.368 
1.36182e-05 1.26626e-05 2.69787e+25 -0.37336 -15.5813 272.319 
1.55296e-05 1.26626e-05 2.70121e+25 -1.8586 -16.5272 272.533 
2.38917e-07 1.31404e-05 2.68103e+25 12.1914 1.95328 272.381 
2.15025e-06 1.31404e-05 2.68689e+25 12.7154 0.990313 272.05 
4.06158e-06 1.31404e-05 2.6873e+25 13.3696 0.229531 271.993 
5.97292e-06 1.31404e-05 2.68541e+25 13.1417 -1.07331 272.337 
7.88425e-06 1.31404e-05 2.68917e+25 11.8041 -2.62682 272.179 
9.79558e-06 1.31404e-05 2.68902e+25 9.56692 -4.52316 272.309 
1.17069e-05 1.31404e-05 2.69078e+25 5.87774 -8.35222 272.606 
1.36182e-05 1.31404e-05 2.69844e+25 0.534927 -14.3868 272.3 
1.55296e-05 1.31404e-05 2.70185e+25 -1.9374 -16.8308 272.63 
2.38917e-07 1.36182e-05 2.68162e+25 13.9417 1.6132 272.475 
2.15025e-06 1.36182e-05 2.68554e+25 14.7598 0.878911 272.15 
4.06158e-06 1.36182e-05 2.68524e+25 15.3597 0.108345 272.167 
5.97292e-06 1.36182e-05 2.6834e+25 14.9631 -0.930766 272.572 
7.88425e-06 1.36182e-05 2.68964e+25 14.053 -2.20267 272.075 
9.79558e-06 1.36182e-05 2.68978e+25 11.5047 -3.73077 272.3 
1.17069e-05 1.36182e-05 2.6919e+25 7.75097 -7.10238 272.563 
1.36182e-05 1.36182e-05 2.69908e+25 1.65859 -12.8954 272.357 
1.55296e-05 1.36182e-05 2.70421e+25 -2.02053 -17.0909 272.658 
2.38917e-07 1.40961e-05 2.68152e+25 16.0167 1.15195 272.361 
2.15025e-06 1.40961e-05 2.68725e+25 16.8389 0.776046 272.168 
4.06158e-06 1.40961e-05 2.68624e+25 17.3846 0.0735908 272.147 
5.97292e-06 1.40961e-05 2.68378e+25 16.9825 -0.782197 272.413 
7.88425e-06 1.40961e-05 2.68801e+25 16.1035 -1.76066 272.243 
9.79558e-06 1.40961e-05 2.68978e+25 13.8722 -3.05023 272.415 
1.17069e-05 1.40961e-05 2.69204e+25 9.86054 -5.74325 272.67 
1.36182e-05 1.40961e-05 2.69817e+25 3.36809 -11.0486 272.599 
1.55296e-05 1.40961e-05 2.70684e+25 -1.85922 -17.0969 272.556 
2.38917e-07 1.45739e-05 2.68155e+25 18.2631 0.755272 272.359 
2.15025e-06 1.45739e-05 2.68569e+25 19.2832 0.670534 272.172 
4.06158e-06 1.45739e-05 2.68541e+25 19.559 -0.000684565 272.254 
5.97292e-06 1.45739e-05 2.68456e+25 19.2524 -0.486331 272.408 
7.88425e-06 1.45739e-05 2.68713e+25 18.4124 -1.28942 272.291 
9.79558e-06 1.45739e-05 2.68986e+25 16.3277 -2.32562 272.473 
1.17069e-05 1.45739e-05 2.69279e+25 12.433 -4.465 272.685 
1.36182e-05 1.45739e-05 2.69903e+25 5.79872 -9.0273 272.781 
1.55296e-05 1.45739e-05 2.7085e+25 -1.46488 -16.6232 272.762 
2.38917e-07 1.50518e-05 2.68195e+25 20.9701 0.46039 272.429 
2.15025e-06 1.50518e-05 2.68593e+25 21.8787 0.551054 272.342 
4.06158e-06 1.50518e-05 2.68541e+25 22.1879 -0.0928799 272.227 
5.97292e-06 1.50518e-05 2.6841e+25 21.8821 -0.255875 272.406 
7.88425e-06 1.50518e-05 2.68737e+25 21.0851 -0.939484 272.514 
9.79558e-06 1.50518e-05 2.6892e+25 19.1132 -1.67568 272.51 
1.17069e-05 1.50518e-05 2.69336e+25 15.4755 -3.30313 272.661 
1.36182e-05 1.50518e-05 2.69834e+25 8.81582 -6.93346 272.919 
1.55296e-05 1.50518e-05 2.71335e+25 -0.492553 -15.4645 272.698 
2.38917e-07 1.55296e-05 2.68021e+25 23.9049 0.236731 272.433 
2.15025e-06 1.55296e-05 2.68234e+25 24.7374 0.369739 272.539 
4.06158e-06 1.55296e-05 2.68587e+25 24.8247 -0.0484779 272.244 
5.97292e-06 1.55296e-05 2.68532e+25 24.7778 -0.235691 272.41 
7.88425e-06 1.55296e-05 2.68651e+25 23.8222 -0.706264 272.456 
9.79558e-06 1.55296e-05 2.68889e+25 22.0605 -1.10038 272.509 
1.17069e-05 1.55296e-05 2.69222e+25 19.0059 -2.28834 272.8 
1.36182e-05 1.55296e-05 2.697e+25 12.6807 -4.79572 273.135 
1.55296e-05 1.55296e-05 2.71671e+25 1.52451 -13.3228 272.921 
2.38917e-07 1.60074e-05 2.68126e+25 26.7726 0.0416009 272.545 
2.15025e-06 1.60074e-05 2.68123e+25 27.4232 0.246367 272.622 
4.06158e-06 1.60074e-05 2.68562e+25 27.5925 0.0996631 272.325 
5.97292e-06 1.60074e-05 2.6864e+25 27.6049 -0.24048 272.345 
7.88425e-06 1.60074e-05 2.68557e+25 26.7466 -0.555651 272.453 
9.79558e-06 1.60074e-05 2.68725e+25 25.3407 -0.686072 272.709 
1.17069e-05 1.60074e-05 2.69265e+25 22.9513 -1.36397 272.701 
1.36182e-05 1.60074e-05 2.69821e+25 17.6131 -2.83194 273.065 
1.55296e-05 1.60074e-05 2.7191e+25 5.44496 -9.93765 273.167 
2.38917e-07 1.64852e-05 2.67956e+25 29.8833 -0.022384 272.648 
2.15025e-06 1.64852e-05 2.68124e+25 30.3676 0.109604 272.678 
4.06158e-06 1.64852e-05 2.6834e+25 30.523 0.127714 272.429 
5.97292e-06 1.64852e-05 2.68341e+25 30.3769 -0.196351 272.533 
7.88425e-06 1.64852e-05 2.68471e+25 29.8566 -0.314926 272.513 
9.79558e-06 1.64852e-05 2.68481e+25 28.9292 -0.293829 272.768 
1.17069e-05 1.64852e-05 2.69095e+25 27.2167 -0.54814 272.742 
1.36182e-05 1.64852e-05 2.69625e+25 23.6614 -1.23944 273.179 
1.55296e-05 1.64852e-05 2.71889e+25 12.7489 -5.4358 273.437 
2.38917e-07 1.69631e-05 2.67803e+25 32.9078 -0.00192288 272.868 
2.15025e-06 1.69631e-05 2.68076e+25 33.0706 -0.0488893 272.802 
4.06158e-06 1.69631e-05 2.6821e+25 33.0131 0.0692814 272.749 
5.97292e-06 1.69631e-05 2.68201e+25 32.9442 -0.0294542 272.884 
7.88425e-06 1.69631e-05 2.6838e+25 32.6666 -0.0414045 272.789 
9.79558e-06 1.69631e-05 2.68528e+25 32.3242 -0.0444085 272.879 
1.17069e-05 1.69631e-05 2.6902e+25 31.4845 -0.0810535 272.918 
1.36182e-05 1.69631e-05 2.69448e+25 30.2129 -0.247786 273.243 
1.55296e-05 1.69631e-05 2.71622e+25 24.2699 -1.30313 273.491 
7.1675e-07 2.38917e-07 2.68923e+25 -7.61594 1.26576 272.032 
2.62808e-06 2.38917e-07 2.68683e+25 -8.18598 -0.902777 272.157 
4.53942e-06 2.38917e-07 2.68531e+25 -7.89507 -3.07238 272.334 
6.45075e-06 2.38917e-07 2.68491e+25 -7.41105 -5.15311 272.241 
8.36208e-06 2.38917e-07 2.68748e+25 -6.8988 -7.31192 272.119 
1.02734e-05 2.38917e-07 2.68752e+25 -5.38963 -8.46963 272.097 
1.21847e-05 2.38917e-07 2.68821e+25 -3.69105 -7.83315 272.182 
1.40961e-05 2.38917e-07 2.68858e+25 -1.59804 -5.87475 272.083 
1.60074e-05 2.38917e-07 2.6863e+25 -0.351707 -2.53333 272.228 
7.1675e-07 7.1675e-07 2.68804e+25 -7.47676 1.51956 272.078 
2.62808e-06 7.1675e-07 2.68806e+25 -8.12207 -0.943047 272.137 
4.53942e-06 7.1675e-07 2.68819e+25 -8.04255 -3.15552 272.242 
6.45075e-06 7.1675e-07 2.68903e+25 -7.33376 -5.19602 272.169 
8.36208e-06 7.1675e-07 2.68877e+25 -7.03287 -7.54664 272.211 
1.02734e-05 7.1675e-07 2.6904e+25 -5.72143 -8.76783 272.144 
1.21847e-05 7.1675e-07 2.69012e+25 -3.89809 -8.35316 272.228 
1.40961e-05 7.1675e-07 2.69088e+25 -1.7966 -6.37234 272.15 
1.60074e-05 7.1675e-07 2.69009e+25 -0.212215 -2.69859 272.234 
7.1675e-07 1.19458e-06 2.68788e+25 -7.27471 1.60859 272.137 
2.62808e-06 1.19458e-06 2.68949e+25 -7.91592 -0.854758 271.998 
4.53942e-06 1.19458e-06 2.68848e+25 -8.15618 -3.19339 272.103 
6.45075e-06 1.19458e-06 2.68867e+25 -7.56784 -5.40034 272.232 
8.36208e-06 1.19458e-06 2.68946e+25 -6.95847 -7.7287 272.273 
1.02734e-05 1.19458e-06 2.69043e+25 -5.9282 -9.08689 272.237 
1.21847e-05 1.19458e-06 2.68912e+25 -3.95862 -8.81737 272.274 
1.40961e-05 1.19458e-06 2.6902e+25 -1.86498 -6.81801 272.238 
1.60074e-05 1.19458e-06 2.68794e+25 -0.370166 -2.92321 272.454 
7.1675e-07 1.67242e-06 2.68846e+25 -6.96483 1.82558 272.043 
2.62808e-06 1.67242e-06 2.69099e+25 -7.90728 -0.693569 272.127 
4.53942e-06 1.67242e-06 2.68846e+25 -8.12184 -3.11772 272.081 
6.45075e-06 1.67242e-06 2.68867e+25 -7.78682 -5.49952 272.234 
8.36208e-06 1.67242e-06 2.68741e+25 -6.97005 -7.85719 272.413 
1.02734e-05 1.67242e-06 2.69021e+25 -6.12641 -9.44558 272.193 
1.21847e-05 1.67242e-06 2.68904e+25 -4.06923 -9.43375 272.324 
1.40961e-05 1.67242e-06 2.68765e+25 -2.00265 -7.29569 272.308 
1.60074e-05 1.67242e-06 2.6882e+25 -0.373139 -3.11189 272.499 
7.1675e-07 2.15025e-06 2.6899e+25 -6.86332 2.0123 271.989 
2.62808e-06 2.15025e-06 2.68915e+25 -7.77718 -0.63267 272.183 
4.53942e-06 2.15025e-06 2.68862e+25 -8.24583 -3.20869 272.013 
6.45075e-06 2.15025e-06 2.68699e+25 -7.88 -5.61514 272.28 
8.36208e-06 2.15025e-06 2.68789e+25 -7.12204 -8.11905 272.376 
1.02734e-05 2.15025e-06 2.68685e+25 -6.33217 -9.83991 272.438 
1.21847e-05 2.15025e-06 2.69014e+25 -4.43029 -10.0476 272.177 
1.40961e-05 2.15025e-06 2.69016e+25 -2.23498 -7.80454 272.067 
1.60074e-05 2.15025e-06 2.68735e+25 -0.312132 -3.38799 272.549 
7.1675e-07 2.62808e-06 2.68723e+25 -6.68093 2.16862 272.044 
2.62808e-06 2.62808e-06 2.68932e+25 -7.56429 -0.433415 271.966 
4.53942e-06 2.62808e-06 2.68915e+25 -7.90297 -3.19991 272.053 
6.45075e-06 2.62808e-06 2.68752e+25 -7.94321 -5.70437 272.119 
8.36208e-06 2.62808e-06 2.68641e+25 -7.43604 -8.35845 272.419 
1.02734e-05 2.62808e-06 2.68807e+25 -6.44845 -10.1453 272.27 
1.21847e-05 2.62808e-06 2.69165e+25 -4.56781 -10.6091 272.05 
1.40961e-05 2.62808e-06 2.69135e+25 -2.36032 -8.43767 272.127 
1.60074e-05 2.62808e-06 2.68827e+25 -0.396747 -3.65935 272.439 
7.1675e-07 3.10592e-06 2.68779e+25 -6.34089 2.36116 272.044 
2.62808e-06 3.10592e-06 2.68884e+25 -7.16716 -0.193723 272.067 
4.53942e-06 3.10592e-06 2.68746e+25 -7.75266 -3.13184 272.07 
6.45075e-06 3.10592e-06 2.6891e+25 -7.91478 -5.79849 272.184 
8.36208e-06 3.10592e-06 2.68955e+25 -7.40861 -8.5719 272.245 
1.02734e-05 3.10592e-06 2.68957e+25 -6.7068 -10.6424 272.281 
1.21847e-05 3.10592e-06 2.6898e+25 -4.66408 -11.1201 272.159 
1.40961e-05 3.10592e-06 2.69094e+25 -2.38557 -9.09435 272.14 
1.60074e-05 3.10592e-06 2.69009e+25 -0.37068 -4.02627 272.414 
7.1675e-07 3.58375e-06 2.68837e+25 -6.0586 2.57102 272.159 
2.62808e-06 3.58375e-06 2.68591e+25 -6.45373 -0.0105786 272.106 
4.53942e-06 3.58375e-06 2.68541e+25 -7.43995 -2.97792 272.335 
6.45075e-06 3.58375e-06 2.68642e+25 -7.79775 -5.89245 272.367 
8.36208e-06 3.58375e-06 2.68837e+25 -7.53378 -8.64777 272.336 
1.02734e-05 3.58375e-06 2.6889e+25 -6.73647 -11.0237 272.346 
1.21847e-05 3.58375e-06 2.69027e+25 -5.08631 -11.53 272.215 
1.40961e-05 3.58375e-06 2.69239e+25 -2.48487 -9.75203 272.137 
1.60074e-05 3.58375e-06 2.68967e+25 -0.493791 -4.48619 272.279 
7.1675e-07 4.06158e-06 2.6864e+25 -5.51742 2.75281 272.169 
2.62808e-06 4.06158e-06 2.68831e+25 -5.9249 0.182156 272.021 
4.53942e-06 4.06158e-06 2.68571e+25 -7.04963 -2.714 272.382 
6.45075e-06 4.06158e-06 2.68495e+25 -7.37802 -5.95515 272.307 
8.36208e-06 4.06158e-06 2.68744e+25 -7.34037 -8.72456 272.353 
1.02734e-05 4.06158e-06 2.68693e+25 -6.63095 -11.3519 272.547 
1.21847e-05 4.06158e-06 2.6907e+25 -5.16787 -12.0119 272.115 
1.40961e-05 4.06158e-06 2.69115e+25 -2.54057 -10.418 272.137 
1.60074e-05 4.06158e-06 2.68845e+25 -0.416289 -4.80056 272.362 
7.1675e-07 4.53942e-06 2.68704e+25 -4.95435 2.90591 272.185 
2.62808e-06 4.53942e-06 2.68737e+25 -5.5279 0.40285 272.145 
4.53942e-06 4.53942e-06 2.68597e+25 -6.44585 -2.5358 272.291 
6.45075e-06 4.53942e-06 2.68583e+25 -6.90828 -5.8748 272.347 
8.36208e-06 4.53942e-06 2.686e+25 -7.14172 -8.75256 272.303 
1.02734e-05 4.53942e-06 2.68821e+25 -6.54892 -11.595 272.345 
1.21847e-05 4.53942e-06 2.69227e+25 -5.20037 -12.6048 272.175 
1.40961e-05 4.53942e-06 2.69097e+25 -2.76994 -11.0973 272.099 
1.60074e-05 4.53942e-06 2.69029e+25 -0.455556 -5.0842 272.175 
7.1675e-07 5.01725e-06 2.68658e+25 -4.47437 2.99004 272.211 
2.62808e-06 5.01725e-06 2.68659e+25 -4.94266 0.666617 272.122 
4.53942e-06 5.01725e-06 2.68815e+25 -5.7442 -2.33498 272.17 
6.45075e-06 5.01725e-06 2.6849e+25 -6.56139 -5.71048 272.423 
8.36208e-06 5.01725e-06 2.68837e+25 -7.07173 -8.64795 272.174 
1.02734e-05 5.01725e-06 2.68714e+25 -6.45766 -11.7097 272.402 
1.21847e-05 5.01725e-06 2.68931e+25 -5.08985 -13.2668 272.283 
1.40961e-05 5.01725e-06 2.69102e+25 -2.63259 -11.7796 272.161 
1.60074e-05 5.01725e-06 2.68947e+25 -0.467763 -5.39857 272.388 
7.1675e-07 5.49508e-06 2.68624e+25 -3.96619 3.02976 272.2 
2.62808e-06 5.49508e-06 2.6891e+25 -4.46427 0.723944 272.012 
4.53942e-06 5.49508e-06 2.6883e+25 -5.07868 -2.06961 272.091 
6.45075e-06 5.49508e-06 2.68539e+25 -6.1952 -5.41072 272.275 
8.36208e-06 5.49508e-06 2.68561e+25 -6.75331 -8.60989 272.367 
1.02734e-05 5.49508e-06 2.68772e+25 -6.20315 -11.8826 272.345 
1.21847e-05 5.49508e-06 2.68844e+25 -4.86569 -13.757 272.345 
1.40961e-05 5.49508e-06 2.6901e+25 -2.72193 -12.3601 272.205 
1.60074e-05 5.49508e-06 2.68974e+25 -0.454097 -5.77308 272.311 
7.1675e-07 5.97292e-06 2.68576e+25 -3.38174 3.094 272.197 
2.62808e-06 5.97292e-06 2.68856e+25 -3.62314 0.832306 271.941 
4.53942e-06 5.97292e-06 2.68673e+25 -4.47484 -1.77041 272.15 
6.45075e-06 5.97292e-06 2.6864e+25 -5.76711 -5.23614 272.196 
8.36208e-06 5.97292e-06 2.68643e+25 -6.1615 -8.57265 272.256 
1.02734e-05 5.97292e-06 2.68618e+25 -6.08782 -12.0657 272.379 
1.21847e-05 5.97292e-06 2.68908e+25 -4.72693 -14.2053 272.271 
1.40961e-05 5.97292e-06 2.69076e+25 -2.7452 -12.9081 272.278 
1.60074e-05 5.97292e-06 2.68852e+25 -0.610917 -6.16996 272.352 
7.1675e-07 6.45075e-06 2.68632e+25 -2.63501 3.09097 272.08 
2.62808e-06 6.45075e-06 2.687e+25 -2.95704 0.989519 271.983 
4.53942e-06 6.45075e-06 2.68675e+25 -3.75194 -1.5818 272.123 
6.45075e-06 6.45075e-06 2.68539e+25 -5.06252 -5.05697 272.181 
8.36208e-06 6.45075e-06 2.68847e+25 -5.79338 -8.4614 272.115 
1.02734e-05 6.45075e-06 2.68841e+25 -5.86179 -12.2193 272.286 
1.21847e-05 6.45075e-06 2.68916e+25 -4.91861 -14.6897 272.26 
1.40961e-05 6.45075e-06 2.69128e+25 -2.59706 -13.5485 272.269 
1.60074e-05 6.45075e-06 2.69147e+25 -0.65058 -6.5696 272.117 
7.1675e-07 6.92858e-06 2.68827e+25 -2.07884 3.07236 271.962 
2.62808e-06 6.92858e-06 2.68523e+25 -2.2053 1.15765 272.069 
4.53942e-06 6.92858e-06 2.68466e+25 -3.26027 -1.45587 272.326 
6.45075e-06 6.92858e-06 2.68462e+25 -4.20264 -4.74699 272.226 
8.36208e-06 6.92858e-06 2.68714e+25 -5.22567 -8.28846 272.205 
1.02734e-05 6.92858e-06 2.68551e+25 -5.40605 -12.3121 272.459 
1.21847e-05 6.92858e-06 2.68726e+25 -5.07601 -15.0198 272.373 
1.40961e-05 6.92858e-06 2.69126e+25 -2.97404 -14.2557 272.228 
1.60074e-05 6.92858e-06 2.69262e+25 -0.678025 -6.94348 272.124 
7.1675e-07 7.40642e-06 2.6873e+25 -1.45102 2.98124 271.952 
2.62808e-06 7.40642e-06 2.68537e+25 -1.55726 1.43756 272.099 
4.53942e-06 7.40642e-06 2.6835e+25 -2.33051 -1.22939 272.358 
6.45075e-06 7.40642e-06 2.68337e+25 -3.22602 -4.37741 272.34 
8.36208e-06 7.40642e-06 2.68844e+25 -4.23045 -8.06161 272.134 
1.02734e-05 7.40642e-06 2.6874e+25 -5.00665 -12.296 272.37 
1.21847e-05 7.40642e-06 2.68831e+25 -5.02127 -15.1623 272.481 
1.40961e-05 7.40642e-06 2.69163e+25 -3.24683 -14.8649 272.198 
1.60074e-05 7.40642e-06 2.69195e+25 -0.735643 -7.41413 272.219 
7.1675e-07 7.88425e-06 2.68641e+25 -0.882062 2.86501 272.075 
2.62808e-06 7.88425e-06 2.68376e+25 -0.814781 1.63632 272.202 
4.53942e-06 7.88425e-06 2.68146e+25 -1.42093 -1.06396 272.535 
6.45075e-06 7.88425e-06 2.68286e+25 -2.19475 -4.09668 272.376 
8.36208e-06 7.88425e-06 2.68808e+25 -3.31739 -7.85859 271.982 
1.02734e-05 7.88425e-06 2.68891e+25 -4.57561 -12.136 272.309 
1.21847e-05 7.88425e-06 2.68723e+25 -4.76659 -15.2068 272.547 
1.40961e-05 7.88425e-06 2.69313e+25 -3.18018 -15.2784 272.11 
1.60074e-05 7.88425e-06 2.69322e+25 -0.796808 -7.92632 272.244 
7.1675e-07 8.36208e-06 2.68633e+25 -0.0268204 2.77065 271.976 
2.62808e-06 8.36208e-06 2.6836e+25 -0.0495011 1.58537 272.194 
4.53942e-06 8.36208e-06 2.68232e+25 -0.472853 -0.756123 272.51 
6.45075e-06 8.36208e-06 2.68586e+25 -1.21113 -3.84375 272.268 
8.36208e-06 8.36208e-06 2.68845e+25 -2.45155 -7.71199 272.04 
1.02734e-05 8.36208e-06 2.68702e+25 -4.00633 -11.8624 272.254 
1.21847e-05 8.36208e-06 2.68945e+25 -4.49681 -15.3527 272.324 
1.40961e-05 8.36208e-06 2.69271e+25 -3.26012 -15.8463 272.284 
1.60074e-05 8.36208e-06 2.69087e+25 -0.813871 -8.47172 272.325 
7.1675e-07 8.83992e-06 2.68701e+25 0.939402 2.89993 271.979 
2.62808e-06 8.83992e-06 2.6862e+25 0.753232 1.53818 272.088 
4.53942e-06 8.83992e-06 2.68641e+25 0.711328 -0.544438 272.153 
6.45075e-06 8.83992e-06 2.68464e+25 -0.0483394 -3.55123 272.211 
8.36208e-06 8.83992e-06 2.68779e+25 -1.52097 -7.46217 272.066 
1.02734e-05 8.83992e-06 2.68751e+25 -3.20215 -11.4438 272.308 
1.21847e-05 8.83992e-06 2.68977e+25 -4.29492 -15.4152 272.277 
1.40961e-05 8.83992e-06 2.69101e+25 -3.41187 -16.3941 272.398 
1.60074e-05 8.83992e-06 2.69045e+25 -0.881083 -9.04487 272.491 
7.1675e-07 9.31775e-06 2.68906e+25 1.71301 3.05865 271.847 
2.62808e-06 9.31775e-06 2.68478e+25 1.59955 1.49077 272.104 
4.53942e-06 9.31775e-06 2.6843e+25 1.89655 -0.470328 272.263 
6.45075e-06 9.31775e-06 2.68428e+25 0.937256 -3.16231 272.349 
8.36208e-06 9.31775e-06 2.68611e+25 -0.538274 -6.96493 272.263 
1.02734e-05 9.31775e-06 2.68871e+25 -2.16399 -11.0517 272.282 
1.21847e-05 9.31775e-06 2.68873e+25 -3.7728 -15.3238 272.4 
1.40961e-05 9.31775e-06 2.69057e+25 -3.40111 -16.9542 272.563 
1.60074e-05 9.31775e-06 2.69232e+25 -0.949026 -9.70418 272.392 
7.1675e-07 9.79558e-06 2.68845e+25 2.60825 3.12484 271.968 
2.62808e-06 9.79558e-06 2.68694e+25 2.86907 1.41187 272.039 
4.53942e-06 9.79558e-06 2.68623e+25 2.88417 -0.489971 272.135 
6.45075e-06 9.79558e-06 2.68289e+25 2.07149 -2.89089 272.407 
8.36208e-06 9.79558e-06 2.68763e+25 0.771005 -6.45655 272.155 
1.02734e-05 9.79558e-06 2.68764e+25 -1.23439 -10.5556 272.275 
1.21847e-05 9.79558e-06 2.68985e+25 -3.30211 -15.0839 272.357 
1.40961e-05 9.79558e-06 2.69128e+25 -3.25394 -17.4172 272.541 
1.60074e-05 9.79558e-06 2.69378e+25 -0.867931 -10.314 272.276 
7.1675e-07 1.02734e-05 2.68777e+25 3.51937 2.92954 271.931 
2.62808e-06 1.02734e-05 2.68576e+25 4.10385 1.45658 272.064 
4.53942e-06 1.02734e-05 2.68495e+25 3.98479 -0.491978 272.293 
6.45075e-06 1.02734e-05 2.68267e+25 3.36279 -2.64887 272.482 
8.36208e-06 1.02734e-05 2.68635e+25 2.06249 -5.9185 272.216 
1.02734e-05 1.02734e-05 2.68826e+25 -0.171296 -9.99672 272.248 
1.21847e-05 1.02734e-05 2.69049e+25 -2.41846 -14.702 272.384 
1.40961e-05 1.02734e-05 2.69447e+25 -2.98685 -17.7171 272.402 
1.60074e-05 1.02734e-05 2.69466e+25 -0.814186 -10.8783 272.36 
7.1675e-07 1.07512e-05 2.68818e+25 4.65728 2.61585 271.964 
2.62808e-06 1.07512e-05 2.68553e+25 5.41886 1.41203 272.027 
4.53942e-06 1.07512e-05 2.68405e+25 5.278 -0.464427 272.208 
6.45075e-06 1.07512e-05 2.68492e+25 4.86113 -2.50461 272.382 
8.36208e-06 1.07512e-05 2.68751e+25 3.35576 -5.45593 272.299 
1.02734e-05 1.07512e-05 2.68866e+25 0.855058 -9.28502 272.428 
1.21847e-05 1.07512e-05 2.69129e+25 -1.66211 -14.2297 272.409 
1.40961e-05 1.07512e-05 2.69306e+25 -2.78345 -17.9566 272.404 
1.60074e-05 1.07512e-05 2.69439e+25 -0.880922 -11.3654 272.477 
7.1675e-07 1.12291e-05 2.68827e+25 5.93105 2.47517 271.906 
2.62808e-06 1.12291e-05 2.68578e+25 6.62499 1.3555 272.121 
4.53942e-06 1.12291e-05 2.68554e+25 6.60136 -0.355944 272.194 
6.45075e-06 1.12291e-05 2.68367e+25 6.14697 -2.32895 272.479 
8.36208e-06 1.12291e-05 2.68468e+25 4.6884 -4.98259 272.471 
1.02734e-05 1.12291e-05 2.68898e+25 2.05882 -8.51571 272.395 
1.21847e-05 1.12291e-05 2.69135e+25 -0.682963 -13.5878 272.386 
1.40961e-05 1.12291e-05 2.69489e+25 -2.53999 -18.0363 272.39 
1.60074e-05 1.12291e-05 2.69499e+25 -0.942135 -11.827 272.574 
7.1675e-07 1.17069e-05 2.68703e+25 7.6028 2.19427 272.032 
2.62808e-06 1.17069e-05 2.68786e+25 8.13943 1.199 271.916 
4.53942e-06 1.17069e-05 2.68777e+25 7.97534 -0.123949 272.091 
6.45075e-06 1.17069e-05 2.68779e+25 7.65396 -2.10507 272.201 
8.36208e-06 1.17069e-05 2.68873e+25 6.05918 -4.45631 272.241 
1.02734e-05 1.17069e-05 2.69185e+25 3.50082 -7.72498 272.137 
1.21847e-05 1.17069e-05 2.6909e+25 0.182103 -12.8434 272.419 
1.40961e-05 1.17069e-05 2.69514e+25 -2.24846 -17.8595 272.424 
1.60074e-05 1.17069e-05 2.69468e+25 -1.0738 -12.4533 272.64 
7.1675e-07 1.21847e-05 2.68857e+25 9.01035 1.94807 272.003 
2.62808e-06 1.21847e-05 2.68791e+25 9.56515 1.03928 271.876 
4.53942e-06 1.21847e-05 2.68601e+25 9.55904 -0.0505882 272.105 
6.45075e-06 1.21847e-05 2.68496e+25 9.0828 -1.80807 272.208 
8.36208e-06 1.21847e-05 2.6892e+25 7.60105 -4.00695 272.163 
1.02734e-05 1.21847e-05 2.69002e+25 5.04836 -6.85376 272.285 
1.21847e-05 1.21847e-05 2.69104e+25 1.25637 -11.8717 272.446 
1.40961e-05 1.21847e-05 2.69809e+25 -1.692 -17.4655 272.388 
1.60074e-05 1.21847e-05 2.69638e+25 -1.20276 -13.1786 272.638 
7.1675e-07 1.26626e-05 2.68453e+25 10.7162 1.83141 272.215 
2.62808e-06 1.26626e-05 2.68716e+25 11.1917 0.932168 271.944 
4.53942e-06 1.26626e-05 2.68776e+25 11.5047 -0.0230298 272.066 
6.45075e-06 1.26626e-05 2.68618e+25 10.9171 -1.53949 272.161 
8.36208e-06 1.26626e-05 2.68879e+25 9.48971 -3.64492 272.201 
1.02734e-05 1.26626e-05 2.69163e+25 6.78848 -6.08979 272.191 
1.21847e-05 1.26626e-05 2.69133e+25 2.89047 -10.8067 272.539 
1.40961e-05 1.26626e-05 2.69736e+25 -1.32566 -16.8389 272.539 
1.60074e-05 1.26626e-05 2.69965e+25 -1.30325 -13.8703 272.678 
7.1675e-07 1.31404e-05 2.68449e+25 12.397 1.70209 272.261 
2.62808e-06 1.31404e-05 2.68769e+25 12.8234 0.78716 272.045 
4.53942e-06 1.31404e-05 2.68758e+25 13.4125 -0.035041 272.105 
6.45075e-06 1.31404e-05 2.68457e+25 12.9011 -1.27171 272.392 
8.36208e-06 1.31404e-05 2.6884e+25 11.319 -3.27273 272.254 
1.02734e-05 1.31404e-05 2.6929e+25 8.77082 -5.23028 272.145 
1.21847e-05 1.31404e-05 2.6942e+25 4.64073 -9.56057 272.545 
1.40961e-05 1.31404e-05 2.69959e+25 -0.669819 -15.875 272.525 
1.60074e-05 1.31404e-05 2.69998e+25 -1.38374 -14.5626 272.768 
7.1675e-07 1.36182e-05 2.68325e+25 14.3135 1.44954 272.46 
2.62808e-06 1.36182e-05 2.68662e+25 14.9068 0.618917 272.139 
4.53942e-06 1.36182e-05 2.68439e+25 15.4257 -0.0139901 272.266 
6.45075e-06 1.36182e-05 2.6838e+25 14.855 -1.01896 272.423 
8.36208e-06 1.36182e-05 2.68715e+25 13.5296 -2.69495 272.161 
1.02734e-05 1.36182e-05 2.69211e+25 10.7274 -4.42317 272.147 
1.21847e-05 1.36182e-05 2.69373e+25 6.40402 -8.25041 272.563 
1.40961e-05 1.36182e-05 2.70154e+25 0.0804076 -14.6164 272.485 
1.60074e-05 1.36182e-05 2.70509e+25 -1.66479 -15.1741 272.587 
7.1675e-07 1.40961e-05 2.6836e+25 16.3131 1.24807 272.416 
2.62808e-06 1.40961e-05 2.6874e+25 17.0164 0.399687 272.016 
4.53942e-06 1.40961e-05 2.68676e+25 17.4644 -0.037034 272.15 
6.45075e-06 1.40961e-05 2.68467e+25 16.8336 -0.915076 272.417 
8.36208e-06 1.40961e-05 2.68787e+25 15.5772 -2.09232 272.26 
1.02734e-05 1.40961e-05 2.69312e+25 13.0362 -3.53717 272.178 
1.21847e-05 1.40961e-05 2.69303e+25 8.50693 -6.89738 272.741 
1.40961e-05 1.40961e-05 2.69814e+25 1.46523 -13.007 272.694 
1.60074e-05 1.40961e-05 2.70725e+25 -1.70627 -15.6952 272.627 
7.1675e-07 1.45739e-05 2.68336e+25 18.6612 0.909127 272.485 
2.62808e-06 1.45739e-05 2.68732e+25 19.3283 0.266863 272.111 
4.53942e-06 1.45739e-05 2.68818e+25 19.6405 -0.191713 272.05 
6.45075e-06 1.45739e-05 2.68452e+25 19.0548 -0.807308 272.496 
8.36208e-06 1.45739e-05 2.68736e+25 17.9635 -1.61415 272.358 
1.02734e-05 1.45739e-05 2.68957e+25 15.6698 -2.78147 272.465 
1.21847e-05 1.45739e-05 2.69214e+25 11.1811 -5.50778 272.801 
1.40961e-05 1.45739e-05 2.70099e+25 3.59919 -10.972 272.746 
1.60074e-05 1.45739e-05 2.71254e+25 -1.64801 -16.1216 272.625 
7.1675e-07 1.50518e-05 2.68511e+25 21.1651 0.545751 272.418 
2.62808e-06 1.50518e-05 2.68496e+25 22.0493 0.190614 272.208 
4.53942e-06 1.50518e-05 2.68697e+25 22.1543 -0.114688 272.134 
6.45075e-06 1.50518e-05 2.6867e+25 21.7159 -0.664943 272.297 
8.36208e-06 1.50518e-05 2.68869e+25 20.6316 -1.09873 272.376 
1.02734e-05 1.50518e-05 2.68951e+25 18.4588 -2.09002 272.506 
1.21847e-05 1.50518e-05 2.69289e+25 14.2257 -4.11345 272.76 
1.40961e-05 1.50518e-05 2.70157e+25 6.50355 -8.59363 272.895 
1.60074e-05 1.50518e-05 2.71783e+25 -1.59509 -15.9654 272.632 
7.1675e-07 1.55296e-05 2.68393e+25 24.1506 0.278572 272.459 
2.62808e-06 1.55296e-05 2.6831e+25 24.8091 0.111711 272.5 
4.53942e-06 1.55296e-05 2.68775e+25 24.6923 -0.048041 272.158 
6.45075e-06 1.55296e-05 2.68676e+25 24.6088 -0.465899 272.298 
8.36208e-06 1.55296e-05 2.68709e+25 23.5739 -0.651023 272.409 
1.02734e-05 1.55296e-05 2.6872e+25 21.4389 -1.32408 272.656 
1.21847e-05 1.55296e-05 2.6912e+25 17.8923 -2.7731 272.859 
1.40961e-05 1.55296e-05 2.70148e+25 10.4059 -6.16347 272.958 
1.60074e-05 1.55296e-05 2.72132e+25 -0.675151 -14.9108 272.921 
7.1675e-07 1.60074e-05 2.68265e+25 26.8583 0.0666507 272.56 
2.62808e-06 1.60074e-05 2.68383e+25 27.5062 0.0290712 272.504 
4.53942e-06 1.60074e-05 2.68546e+25 27.5504 -0.0614713 272.235 
6.45075e-06 1.60074e-05 2.68645e+25 27.4731 -0.12587 272.515 
8.36208e-06 1.60074e-05 2.68749e+25 26.5386 -0.362244 272.453 
1.02734e-05 1.60074e-05 2.68762e+25 24.9167 -0.75301 272.611 
1.21847e-05 1.60074e-05 2.69456e+25 21.9384 -1.59157 272.763 
1.40961e-05 1.60074e-05 2.70194e+25 15.5714 -3.8002 273.069 
1.60074e-05 1.60074e-05 2.72606e+25 1.58169 -12.4491 273.173 
7.1675e-07 1.64852e-05 2.68163e+25 29.9149 -0.00923244 272.703 
2.62808e-06 1.64852e-05 2.68262e+25 30.4673 -0.0564519 272.632 
4.53942e-06 1.64852e-05 2.6845e+25 30.4981 0.000580035 272.435 
6.45075e-06 1.64852e-05 2.68548e+25 30.2558 0.0440793 272.569 
8.36208e-06 1.64852e-05 2.68631e+25 29.5521 -0.106019 272.579 
1.02734e-05 1.64852e-05 2.68711e+25 28.6131 -0.399468 272.797 
1.21847e-05 1.64852e-05 2.69246e+25 26.4208 -0.566518 272.811 
1.40961e-05 1.64852e-05 2.70092e+25 22.0628 -1.68762 273.193 
1.60074e-05 1.64852e-05 2.7304e+25 7.57064 -7.95735 273.562 
7.1675e-07 1.69631e-05 2.68026e+25 32.9065 0.0191423 272.874 
2.62808e-06 1.69631e-05 2.68033e+25 33.017 -0.0148101 272.727 
4.53942e-06 1.69631e-05 2.68193e+25 33.0676 -0.00322521 272.73 
6.45075e-06 1.69631e-05 2.68417e+25 32.8641 0.00310263 272.817 
8.36208e-06 1.69631e-05 2.6843e+25 32.6115 0.00454313 272.821 
1.02734e-05 1.69631e-05 2.68583e+25 32.1126 -0.137054 272.975 
1.21847e-05 1.69631e-05 2.69312e+25 31.2301 -0.0944614 272.884 
1.40961e-05 1.69631e-05 2.69896e+25 29.4447 -0.315819 273.263 
1.60074e-05 1.69631e-05 2.73348e+25 20.0791 -2.36972 273.64 
1.19458e-06 2.38917e-07 2.68953e+25 -7.91642 0.599674 271.846 
3.10592e-06 2.38917e-07 2.68607e+25 -8.23236 -1.66407 272.228 
5.01725e-06 2.38917e-07 2.68596e+25 -7.74652 -3.49519 272.289 
6.92858e-06 2.38917e-07 2.68916e+25 -7.33724 -5.74281 271.995 
8.83992e-06 2.38917e-07 2.68769e+25 -6.49501 -7.80087 272.254 
1.07512e-05 2.38917e-07 2.68803e+25 -5.04045 -8.32254 272.07 
1.26626e-05 2.38917e-07 2.68873e+25 -3.24836 -7.65474 272.149 
1.45739e-05 2.38917e-07 2.68974e+25 -1.165 -5.15369 272.053 
1.64852e-05 2.38917e-07 2.68527e+25 -0.163536 -1.57102 272.431 
1.19458e-06 7.1675e-07 2.68975e+25 -7.69897 0.872956 272.048 
3.10592e-06 7.1675e-07 2.68768e+25 -8.09419 -1.57804 272.192 
5.01725e-06 7.1675e-07 2.68826e+25 -7.9606 -3.6087 272.243 
6.92858e-06 7.1675e-07 2.69e+25 -7.2518 -5.81393 272.156 
8.83992e-06 7.1675e-07 2.69133e+25 -6.77876 -8.19505 272.235 
1.07512e-05 7.1675e-07 2.69245e+25 -5.37436 -8.72956 272.125 
1.26626e-05 7.1675e-07 2.69042e+25 -3.36733 -8.1449 272.216 
1.45739e-05 7.1675e-07 2.69047e+25 -1.33337 -5.60171 272.159 
1.64852e-05 7.1675e-07 2.68607e+25 -0.110522 -1.61026 272.603 
1.19458e-06 1.19458e-06 2.68864e+25 -7.4214 1.14143 272.122 
3.10592e-06 1.19458e-06 2.68916e+25 -8.08861 -1.49007 272.034 
5.01725e-06 1.19458e-06 2.68891e+25 -8.12009 -3.72579 272.198 
6.92858e-06 1.19458e-06 2.68961e+25 -7.42972 -5.84129 272.143 
8.83992e-06 1.19458e-06 2.68889e+25 -6.80705 -8.36239 272.253 
1.07512e-05 1.19458e-06 2.69092e+25 -5.52509 -9.17992 272.176 
1.26626e-05 1.19458e-06 2.68992e+25 -3.40764 -8.7401 272.315 
1.45739e-05 1.19458e-06 2.6896e+25 -1.32461 -6.14853 272.25 
1.64852e-05 1.19458e-06 2.68487e+25 -0.173386 -1.70719 272.724 
1.19458e-06 1.67242e-06 2.68811e+25 -7.22791 1.40607 272.062 
3.10592e-06 1.67242e-06 2.69067e+25 -7.99174 -1.37079 271.977 
5.01725e-06 1.67242e-06 2.6895e+25 -8.17497 -3.7487 272.137 
6.92858e-06 1.67242e-06 2.68624e+25 -7.68707 -5.99238 272.39 
8.83992e-06 1.67242e-06 2.68714e+25 -6.79803 -8.59084 272.335 
1.07512e-05 1.67242e-06 2.6884e+25 -5.73941 -9.62392 272.236 
1.26626e-05 1.67242e-06 2.69102e+25 -3.47909 -9.28501 272.24 
1.45739e-05 1.67242e-06 2.68836e+25 -1.55446 -6.61588 272.249 
1.64852e-05 1.67242e-06 2.68594e+25 -0.152063 -1.97786 272.686 
1.19458e-06 2.15025e-06 2.6887e+25 -7.04287 1.61885 272.193 
3.10592e-06 2.15025e-06 2.68798e+25 -7.94331 -1.2044 272.125 
5.01725e-06 2.15025e-06 2.68982e+25 -8.12736 -3.75177 272.007 
6.92858e-06 2.15025e-06 2.68581e+25 -7.69107 -6.22656 272.496 
8.83992e-06 2.15025e-06 2.68792e+25 -6.93328 -8.67667 272.504 
1.07512e-05 2.15025e-06 2.6887e+25 -5.87454 -10.0589 272.244 
1.26626e-05 2.15025e-06 2.69033e+25 -3.81842 -9.82559 272.113 
1.45739e-05 2.15025e-06 2.68998e+25 -1.64844 -7.15892 272.104 
1.64852e-05 2.15025e-06 2.68461e+25 -0.101148 -2.10475 272.709 
1.19458e-06 2.62808e-06 2.68983e+25 -6.82668 1.81148 271.916 
3.10592e-06 2.62808e-06 2.68827e+25 -7.72438 -1.06819 272.106 
5.01725e-06 2.62808e-06 2.68881e+25 -7.95346 -3.81244 272.155 
6.92858e-06 2.62808e-06 2.68592e+25 -7.80872 -6.41626 272.28 
8.83992e-06 2.62808e-06 2.68758e+25 -7.13525 -8.87599 272.382 
1.07512e-05 2.62808e-06 2.68952e+25 -6.05854 -10.5323 272.231 
1.26626e-05 2.62808e-06 2.69022e+25 -4.08194 -10.3993 272.176 
1.45739e-05 2.62808e-06 2.69143e+25 -1.76215 -7.6494 272.177 
1.64852e-05 2.62808e-06 2.68604e+25 -0.103808 -2.28038 272.559 
1.19458e-06 3.10592e-06 2.6882e+25 -6.50061 1.94916 272.005 
3.10592e-06 3.10592e-06 2.68647e+25 -7.30627 -1.06818 272.174 
5.01725e-06 3.10592e-06 2.68759e+25 -7.87592 -3.74568 272.113 
6.92858e-06 3.10592e-06 2.68813e+25 -7.83355 -6.52794 272.15 
8.83992e-06 3.10592e-06 2.68805e+25 -7.28521 -9.07991 272.345 
1.07512e-05 3.10592e-06 2.68959e+25 -6.29555 -10.9138 272.304 
1.26626e-05 3.10592e-06 2.69246e+25 -4.22562 -10.8247 272.043 
1.45739e-05 3.10592e-06 2.6905e+25 -1.77146 -8.20756 272.052 
1.64852e-05 3.10592e-06 2.68773e+25 -0.110714 -2.47265 272.512 
1.19458e-06 3.58375e-06 2.68797e+25 -6.16987 2.06078 272.054 
3.10592e-06 3.58375e-06 2.68799e+25 -6.72907 -0.787972 272.034 
5.01725e-06 3.58375e-06 2.68662e+25 -7.61944 -3.5956 272.257 
6.92858e-06 3.58375e-06 2.68692e+25 -7.68066 -6.57422 272.247 
8.83992e-06 3.58375e-06 2.68706e+25 -7.46 -9.23732 272.458 
1.07512e-05 3.58375e-06 2.68817e+25 -6.37469 -11.3069 272.31 
1.26626e-05 3.58375e-06 2.69091e+25 -4.55846 -11.3657 272.211 
1.45739e-05 3.58375e-06 2.6921e+25 -1.90427 -8.76054 272.045 
1.64852e-05 3.58375e-06 2.68723e+25 -0.161227 -2.64444 272.673 
1.19458e-06 4.06158e-06 2.68687e+25 -5.63191 2.07501 272.089 
3.10592e-06 4.06158e-06 2.68753e+25 -6.19582 -0.421532 272.082 
5.01725e-06 4.06158e-06 2.68595e+25 -7.20771 -3.50614 272.341 
6.92858e-06 4.06158e-06 2.68583e+25 -7.4292 -6.61669 272.264 
8.83992e-06 4.06158e-06 2.68839e+25 -7.32158 -9.23647 272.354 
1.07512e-05 4.06158e-06 2.68734e+25 -6.32895 -11.668 272.435 
1.26626e-05 4.06158e-06 2.69159e+25 -4.57655 -12.0052 272.036 
1.45739e-05 4.06158e-06 2.69236e+25 -1.92476 -9.27732 272.094 
1.64852e-05 4.06158e-06 2.68739e+25 -0.216398 -2.91814 272.636 
1.19458e-06 4.53942e-06 2.68516e+25 -5.14894 2.23376 272.257 
3.10592e-06 4.53942e-06 2.68636e+25 -5.69184 -0.250159 272.232 
5.01725e-06 4.53942e-06 2.683e+25 -6.57923 -3.39554 272.446 
6.92858e-06 4.53942e-06 2.68635e+25 -7.05136 -6.4914 272.294 
8.83992e-06 4.53942e-06 2.68578e+25 -7.17953 -9.24578 272.266 
1.07512e-05 4.53942e-06 2.68915e+25 -6.38889 -11.9012 272.294 
1.26626e-05 4.53942e-06 2.6913e+25 -4.58805 -12.5903 272.174 
1.45739e-05 4.53942e-06 2.69125e+25 -2.00501 -9.98668 272.113 
1.64852e-05 4.53942e-06 2.68659e+25 -0.19852 -3.05145 272.536 
1.19458e-06 5.01725e-06 2.68646e+25 -4.57274 2.43273 272.108 
3.10592e-06 5.01725e-06 2.68771e+25 -5.14882 -0.152196 272.084 
5.01725e-06 5.01725e-06 2.68658e+25 -5.96903 -3.2585 272.303 
6.92858e-06 5.01725e-06 2.68572e+25 -6.79203 -6.36733 272.34 
8.83992e-06 5.01725e-06 2.68709e+25 -7.04282 -9.36819 272.391 
1.07512e-05 5.01725e-06 2.68635e+25 -6.28 -12.1624 272.354 
1.26626e-05 5.01725e-06 2.68985e+25 -4.49265 -13.1449 272.128 
1.45739e-05 5.01725e-06 2.69148e+25 -1.99721 -10.7045 272.215 
1.64852e-05 5.01725e-06 2.68783e+25 -0.20896 -3.23028 272.545 
1.19458e-06 5.49508e-06 2.68724e+25 -4.08462 2.56928 272.123 
3.10592e-06 5.49508e-06 2.68785e+25 -4.51908 0.0745066 272.052 
5.01725e-06 5.49508e-06 2.68633e+25 -5.42914 -2.95611 272.335 
6.92858e-06 5.49508e-06 2.68678e+25 -6.3536 -6.2567 272.298 
8.83992e-06 5.49508e-06 2.68577e+25 -6.77064 -9.43139 272.355 
1.07512e-05 5.49508e-06 2.68815e+25 -6.02535 -12.3708 272.285 
1.26626e-05 5.49508e-06 2.69062e+25 -4.43828 -13.6694 272.208 
1.45739e-05 5.49508e-06 2.69122e+25 -2.13697 -11.3348 272.248 
1.64852e-05 5.49508e-06 2.6872e+25 -0.148884 -3.42222 272.451 
1.19458e-06 5.97292e-06 2.68562e+25 -3.38032 2.56073 272.181 
3.10592e-06 5.97292e-06 2.68802e+25 -3.8333 0.203447 272.009 
5.01725e-06 5.97292e-06 2.68592e+25 -4.7454 -2.61053 272.182 
6.92858e-06 5.97292e-06 2.68819e+25 -5.91595 -6.0912 272.18 
8.83992e-06 5.97292e-06 2.68888e+25 -6.21313 -9.36849 272.082 
1.07512e-05 5.97292e-06 2.6879e+25 -5.83351 -12.5948 272.309 
1.26626e-05 5.97292e-06 2.68847e+25 -4.21258 -14.1378 272.25 
1.45739e-05 5.97292e-06 2.69245e+25 -2.2139 -11.8507 272.16 
1.64852e-05 5.97292e-06 2.68672e+25 -0.247808 -3.72485 272.49 
1.19458e-06 6.45075e-06 2.68703e+25 -2.70753 2.62955 272.071 
3.10592e-06 6.45075e-06 2.68602e+25 -3.16085 0.48063 272.164 
5.01725e-06 6.45075e-06 2.68541e+25 -4.00468 -2.30202 272.183 
6.92858e-06 6.45075e-06 2.68678e+25 -5.30227 -5.83588 272.109 
8.83992e-06 6.45075e-06 2.68853e+25 -5.88552 -9.33706 272.029 
1.07512e-05 6.45075e-06 2.68795e+25 -5.7051 -12.8268 272.323 
1.26626e-05 6.45075e-06 2.69073e+25 -4.50961 -14.6058 272.152 
1.45739e-05 6.45075e-06 2.69156e+25 -2.03973 -12.3448 272.162 
1.64852e-05 6.45075e-06 2.68751e+25 -0.264491 -4.08881 272.597 
1.19458e-06 6.92858e-06 2.68714e+25 -2.08546 2.72073 272.118 
3.10592e-06 6.92858e-06 2.68474e+25 -2.47715 0.696375 272.148 
5.01725e-06 6.92858e-06 2.68437e+25 -3.42661 -2.07103 272.364 
6.92858e-06 6.92858e-06 2.68628e+25 -4.4998 -5.61522 272.258 
8.83992e-06 6.92858e-06 2.68795e+25 -5.30266 -9.37488 272.17 
1.07512e-05 6.92858e-06 2.68761e+25 -5.30408 -13.0002 272.249 
1.26626e-05 6.92858e-06 2.69093e+25 -4.69608 -15.075 272.221 
1.45739e-05 6.92858e-06 2.69015e+25 -2.27147 -12.8853 272.332 
1.64852e-05 6.92858e-06 2.68803e+25 -0.276734 -4.40309 272.477 
1.19458e-06 7.40642e-06 2.68897e+25 -1.33403 2.72923 271.957 
3.10592e-06 7.40642e-06 2.68493e+25 -1.81787 0.973674 272.103 
5.01725e-06 7.40642e-06 2.68509e+25 -2.49844 -1.92663 272.262 
6.92858e-06 7.40642e-06 2.68655e+25 -3.56961 -5.28764 272.295 
8.83992e-06 7.40642e-06 2.68704e+25 -4.4532 -9.26427 272.289 
1.07512e-05 7.40642e-06 2.68833e+25 -5.06803 -13.0531 272.434 
1.26626e-05 7.40642e-06 2.68972e+25 -4.76071 -15.5687 272.32 
1.45739e-05 7.40642e-06 2.69033e+25 -2.70663 -13.5119 272.309 
1.64852e-05 7.40642e-06 2.68752e+25 -0.41835 -4.6411 272.558 
1.19458e-06 7.88425e-06 2.6871e+25 -0.742163 2.552 272.057 
3.10592e-06 7.88425e-06 2.6847e+25 -0.841723 1.09747 272.218 
5.01725e-06 7.88425e-06 2.68425e+25 -1.68054 -1.70966 272.267 
6.92858e-06 7.88425e-06 2.68292e+25 -2.41027 -4.9989 272.461 
8.83992e-06 7.88425e-06 2.68887e+25 -3.52897 -9.04823 272.058 
1.07512e-05 7.88425e-06 2.68907e+25 -4.78203 -12.933 272.216 
1.26626e-05 7.88425e-06 2.68854e+25 -4.53001 -16.0765 272.505 
1.45739e-05 7.88425e-06 2.69238e+25 -2.54742 -14.2471 272.213 
1.64852e-05 7.88425e-06 2.68962e+25 -0.316484 -4.96363 272.456 
1.19458e-06 8.36208e-06 2.68825e+25 0.0204157 2.47024 271.871 
3.10592e-06 8.36208e-06 2.68665e+25 -0.0613765 1.1248 272.152 
5.01725e-06 8.36208e-06 2.68386e+25 -0.607962 -1.52155 272.392 
6.92858e-06 8.36208e-06 2.68481e+25 -1.48349 -4.71936 272.306 
8.83992e-06 8.36208e-06 2.68687e+25 -2.71109 -8.66068 272.104 
1.07512e-05 8.36208e-06 2.68942e+25 -4.31951 -12.7443 272.178 
1.26626e-05 8.36208e-06 2.68823e+25 -4.41854 -16.2831 272.461 
1.45739e-05 8.36208e-06 2.6919e+25 -2.66452 -14.9549 272.321 
1.64852e-05 8.36208e-06 2.68641e+25 -0.26718 -5.39683 272.698 
1.19458e-06 8.83992e-06 2.68804e+25 0.778642 2.54971 271.867 
3.10592e-06 8.83992e-06 2.68556e+25 0.81455 1.11301 272.11 
5.01725e-06 8.83992e-06 2.68552e+25 0.525331 -1.34346 272.25 
6.92858e-06 8.83992e-06 2.68422e+25 -0.45843 -4.37955 272.331 
8.83992e-06 8.83992e-06 2.68888e+25 -1.97332 -8.22324 272.058 
1.07512e-05 8.83992e-06 2.68835e+25 -3.56449 -12.4759 272.314 
1.26626e-05 8.83992e-06 2.69055e+25 -4.28817 -16.2995 272.279 
1.45739e-05 8.83992e-06 2.69138e+25 -2.76637 -15.6298 272.412 
1.64852e-05 8.83992e-06 2.68975e+25 -0.323145 -5.82665 272.51 
1.19458e-06 9.31775e-06 2.68856e+25 1.56896 2.60829 271.917 
3.10592e-06 9.31775e-06 2.68476e+25 1.67886 1.05954 272.119 
5.01725e-06 9.31775e-06 2.6862e+25 1.76671 -1.14841 272.21 
6.92858e-06 9.31775e-06 2.68364e+25 0.533567 -3.98877 272.387 
8.83992e-06 9.31775e-06 2.68651e+25 -1.02771 -7.81841 272.116 
1.07512e-05 9.31775e-06 2.68957e+25 -2.66747 -12.0115 272.328 
1.26626e-05 9.31775e-06 2.69114e+25 -3.87679 -16.2953 272.327 
1.45739e-05 9.31775e-06 2.69045e+25 -2.79599 -16.2743 272.488 
1.64852e-05 9.31775e-06 2.68873e+25 -0.446705 -6.2703 272.656 
1.19458e-06 9.79558e-06 2.68826e+25 2.63996 2.64796 271.856 
3.10592e-06 9.79558e-06 2.68545e+25 2.88019 1.04408 272.127 
5.01725e-06 9.79558e-06 2.68627e+25 2.79313 -0.953766 272.175 
6.92858e-06 9.79558e-06 2.68489e+25 1.86159 -3.71764 272.259 
8.83992e-06 9.79558e-06 2.68831e+25 0.230911 -7.29501 272.155 
1.07512e-05 9.79558e-06 2.69113e+25 -1.7673 -11.5246 272.157 
1.26626e-05 9.79558e-06 2.69064e+25 -3.56011 -16.2147 272.36 
1.45739e-05 9.79558e-06 2.69044e+25 -2.89602 -16.8344 272.556 
1.64852e-05 9.79558e-06 2.69147e+25 -0.379152 -6.62388 272.498 
1.19458e-06 1.02734e-05 2.68686e+25 3.81098 2.51471 271.983 
3.10592e-06 1.02734e-05 2.68653e+25 4.07444 1.10356 272.024 
5.01725e-06 1.02734e-05 2.68439e+25 4.07694 -0.907136 272.268 
6.92858e-06 1.02734e-05 2.68561e+25 3.22573 -3.56844 272.267 
8.83992e-06 1.02734e-05 2.6847e+25 1.6016 -6.81271 272.338 
1.07512e-05 1.02734e-05 2.689e+25 -0.756423 -10.9259 272.255 
1.26626e-05 1.02734e-05 2.6912e+25 -2.80371 -15.9492 272.405 
1.45739e-05 1.02734e-05 2.6927e+25 -2.62155 -17.2252 272.489 
1.64852e-05 1.02734e-05 2.69251e+25 -0.382219 -6.97551 272.66 
1.19458e-06 1.07512e-05 2.68867e+25 4.96574 2.29532 271.892 
3.10592e-06 1.07512e-05 2.68658e+25 5.37533 1.12989 271.975 
5.01725e-06 1.07512e-05 2.68476e+25 5.15366 -0.845013 272.194 
6.92858e-06 1.07512e-05 2.68647e+25 4.57832 -3.26568 272.231 
8.83992e-06 1.07512e-05 2.68545e+25 2.78866 -6.2407 272.329 
1.07512e-05 1.07512e-05 2.68861e+25 0.08956 -10.3396 272.384 
1.26626e-05 1.07512e-05 2.68992e+25 -2.11183 -15.5808 272.443 
1.45739e-05 1.07512e-05 2.69408e+25 -2.47937 -17.6807 272.423 
1.64852e-05 1.07512e-05 2.69246e+25 -0.375992 -7.39632 272.583 
1.19458e-06 1.12291e-05 2.68723e+25 6.20305 1.97271 271.995 
3.10592e-06 1.12291e-05 2.68749e+25 6.76695 1.03655 271.888 
5.01725e-06 1.12291e-05 2.68446e+25 6.42302 -0.708333 272.262 
6.92858e-06 1.12291e-05 2.68488e+25 5.91746 -2.97875 272.367 
8.83992e-06 1.12291e-05 2.68402e+25 4.18974 -5.672 272.6 
1.07512e-05 1.12291e-05 2.68949e+25 1.32382 -9.62304 272.45 
1.26626e-05 1.12291e-05 2.69222e+25 -1.3641 -15.0779 272.482 
1.45739e-05 1.12291e-05 2.69489e+25 -2.44727 -17.9825 272.462 
1.64852e-05 1.12291e-05 2.69488e+25 -0.400724 -7.90039 272.652 
1.19458e-06 1.17069e-05 2.68747e+25 7.72643 1.8051 271.971 
3.10592e-06 1.17069e-05 2.68744e+25 8.24396 0.969855 271.92 
5.01725e-06 1.17069e-05 2.68732e+25 7.9069 -0.648732 272.171 
6.92858e-06 1.17069e-05 2.6877e+25 7.36174 -2.65855 272.169 
8.83992e-06 1.17069e-05 2.68609e+25 5.56031 -5.11357 272.46 
1.07512e-05 1.17069e-05 2.69048e+25 2.56888 -8.73678 272.262 
1.26626e-05 1.17069e-05 2.69122e+25 -0.684634 -14.2929 272.494 
1.45739e-05 1.17069e-05 2.69572e+25 -2.35027 -18.1796 272.446 
1.64852e-05 1.17069e-05 2.69431e+25 -0.513733 -8.35952 272.83 
1.19458e-06 1.21847e-05 2.68751e+25 9.17414 1.76051 271.998 
3.10592e-06 1.21847e-05 2.68661e+25 9.70769 0.857753 271.962 
5.01725e-06 1.21847e-05 2.68454e+25 9.54363 -0.635018 272.312 
6.92858e-06 1.21847e-05 2.68725e+25 8.73206 -2.35632 272.163 
8.83992e-06 1.21847e-05 2.68633e+25 7.18284 -4.61274 272.384 
1.07512e-05 1.21847e-05 2.69139e+25 4.20065 -7.8138 272.291 
1.26626e-05 1.21847e-05 2.69049e+25 0.248884 -13.3802 272.565 
1.45739e-05 1.21847e-05 2.69747e+25 -2.13761 -18.0278 272.437 
1.64852e-05 1.21847e-05 2.69437e+25 -0.487349 -8.8728 272.868 
1.19458e-06 1.26626e-05 2.68799e+25 10.7748 1.65937 272.016 
3.10592e-06 1.26626e-05 2.68763e+25 11.2915 0.771331 272.046 
5.01725e-06 1.26626e-05 2.68617e+25 11.4652 -0.593413 272.172 
6.92858e-06 1.26626e-05 2.6863e+25 10.599 -1.9488 272.267 
8.83992e-06 1.26626e-05 2.68822e+25 8.98663 -4.02509 272.273 
1.07512e-05 1.26626e-05 2.69288e+25 5.99926 -6.95698 272.224 
1.26626e-05 1.26626e-05 2.6927e+25 1.73111 -12.3718 272.524 
1.45739e-05 1.26626e-05 2.69718e+25 -1.87325 -17.6697 272.573 
1.64852e-05 1.26626e-05 2.69949e+25 -0.666177 -9.46423 272.578 
1.19458e-06 1.31404e-05 2.68611e+25 12.5687 1.53389 272.162 
3.10592e-06 1.31404e-05 2.68732e+25 13.0241 0.624141 271.989 
5.01725e-06 1.31404e-05 2.6845e+25 13.3895 -0.475544 272.254 
6.92858e-06 1.31404e-05 2.68592e+25 12.5688 -1.55716 272.287 
8.83992e-06 1.31404e-05 2.68896e+25 10.8291 -3.47597 272.246 
1.07512e-05 1.31404e-05 2.69369e+25 7.86052 -6.11529 272.17 
1.26626e-05 1.31404e-05 2.69317e+25 3.30038 -11.1246 272.658 
1.45739e-05 1.31404e-05 2.69905e+25 -1.61181 -17.1731 272.587 
1.64852e-05 1.31404e-05 2.7003e+25 -0.623738 -10.1431 272.68 
1.19458e-06 1.36182e-05 2.68511e+25 14.4891 1.46536 272.235 
3.10592e-06 1.36182e-05 2.68702e+25 15.0893 0.410845 272.047 
5.01725e-06 1.36182e-05 2.68517e+25 15.3579 -0.383275 272.315 
6.92858e-06 1.36182e-05 2.68482e+25 14.6183 -1.2352 272.383 
8.83992e-06 1.36182e-05 2.68798e+25 12.9096 -2.8995 272.278 
1.07512e-05 1.36182e-05 2.69319e+25 9.8886 -5.25595 272.178 
1.26626e-05 1.36182e-05 2.6932e+25 4.96452 -9.60997 272.76 
1.45739e-05 1.36182e-05 2.70145e+25 -1.1604 -16.2725 272.583 
1.64852e-05 1.36182e-05 2.70219e+25 -0.979506 -10.8956 272.846 
1.19458e-06 1.40961e-05 2.68414e+25 16.5273 1.25765 272.384 
3.10592e-06 1.40961e-05 2.68878e+25 17.1492 0.316224 271.92 
5.01725e-06 1.40961e-05 2.68612e+25 17.4761 -0.240179 272.237 
6.92858e-06 1.40961e-05 2.68603e+25 16.652 -0.983677 272.398 
8.83992e-06 1.40961e-05 2.68717e+25 15.1153 -2.40241 272.438 
1.07512e-05 1.40961e-05 2.69348e+25 12.2435 -4.3962 272.247 
1.26626e-05 1.40961e-05 2.69344e+25 7.0687 -8.10118 272.744 
1.45739e-05 1.40961e-05 2.70225e+25 -0.112943 -15.1342 272.687 
1.64852e-05 1.40961e-05 2.709e+25 -0.973146 -11.7109 272.595 
1.19458e-06 1.45739e-05 2.68174e+25 19.0357 0.97174 272.462 
3.10592e-06 1.45739e-05 2.68568e+25 19.498 0.213413 272.084 
5.01725e-06 1.45739e-05 2.68579e+25 19.6777 -0.170583 272.164 
6.92858e-06 1.45739e-05 2.68663e+25 18.9562 -0.859537 272.248 
8.83992e-06 1.45739e-05 2.68855e+25 17.4169 -1.89504 272.429 
1.07512e-05 1.45739e-05 2.69248e+25 14.7215 -3.43746 272.371 
1.26626e-05 1.45739e-05 2.69169e+25 9.6352 -6.52942 272.9 
1.45739e-05 1.45739e-05 2.70356e+25 1.46674 -13.4521 272.608 
1.64852e-05 1.45739e-05 2.71302e+25 -1.07124 -12.468 272.724 
1.19458e-06 1.50518e-05 2.68299e+25 21.5452 0.694369 272.506 
3.10592e-06 1.50518e-05 2.68631e+25 22.0811 0.112881 272.241 
5.01725e-06 1.50518e-05 2.68608e+25 22.0306 -0.143836 272.128 
6.92858e-06 1.50518e-05 2.68666e+25 21.5459 -0.695622 272.306 
8.83992e-06 1.50518e-05 2.68739e+25 20.1902 -1.34638 272.495 
1.07512e-05 1.50518e-05 2.68964e+25 17.567 -2.33583 272.517 
1.26626e-05 1.50518e-05 2.69355e+25 12.6703 -4.79729 272.917 
1.45739e-05 1.50518e-05 2.70756e+25 4.0011 -11.1856 272.685 
1.64852e-05 1.50518e-05 2.71996e+25 -1.42279 -13.269 272.641 
1.19458e-06 1.55296e-05 2.68204e+25 24.3698 0.428492 272.495 
3.10592e-06 1.55296e-05 2.68423e+25 24.8435 0.103596 272.411 
5.01725e-06 1.55296e-05 2.68687e+25 24.7161 -0.0659658 272.197 
6.92858e-06 1.55296e-05 2.68775e+25 24.2801 -0.442608 272.347 
8.83992e-06 1.55296e-05 2.68767e+25 23.1161 -0.913371 272.445 
1.07512e-05 1.55296e-05 2.68992e+25 20.7097 -1.45718 272.676 
1.26626e-05 1.55296e-05 2.69509e+25 16.4469 -3.14915 272.854 
1.45739e-05 1.55296e-05 2.70564e+25 7.66707 -8.37321 272.931 
1.64852e-05 1.55296e-05 2.72667e+25 -1.36545 -13.7905 272.88 
1.19458e-06 1.60074e-05 2.68148e+25 27.098 0.2328 272.605 
3.10592e-06 1.60074e-05 2.68518e+25 27.6664 -0.00879498 272.307 
5.01725e-06 1.60074e-05 2.68527e+25 27.5575 -0.0661557 272.373 
6.92858e-06 1.60074e-05 2.68498e+25 27.3112 -0.291443 272.529 
8.83992e-06 1.60074e-05 2.68878e+25 26.1754 -0.459175 272.345 
1.07512e-05 1.60074e-05 2.68864e+25 24.4207 -0.80678 272.793 
1.26626e-05 1.60074e-05 2.69472e+25 20.708 -1.62905 272.912 
1.45739e-05 1.60074e-05 2.7058e+25 12.8375 -5.253 273.151 
1.64852e-05 1.60074e-05 2.73564e+25 -0.819195 -13.368 272.996 
1.19458e-06 1.64852e-05 2.67983e+25 29.9789 0.0614867 272.797 
3.10592e-06 1.64852e-05 2.68388e+25 30.4333 -0.083186 272.443 
5.01725e-06 1.64852e-05 2.68427e+25 30.4435 -0.0693406 272.519 
6.92858e-06 1.64852e-05 2.6827e+25 30.1601 -0.105335 272.682 
8.83992e-06 1.64852e-05 2.6866e+25 29.3138 -0.155474 272.574 
1.07512e-05 1.64852e-05 2.68806e+25 28.2214 -0.251485 272.889 
1.26626e-05 1.64852e-05 2.69388e+25 25.6491 -0.628631 272.963 
1.45739e-05 1.64852e-05 2.70338e+25 19.9158 -2.38321 273.309 
1.64852e-05 1.64852e-05 2.74706e+25 2.2987 -10.6206 273.469 
1.19458e-06 1.69631e-05 2.68065e+25 32.8741 -0.0151074 272.945 
3.10592e-06 1.69631e-05 2.68097e+25 32.9152 -0.0634133 272.656 
5.01725e-06 1.69631e-05 2.68153e+25 33.0741 -0.0435891 272.846 
6.92858e-06 1.69631e-05 2.68252e+25 32.9133 -0.00642542 272.716 
8.83992e-06 1.69631e-05 2.68467e+25 32.5725 -0.0724954 272.807 
1.07512e-05 1.69631e-05 2.68559e+25 31.927 0.0032918 273.02 
1.26626e-05 1.69631e-05 2.6928e+25 30.9716 -0.116193 272.985 
1.45739e-05 1.69631e-05 2.70194e+25 28.3892 -0.529737 273.29 
1.64852e-05 1.69631e-05 2.76702e+25 13.3828 -3.65031 273.907 
