ITEM: TIMESTEP
180000
ITEM: NUMBER OF CELLS
5184
ITEM: BOX BOUNDS ss ss pp
-1.7202e-05 1.7202e-05
-1.7202e-05 1.7202e-05
-0.5 0.5
ITEM: CELLS xc yc f_1[1] f_1[2] f_1[3] f_1[4] 
-1.69631e-05 -1.69631e-05 2.68239e+25 0.0157014 -0.039077 272.954 
-1.50517e-05 -1.69631e-05 2.68197e+25 0.0147883 0.0208333 273.011 
-1.31404e-05 -1.69631e-05 2.68147e+25 0.039124 0.0595933 272.897 
-1.12291e-05 -1.69631e-05 2.68444e+25 -0.223942 0.06466 272.668 
-9.31775e-06 -1.69631e-05 2.68482e+25 -0.153547 -0.0798587 272.726 
-7.40642e-06 -1.69631e-05 2.68396e+25 -0.044412 0.00237959 272.856 
-5.49508e-06 -1.69631e-05 2.68179e+25 -0.380613 0.0203908 273.021 
-3.58375e-06 -1.69631e-05 2.68393e+25 0.0115734 0.0148605 272.964 
-1.67242e-06 -1.69631e-05 2.68456e+25 -0.271292 -0.00815103 272.802 
-1.69631e-05 -1.64852e-05 2.68469e+25 -0.0124927 0.0115304 272.736 
-1.50517e-05 -1.64852e-05 2.68765e+25 -0.110939 -0.027355 272.429 
-1.31404e-05 -1.64852e-05 2.68422e+25 -0.021458 0.144156 272.673 
-1.12291e-05 -1.64852e-05 2.6845e+25 -0.118521 -0.0169233 272.591 
-9.31775e-06 -1.64852e-05 2.68674e+25 -0.259628 -0.181636 272.578 
-7.40642e-06 -1.64852e-05 2.69082e+25 -0.000511008 -0.0471841 272.23 
-5.49508e-06 -1.64852e-05 2.68339e+25 -0.358526 0.126016 272.664 
-3.58375e-06 -1.64852e-05 2.68865e+25 -0.190442 0.0962474 272.447 
-1.67242e-06 -1.64852e-05 2.68636e+25 -0.342744 0.0505947 272.727 
-1.69631e-05 -1.60074e-05 2.68534e+25 0.00294506 0.0237979 272.744 
-1.50517e-05 -1.60074e-05 2.68841e+25 0.00672186 -0.00791871 272.383 
-1.31404e-05 -1.60074e-05 2.68805e+25 -0.0407114 0.184581 272.503 
-1.12291e-05 -1.60074e-05 2.68776e+25 -0.077601 -0.16768 272.416 
-9.31775e-06 -1.60074e-05 2.68661e+25 -0.242708 -0.117702 272.454 
-7.40642e-06 -1.60074e-05 2.6919e+25 -0.267106 -0.0450298 271.965 
-5.49508e-06 -1.60074e-05 2.68809e+25 -0.548569 0.0461476 272.396 
-3.58375e-06 -1.60074e-05 2.6888e+25 -0.373516 -0.0101059 272.418 
-1.67242e-06 -1.60074e-05 2.68496e+25 -0.659064 0.0463177 272.73 
-1.69631e-05 -1.55296e-05 2.68381e+25 -0.0166346 0.0335923 272.866 
-1.50517e-05 -1.55296e-05 2.69161e+25 -0.0180668 0.0944076 272.259 
-1.31404e-05 -1.55296e-05 2.68827e+25 -0.139091 0.0910665 272.392 
-1.12291e-05 -1.55296e-05 2.68861e+25 0.00623424 -0.103176 272.343 
-9.31775e-06 -1.55296e-05 2.6913e+25 -0.220445 0.0219644 272.159 
-7.40642e-06 -1.55296e-05 2.6905e+25 -0.500205 -0.038529 272.135 
-5.49508e-06 -1.55296e-05 2.68874e+25 -0.828835 0.08564 272.196 
-3.58375e-06 -1.55296e-05 2.69159e+25 -0.766179 -0.0288482 272.12 
-1.67242e-06 -1.55296e-05 2.68562e+25 -0.78625 0.22357 272.646 
-1.69631e-05 -1.50517e-05 2.68524e+25 -0.0188421 0.0671618 272.857 
-1.50517e-05 -1.50517e-05 2.69033e+25 0.0674433 0.173601 272.282 
-1.31404e-05 -1.50517e-05 2.68939e+25 0.128025 0.0443913 272.369 
-1.12291e-05 -1.50517e-05 2.68724e+25 -0.356317 -0.225895 272.282 
-9.31775e-06 -1.50517e-05 2.6904e+25 -0.17339 0.0641091 272.062 
-7.40642e-06 -1.50517e-05 2.6906e+25 -0.574557 0.167274 272.085 
-5.49508e-06 -1.50517e-05 2.69027e+25 -0.561979 0.188211 272.026 
-3.58375e-06 -1.50517e-05 2.69298e+25 -0.938717 0.0184697 271.902 
-1.67242e-06 -1.50517e-05 2.68743e+25 -1.24747 0.409786 272.557 
-1.69631e-05 -1.45739e-05 2.68706e+25 0.0407966 0.0354642 272.674 
-1.50517e-05 -1.45739e-05 2.69394e+25 0.180336 0.112673 271.937 
-1.31404e-05 -1.45739e-05 2.69013e+25 0.00199688 0.0169955 272.173 
-1.12291e-05 -1.45739e-05 2.68661e+25 -0.343671 -0.209697 272.398 
-9.31775e-06 -1.45739e-05 2.69269e+25 -0.43588 0.262329 271.83 
-7.40642e-06 -1.45739e-05 2.69111e+25 -0.799144 0.0878522 272.121 
-5.49508e-06 -1.45739e-05 2.69101e+25 -0.77186 0.356585 272.183 
-3.58375e-06 -1.45739e-05 2.69079e+25 -1.22525 0.0411807 271.974 
-1.67242e-06 -1.45739e-05 2.68699e+25 -1.47448 0.524543 272.524 
-1.69631e-05 -1.40961e-05 2.68553e+25 0.0343989 0.00958311 272.747 
-1.50517e-05 -1.40961e-05 2.69124e+25 0.0199322 -0.0310648 272.108 
-1.31404e-05 -1.40961e-05 2.69222e+25 -0.355399 0.133362 271.923 
-1.12291e-05 -1.40961e-05 2.68896e+25 -0.455274 -0.157713 272.333 
-9.31775e-06 -1.40961e-05 2.69325e+25 -0.595267 0.500709 271.647 
-7.40642e-06 -1.40961e-05 2.6918e+25 -1.11069 -0.00601007 272.15 
-5.49508e-06 -1.40961e-05 2.68943e+25 -0.994145 0.55862 272.285 
-3.58375e-06 -1.40961e-05 2.68882e+25 -1.57681 -0.0746776 272.269 
-1.67242e-06 -1.40961e-05 2.68788e+25 -1.53269 0.491251 272.482 
-1.69631e-05 -1.36182e-05 2.68287e+25 0.0362984 -0.0440687 272.661 
-1.50517e-05 -1.36182e-05 2.69076e+25 -0.186476 -0.0598932 272.119 
-1.31404e-05 -1.36182e-05 2.69106e+25 -0.351602 0.247818 272.066 
-1.12291e-05 -1.36182e-05 2.69246e+25 -0.491889 -0.117642 271.898 
-9.31775e-06 -1.36182e-05 2.69372e+25 -1.07109 0.490548 271.673 
-7.40642e-06 -1.36182e-05 2.69366e+25 -1.56274 0.00130443 271.92 
-5.49508e-06 -1.36182e-05 2.69262e+25 -1.38489 0.53209 272.05 
-3.58375e-06 -1.36182e-05 2.68718e+25 -1.98332 0.0223648 272.474 
-1.67242e-06 -1.36182e-05 2.69024e+25 -1.78843 0.367272 272.32 
-1.69631e-05 -1.31404e-05 2.68338e+25 0.0202391 -0.142846 272.628 
-1.50517e-05 -1.31404e-05 2.69143e+25 -0.17002 0.170309 271.897 
-1.31404e-05 -1.31404e-05 2.69139e+25 -0.325145 0.42741 271.981 
-1.12291e-05 -1.31404e-05 2.69156e+25 -0.638481 -0.0601715 271.858 
-9.31775e-06 -1.31404e-05 2.69867e+25 -1.4618 0.394447 271.478 
-7.40642e-06 -1.31404e-05 2.69479e+25 -1.82674 0.0803241 271.764 
-5.49508e-06 -1.31404e-05 2.69125e+25 -1.68211 0.369724 272.01 
-3.58375e-06 -1.31404e-05 2.68996e+25 -2.16263 0.153042 272.249 
-1.67242e-06 -1.31404e-05 2.69262e+25 -1.98845 0.457095 272.061 
-1.69631e-05 -1.26626e-05 2.68356e+25 -0.00165753 -0.159533 272.744 
-1.50517e-05 -1.26626e-05 2.69098e+25 -0.21851 0.25274 271.97 
-1.31404e-05 -1.26626e-05 2.69107e+25 -0.587923 0.554571 272.058 
-1.12291e-05 -1.26626e-05 2.6908e+25 -0.814606 0.246762 272.054 
-9.31775e-06 -1.26626e-05 2.6963e+25 -1.55695 0.462824 271.542 
-7.40642e-06 -1.26626e-05 2.6925e+25 -1.92878 0.133828 271.898 
-5.49508e-06 -1.26626e-05 2.69003e+25 -2.17815 0.29385 272.176 
-3.58375e-06 -1.26626e-05 2.68947e+25 -2.40308 0.310494 272.119 
-1.67242e-06 -1.26626e-05 2.69102e+25 -2.29882 0.409012 272.206 
-1.69631e-05 -1.21847e-05 2.6859e+25 -0.0570897 -0.0810866 272.784 
-1.50517e-05 -1.21847e-05 2.695e+25 -0.1862 0.356519 271.574 
-1.31404e-05 -1.21847e-05 2.68923e+25 -0.689802 0.623184 272.023 
-1.12291e-05 -1.21847e-05 2.68998e+25 -1.05148 0.544588 272.029 
-9.31775e-06 -1.21847e-05 2.69599e+25 -1.67492 0.629185 271.701 
-7.40642e-06 -1.21847e-05 2.69359e+25 -2.01774 0.363862 271.823 
-5.49508e-06 -1.21847e-05 2.6933e+25 -2.50144 0.401222 271.907 
-3.58375e-06 -1.21847e-05 2.6935e+25 -2.41549 0.313498 272.034 
-1.67242e-06 -1.21847e-05 2.69132e+25 -2.43096 0.212993 271.928 
-1.69631e-05 -1.17069e-05 2.68389e+25 0.0201722 -0.0437531 272.821 
-1.50517e-05 -1.17069e-05 2.69602e+25 -0.249556 0.701534 271.549 
-1.31404e-05 -1.17069e-05 2.69293e+25 -0.614468 0.670419 272.017 
-1.12291e-05 -1.17069e-05 2.689e+25 -1.18829 0.729195 272.27 
-9.31775e-06 -1.17069e-05 2.69312e+25 -1.59491 0.823563 271.703 
-7.40642e-06 -1.17069e-05 2.69056e+25 -2.2104 0.503384 271.895 
-5.49508e-06 -1.17069e-05 2.69227e+25 -2.59781 0.422975 271.865 
-3.58375e-06 -1.17069e-05 2.69266e+25 -2.6955 0.289033 271.945 
-1.67242e-06 -1.17069e-05 2.69137e+25 -2.4325 0.18419 272.07 
-1.69631e-05 -1.12291e-05 2.68478e+25 0.0285869 -0.0343505 272.782 
-1.50517e-05 -1.12291e-05 2.6943e+25 -0.358702 0.68187 271.749 
-1.31404e-05 -1.12291e-05 2.69238e+25 -0.673936 0.671528 272 
-1.12291e-05 -1.12291e-05 2.68849e+25 -1.20075 0.765931 272.154 
-9.31775e-06 -1.12291e-05 2.69347e+25 -1.65144 0.943218 271.817 
-7.40642e-06 -1.12291e-05 2.69341e+25 -2.23349 0.591014 271.959 
-5.49508e-06 -1.12291e-05 2.69572e+25 -2.72896 0.606383 271.678 
-3.58375e-06 -1.12291e-05 2.69298e+25 -2.95253 0.262571 272.024 
-1.67242e-06 -1.12291e-05 2.69167e+25 -2.84531 0.14915 272.04 
-1.69631e-05 -1.07512e-05 2.68439e+25 0.0211791 -0.0749213 272.701 
-1.50517e-05 -1.07512e-05 2.69538e+25 -0.310829 0.684914 271.675 
-1.31404e-05 -1.07512e-05 2.69119e+25 -0.619869 0.758449 271.931 
-1.12291e-05 -1.07512e-05 2.69059e+25 -1.1805 0.877949 272.007 
-9.31775e-06 -1.07512e-05 2.69397e+25 -1.92013 1.09977 271.856 
-7.40642e-06 -1.07512e-05 2.69121e+25 -2.10818 0.523784 272.033 
-5.49508e-06 -1.07512e-05 2.69669e+25 -2.87713 0.848124 271.507 
-3.58375e-06 -1.07512e-05 2.6915e+25 -3.12577 0.358401 272.238 
-1.67242e-06 -1.07512e-05 2.6878e+25 -3.48756 0.133383 272.162 
-1.69631e-05 -1.02734e-05 2.68368e+25 -0.0980408 0.0279686 272.711 
-1.50517e-05 -1.02734e-05 2.69344e+25 -0.099811 0.6561 271.838 
-1.31404e-05 -1.02734e-05 2.69109e+25 -0.665633 0.751317 272.047 
-1.12291e-05 -1.02734e-05 2.69178e+25 -1.31629 1.16278 272.052 
-9.31775e-06 -1.02734e-05 2.69469e+25 -1.8577 1.23287 271.625 
-7.40642e-06 -1.02734e-05 2.68939e+25 -2.12223 0.642129 272.072 
-5.49508e-06 -1.02734e-05 2.69633e+25 -2.91625 0.964952 271.407 
-3.58375e-06 -1.02734e-05 2.69318e+25 -3.08094 0.508874 271.821 
-1.67242e-06 -1.02734e-05 2.68734e+25 -4.07548 0.251914 272.301 
-1.69631e-05 -9.79558e-06 2.68542e+25 0.0724056 0.0957785 272.612 
-1.50517e-05 -9.79558e-06 2.69392e+25 -0.304262 0.7811 271.916 
-1.31404e-05 -9.79558e-06 2.69393e+25 -0.628173 0.917853 271.933 
-1.12291e-05 -9.79558e-06 2.69481e+25 -1.38986 1.29057 271.771 
-9.31775e-06 -9.79558e-06 2.69287e+25 -1.99387 1.47266 271.968 
-7.40642e-06 -9.79558e-06 2.69296e+25 -2.40288 0.830566 271.826 
-5.49508e-06 -9.79558e-06 2.69561e+25 -3.28833 1.06946 271.52 
-3.58375e-06 -9.79558e-06 2.69254e+25 -3.40388 0.693342 271.897 
-1.67242e-06 -9.79558e-06 2.69176e+25 -4.37624 0.490002 272.084 
-1.69631e-05 -9.31775e-06 2.68439e+25 -0.0248925 0.0358259 272.772 
-1.50517e-05 -9.31775e-06 2.69354e+25 -0.0211627 0.875754 271.795 
-1.31404e-05 -9.31775e-06 2.69524e+25 -0.650078 1.10324 271.74 
-1.12291e-05 -9.31775e-06 2.6968e+25 -1.22566 1.35034 271.494 
-9.31775e-06 -9.31775e-06 2.69481e+25 -1.97485 1.61751 271.808 
-7.40642e-06 -9.31775e-06 2.69296e+25 -2.69288 1.06614 271.896 
-5.49508e-06 -9.31775e-06 2.69621e+25 -3.41063 1.13545 271.472 
-3.58375e-06 -9.31775e-06 2.69382e+25 -3.75985 0.895996 271.767 
-1.67242e-06 -9.31775e-06 2.68895e+25 -4.51832 0.518282 272.179 
-1.69631e-05 -8.83992e-06 2.68312e+25 -0.0914542 0.141368 272.948 
-1.50517e-05 -8.83992e-06 2.69382e+25 0.018155 0.78931 271.835 
-1.31404e-05 -8.83992e-06 2.69435e+25 -0.530661 1.24559 271.637 
-1.12291e-05 -8.83992e-06 2.69468e+25 -1.23097 1.73586 271.823 
-9.31775e-06 -8.83992e-06 2.69415e+25 -1.84944 1.78425 271.901 
-7.40642e-06 -8.83992e-06 2.69453e+25 -3.04368 1.35507 271.625 
-5.49508e-06 -8.83992e-06 2.6986e+25 -3.49876 1.18681 271.334 
-3.58375e-06 -8.83992e-06 2.69494e+25 -4.07734 1.04826 271.724 
-1.67242e-06 -8.83992e-06 2.68834e+25 -4.55921 0.499633 272.414 
-1.69631e-05 -8.36208e-06 2.68412e+25 0.0412466 0.22206 272.951 
-1.50517e-05 -8.36208e-06 2.69292e+25 -0.200977 0.751259 271.913 
-1.31404e-05 -8.36208e-06 2.69582e+25 -0.746052 1.3852 271.665 
-1.12291e-05 -8.36208e-06 2.69205e+25 -1.37133 1.91857 272.011 
-9.31775e-06 -8.36208e-06 2.69519e+25 -1.65556 1.82194 271.834 
-7.40642e-06 -8.36208e-06 2.69593e+25 -2.8817 1.73536 271.633 
-5.49508e-06 -8.36208e-06 2.69727e+25 -3.62714 1.2644 271.378 
-3.58375e-06 -8.36208e-06 2.69354e+25 -4.29273 1.10262 271.957 
-1.67242e-06 -8.36208e-06 2.68912e+25 -4.63768 0.583038 272.337 
-1.69631e-05 -7.88425e-06 2.68463e+25 -0.0228097 0.199149 272.839 
-1.50517e-05 -7.88425e-06 2.6911e+25 -0.111994 0.868154 271.986 
-1.31404e-05 -7.88425e-06 2.69448e+25 -0.902873 1.57347 271.723 
-1.12291e-05 -7.88425e-06 2.69232e+25 -1.32944 2.00639 271.939 
-9.31775e-06 -7.88425e-06 2.693e+25 -1.94552 2.02142 271.922 
-7.40642e-06 -7.88425e-06 2.69671e+25 -2.98126 2.05645 271.63 
-5.49508e-06 -7.88425e-06 2.69553e+25 -3.83493 1.44935 271.561 
-3.58375e-06 -7.88425e-06 2.69289e+25 -4.26385 1.23716 271.897 
-1.67242e-06 -7.88425e-06 2.69132e+25 -4.70423 0.672901 272.205 
-1.69631e-05 -7.40642e-06 2.68487e+25 0.0340043 0.172138 272.822 
-1.50517e-05 -7.40642e-06 2.69359e+25 -0.146453 1.11425 271.806 
-1.31404e-05 -7.40642e-06 2.69372e+25 -0.906578 1.6101 271.836 
-1.12291e-05 -7.40642e-06 2.69171e+25 -1.49898 2.13684 271.98 
-9.31775e-06 -7.40642e-06 2.69591e+25 -1.94775 2.28433 271.572 
-7.40642e-06 -7.40642e-06 2.69812e+25 -2.94635 2.44773 271.529 
-5.49508e-06 -7.40642e-06 2.69496e+25 -3.66255 1.52292 271.689 
-3.58375e-06 -7.40642e-06 2.69605e+25 -4.41091 1.47599 271.701 
-1.67242e-06 -7.40642e-06 2.69036e+25 -4.64454 0.804585 272.096 
-1.69631e-05 -6.92858e-06 2.68409e+25 0.0524501 0.144705 272.877 
-1.50517e-05 -6.92858e-06 2.69335e+25 -0.306716 1.41594 271.897 
-1.31404e-05 -6.92858e-06 2.69432e+25 -0.904332 1.71146 271.717 
-1.12291e-05 -6.92858e-06 2.69256e+25 -1.38162 2.23285 271.882 
-9.31775e-06 -6.92858e-06 2.69529e+25 -2.15628 2.44158 271.55 
-7.40642e-06 -6.92858e-06 2.69451e+25 -2.96956 2.70966 271.81 
-5.49508e-06 -6.92858e-06 2.69495e+25 -3.65924 1.6517 271.693 
-3.58375e-06 -6.92858e-06 2.69355e+25 -4.58109 1.68605 271.83 
-1.67242e-06 -6.92858e-06 2.68966e+25 -5.0018 0.995934 272.013 
-1.69631e-05 -6.45075e-06 2.68519e+25 -0.0023337 0.174638 272.847 
-1.50517e-05 -6.45075e-06 2.69264e+25 -0.286074 1.50064 271.912 
-1.31404e-05 -6.45075e-06 2.69487e+25 -0.76494 1.87176 271.705 
-1.12291e-05 -6.45075e-06 2.6921e+25 -1.37966 2.40968 271.773 
-9.31775e-06 -6.45075e-06 2.69534e+25 -2.57342 2.51643 271.657 
-7.40642e-06 -6.45075e-06 2.69431e+25 -3.11565 2.96507 271.766 
-5.49508e-06 -6.45075e-06 2.69592e+25 -3.90295 1.8728 271.677 
-3.58375e-06 -6.45075e-06 2.6929e+25 -4.75609 1.82661 271.811 
-1.67242e-06 -6.45075e-06 2.6899e+25 -5.43479 1.0737 272.08 
-1.69631e-05 -5.97292e-06 2.68733e+25 -0.00947497 0.17685 272.774 
-1.50517e-05 -5.97292e-06 2.69418e+25 -0.409704 1.62488 271.759 
-1.31404e-05 -5.97292e-06 2.6938e+25 -0.898649 2.12138 271.855 
-1.12291e-05 -5.97292e-06 2.69312e+25 -1.82119 2.61481 271.881 
-9.31775e-06 -5.97292e-06 2.69356e+25 -2.67791 2.77998 271.696 
-7.40642e-06 -5.97292e-06 2.69441e+25 -3.34883 3.11916 271.499 
-5.49508e-06 -5.97292e-06 2.69522e+25 -4.34586 2.08208 271.715 
-3.58375e-06 -5.97292e-06 2.69468e+25 -4.90801 2.05567 271.856 
-1.67242e-06 -5.97292e-06 2.6897e+25 -5.65298 1.16143 272.038 
-1.69631e-05 -5.49508e-06 2.68413e+25 0.0309323 0.247657 272.771 
-1.50517e-05 -5.49508e-06 2.6907e+25 -0.534351 1.78414 271.934 
-1.31404e-05 -5.49508e-06 2.6907e+25 -1.1068 2.39696 271.996 
-1.12291e-05 -5.49508e-06 2.69411e+25 -2.36635 2.84413 271.812 
-9.31775e-06 -5.49508e-06 2.69296e+25 -2.88429 2.98785 271.697 
-7.40642e-06 -5.49508e-06 2.69813e+25 -3.83374 3.2652 271.345 
-5.49508e-06 -5.49508e-06 2.69408e+25 -4.57399 2.2706 271.828 
-3.58375e-06 -5.49508e-06 2.69368e+25 -5.46157 2.28756 271.869 
-1.67242e-06 -5.49508e-06 2.69015e+25 -5.79736 1.25935 272.239 
-1.69631e-05 -5.01725e-06 2.68437e+25 0.0080626 0.174958 272.92 
-1.50517e-05 -5.01725e-06 2.6935e+25 -0.778857 1.88675 271.867 
-1.31404e-05 -5.01725e-06 2.69118e+25 -1.19431 2.68109 271.894 
-1.12291e-05 -5.01725e-06 2.69126e+25 -2.17899 3.11 271.941 
-9.31775e-06 -5.01725e-06 2.69591e+25 -3.07517 3.16848 271.672 
-7.40642e-06 -5.01725e-06 2.69528e+25 -3.89102 3.44115 271.509 
-5.49508e-06 -5.01725e-06 2.68966e+25 -4.62177 2.49938 272.099 
-3.58375e-06 -5.01725e-06 2.68881e+25 -5.65899 2.47083 271.909 
-1.67242e-06 -5.01725e-06 2.68828e+25 -5.95863 1.44952 272.239 
-1.69631e-05 -4.53942e-06 2.68454e+25 0.0145992 0.166972 272.733 
-1.50517e-05 -4.53942e-06 2.69532e+25 -0.592061 1.87453 271.869 
-1.31404e-05 -4.53942e-06 2.68972e+25 -1.11129 2.8786 272.092 
-1.12291e-05 -4.53942e-06 2.69047e+25 -2.13998 3.42979 271.987 
-9.31775e-06 -4.53942e-06 2.69497e+25 -3.18183 3.39147 271.556 
-7.40642e-06 -4.53942e-06 2.69452e+25 -3.87586 3.60662 271.798 
-5.49508e-06 -4.53942e-06 2.6908e+25 -4.79217 2.72264 272.014 
-3.58375e-06 -4.53942e-06 2.69258e+25 -5.74444 2.61226 271.898 
-1.67242e-06 -4.53942e-06 2.68872e+25 -6.12491 1.54767 272.137 
-1.69631e-05 -4.06158e-06 2.68307e+25 -0.0366432 0.203018 272.714 
-1.50517e-05 -4.06158e-06 2.695e+25 -0.495593 2.17328 271.833 
-1.31404e-05 -4.06158e-06 2.69057e+25 -1.20853 3.09861 272.143 
-1.12291e-05 -4.06158e-06 2.6934e+25 -2.05931 3.78293 271.771 
-9.31775e-06 -4.06158e-06 2.69699e+25 -3.01781 3.64072 271.398 
-7.40642e-06 -4.06158e-06 2.69004e+25 -3.70109 3.72279 271.981 
-5.49508e-06 -4.06158e-06 2.69034e+25 -4.48612 3.19959 272.121 
-3.58375e-06 -4.06158e-06 2.69124e+25 -5.5717 2.70309 271.954 
-1.67242e-06 -4.06158e-06 2.69079e+25 -6.19253 1.62227 271.885 
-1.69631e-05 -3.58375e-06 2.68373e+25 -0.0431073 0.355468 272.789 
-1.50517e-05 -3.58375e-06 2.68994e+25 -0.500149 2.4204 272.112 
-1.31404e-05 -3.58375e-06 2.69158e+25 -1.07428 3.38769 272.033 
-1.12291e-05 -3.58375e-06 2.69165e+25 -1.95355 4.05183 271.792 
-9.31775e-06 -3.58375e-06 2.69679e+25 -2.87048 3.8925 271.383 
-7.40642e-06 -3.58375e-06 2.69137e+25 -3.62941 3.77182 271.89 
-5.49508e-06 -3.58375e-06 2.68928e+25 -4.81664 3.46701 272.211 
-3.58375e-06 -3.58375e-06 2.69315e+25 -5.61083 2.75934 271.663 
-1.67242e-06 -3.58375e-06 2.69202e+25 -6.42908 1.81349 271.972 
-1.69631e-05 -3.10592e-06 2.68292e+25 -0.0477062 0.426713 272.9 
-1.50517e-05 -3.10592e-06 2.69026e+25 -0.554962 2.62989 272.151 
-1.31404e-05 -3.10592e-06 2.68981e+25 -1.36471 3.58537 272.218 
-1.12291e-05 -3.10592e-06 2.6915e+25 -1.85951 4.12935 271.883 
-9.31775e-06 -3.10592e-06 2.69469e+25 -2.77174 4.12275 271.575 
-7.40642e-06 -3.10592e-06 2.69287e+25 -3.61993 4.0432 271.892 
-5.49508e-06 -3.10592e-06 2.68974e+25 -4.82594 3.59133 272.107 
-3.58375e-06 -3.10592e-06 2.69143e+25 -5.71428 2.99484 271.818 
-1.67242e-06 -3.10592e-06 2.69139e+25 -6.50916 1.94506 271.97 
-1.69631e-05 -2.62808e-06 2.68399e+25 0.103344 0.453429 272.814 
-1.50517e-05 -2.62808e-06 2.68846e+25 -0.561323 2.90739 272.342 
-1.31404e-05 -2.62808e-06 2.6892e+25 -1.41746 3.72074 272.157 
-1.12291e-05 -2.62808e-06 2.69376e+25 -1.556 4.12156 271.801 
-9.31775e-06 -2.62808e-06 2.69206e+25 -2.58328 4.49562 271.889 
-7.40642e-06 -2.62808e-06 2.69129e+25 -3.89696 4.32381 272.007 
-5.49508e-06 -2.62808e-06 2.68914e+25 -4.85604 3.81329 272.132 
-3.58375e-06 -2.62808e-06 2.69121e+25 -5.65717 3.19129 271.993 
-1.67242e-06 -2.62808e-06 2.69069e+25 -6.50129 2.00007 271.917 
-1.69631e-05 -2.15025e-06 2.68302e+25 0.0418465 0.375244 272.904 
-1.50517e-05 -2.15025e-06 2.68866e+25 -0.292033 2.97505 272.228 
-1.31404e-05 -2.15025e-06 2.68963e+25 -1.09687 3.79473 272.055 
-1.12291e-05 -2.15025e-06 2.69518e+25 -1.62425 4.07867 271.65 
-9.31775e-06 -2.15025e-06 2.69459e+25 -2.54154 4.768 271.618 
-7.40642e-06 -2.15025e-06 2.69011e+25 -3.82761 4.58268 272.065 
-5.49508e-06 -2.15025e-06 2.69015e+25 -4.87508 3.95734 271.997 
-3.58375e-06 -2.15025e-06 2.68815e+25 -5.63774 3.37715 272.075 
-1.67242e-06 -2.15025e-06 2.69311e+25 -6.42765 2.0556 271.631 
-1.69631e-05 -1.67242e-06 2.68325e+25 -0.0460021 0.341545 272.979 
-1.50517e-05 -1.67242e-06 2.68876e+25 -0.10373 3.02556 272.267 
-1.31404e-05 -1.67242e-06 2.69452e+25 -0.851468 3.88013 271.834 
-1.12291e-05 -1.67242e-06 2.69454e+25 -1.76607 4.19668 271.457 
-9.31775e-06 -1.67242e-06 2.69322e+25 -2.64361 4.93144 271.673 
-7.40642e-06 -1.67242e-06 2.69045e+25 -3.72323 4.80258 272.082 
-5.49508e-06 -1.67242e-06 2.69313e+25 -4.8025 4.19655 271.811 
-3.58375e-06 -1.67242e-06 2.68783e+25 -5.64626 3.60174 272.218 
-1.67242e-06 -1.67242e-06 2.69294e+25 -6.56262 2.36648 271.748 
-1.69631e-05 -1.19458e-06 2.68163e+25 -0.0200848 0.434149 273.011 
-1.50517e-05 -1.19458e-06 2.69068e+25 -0.177651 3.1675 272.228 
-1.31404e-05 -1.19458e-06 2.69373e+25 -0.706919 3.99078 271.848 
-1.12291e-05 -1.19458e-06 2.69516e+25 -1.64664 4.70324 271.528 
-9.31775e-06 -1.19458e-06 2.69307e+25 -2.53929 5.1827 271.757 
-7.40642e-06 -1.19458e-06 2.69336e+25 -3.63966 5.09748 271.719 
-5.49508e-06 -1.19458e-06 2.69041e+25 -4.86421 4.35689 271.902 
-3.58375e-06 -1.19458e-06 2.68791e+25 -5.69668 3.75567 272.079 
-1.67242e-06 -1.19458e-06 2.69145e+25 -6.67272 2.85561 271.856 
-1.69631e-05 -7.1675e-07 2.68201e+25 -0.0628613 0.543866 273.042 
-1.50517e-05 -7.1675e-07 2.69116e+25 -0.25705 3.2818 272.093 
-1.31404e-05 -7.1675e-07 2.69211e+25 -0.72702 4.09907 271.888 
-1.12291e-05 -7.1675e-07 2.69452e+25 -1.50268 5.08037 271.598 
-9.31775e-06 -7.1675e-07 2.69278e+25 -2.46074 5.46434 271.656 
-7.40642e-06 -7.1675e-07 2.69168e+25 -3.63681 5.4761 271.709 
-5.49508e-06 -7.1675e-07 2.68985e+25 -4.91861 4.73136 272.074 
-3.58375e-06 -7.1675e-07 2.68919e+25 -5.8935 3.88711 271.946 
-1.67242e-06 -7.1675e-07 2.69288e+25 -6.84179 3.3181 271.727 
-1.69631e-05 -2.38917e-07 2.67924e+25 0.0390061 0.583693 272.93 
-1.50517e-05 -2.38917e-07 2.68985e+25 -0.202757 3.33173 271.974 
-1.31404e-05 -2.38917e-07 2.69222e+25 -0.507972 4.32009 271.762 
-1.12291e-05 -2.38917e-07 2.69254e+25 -1.62449 5.31849 271.575 
-9.31775e-06 -2.38917e-07 2.68888e+25 -2.69075 5.80927 271.846 
-7.40642e-06 -2.38917e-07 2.69261e+25 -3.78072 5.80926 271.748 
-5.49508e-06 -2.38917e-07 2.68983e+25 -4.6865 5.06639 271.856 
-3.58375e-06 -2.38917e-07 2.68873e+25 -5.91939 4.17536 271.978 
-1.67242e-06 -2.38917e-07 2.68752e+25 -6.79644 3.5656 271.981 
-1.64852e-05 -1.69631e-05 2.68652e+25 -0.0480283 0.0445036 272.77 
-1.45739e-05 -1.69631e-05 2.68283e+25 0.052489 -0.0125588 272.776 
-1.26626e-05 -1.69631e-05 2.68513e+25 -0.0695865 0.00982839 272.826 
-1.07512e-05 -1.69631e-05 2.68431e+25 -0.243521 -0.0404093 272.731 
-8.83992e-06 -1.69631e-05 2.68482e+25 -0.0570672 0.0233698 272.855 
-6.92858e-06 -1.69631e-05 2.68419e+25 0.0116746 -0.0599413 272.803 
-5.01725e-06 -1.69631e-05 2.68186e+25 -0.359937 -0.0456196 273.008 
-3.10592e-06 -1.69631e-05 2.68355e+25 -0.0953357 0.0563486 272.826 
-1.19458e-06 -1.69631e-05 2.68476e+25 -0.21117 0.0231192 272.821 
-1.64852e-05 -1.64852e-05 2.6887e+25 -0.0412485 0.0864554 272.58 
-1.45739e-05 -1.64852e-05 2.68721e+25 -0.119088 -0.0845304 272.428 
-1.26626e-05 -1.64852e-05 2.68446e+25 -0.157601 0.158688 272.762 
-1.07512e-05 -1.64852e-05 2.68744e+25 -0.0549337 -0.0855835 272.55 
-8.83992e-06 -1.64852e-05 2.68814e+25 -0.239873 -0.0615577 272.544 
-6.92858e-06 -1.64852e-05 2.68946e+25 -0.0738613 0.0405701 272.279 
-5.01725e-06 -1.64852e-05 2.68395e+25 -0.415186 -0.107137 272.818 
-3.10592e-06 -1.64852e-05 2.68739e+25 -0.271572 0.0961372 272.532 
-1.19458e-06 -1.64852e-05 2.68517e+25 -0.375539 -0.00649094 272.677 
-1.64852e-05 -1.60074e-05 2.68989e+25 0.0522947 0.0496682 272.458 
-1.45739e-05 -1.60074e-05 2.69003e+25 -0.00960659 -0.089351 272.205 
-1.26626e-05 -1.60074e-05 2.68762e+25 -0.00633988 0.253229 272.51 
-1.07512e-05 -1.60074e-05 2.68737e+25 0.00177886 -0.0586523 272.492 
-8.83992e-06 -1.60074e-05 2.68902e+25 -0.217358 -0.114916 272.394 
-6.92858e-06 -1.60074e-05 2.69139e+25 -0.311905 0.217235 272.01 
-5.01725e-06 -1.60074e-05 2.68857e+25 -0.512713 0.00802047 272.432 
-3.10592e-06 -1.60074e-05 2.68997e+25 -0.278743 0.215157 272.328 
-1.19458e-06 -1.60074e-05 2.68649e+25 -0.660942 0.00794629 272.556 
-1.64852e-05 -1.55296e-05 2.68818e+25 0.00720952 0.0260547 272.547 
-1.45739e-05 -1.55296e-05 2.68969e+25 -0.139009 -0.0621813 272.231 
-1.26626e-05 -1.55296e-05 2.68647e+25 -0.123717 0.322296 272.381 
-1.07512e-05 -1.55296e-05 2.69076e+25 0.0162829 -0.02916 272.085 
-8.83992e-06 -1.55296e-05 2.68996e+25 -0.298168 -0.151525 272.237 
-6.92858e-06 -1.55296e-05 2.69331e+25 -0.582737 0.256359 271.952 
-5.01725e-06 -1.55296e-05 2.68997e+25 -0.832196 -0.0288526 272.304 
-3.10592e-06 -1.55296e-05 2.68834e+25 -0.741704 0.144363 272.183 
-1.19458e-06 -1.55296e-05 2.6858e+25 -1.05397 0.105114 272.676 
-1.64852e-05 -1.50517e-05 2.68892e+25 -0.0420096 -0.0957505 272.439 
-1.45739e-05 -1.50517e-05 2.69055e+25 0.0625125 0.0169032 272.117 
-1.26626e-05 -1.50517e-05 2.68774e+25 -0.000650194 0.39818 272.538 
-1.07512e-05 -1.50517e-05 2.68922e+25 -0.279534 -0.0631935 272.152 
-8.83992e-06 -1.50517e-05 2.69226e+25 -0.389407 -0.0070423 272.088 
-6.92858e-06 -1.50517e-05 2.69164e+25 -0.614436 0.197882 272.045 
-5.01725e-06 -1.50517e-05 2.68737e+25 -0.668008 -0.0361481 272.322 
-3.10592e-06 -1.50517e-05 2.68724e+25 -0.949277 0.0812462 272.368 
-1.19458e-06 -1.50517e-05 2.68693e+25 -1.34982 0.180886 272.451 
-1.64852e-05 -1.45739e-05 2.6866e+25 0.022391 -0.0141147 272.43 
-1.45739e-05 -1.45739e-05 2.69077e+25 0.209604 0.00654219 272.092 
-1.26626e-05 -1.45739e-05 2.68431e+25 -0.0236363 0.534962 272.623 
-1.07512e-05 -1.45739e-05 2.6898e+25 -0.333007 -0.207007 272.227 
-8.83992e-06 -1.45739e-05 2.69368e+25 -0.67934 0.278439 271.851 
-6.92858e-06 -1.45739e-05 2.69001e+25 -0.727782 0.179787 272.115 
-5.01725e-06 -1.45739e-05 2.69024e+25 -0.96793 0.101543 272.094 
-3.10592e-06 -1.45739e-05 2.68769e+25 -1.17593 0.0615562 272.343 
-1.19458e-06 -1.45739e-05 2.68719e+25 -1.57053 0.299392 272.511 
-1.64852e-05 -1.40961e-05 2.69075e+25 0.102848 -0.0318941 272.348 
-1.45739e-05 -1.40961e-05 2.69224e+25 0.182446 0.115974 271.906 
-1.26626e-05 -1.40961e-05 2.68741e+25 -0.354383 0.494122 272.485 
-1.07512e-05 -1.40961e-05 2.6894e+25 -0.601556 -0.204987 272.086 
-8.83992e-06 -1.40961e-05 2.69509e+25 -0.743456 0.41298 271.712 
-6.92858e-06 -1.40961e-05 2.69119e+25 -1.07836 0.139639 272.066 
-5.01725e-06 -1.40961e-05 2.69113e+25 -1.12475 0.211584 272.068 
-3.10592e-06 -1.40961e-05 2.68648e+25 -1.52258 0.0953916 272.481 
-1.19458e-06 -1.40961e-05 2.69034e+25 -1.51217 0.396618 272.309 
-1.64852e-05 -1.36182e-05 2.689e+25 0.0468491 -0.0479873 272.433 
-1.45739e-05 -1.36182e-05 2.69047e+25 -0.34794 0.0473567 272.074 
-1.26626e-05 -1.36182e-05 2.68951e+25 -0.590437 0.656428 272.272 
-1.07512e-05 -1.36182e-05 2.69313e+25 -0.614435 0.0401461 271.961 
-8.83992e-06 -1.36182e-05 2.69363e+25 -1.02473 0.490339 271.724 
-6.92858e-06 -1.36182e-05 2.68997e+25 -1.58914 0.166027 272.047 
-5.01725e-06 -1.36182e-05 2.69233e+25 -1.39257 0.38077 272.034 
-3.10592e-06 -1.36182e-05 2.68715e+25 -2.01826 -0.0119376 272.453 
-1.19458e-06 -1.36182e-05 2.68833e+25 -1.67117 0.374526 272.39 
-1.64852e-05 -1.31404e-05 2.6886e+25 0.202441 -0.122751 272.254 
-1.45739e-05 -1.31404e-05 2.69324e+25 -0.321114 0.095201 271.888 
-1.26626e-05 -1.31404e-05 2.6891e+25 -0.32872 0.666457 272.122 
-1.07512e-05 -1.31404e-05 2.69119e+25 -0.783539 0.227822 271.954 
-8.83992e-06 -1.31404e-05 2.69336e+25 -1.54521 0.584515 271.768 
-6.92858e-06 -1.31404e-05 2.69469e+25 -1.85314 0.119153 271.729 
-5.01725e-06 -1.31404e-05 2.69281e+25 -1.6675 0.55688 271.886 
-3.10592e-06 -1.31404e-05 2.68802e+25 -2.32874 0.068146 272.337 
-1.19458e-06 -1.31404e-05 2.68942e+25 -2.07231 0.274333 272.282 
-1.64852e-05 -1.26626e-05 2.69208e+25 -0.0342264 -0.219382 272.146 
-1.45739e-05 -1.26626e-05 2.6915e+25 -0.253912 0.214948 271.91 
-1.26626e-05 -1.26626e-05 2.69209e+25 -0.651393 0.56658 272.035 
-1.07512e-05 -1.26626e-05 2.69505e+25 -1.13685 0.447401 271.829 
-8.83992e-06 -1.26626e-05 2.69408e+25 -1.60337 0.654436 271.737 
-6.92858e-06 -1.26626e-05 2.6912e+25 -2.07193 0.254626 271.944 
-5.01725e-06 -1.26626e-05 2.69109e+25 -2.14235 0.536154 272.096 
-3.10592e-06 -1.26626e-05 2.68908e+25 -2.40696 0.013759 272.107 
-1.19458e-06 -1.26626e-05 2.69054e+25 -2.17718 0.232667 272.225 
-1.64852e-05 -1.21847e-05 2.68872e+25 -0.106946 -0.209633 272.267 
-1.45739e-05 -1.21847e-05 2.69437e+25 -0.346074 0.328367 271.821 
-1.26626e-05 -1.21847e-05 2.69069e+25 -0.621974 0.52609 272.039 
-1.07512e-05 -1.21847e-05 2.69178e+25 -1.23695 0.630306 272.157 
-8.83992e-06 -1.21847e-05 2.69035e+25 -1.92688 0.719598 271.893 
-6.92858e-06 -1.21847e-05 2.69029e+25 -2.21452 0.426497 271.925 
-5.01725e-06 -1.21847e-05 2.69262e+25 -2.46347 0.474965 272.031 
-3.10592e-06 -1.21847e-05 2.69096e+25 -2.47287 0.0791599 272.004 
-1.19458e-06 -1.21847e-05 2.68965e+25 -2.2428 0.147916 272.117 
-1.64852e-05 -1.17069e-05 2.68646e+25 -0.124919 -0.0466937 272.451 
-1.45739e-05 -1.17069e-05 2.69514e+25 -0.447734 0.35502 271.64 
-1.26626e-05 -1.17069e-05 2.69058e+25 -0.784364 0.698024 272.168 
-1.07512e-05 -1.17069e-05 2.68833e+25 -1.36489 0.774861 272.25 
-8.83992e-06 -1.17069e-05 2.69397e+25 -1.75541 0.887176 271.867 
-6.92858e-06 -1.17069e-05 2.69066e+25 -2.20978 0.435365 272.067 
-5.01725e-06 -1.17069e-05 2.69357e+25 -2.72769 0.508133 271.828 
-3.10592e-06 -1.17069e-05 2.69099e+25 -2.64309 0.142491 272.008 
-1.19458e-06 -1.17069e-05 2.68996e+25 -2.45547 0.0802784 272.126 
-1.64852e-05 -1.12291e-05 2.68684e+25 -0.00105103 0.0544316 272.622 
-1.45739e-05 -1.12291e-05 2.6944e+25 -0.410108 0.564624 271.706 
-1.26626e-05 -1.12291e-05 2.69047e+25 -0.664006 0.813841 272.048 
-1.07512e-05 -1.12291e-05 2.69187e+25 -1.16799 0.883056 271.99 
-8.83992e-06 -1.12291e-05 2.69342e+25 -1.80137 1.08084 271.89 
-6.92858e-06 -1.12291e-05 2.69217e+25 -2.15069 0.360642 271.961 
-5.01725e-06 -1.12291e-05 2.69343e+25 -2.96071 0.669235 271.69 
-3.10592e-06 -1.12291e-05 2.68902e+25 -2.95809 0.127603 272.167 
-1.19458e-06 -1.12291e-05 2.69012e+25 -2.94648 0.157125 272.145 
-1.64852e-05 -1.07512e-05 2.6867e+25 0.0302787 0.0802556 272.483 
-1.45739e-05 -1.07512e-05 2.69477e+25 -0.317203 0.654566 271.774 
-1.26626e-05 -1.07512e-05 2.69091e+25 -0.725941 0.832797 271.975 
-1.07512e-05 -1.07512e-05 2.69183e+25 -1.51996 1.03608 272.006 
-8.83992e-06 -1.07512e-05 2.69334e+25 -1.91911 1.1066 271.82 
-6.92858e-06 -1.07512e-05 2.69306e+25 -2.17185 0.458649 271.898 
-5.01725e-06 -1.07512e-05 2.69584e+25 -2.94838 0.733051 271.513 
-3.10592e-06 -1.07512e-05 2.68967e+25 -3.18901 0.179127 272.214 
-1.19458e-06 -1.07512e-05 2.68884e+25 -3.63944 0.41474 272.076 
-1.64852e-05 -1.02734e-05 2.68797e+25 -0.208416 0.107419 272.406 
-1.45739e-05 -1.02734e-05 2.69223e+25 -0.211399 0.821662 271.949 
-1.26626e-05 -1.02734e-05 2.69327e+25 -0.82997 1.10835 271.878 
-1.07512e-05 -1.02734e-05 2.69008e+25 -1.529 1.25511 272.053 
-8.83992e-06 -1.02734e-05 2.69501e+25 -2.10616 1.19405 271.803 
-6.92858e-06 -1.02734e-05 2.69225e+25 -2.4163 0.720874 271.815 
-5.01725e-06 -1.02734e-05 2.69573e+25 -3.00816 0.795508 271.508 
-3.10592e-06 -1.02734e-05 2.69128e+25 -3.34828 0.35951 271.982 
-1.19458e-06 -1.02734e-05 2.69162e+25 -4.12025 0.466664 272.131 
-1.64852e-05 -9.79558e-06 2.6886e+25 0.0900325 0.0913393 272.359 
-1.45739e-05 -9.79558e-06 2.69378e+25 -0.308261 0.936483 271.75 
-1.26626e-05 -9.79558e-06 2.69271e+25 -0.884734 1.28421 271.767 
-1.07512e-05 -9.79558e-06 2.69205e+25 -1.37397 1.44548 271.886 
-8.83992e-06 -9.79558e-06 2.69348e+25 -2.07833 1.27302 271.929 
-6.92858e-06 -9.79558e-06 2.69088e+25 -2.73056 1.02755 271.9 
-5.01725e-06 -9.79558e-06 2.69665e+25 -3.21068 0.71125 271.415 
-3.10592e-06 -9.79558e-06 2.69084e+25 -3.65445 0.648626 272.046 
-1.19458e-06 -9.79558e-06 2.69106e+25 -4.50272 0.474359 272.103 
-1.64852e-05 -9.31775e-06 2.68498e+25 -0.0700094 0.143938 272.629 
-1.45739e-05 -9.31775e-06 2.69292e+25 -0.0736085 0.860679 271.682 
-1.26626e-05 -9.31775e-06 2.69433e+25 -0.667969 1.43397 271.783 
-1.07512e-05 -9.31775e-06 2.69564e+25 -1.44451 1.57377 271.72 
-8.83992e-06 -9.31775e-06 2.69141e+25 -2.11126 1.43147 271.881 
-6.92858e-06 -9.31775e-06 2.69491e+25 -2.86132 1.34345 271.756 
-5.01725e-06 -9.31775e-06 2.6976e+25 -3.52537 0.710837 271.388 
-3.10592e-06 -9.31775e-06 2.69227e+25 -3.97644 0.905139 271.953 
-1.19458e-06 -9.31775e-06 2.69136e+25 -4.43873 0.466042 272.065 
-1.64852e-05 -8.83992e-06 2.68553e+25 -0.190096 0.192005 272.696 
-1.45739e-05 -8.83992e-06 2.69472e+25 -0.0753985 1.00209 271.799 
-1.26626e-05 -8.83992e-06 2.69682e+25 -0.656025 1.44345 271.527 
-1.07512e-05 -8.83992e-06 2.69301e+25 -1.50239 1.69568 271.822 
-8.83992e-06 -8.83992e-06 2.69462e+25 -1.94806 1.57253 271.809 
-6.92858e-06 -8.83992e-06 2.69269e+25 -3.32417 1.46763 271.8 
-5.01725e-06 -8.83992e-06 2.69823e+25 -3.48375 0.759389 271.346 
-3.10592e-06 -8.83992e-06 2.68975e+25 -4.16178 1.04885 272.083 
-1.19458e-06 -8.83992e-06 2.69016e+25 -4.49853 0.426888 272.338 
-1.64852e-05 -8.36208e-06 2.68513e+25 -0.075159 0.274309 272.624 
-1.45739e-05 -8.36208e-06 2.69385e+25 -0.189318 1.15084 271.971 
-1.26626e-05 -8.36208e-06 2.69732e+25 -0.896038 1.47781 271.501 
-1.07512e-05 -8.36208e-06 2.69239e+25 -1.48938 1.83341 271.898 
-8.83992e-06 -8.36208e-06 2.69481e+25 -1.9397 1.85127 271.76 
-6.92858e-06 -8.36208e-06 2.69274e+25 -3.18952 1.72466 271.855 
-5.01725e-06 -8.36208e-06 2.69639e+25 -3.91476 0.892674 271.383 
-3.10592e-06 -8.36208e-06 2.69174e+25 -4.38009 1.11899 272.052 
-1.19458e-06 -8.36208e-06 2.68948e+25 -4.61697 0.260368 272.28 
-1.64852e-05 -7.88425e-06 2.68955e+25 -0.0363985 0.45076 272.465 
-1.45739e-05 -7.88425e-06 2.69302e+25 -0.324738 1.26509 272.019 
-1.26626e-05 -7.88425e-06 2.69367e+25 -1.10888 1.64779 271.462 
-1.07512e-05 -7.88425e-06 2.69139e+25 -1.41268 1.93779 272.049 
-8.83992e-06 -7.88425e-06 2.69568e+25 -2.13005 2.10461 271.797 
-6.92858e-06 -7.88425e-06 2.69421e+25 -3.25291 2.00076 271.718 
-5.01725e-06 -7.88425e-06 2.69389e+25 -3.86609 1.03803 271.64 
-3.10592e-06 -7.88425e-06 2.69155e+25 -4.38824 1.2247 271.986 
-1.19458e-06 -7.88425e-06 2.68978e+25 -4.85169 0.271643 272.22 
-1.64852e-05 -7.40642e-06 2.68935e+25 0.165546 0.430794 272.33 
-1.45739e-05 -7.40642e-06 2.69092e+25 -0.522026 1.56132 271.996 
-1.26626e-05 -7.40642e-06 2.69298e+25 -0.974105 1.93006 271.701 
-1.07512e-05 -7.40642e-06 2.69059e+25 -1.58993 2.08875 271.968 
-8.83992e-06 -7.40642e-06 2.69862e+25 -2.21442 2.32856 271.46 
-6.92858e-06 -7.40642e-06 2.69233e+25 -3.22991 2.24157 271.748 
-5.01725e-06 -7.40642e-06 2.69479e+25 -3.82477 1.19351 271.747 
-3.10592e-06 -7.40642e-06 2.69198e+25 -4.6427 1.23565 272.02 
-1.19458e-06 -7.40642e-06 2.69096e+25 -4.81965 0.447844 272.002 
-1.64852e-05 -6.92858e-06 2.6902e+25 -0.0172191 0.310229 272.351 
-1.45739e-05 -6.92858e-06 2.69182e+25 -0.437324 1.83524 271.893 
-1.26626e-05 -6.92858e-06 2.69332e+25 -1.04357 1.97412 271.752 
-1.07512e-05 -6.92858e-06 2.69251e+25 -1.62464 2.27706 271.867 
-8.83992e-06 -6.92858e-06 2.69786e+25 -2.23402 2.43585 271.258 
-6.92858e-06 -6.92858e-06 2.69312e+25 -3.24427 2.51639 271.8 
-5.01725e-06 -6.92858e-06 2.69447e+25 -3.87417 1.40179 271.696 
-3.10592e-06 -6.92858e-06 2.69259e+25 -4.71316 1.32834 271.877 
-1.19458e-06 -6.92858e-06 2.69237e+25 -5.12575 0.674752 271.979 
-1.64852e-05 -6.45075e-06 2.69041e+25 -0.0606838 0.31337 272.304 
-1.45739e-05 -6.45075e-06 2.69051e+25 -0.359235 1.95669 272.009 
-1.26626e-05 -6.45075e-06 2.69772e+25 -0.948024 2.09293 271.601 
-1.07512e-05 -6.45075e-06 2.69389e+25 -1.65551 2.65446 271.798 
-8.83992e-06 -6.45075e-06 2.69639e+25 -2.68419 2.61903 271.534 
-6.92858e-06 -6.45075e-06 2.69452e+25 -3.28801 2.65864 271.801 
-5.01725e-06 -6.45075e-06 2.69458e+25 -4.09697 1.58181 271.674 
-3.10592e-06 -6.45075e-06 2.69029e+25 -4.91568 1.51194 271.979 
-1.19458e-06 -6.45075e-06 2.68985e+25 -5.47123 0.770338 272.09 
-1.64852e-05 -5.97292e-06 2.68965e+25 -0.0854085 0.427858 272.373 
-1.45739e-05 -5.97292e-06 2.69127e+25 -0.522219 1.92527 271.942 
-1.26626e-05 -5.97292e-06 2.69159e+25 -1.16421 2.35853 272.006 
-1.07512e-05 -5.97292e-06 2.69246e+25 -2.08651 2.96862 271.858 
-8.83992e-06 -5.97292e-06 2.6954e+25 -2.95579 2.84604 271.515 
-6.92858e-06 -5.97292e-06 2.69458e+25 -3.57541 2.85237 271.566 
-5.01725e-06 -5.97292e-06 2.69348e+25 -4.43638 1.72371 271.741 
-3.10592e-06 -5.97292e-06 2.69089e+25 -5.16525 1.73998 272.004 
-1.19458e-06 -5.97292e-06 2.69012e+25 -5.82987 0.825924 272.161 
-1.64852e-05 -5.49508e-06 2.68643e+25 -0.0597728 0.502295 272.581 
-1.45739e-05 -5.49508e-06 2.69017e+25 -0.6606 2.06925 271.93 
-1.26626e-05 -5.49508e-06 2.69239e+25 -1.40303 2.60353 271.943 
-1.07512e-05 -5.49508e-06 2.69404e+25 -2.44437 3.14981 271.747 
-8.83992e-06 -5.49508e-06 2.69665e+25 -3.07898 3.02177 271.447 
-6.92858e-06 -5.49508e-06 2.69412e+25 -3.89265 3.01838 271.587 
-5.01725e-06 -5.49508e-06 2.69646e+25 -4.74286 1.77855 271.48 
-3.10592e-06 -5.49508e-06 2.69315e+25 -5.66558 1.93169 271.849 
-1.19458e-06 -5.49508e-06 2.68905e+25 -5.93485 0.946589 272.262 
-1.64852e-05 -5.01725e-06 2.68854e+25 0.00357121 0.685089 272.268 
-1.45739e-05 -5.01725e-06 2.6926e+25 -0.719547 2.02827 271.901 
-1.26626e-05 -5.01725e-06 2.69122e+25 -1.42673 2.86906 272.004 
-1.07512e-05 -5.01725e-06 2.69591e+25 -2.45719 3.20283 271.683 
-8.83992e-06 -5.01725e-06 2.69622e+25 -3.27759 3.303 271.496 
-6.92858e-06 -5.01725e-06 2.69431e+25 -4.10929 3.15788 271.555 
-5.01725e-06 -5.01725e-06 2.69333e+25 -4.92568 2.04968 271.754 
-3.10592e-06 -5.01725e-06 2.69185e+25 -5.77535 2.02432 271.925 
-1.19458e-06 -5.01725e-06 2.68887e+25 -6.16011 1.10933 272.225 
-1.64852e-05 -4.53942e-06 2.68831e+25 -0.0761809 0.733499 272.241 
-1.45739e-05 -4.53942e-06 2.692e+25 -0.647003 2.06606 271.988 
-1.26626e-05 -4.53942e-06 2.69107e+25 -1.19702 2.94135 272.085 
-1.07512e-05 -4.53942e-06 2.69366e+25 -2.38975 3.45722 271.846 
-8.83992e-06 -4.53942e-06 2.69326e+25 -3.334 3.42241 271.624 
-6.92858e-06 -4.53942e-06 2.69044e+25 -4.02816 3.40251 271.97 
-5.01725e-06 -4.53942e-06 2.69134e+25 -5.13417 2.45567 271.95 
-3.10592e-06 -4.53942e-06 2.69219e+25 -5.85102 2.18277 271.929 
-1.19458e-06 -4.53942e-06 2.68709e+25 -6.28583 1.34964 272.277 
-1.64852e-05 -4.06158e-06 2.68719e+25 -0.114427 0.890295 272.356 
-1.45739e-05 -4.06158e-06 2.69404e+25 -0.779114 2.13021 271.94 
-1.26626e-05 -4.06158e-06 2.69009e+25 -1.4452 3.12947 272.2 
-1.07512e-05 -4.06158e-06 2.69318e+25 -2.37455 3.65927 271.668 
-8.83992e-06 -4.06158e-06 2.69825e+25 -3.41911 3.61916 271.469 
-6.92858e-06 -4.06158e-06 2.69013e+25 -3.79958 3.54192 272.092 
-5.01725e-06 -4.06158e-06 2.68833e+25 -4.92608 2.74361 272.087 
-3.10592e-06 -4.06158e-06 2.69081e+25 -5.61108 2.2987 271.97 
-1.19458e-06 -4.06158e-06 2.68979e+25 -6.31482 1.57936 272.121 
-1.64852e-05 -3.58375e-06 2.68836e+25 -0.234153 0.994588 272.385 
-1.45739e-05 -3.58375e-06 2.69197e+25 -0.640086 2.27794 272.027 
-1.26626e-05 -3.58375e-06 2.68977e+25 -1.43269 3.41216 272.083 
-1.07512e-05 -3.58375e-06 2.69127e+25 -2.18274 3.95253 271.897 
-8.83992e-06 -3.58375e-06 2.69495e+25 -3.10523 4.01523 271.44 
-6.92858e-06 -3.58375e-06 2.68948e+25 -3.85088 3.82926 272.056 
-5.01725e-06 -3.58375e-06 2.68836e+25 -4.99766 3.03851 272.285 
-3.10592e-06 -3.58375e-06 2.69203e+25 -5.83303 2.41457 271.762 
-1.19458e-06 -3.58375e-06 2.68766e+25 -6.57805 1.63974 272.18 
-1.64852e-05 -3.10592e-06 2.68574e+25 -0.10559 1.16533 272.565 
-1.45739e-05 -3.10592e-06 2.69004e+25 -0.89305 2.58932 272.145 
-1.26626e-05 -3.10592e-06 2.69336e+25 -1.57196 3.69289 271.867 
-1.07512e-05 -3.10592e-06 2.69418e+25 -1.83571 4.03243 271.702 
-8.83992e-06 -3.10592e-06 2.69499e+25 -3.02 4.29623 271.603 
-6.92858e-06 -3.10592e-06 2.69075e+25 -3.9816 4.17227 271.946 
-5.01725e-06 -3.10592e-06 2.68837e+25 -5.07036 3.27075 272.26 
-3.10592e-06 -3.10592e-06 2.69169e+25 -5.88476 2.63838 271.969 
-1.19458e-06 -3.10592e-06 2.68935e+25 -6.56255 1.7185 272.091 
-1.64852e-05 -2.62808e-06 2.68704e+25 -0.0422693 1.25153 272.516 
-1.45739e-05 -2.62808e-06 2.69211e+25 -0.817863 2.86192 272.022 
-1.26626e-05 -2.62808e-06 2.69207e+25 -1.52375 3.93272 272.064 
-1.07512e-05 -2.62808e-06 2.69314e+25 -1.76965 4.18017 271.701 
-8.83992e-06 -2.62808e-06 2.69482e+25 -2.82776 4.45232 271.706 
-6.92858e-06 -2.62808e-06 2.68993e+25 -4.07689 4.42836 272.214 
-5.01725e-06 -2.62808e-06 2.68903e+25 -5.06734 3.50172 272.174 
-3.10592e-06 -2.62808e-06 2.68903e+25 -5.90246 2.89758 272.055 
-1.19458e-06 -2.62808e-06 2.69107e+25 -6.50649 1.69355 271.91 
-1.64852e-05 -2.15025e-06 2.68428e+25 0.0693151 1.45576 272.701 
-1.45739e-05 -2.15025e-06 2.68929e+25 -0.517379 3.22875 272.097 
-1.26626e-05 -2.15025e-06 2.69211e+25 -1.23385 4.02772 271.898 
-1.07512e-05 -2.15025e-06 2.69527e+25 -1.80642 4.56325 271.537 
-8.83992e-06 -2.15025e-06 2.69513e+25 -2.7292 4.60347 271.615 
-6.92858e-06 -2.15025e-06 2.69047e+25 -4.04152 4.59133 272.186 
-5.01725e-06 -2.15025e-06 2.69203e+25 -5.07926 3.73794 272.056 
-3.10592e-06 -2.15025e-06 2.68941e+25 -5.86037 3.14054 272.164 
-1.19458e-06 -2.15025e-06 2.68985e+25 -6.62088 1.86238 271.968 
-1.64852e-05 -1.67242e-06 2.68587e+25 -0.00333769 1.39371 272.708 
-1.45739e-05 -1.67242e-06 2.69021e+25 -0.279625 3.55783 272.017 
-1.26626e-05 -1.67242e-06 2.69532e+25 -0.951531 4.15713 271.667 
-1.07512e-05 -1.67242e-06 2.69422e+25 -1.98037 4.81116 271.511 
-8.83992e-06 -1.67242e-06 2.69413e+25 -2.90241 4.88099 271.634 
-6.92858e-06 -1.67242e-06 2.68914e+25 -4.09528 4.93309 272.078 
-5.01725e-06 -1.67242e-06 2.69143e+25 -5.04379 4.00766 271.885 
-3.10592e-06 -1.67242e-06 2.69023e+25 -5.80742 3.28577 272.047 
-1.19458e-06 -1.67242e-06 2.6923e+25 -7.00997 2.15701 271.742 
-1.64852e-05 -1.19458e-06 2.68488e+25 -0.0748184 1.26417 272.741 
-1.45739e-05 -1.19458e-06 2.69051e+25 -0.311304 3.66915 272.081 
-1.26626e-05 -1.19458e-06 2.69614e+25 -0.765858 4.23129 271.646 
-1.07512e-05 -1.19458e-06 2.69385e+25 -1.99882 4.95611 271.6 
-8.83992e-06 -1.19458e-06 2.69519e+25 -2.77624 5.14231 271.777 
-6.92858e-06 -1.19458e-06 2.69245e+25 -3.95911 5.31422 271.862 
-5.01725e-06 -1.19458e-06 2.69106e+25 -5.13032 4.30895 271.988 
-3.10592e-06 -1.19458e-06 2.69033e+25 -5.78332 3.42679 271.868 
-1.19458e-06 -1.19458e-06 2.68923e+25 -7.07387 2.42161 271.986 
-1.64852e-05 -7.1675e-07 2.68356e+25 -0.0760834 1.23387 272.772 
-1.45739e-05 -7.1675e-07 2.68802e+25 -0.279175 3.67474 272.201 
-1.26626e-05 -7.1675e-07 2.69432e+25 -0.872141 4.33849 271.815 
-1.07512e-05 -7.1675e-07 2.69452e+25 -1.83093 5.14745 271.536 
-8.83992e-06 -7.1675e-07 2.6932e+25 -2.81771 5.42595 271.743 
-6.92858e-06 -7.1675e-07 2.6913e+25 -4.0539 5.65651 271.748 
-5.01725e-06 -7.1675e-07 2.68788e+25 -5.17203 4.45685 272.097 
-3.10592e-06 -7.1675e-07 2.69132e+25 -6.10759 3.51797 271.818 
-1.19458e-06 -7.1675e-07 2.68857e+25 -7.13492 2.70224 271.977 
-1.64852e-05 -2.38917e-07 2.68064e+25 0.0355616 1.23666 272.8 
-1.45739e-05 -2.38917e-07 2.68958e+25 -0.106748 3.63477 272.077 
-1.26626e-05 -2.38917e-07 2.69022e+25 -0.801765 4.5585 271.964 
-1.07512e-05 -2.38917e-07 2.69333e+25 -1.82126 5.50066 271.537 
-8.83992e-06 -2.38917e-07 2.69127e+25 -2.98447 5.77038 271.652 
-6.92858e-06 -2.38917e-07 2.69062e+25 -3.95135 5.96804 271.692 
-5.01725e-06 -2.38917e-07 2.69075e+25 -4.97659 4.72929 271.752 
-3.10592e-06 -2.38917e-07 2.68788e+25 -6.31767 3.81275 271.972 
-1.19458e-06 -2.38917e-07 2.68769e+25 -7.00827 2.9902 272.049 
-1.60074e-05 -1.69631e-05 2.68533e+25 0.0318127 -0.0518364 272.858 
-1.40961e-05 -1.69631e-05 2.68355e+25 0.0384267 0.0311804 272.736 
-1.21847e-05 -1.69631e-05 2.68221e+25 -0.0933643 -0.00869421 272.82 
-1.02734e-05 -1.69631e-05 2.68292e+25 -0.142188 -0.0171553 272.805 
-8.36208e-06 -1.69631e-05 2.68544e+25 -0.0669664 0.0153769 272.704 
-6.45075e-06 -1.69631e-05 2.68779e+25 -0.0113576 0.0622056 272.638 
-4.53942e-06 -1.69631e-05 2.68401e+25 -0.239106 -0.0740165 272.921 
-2.62808e-06 -1.69631e-05 2.68121e+25 -0.166606 0.00858178 272.952 
-7.1675e-07 -1.69631e-05 2.68553e+25 -0.212095 -0.0596754 272.754 
-1.60074e-05 -1.64852e-05 2.68905e+25 -0.159817 -0.0540654 272.328 
-1.40961e-05 -1.64852e-05 2.68585e+25 0.00931203 0.0432832 272.617 
-1.21847e-05 -1.64852e-05 2.68443e+25 -0.288162 0.019603 272.686 
-1.02734e-05 -1.64852e-05 2.68608e+25 -0.144389 0.0515854 272.713 
-8.36208e-06 -1.64852e-05 2.68889e+25 -0.159733 0.0104494 272.307 
-6.45075e-06 -1.64852e-05 2.68943e+25 -0.241536 0.204143 272.281 
-4.53942e-06 -1.64852e-05 2.68605e+25 -0.366379 -0.182106 272.53 
-2.62808e-06 -1.64852e-05 2.68445e+25 -0.322105 0.0988939 272.588 
-7.1675e-07 -1.64852e-05 2.68715e+25 -0.362801 -0.107181 272.48 
-1.60074e-05 -1.60074e-05 2.69263e+25 0.134913 -0.0144356 272.182 
-1.40961e-05 -1.60074e-05 2.68824e+25 -0.102002 -0.0307514 272.475 
-1.21847e-05 -1.60074e-05 2.68644e+25 -0.121467 0.129998 272.49 
-1.02734e-05 -1.60074e-05 2.68547e+25 -0.0855176 0.189089 272.632 
-8.36208e-06 -1.60074e-05 2.68917e+25 -0.165095 -0.0852378 272.334 
-6.45075e-06 -1.60074e-05 2.6922e+25 -0.421634 0.248622 272 
-4.53942e-06 -1.60074e-05 2.68916e+25 -0.555254 -0.296407 272.268 
-2.62808e-06 -1.60074e-05 2.68545e+25 -0.470996 0.16553 272.505 
-7.1675e-07 -1.60074e-05 2.6878e+25 -0.710745 -0.0527776 272.487 
-1.60074e-05 -1.55296e-05 2.69081e+25 0.119895 -0.193498 272.176 
-1.40961e-05 -1.55296e-05 2.69034e+25 -0.131041 -0.0871625 272.208 
-1.21847e-05 -1.55296e-05 2.68655e+25 -0.13106 0.159222 272.601 
-1.02734e-05 -1.55296e-05 2.68575e+25 -0.056312 0.241253 272.516 
-8.36208e-06 -1.55296e-05 2.69075e+25 -0.384943 -0.0952533 272.158 
-6.45075e-06 -1.55296e-05 2.69307e+25 -0.601842 0.372924 271.898 
-4.53942e-06 -1.55296e-05 2.69072e+25 -0.763458 -0.328592 272.261 
-2.62808e-06 -1.55296e-05 2.6876e+25 -0.657642 0.296613 272.317 
-7.1675e-07 -1.55296e-05 2.68739e+25 -1.1681 0.103839 272.422 
-1.60074e-05 -1.50517e-05 2.69275e+25 -0.119371 -0.127647 272.106 
-1.40961e-05 -1.50517e-05 2.68923e+25 0.0248887 -0.0487598 272.382 
-1.21847e-05 -1.50517e-05 2.68551e+25 -0.0968837 0.169884 272.55 
-1.02734e-05 -1.50517e-05 2.68885e+25 -0.121795 0.288781 272.296 
-8.36208e-06 -1.50517e-05 2.69032e+25 -0.549497 0.0270861 272.051 
-6.45075e-06 -1.50517e-05 2.69123e+25 -0.681024 0.430811 272.065 
-4.53942e-06 -1.50517e-05 2.68988e+25 -0.805516 -0.23363 272.278 
-2.62808e-06 -1.50517e-05 2.68819e+25 -0.942162 0.275711 272.42 
-7.1675e-07 -1.50517e-05 2.68809e+25 -1.41872 0.215633 272.354 
-1.60074e-05 -1.45739e-05 2.69176e+25 0.0363944 -0.228509 272.04 
-1.40961e-05 -1.45739e-05 2.68957e+25 0.0770323 0.0598876 272.212 
-1.21847e-05 -1.45739e-05 2.6847e+25 -0.119884 0.328938 272.868 
-1.02734e-05 -1.45739e-05 2.69195e+25 -0.270343 0.196218 272.021 
-8.36208e-06 -1.45739e-05 2.69109e+25 -0.822436 0.101907 272.016 
-6.45075e-06 -1.45739e-05 2.68976e+25 -0.538444 0.383671 272.028 
-4.53942e-06 -1.45739e-05 2.68716e+25 -1.02092 -0.189549 272.361 
-2.62808e-06 -1.45739e-05 2.68831e+25 -1.2054 0.32877 272.371 
-7.1675e-07 -1.45739e-05 2.68578e+25 -1.56304 0.222582 272.514 
-1.60074e-05 -1.40961e-05 2.69119e+25 -0.00255515 -0.117616 272.242 
-1.40961e-05 -1.40961e-05 2.69055e+25 0.0714031 0.103628 272.125 
-1.21847e-05 -1.40961e-05 2.68886e+25 -0.370805 0.445864 272.468 
-1.02734e-05 -1.40961e-05 2.69242e+25 -0.551796 0.0955154 271.87 
-8.36208e-06 -1.40961e-05 2.68958e+25 -0.832924 0.204914 272.08 
-6.45075e-06 -1.40961e-05 2.69224e+25 -0.997006 0.204522 272.054 
-4.53942e-06 -1.40961e-05 2.68945e+25 -1.3372 0.0285427 272.167 
-2.62808e-06 -1.40961e-05 2.68451e+25 -1.56367 0.394708 272.617 
-7.1675e-07 -1.40961e-05 2.68961e+25 -1.60574 0.25228 272.143 
-1.60074e-05 -1.36182e-05 2.68931e+25 0.108881 0.016706 272.236 
-1.40961e-05 -1.36182e-05 2.69055e+25 -0.247948 0.223318 272.043 
-1.21847e-05 -1.36182e-05 2.69347e+25 -0.609165 0.416655 272.032 
-1.02734e-05 -1.36182e-05 2.69323e+25 -0.996886 0.181081 271.952 
-8.36208e-06 -1.36182e-05 2.69302e+25 -1.17461 0.409594 271.786 
-6.45075e-06 -1.36182e-05 2.68984e+25 -1.56286 0.0970372 272.186 
-4.53942e-06 -1.36182e-05 2.69029e+25 -1.65393 0.24121 272.204 
-2.62808e-06 -1.36182e-05 2.68685e+25 -1.93939 0.375154 272.505 
-7.1675e-07 -1.36182e-05 2.68686e+25 -1.6937 0.36929 272.295 
-1.60074e-05 -1.31404e-05 2.68937e+25 0.185655 0.0877609 272.181 
-1.40961e-05 -1.31404e-05 2.6928e+25 -0.334137 0.0935273 271.85 
-1.21847e-05 -1.31404e-05 2.69116e+25 -0.294525 0.423583 272.021 
-1.02734e-05 -1.31404e-05 2.695e+25 -0.992805 0.538387 271.73 
-8.36208e-06 -1.31404e-05 2.69397e+25 -1.67993 0.560532 271.787 
-6.45075e-06 -1.31404e-05 2.69059e+25 -1.90123 0.135003 272.018 
-4.53942e-06 -1.31404e-05 2.69298e+25 -1.78701 0.436869 271.982 
-2.62808e-06 -1.31404e-05 2.69052e+25 -2.18625 0.181843 272.37 
-7.1675e-07 -1.31404e-05 2.68763e+25 -2.00816 0.338913 272.497 
-1.60074e-05 -1.26626e-05 2.69448e+25 0.00695407 0.10309 271.741 
-1.40961e-05 -1.26626e-05 2.69276e+25 -0.31332 0.10096 271.906 
-1.21847e-05 -1.26626e-05 2.69138e+25 -0.597897 0.364764 272.109 
-1.02734e-05 -1.26626e-05 2.6937e+25 -1.32137 0.717143 271.836 
-8.36208e-06 -1.26626e-05 2.69125e+25 -1.68924 0.686156 271.99 
-6.45075e-06 -1.26626e-05 2.69168e+25 -2.26253 0.216909 271.969 
-4.53942e-06 -1.26626e-05 2.6906e+25 -2.17258 0.5894 272.005 
-2.62808e-06 -1.26626e-05 2.68941e+25 -2.43456 0.125345 272.217 
-7.1675e-07 -1.26626e-05 2.68948e+25 -2.02569 0.256995 272.227 
-1.60074e-05 -1.21847e-05 2.69135e+25 -0.203799 0.130941 272.019 
-1.40961e-05 -1.21847e-05 2.69297e+25 -0.491161 0.248406 271.916 
-1.21847e-05 -1.21847e-05 2.69133e+25 -0.730123 0.434297 272.026 
-1.02734e-05 -1.21847e-05 2.69319e+25 -1.34728 0.909649 271.889 
-8.36208e-06 -1.21847e-05 2.69108e+25 -1.92279 0.765741 271.925 
-6.45075e-06 -1.21847e-05 2.69205e+25 -2.32629 0.332325 272.024 
-4.53942e-06 -1.21847e-05 2.69008e+25 -2.46266 0.582301 272.193 
-2.62808e-06 -1.21847e-05 2.69177e+25 -2.55132 0.196109 272.033 
-7.1675e-07 -1.21847e-05 2.69035e+25 -2.31491 0.170136 271.995 
-1.60074e-05 -1.17069e-05 2.69273e+25 -0.195919 0.137628 271.95 
-1.40961e-05 -1.17069e-05 2.69239e+25 -0.533704 0.32366 271.914 
-1.21847e-05 -1.17069e-05 2.68941e+25 -0.986291 0.579473 272.242 
-1.02734e-05 -1.17069e-05 2.69131e+25 -1.44916 0.989435 271.975 
-8.36208e-06 -1.17069e-05 2.69247e+25 -1.91228 0.73034 271.943 
-6.45075e-06 -1.17069e-05 2.6922e+25 -2.26729 0.514278 272.085 
-4.53942e-06 -1.17069e-05 2.69176e+25 -2.67135 0.560338 272.014 
-2.62808e-06 -1.17069e-05 2.69261e+25 -2.59015 0.147572 272.008 
-7.1675e-07 -1.17069e-05 2.69154e+25 -2.47215 0.288344 272.01 
-1.60074e-05 -1.12291e-05 2.68964e+25 -0.161691 0.31437 272.183 
-1.40961e-05 -1.12291e-05 2.6925e+25 -0.545433 0.424075 271.82 
-1.21847e-05 -1.12291e-05 2.68725e+25 -0.822155 0.814244 272.354 
-1.02734e-05 -1.12291e-05 2.69225e+25 -1.25569 1.0662 272.025 
-8.36208e-06 -1.12291e-05 2.68996e+25 -1.97854 0.906596 272.028 
-6.45075e-06 -1.12291e-05 2.69324e+25 -2.23687 0.669655 271.888 
-4.53942e-06 -1.12291e-05 2.69406e+25 -2.97365 0.498934 271.735 
-2.62808e-06 -1.12291e-05 2.69022e+25 -3.01498 0.121227 272.213 
-7.1675e-07 -1.12291e-05 2.69355e+25 -3.03068 0.321413 271.961 
-1.60074e-05 -1.07512e-05 2.69227e+25 -0.0295451 0.468077 272.195 
-1.40961e-05 -1.07512e-05 2.69151e+25 -0.45161 0.528797 271.968 
-1.21847e-05 -1.07512e-05 2.69165e+25 -0.838256 0.99703 272.131 
-1.02734e-05 -1.07512e-05 2.69288e+25 -1.66565 1.1993 271.902 
-8.36208e-06 -1.07512e-05 2.68905e+25 -2.01229 1.09769 272.11 
-6.45075e-06 -1.07512e-05 2.69193e+25 -2.33057 0.774733 272.041 
-4.53942e-06 -1.07512e-05 2.69419e+25 -2.97837 0.485438 271.726 
-2.62808e-06 -1.07512e-05 2.68893e+25 -3.31179 0.202549 272.258 
-7.1675e-07 -1.07512e-05 2.69196e+25 -3.68168 0.267305 271.822 
-1.60074e-05 -1.02734e-05 2.6909e+25 -0.261133 0.545891 272.137 
-1.40961e-05 -1.02734e-05 2.69301e+25 -0.480881 0.743196 271.902 
-1.21847e-05 -1.02734e-05 2.69381e+25 -1.01869 1.02136 271.907 
-1.02734e-05 -1.02734e-05 2.69305e+25 -1.71217 1.31804 271.939 
-8.36208e-06 -1.02734e-05 2.69374e+25 -2.16106 1.15808 271.912 
-6.45075e-06 -1.02734e-05 2.6929e+25 -2.70042 0.948435 271.789 
-4.53942e-06 -1.02734e-05 2.69609e+25 -2.96109 0.424563 271.529 
-2.62808e-06 -1.02734e-05 2.68873e+25 -3.60012 0.395781 272.342 
-7.1675e-07 -1.02734e-05 2.69188e+25 -4.21507 0.379869 272.055 
-1.60074e-05 -9.79558e-06 2.68986e+25 0.0142681 0.646079 272.145 
-1.40961e-05 -9.79558e-06 2.6942e+25 -0.294523 0.820358 271.864 
-1.21847e-05 -9.79558e-06 2.69229e+25 -1.09513 1.28814 271.722 
-1.02734e-05 -9.79558e-06 2.69277e+25 -1.52887 1.46867 272.099 
-8.36208e-06 -9.79558e-06 2.69159e+25 -2.18901 1.22049 271.817 
-6.45075e-06 -9.79558e-06 2.69296e+25 -3.08272 1.2228 271.663 
-4.53942e-06 -9.79558e-06 2.69614e+25 -3.29571 0.460783 271.424 
-2.62808e-06 -9.79558e-06 2.68807e+25 -3.93757 0.70807 272.248 
-7.1675e-07 -9.79558e-06 2.6901e+25 -4.47328 0.337234 271.94 
-1.60074e-05 -9.31775e-06 2.68591e+25 -0.0703802 0.674476 272.508 
-1.40961e-05 -9.31775e-06 2.69467e+25 -0.268745 1.02746 271.65 
-1.21847e-05 -9.31775e-06 2.6969e+25 -0.811565 1.53604 271.569 
-1.02734e-05 -9.31775e-06 2.6928e+25 -1.63728 1.65283 271.931 
-8.36208e-06 -9.31775e-06 2.69535e+25 -2.25935 1.28803 271.784 
-6.45075e-06 -9.31775e-06 2.69494e+25 -3.00135 1.36965 271.589 
-4.53942e-06 -9.31775e-06 2.69573e+25 -3.55457 0.5439 271.441 
-2.62808e-06 -9.31775e-06 2.6897e+25 -4.14223 0.928632 272.195 
-7.1675e-07 -9.31775e-06 2.69286e+25 -4.33546 0.186406 272.008 
-1.60074e-05 -8.83992e-06 2.68617e+25 -0.16239 0.600598 272.508 
-1.40961e-05 -8.83992e-06 2.69399e+25 -0.179702 1.27537 271.76 
-1.21847e-05 -8.83992e-06 2.69577e+25 -0.628293 1.68216 271.501 
-1.02734e-05 -8.83992e-06 2.69256e+25 -1.63053 1.82508 271.958 
-8.36208e-06 -8.83992e-06 2.69351e+25 -2.22207 1.604 271.827 
-6.45075e-06 -8.83992e-06 2.69493e+25 -3.38864 1.45284 271.71 
-4.53942e-06 -8.83992e-06 2.6967e+25 -3.64725 0.703393 271.539 
-2.62808e-06 -8.83992e-06 2.69015e+25 -4.33016 1.08277 272.259 
-7.1675e-07 -8.83992e-06 2.6918e+25 -4.46802 0.097713 272.232 
-1.60074e-05 -8.36208e-06 2.68854e+25 -0.172881 0.636796 272.368 
-1.40961e-05 -8.36208e-06 2.69242e+25 -0.401417 1.3972 272.06 
-1.21847e-05 -8.36208e-06 2.69471e+25 -0.996325 1.85803 271.64 
-1.02734e-05 -8.36208e-06 2.69158e+25 -1.57057 1.91932 271.93 
-8.36208e-06 -8.36208e-06 2.69413e+25 -2.24153 1.8811 271.726 
-6.45075e-06 -8.36208e-06 2.6944e+25 -3.46346 1.59047 271.765 
-4.53942e-06 -8.36208e-06 2.6958e+25 -3.93369 0.857051 271.538 
-2.62808e-06 -8.36208e-06 2.68979e+25 -4.45988 1.18438 272.24 
-7.1675e-07 -8.36208e-06 2.69139e+25 -4.58103 0.13167 272.118 
-1.60074e-05 -7.88425e-06 2.68938e+25 -0.0283818 0.499856 272.24 
-1.40961e-05 -7.88425e-06 2.69073e+25 -0.467237 1.64066 272.039 
-1.21847e-05 -7.88425e-06 2.69268e+25 -1.22895 1.86974 271.61 
-1.02734e-05 -7.88425e-06 2.69159e+25 -1.51892 2.07621 272.029 
-8.36208e-06 -7.88425e-06 2.6939e+25 -2.27997 2.12014 271.781 
-6.45075e-06 -7.88425e-06 2.69456e+25 -3.58153 1.87267 271.727 
-4.53942e-06 -7.88425e-06 2.69323e+25 -4.0355 0.901091 271.79 
-2.62808e-06 -7.88425e-06 2.69236e+25 -4.40907 1.24724 272.059 
-7.1675e-07 -7.88425e-06 2.69145e+25 -4.81979 0.219658 271.992 
-1.60074e-05 -7.40642e-06 2.69108e+25 0.154203 0.479109 272.03 
-1.40961e-05 -7.40642e-06 2.6914e+25 -0.84919 1.82206 272.007 
-1.21847e-05 -7.40642e-06 2.69325e+25 -1.19144 1.8889 271.731 
-1.02734e-05 -7.40642e-06 2.68979e+25 -1.70351 2.08267 271.973 
-8.36208e-06 -7.40642e-06 2.69655e+25 -2.37982 2.25797 271.428 
-6.45075e-06 -7.40642e-06 2.69563e+25 -3.4456 2.10497 271.538 
-4.53942e-06 -7.40642e-06 2.69061e+25 -4.02563 1.10888 271.899 
-2.62808e-06 -7.40642e-06 2.69138e+25 -4.59296 1.20417 272.053 
-7.1675e-07 -7.40642e-06 2.69036e+25 -5.16346 0.35236 271.971 
-1.60074e-05 -6.92858e-06 2.69381e+25 0.0375029 0.546008 271.959 
-1.40961e-05 -6.92858e-06 2.69254e+25 -0.637558 2.05845 271.898 
-1.21847e-05 -6.92858e-06 2.69281e+25 -1.0811 2.13977 271.763 
-1.02734e-05 -6.92858e-06 2.69171e+25 -1.90393 2.23884 271.914 
-8.36208e-06 -6.92858e-06 2.69608e+25 -2.421 2.59614 271.46 
-6.45075e-06 -6.92858e-06 2.69306e+25 -3.41135 2.20054 271.771 
-4.53942e-06 -6.92858e-06 2.69437e+25 -4.13859 1.36862 271.54 
-2.62808e-06 -6.92858e-06 2.6898e+25 -4.8353 1.23595 272.075 
-7.1675e-07 -6.92858e-06 2.68763e+25 -5.31533 0.57987 272.212 
-1.60074e-05 -6.45075e-06 2.69354e+25 -0.144091 0.63252 271.899 
-1.40961e-05 -6.45075e-06 2.69161e+25 -0.340704 2.17328 271.924 
-1.21847e-05 -6.45075e-06 2.69401e+25 -1.21625 2.32797 271.719 
-1.02734e-05 -6.45075e-06 2.69214e+25 -2.0242 2.45125 271.804 
-8.36208e-06 -6.45075e-06 2.69727e+25 -2.87212 2.71576 271.439 
-6.45075e-06 -6.45075e-06 2.69448e+25 -3.4292 2.26814 271.648 
-4.53942e-06 -6.45075e-06 2.69559e+25 -4.34764 1.7018 271.536 
-2.62808e-06 -6.45075e-06 2.6897e+25 -5.1455 1.39092 272.027 
-7.1675e-07 -6.45075e-06 2.68999e+25 -5.46349 0.6661 272.157 
-1.60074e-05 -5.97292e-06 2.69272e+25 -0.195868 0.694681 272.05 
-1.40961e-05 -5.97292e-06 2.69187e+25 -0.567266 2.25239 271.9 
-1.21847e-05 -5.97292e-06 2.69213e+25 -1.3968 2.4885 271.905 
-1.02734e-05 -5.97292e-06 2.69394e+25 -2.35223 2.84893 271.726 
-8.36208e-06 -5.97292e-06 2.69497e+25 -3.1134 2.80887 271.443 
-6.45075e-06 -5.97292e-06 2.69504e+25 -3.7817 2.52652 271.573 
-4.53942e-06 -5.97292e-06 2.69301e+25 -4.55728 1.87625 271.779 
-2.62808e-06 -5.97292e-06 2.68941e+25 -5.4168 1.57226 272.004 
-7.1675e-07 -5.97292e-06 2.69013e+25 -5.73906 0.656316 272.09 
-1.60074e-05 -5.49508e-06 2.68836e+25 -0.236397 0.83671 272.279 
-1.40961e-05 -5.49508e-06 2.69326e+25 -0.727415 2.22623 271.909 
-1.21847e-05 -5.49508e-06 2.69303e+25 -1.67356 2.75029 271.966 
-1.02734e-05 -5.49508e-06 2.69604e+25 -2.48042 2.93776 271.523 
-8.36208e-06 -5.49508e-06 2.69977e+25 -3.34796 3.10514 271.16 
-6.45075e-06 -5.49508e-06 2.69486e+25 -4.11599 2.77758 271.6 
-4.53942e-06 -5.49508e-06 2.69665e+25 -4.83162 1.98983 271.495 
-2.62808e-06 -5.49508e-06 2.6914e+25 -5.71186 1.71175 271.985 
-7.1675e-07 -5.49508e-06 2.69027e+25 -6.08803 0.632984 272.203 
-1.60074e-05 -5.01725e-06 2.68941e+25 -0.165317 1.07898 272.189 
-1.40961e-05 -5.01725e-06 2.69498e+25 -0.704248 2.2232 271.878 
-1.21847e-05 -5.01725e-06 2.69078e+25 -1.56516 3.03046 272.001 
-1.02734e-05 -5.01725e-06 2.69817e+25 -2.66347 3.13669 271.445 
-8.36208e-06 -5.01725e-06 2.69613e+25 -3.52297 3.32783 271.444 
-6.45075e-06 -5.01725e-06 2.69428e+25 -4.25789 2.96838 271.693 
-4.53942e-06 -5.01725e-06 2.69459e+25 -5.26253 2.26042 271.76 
-2.62808e-06 -5.01725e-06 2.69063e+25 -5.87454 1.77009 272.028 
-7.1675e-07 -5.01725e-06 2.69194e+25 -6.41091 0.818241 272.013 
-1.60074e-05 -4.53942e-06 2.69217e+25 -0.1668 1.28128 272.023 
-1.40961e-05 -4.53942e-06 2.69137e+25 -0.748348 2.42053 272.073 
-1.21847e-05 -4.53942e-06 2.69111e+25 -1.37453 3.26394 271.984 
-1.02734e-05 -4.53942e-06 2.69585e+25 -2.6831 3.46244 271.467 
-8.36208e-06 -4.53942e-06 2.69484e+25 -3.49367 3.59186 271.699 
-6.45075e-06 -4.53942e-06 2.69161e+25 -4.22938 3.12442 271.929 
-4.53942e-06 -4.53942e-06 2.69529e+25 -5.46125 2.56787 271.666 
-2.62808e-06 -4.53942e-06 2.69055e+25 -5.98284 1.80501 272.015 
-7.1675e-07 -4.53942e-06 2.68933e+25 -6.45743 0.971071 272.104 
-1.60074e-05 -4.06158e-06 2.68894e+25 -0.298109 1.44694 272.23 
-1.40961e-05 -4.06158e-06 2.69078e+25 -0.886257 2.58359 272.067 
-1.21847e-05 -4.06158e-06 2.69134e+25 -1.69471 3.46387 271.979 
-1.02734e-05 -4.06158e-06 2.69607e+25 -2.64276 3.78472 271.531 
-8.36208e-06 -4.06158e-06 2.69599e+25 -3.55448 3.70269 271.603 
-6.45075e-06 -4.06158e-06 2.68955e+25 -4.00726 3.34664 272.085 
-4.53942e-06 -4.06158e-06 2.69236e+25 -5.15472 2.87907 271.874 
-2.62808e-06 -4.06158e-06 2.69253e+25 -5.83856 1.98197 271.949 
-7.1675e-07 -4.06158e-06 2.68907e+25 -6.47182 1.0724 272.246 
-1.60074e-05 -3.58375e-06 2.68996e+25 -0.328233 1.5121 272.165 
-1.40961e-05 -3.58375e-06 2.6914e+25 -0.839168 2.6646 271.925 
-1.21847e-05 -3.58375e-06 2.6904e+25 -1.60761 3.61277 271.905 
-1.02734e-05 -3.58375e-06 2.6931e+25 -2.35993 3.95642 271.777 
-8.36208e-06 -3.58375e-06 2.69646e+25 -3.40577 3.79291 271.453 
-6.45075e-06 -3.58375e-06 2.69105e+25 -4.20455 3.63954 272.008 
-4.53942e-06 -3.58375e-06 2.69286e+25 -5.19733 3.103 271.917 
-2.62808e-06 -3.58375e-06 2.69318e+25 -5.92339 2.21148 271.871 
-7.1675e-07 -3.58375e-06 2.68938e+25 -6.54998 1.1749 272.152 
-1.60074e-05 -3.10592e-06 2.68946e+25 -0.215357 1.55522 272.194 
-1.40961e-05 -3.10592e-06 2.69127e+25 -1.09922 2.80842 272.002 
-1.21847e-05 -3.10592e-06 2.6917e+25 -1.82045 3.84237 271.892 
-1.02734e-05 -3.10592e-06 2.69266e+25 -1.93101 4.20061 271.749 
-8.36208e-06 -3.10592e-06 2.69552e+25 -3.23003 4.02584 271.539 
-6.45075e-06 -3.10592e-06 2.6916e+25 -4.33059 3.99979 271.978 
-4.53942e-06 -3.10592e-06 2.689e+25 -5.30697 3.29824 272.222 
-2.62808e-06 -3.10592e-06 2.69179e+25 -6.12358 2.35755 271.916 
-7.1675e-07 -3.10592e-06 2.68867e+25 -6.50938 1.12617 272.22 
-1.60074e-05 -2.62808e-06 2.68887e+25 -0.274061 1.75717 272.261 
-1.40961e-05 -2.62808e-06 2.69125e+25 -1.14607 3.02331 272.012 
-1.21847e-05 -2.62808e-06 2.69218e+25 -1.66833 3.8955 271.835 
-1.02734e-05 -2.62808e-06 2.69292e+25 -2.0266 4.36646 271.887 
-8.36208e-06 -2.62808e-06 2.69264e+25 -3.00264 4.21835 271.815 
-6.45075e-06 -2.62808e-06 2.69017e+25 -4.26296 4.30438 272.136 
-4.53942e-06 -2.62808e-06 2.68988e+25 -5.26251 3.4966 272.292 
-2.62808e-06 -2.62808e-06 2.69163e+25 -6.23525 2.63592 272.021 
-7.1675e-07 -2.62808e-06 2.6909e+25 -6.72405 1.30441 272.054 
-1.60074e-05 -2.15025e-06 2.68509e+25 -0.125225 1.99309 272.554 
-1.40961e-05 -2.15025e-06 2.68904e+25 -0.862345 3.37135 272.17 
-1.21847e-05 -2.15025e-06 2.69282e+25 -1.36409 4.09572 271.799 
-1.02734e-05 -2.15025e-06 2.69383e+25 -2.07734 4.52871 271.749 
-8.36208e-06 -2.15025e-06 2.69325e+25 -3.07743 4.57904 271.748 
-6.45075e-06 -2.15025e-06 2.68902e+25 -4.38428 4.63108 272.302 
-4.53942e-06 -2.15025e-06 2.68862e+25 -5.31468 3.64916 272.233 
-2.62808e-06 -2.15025e-06 2.69156e+25 -5.96967 2.85182 271.88 
-7.1675e-07 -2.15025e-06 2.69143e+25 -6.88518 1.60433 271.987 
-1.60074e-05 -1.67242e-06 2.68656e+25 0.129663 2.12984 272.368 
-1.40961e-05 -1.67242e-06 2.69155e+25 -0.422323 3.51519 272.009 
-1.21847e-05 -1.67242e-06 2.6926e+25 -1.15108 4.35926 271.765 
-1.02734e-05 -1.67242e-06 2.69312e+25 -2.22895 4.85698 271.817 
-8.36208e-06 -1.67242e-06 2.69366e+25 -3.18609 5.02259 271.788 
-6.45075e-06 -1.67242e-06 2.68664e+25 -4.3623 4.91002 272.187 
-4.53942e-06 -1.67242e-06 2.68936e+25 -5.33058 3.8754 272.05 
-2.62808e-06 -1.67242e-06 2.69193e+25 -6.02821 2.9905 271.737 
-7.1675e-07 -1.67242e-06 2.69012e+25 -7.15379 1.77884 271.926 
-1.60074e-05 -1.19458e-06 2.68574e+25 0.0328417 2.07549 272.472 
-1.40961e-05 -1.19458e-06 2.6897e+25 -0.347238 3.65418 272.07 
-1.21847e-05 -1.19458e-06 2.6936e+25 -0.829545 4.53738 271.695 
-1.02734e-05 -1.19458e-06 2.6938e+25 -2.16023 5.14981 271.584 
-8.36208e-06 -1.19458e-06 2.69581e+25 -3.07671 5.2235 271.617 
-6.45075e-06 -1.19458e-06 2.69054e+25 -4.34357 5.15879 271.997 
-4.53942e-06 -1.19458e-06 2.69082e+25 -5.32313 4.02361 271.996 
-2.62808e-06 -1.19458e-06 2.69388e+25 -5.80981 3.17971 271.656 
-7.1675e-07 -1.19458e-06 2.69139e+25 -7.42782 2.07143 271.889 
-1.60074e-05 -7.1675e-07 2.68589e+25 -0.0796721 2.02032 272.556 
-1.40961e-05 -7.1675e-07 2.68824e+25 -0.290079 3.74942 272.155 
-1.21847e-05 -7.1675e-07 2.69238e+25 -1.00771 4.69245 271.915 
-1.02734e-05 -7.1675e-07 2.69572e+25 -2.03814 5.34205 271.616 
-8.36208e-06 -7.1675e-07 2.69137e+25 -3.08256 5.5362 271.698 
-6.45075e-06 -7.1675e-07 2.68986e+25 -4.28725 5.43957 271.948 
-4.53942e-06 -7.1675e-07 2.68916e+25 -5.37869 4.24943 271.964 
-2.62808e-06 -7.1675e-07 2.69547e+25 -6.28572 3.34789 271.556 
-7.1675e-07 -7.1675e-07 2.69172e+25 -7.30256 2.38231 271.776 
-1.60074e-05 -2.38917e-07 2.68113e+25 -0.0331453 2.13644 272.599 
-1.40961e-05 -2.38917e-07 2.68771e+25 -0.196979 3.84069 272.03 
-1.21847e-05 -2.38917e-07 2.68953e+25 -1.06597 4.89317 271.998 
-1.02734e-05 -2.38917e-07 2.69291e+25 -2.04845 5.39352 271.652 
-8.36208e-06 -2.38917e-07 2.69282e+25 -3.28906 5.77391 271.612 
-6.45075e-06 -2.38917e-07 2.6874e+25 -4.13489 5.58534 271.887 
-4.53942e-06 -2.38917e-07 2.69173e+25 -5.29664 4.54458 271.872 
-2.62808e-06 -2.38917e-07 2.68932e+25 -6.62719 3.63609 271.811 
-7.1675e-07 -2.38917e-07 2.68849e+25 -7.26835 2.52938 272.006 
-1.55296e-05 -1.69631e-05 2.68453e+25 0.0462068 0.0117426 272.782 
-1.36182e-05 -1.69631e-05 2.68363e+25 0.0302161 -0.0195332 272.826 
-1.17069e-05 -1.69631e-05 2.6846e+25 -0.118607 0.0628084 272.781 
-9.79558e-06 -1.69631e-05 2.68424e+25 -0.202291 0.0100655 272.741 
-7.88425e-06 -1.69631e-05 2.68254e+25 -0.0614345 0.0199439 272.772 
-5.97292e-06 -1.69631e-05 2.68469e+25 -0.234954 0.144332 272.723 
-4.06158e-06 -1.69631e-05 2.68472e+25 -0.10875 -0.0717639 272.839 
-2.15025e-06 -1.69631e-05 2.68255e+25 -0.228283 0.0289069 272.884 
-2.38917e-07 -1.69631e-05 2.68118e+25 -0.115365 -0.0367191 272.754 
-1.55296e-05 -1.64852e-05 2.68667e+25 -0.159605 -0.00660806 272.573 
-1.36182e-05 -1.64852e-05 2.68559e+25 0.0885726 -0.0617027 272.732 
-1.17069e-05 -1.64852e-05 2.68578e+25 -0.292736 0.0669197 272.571 
-9.79558e-06 -1.64852e-05 2.68581e+25 -0.214107 0.110492 272.646 
-7.88425e-06 -1.64852e-05 2.68712e+25 -0.0500511 -0.112682 272.416 
-5.97292e-06 -1.64852e-05 2.68708e+25 -0.293574 0.221497 272.484 
-4.06158e-06 -1.64852e-05 2.68843e+25 -0.26452 -0.239233 272.478 
-2.15025e-06 -1.64852e-05 2.68407e+25 -0.319061 0.01876 272.789 
-2.38917e-07 -1.64852e-05 2.68292e+25 -0.407252 0.0109951 272.515 
-1.55296e-05 -1.60074e-05 2.68797e+25 0.060128 0.097076 272.389 
-1.36182e-05 -1.60074e-05 2.68662e+25 -0.0633287 -0.0618881 272.511 
-1.17069e-05 -1.60074e-05 2.68696e+25 -0.110773 0.00330189 272.495 
-9.79558e-06 -1.60074e-05 2.68719e+25 -0.205055 0.163063 272.606 
-7.88425e-06 -1.60074e-05 2.6899e+25 -0.221677 -0.0654334 272.188 
-5.97292e-06 -1.60074e-05 2.68976e+25 -0.468091 0.358486 272.125 
-4.06158e-06 -1.60074e-05 2.68753e+25 -0.38157 -0.325907 272.409 
-2.15025e-06 -1.60074e-05 2.68491e+25 -0.543471 0.112185 272.636 
-2.38917e-07 -1.60074e-05 2.68409e+25 -0.810679 0.101224 272.502 
-1.55296e-05 -1.55296e-05 2.69028e+25 0.129317 0.190514 272.152 
-1.36182e-05 -1.55296e-05 2.68691e+25 -0.100321 0.00521307 272.345 
-1.17069e-05 -1.55296e-05 2.68665e+25 -0.0617653 -0.18994 272.526 
-9.79558e-06 -1.55296e-05 2.68772e+25 -0.174134 0.169503 272.475 
-7.88425e-06 -1.55296e-05 2.69095e+25 -0.445834 0.0662817 272.112 
-5.97292e-06 -1.55296e-05 2.69113e+25 -0.736464 0.435851 272.026 
-4.06158e-06 -1.55296e-05 2.69066e+25 -0.8238 -0.360972 272.165 
-2.15025e-06 -1.55296e-05 2.68685e+25 -0.728343 0.1068 272.384 
-2.38917e-07 -1.55296e-05 2.68557e+25 -1.21736 0.0512827 272.307 
-1.55296e-05 -1.50517e-05 2.69069e+25 0.00558195 0.141543 272.133 
-1.36182e-05 -1.50517e-05 2.68877e+25 -0.0342808 -0.0387372 272.267 
-1.17069e-05 -1.50517e-05 2.68743e+25 -0.279332 -0.0669436 272.474 
-9.79558e-06 -1.50517e-05 2.69144e+25 -0.0981235 0.28491 272.111 
-7.88425e-06 -1.50517e-05 2.69087e+25 -0.584064 0.0138679 272.046 
-5.97292e-06 -1.50517e-05 2.69028e+25 -0.558363 0.41215 272.184 
-4.06158e-06 -1.50517e-05 2.69231e+25 -0.842842 -0.390377 271.991 
-2.15025e-06 -1.50517e-05 2.68853e+25 -1.033 0.233253 272.375 
-2.38917e-07 -1.50517e-05 2.68796e+25 -1.42802 0.0260387 272.249 
-1.55296e-05 -1.45739e-05 2.68942e+25 0.152468 0.117868 272.121 
-1.36182e-05 -1.45739e-05 2.6886e+25 0.113698 -0.0602931 272.235 
-1.17069e-05 -1.45739e-05 2.68568e+25 -0.312121 0.10426 272.563 
-9.79558e-06 -1.45739e-05 2.69522e+25 -0.206885 0.301962 271.825 
-7.88425e-06 -1.45739e-05 2.68945e+25 -0.85468 -0.0211181 272.161 
-5.97292e-06 -1.45739e-05 2.69041e+25 -0.593072 0.399993 272.127 
-4.06158e-06 -1.45739e-05 2.68928e+25 -1.17162 -0.236886 272.303 
-2.15025e-06 -1.45739e-05 2.68647e+25 -1.36772 0.494745 272.532 
-2.38917e-07 -1.45739e-05 2.68482e+25 -1.62411 0.00652367 272.457 
-1.55296e-05 -1.40961e-05 2.69077e+25 -0.145183 -0.0138784 272.156 
-1.36182e-05 -1.40961e-05 2.69052e+25 -0.168238 0.0806827 272.003 
-1.17069e-05 -1.40961e-05 2.68871e+25 -0.417531 0.178786 272.419 
-9.79558e-06 -1.40961e-05 2.69226e+25 -0.581446 0.388352 271.795 
-7.88425e-06 -1.40961e-05 2.69019e+25 -1.034 0.0702622 271.931 
-5.97292e-06 -1.40961e-05 2.68868e+25 -0.957196 0.560103 272.238 
-4.06158e-06 -1.40961e-05 2.68893e+25 -1.54361 -0.0809219 272.249 
-2.15025e-06 -1.40961e-05 2.68627e+25 -1.5527 0.581703 272.454 
-2.38917e-07 -1.40961e-05 2.68649e+25 -1.65619 0.0792701 272.219 
-1.55296e-05 -1.36182e-05 2.69263e+25 -0.0571393 0.0416316 271.93 
-1.36182e-05 -1.36182e-05 2.69345e+25 -0.216481 0.274993 271.937 
-1.17069e-05 -1.36182e-05 2.69157e+25 -0.563862 0.151038 272.072 
-9.79558e-06 -1.36182e-05 2.69368e+25 -1.11457 0.370183 271.787 
-7.88425e-06 -1.36182e-05 2.69561e+25 -1.41291 0.333232 271.825 
-5.97292e-06 -1.36182e-05 2.6891e+25 -1.37412 0.491237 272.106 
-4.06158e-06 -1.36182e-05 2.68863e+25 -1.84517 0.0448761 272.287 
-2.15025e-06 -1.36182e-05 2.685e+25 -1.82431 0.549765 272.635 
-2.38917e-07 -1.36182e-05 2.68718e+25 -1.74145 0.155137 272.103 
-1.55296e-05 -1.31404e-05 2.69133e+25 0.0475457 0.206892 272.043 
-1.36182e-05 -1.31404e-05 2.69281e+25 -0.265122 0.253542 271.995 
-1.17069e-05 -1.31404e-05 2.69251e+25 -0.405597 0.237413 271.963 
-9.79558e-06 -1.31404e-05 2.694e+25 -1.31942 0.508777 271.753 
-7.88425e-06 -1.31404e-05 2.69506e+25 -1.75961 0.506563 271.761 
-5.97292e-06 -1.31404e-05 2.69196e+25 -1.99062 0.395152 271.999 
-4.06158e-06 -1.31404e-05 2.69022e+25 -2.00832 0.200779 272.276 
-2.15025e-06 -1.31404e-05 2.68885e+25 -2.04102 0.401961 272.419 
-2.38917e-07 -1.31404e-05 2.68651e+25 -1.86608 0.131541 272.346 
-1.55296e-05 -1.26626e-05 2.69235e+25 -0.120403 0.46169 271.995 
-1.36182e-05 -1.26626e-05 2.69208e+25 -0.465895 0.336383 271.912 
-1.17069e-05 -1.26626e-05 2.68989e+25 -0.573688 0.413795 272.01 
-9.79558e-06 -1.26626e-05 2.69335e+25 -1.46179 0.774932 271.75 
-7.88425e-06 -1.26626e-05 2.69427e+25 -1.78711 0.554463 271.82 
-5.97292e-06 -1.26626e-05 2.69296e+25 -2.14668 0.242931 272.038 
-4.06158e-06 -1.26626e-05 2.68934e+25 -2.16415 0.384087 272.183 
-2.15025e-06 -1.26626e-05 2.69048e+25 -2.47727 0.346637 272.253 
-2.38917e-07 -1.26626e-05 2.68688e+25 -1.92446 -0.00691171 272.302 
-1.55296e-05 -1.21847e-05 2.69348e+25 -0.122227 0.449459 271.824 
-1.36182e-05 -1.21847e-05 2.69349e+25 -0.623096 0.420402 271.791 
-1.17069e-05 -1.21847e-05 2.69085e+25 -0.891792 0.503395 272.013 
-9.79558e-06 -1.21847e-05 2.69317e+25 -1.51353 0.86707 271.799 
-7.88425e-06 -1.21847e-05 2.6927e+25 -1.87779 0.583754 271.805 
-5.97292e-06 -1.21847e-05 2.68989e+25 -2.47017 0.168863 271.968 
-4.06158e-06 -1.21847e-05 2.6922e+25 -2.5381 0.45874 272.062 
-2.15025e-06 -1.21847e-05 2.69414e+25 -2.46545 0.209734 271.928 
-2.38917e-07 -1.21847e-05 2.68951e+25 -2.2828 0.017054 272.094 
-1.55296e-05 -1.17069e-05 2.69189e+25 -0.170145 0.343299 271.938 
-1.36182e-05 -1.17069e-05 2.69177e+25 -0.56993 0.500007 271.882 
-1.17069e-05 -1.17069e-05 2.68984e+25 -1.07559 0.568629 272.147 
-9.79558e-06 -1.17069e-05 2.69471e+25 -1.57154 0.960942 271.718 
-7.88425e-06 -1.17069e-05 2.69217e+25 -2.08583 0.72606 271.923 
-5.97292e-06 -1.17069e-05 2.69142e+25 -2.48391 0.304672 272.139 
-4.06158e-06 -1.17069e-05 2.69361e+25 -2.6398 0.441155 271.851 
-2.15025e-06 -1.17069e-05 2.69117e+25 -2.49585 0.142542 271.968 
-2.38917e-07 -1.17069e-05 2.6905e+25 -2.60442 0.074321 271.848 
-1.55296e-05 -1.12291e-05 2.68975e+25 -0.369629 0.369364 271.998 
-1.36182e-05 -1.12291e-05 2.69315e+25 -0.662781 0.543081 272.015 
-1.17069e-05 -1.12291e-05 2.69102e+25 -1.12556 0.750529 272.053 
-9.79558e-06 -1.12291e-05 2.6938e+25 -1.4299 1.11573 271.931 
-7.88425e-06 -1.12291e-05 2.69061e+25 -2.10215 0.881521 272.076 
-5.97292e-06 -1.12291e-05 2.69406e+25 -2.3696 0.519074 271.768 
-4.06158e-06 -1.12291e-05 2.69256e+25 -2.99735 0.443613 271.877 
-2.15025e-06 -1.12291e-05 2.68871e+25 -2.98718 0.0150188 272.161 
-2.38917e-07 -1.12291e-05 2.69274e+25 -3.08539 0.231681 271.646 
-1.55296e-05 -1.07512e-05 2.69329e+25 -0.205359 0.602314 272 
-1.36182e-05 -1.07512e-05 2.69152e+25 -0.565625 0.620082 271.977 
-1.17069e-05 -1.07512e-05 2.68929e+25 -0.918997 0.955668 272.175 
-9.79558e-06 -1.07512e-05 2.69334e+25 -1.7886 1.36208 271.806 
-7.88425e-06 -1.07512e-05 2.69155e+25 -2.11871 1.0125 272.106 
-5.97292e-06 -1.07512e-05 2.695e+25 -2.62237 0.87961 271.742 
-4.06158e-06 -1.07512e-05 2.69366e+25 -2.9188 0.458691 271.867 
-2.15025e-06 -1.07512e-05 2.68823e+25 -3.41956 -0.037704 272.293 
-2.38917e-07 -1.07512e-05 2.69305e+25 -3.71251 0.402015 271.753 
-1.55296e-05 -1.02734e-05 2.69433e+25 -0.131198 0.563805 271.77 
-1.36182e-05 -1.02734e-05 2.69031e+25 -0.62098 0.732485 272.056 
-1.17069e-05 -1.02734e-05 2.69298e+25 -1.16337 1.1144 272.018 
-9.79558e-06 -1.02734e-05 2.69386e+25 -1.74387 1.37103 271.791 
-7.88425e-06 -1.02734e-05 2.6892e+25 -2.10919 0.90142 272.115 
-5.97292e-06 -1.02734e-05 2.69744e+25 -2.79351 1.0969 271.437 
-4.06158e-06 -1.02734e-05 2.69387e+25 -2.97808 0.552317 271.743 
-2.15025e-06 -1.02734e-05 2.6876e+25 -3.90922 0.143239 272.321 
-2.38917e-07 -1.02734e-05 2.68775e+25 -4.19574 0.305443 272.018 
-1.55296e-05 -9.79558e-06 2.6933e+25 -0.128014 0.568641 271.78 
-1.36182e-05 -9.79558e-06 2.69073e+25 -0.41444 0.866611 272.122 
-1.17069e-05 -9.79558e-06 2.69521e+25 -1.29465 1.17937 271.637 
-9.79558e-06 -9.79558e-06 2.69112e+25 -1.78953 1.50285 272.025 
-7.88425e-06 -9.79558e-06 2.6919e+25 -2.27963 0.935675 271.932 
-5.97292e-06 -9.79558e-06 2.69677e+25 -3.20221 1.17314 271.705 
-4.06158e-06 -9.79558e-06 2.69421e+25 -3.27459 0.601753 271.709 
-2.15025e-06 -9.79558e-06 2.68718e+25 -4.13327 0.37274 272.298 
-2.38917e-07 -9.79558e-06 2.6864e+25 -4.2151 0.135095 272.108 
-1.55296e-05 -9.31775e-06 2.68773e+25 -0.104215 0.716941 272.186 
-1.36182e-05 -9.31775e-06 2.69215e+25 -0.523342 0.996283 271.96 
-1.17069e-05 -9.31775e-06 2.69705e+25 -1.04226 1.35714 271.443 
-9.79558e-06 -9.31775e-06 2.69116e+25 -1.77068 1.69028 271.889 
-7.88425e-06 -9.31775e-06 2.69608e+25 -2.42501 1.03281 271.742 
-5.97292e-06 -9.31775e-06 2.6983e+25 -3.24769 1.36253 271.406 
-4.06158e-06 -9.31775e-06 2.69211e+25 -3.626 0.578761 271.846 
-2.15025e-06 -9.31775e-06 2.68721e+25 -4.44258 0.620213 272.347 
-2.38917e-07 -9.31775e-06 2.68646e+25 -4.2788 -0.00863719 272.267 
-1.55296e-05 -8.83992e-06 2.68843e+25 -0.0534909 0.604864 272.191 
-1.36182e-05 -8.83992e-06 2.69245e+25 -0.340694 1.18277 271.862 
-1.17069e-05 -8.83992e-06 2.6963e+25 -0.866163 1.63274 271.672 
-9.79558e-06 -8.83992e-06 2.69038e+25 -1.7548 1.82225 271.982 
-7.88425e-06 -8.83992e-06 2.69424e+25 -2.6549 1.42821 271.734 
-5.97292e-06 -8.83992e-06 2.69593e+25 -3.42726 1.55496 271.556 
-4.06158e-06 -8.83992e-06 2.69372e+25 -3.91612 0.740763 271.827 
-2.15025e-06 -8.83992e-06 2.68951e+25 -4.43097 0.849789 272.135 
-2.38917e-07 -8.83992e-06 2.6886e+25 -4.40636 -0.0349203 272.2 
-1.55296e-05 -8.36208e-06 2.68918e+25 -0.147561 0.524004 272.206 
-1.36182e-05 -8.36208e-06 2.69423e+25 -0.578125 1.37427 271.913 
-1.17069e-05 -8.36208e-06 2.69599e+25 -1.19078 1.91447 271.762 
-9.79558e-06 -8.36208e-06 2.69203e+25 -1.61535 1.92173 272.038 
-7.88425e-06 -8.36208e-06 2.69383e+25 -2.52303 1.77325 271.632 
-5.97292e-06 -8.36208e-06 2.69477e+25 -3.57297 1.56939 271.763 
-4.06158e-06 -8.36208e-06 2.69332e+25 -4.12597 1.06023 271.897 
-2.15025e-06 -8.36208e-06 2.68926e+25 -4.52566 0.963601 272.288 
-2.38917e-07 -8.36208e-06 2.6871e+25 -4.70013 0.0326507 272.171 
-1.55296e-05 -7.88425e-06 2.68931e+25 0.0023501 0.624967 272.205 
-1.36182e-05 -7.88425e-06 2.69202e+25 -0.752331 1.59298 271.871 
-1.17069e-05 -7.88425e-06 2.69478e+25 -1.25206 2.07107 271.679 
-9.79558e-06 -7.88425e-06 2.69055e+25 -1.70284 1.99612 272.119 
-7.88425e-06 -7.88425e-06 2.69517e+25 -2.58722 2.14895 271.594 
-5.97292e-06 -7.88425e-06 2.69462e+25 -3.75264 1.56639 271.622 
-4.06158e-06 -7.88425e-06 2.69056e+25 -4.12151 1.20174 271.922 
-2.15025e-06 -7.88425e-06 2.68957e+25 -4.54658 1.11027 272.207 
-2.38917e-07 -7.88425e-06 2.68924e+25 -4.98918 0.120662 272.008 
-1.55296e-05 -7.40642e-06 2.69014e+25 0.0501265 0.759542 272.031 
-1.36182e-05 -7.40642e-06 2.69478e+25 -0.916836 1.72787 271.824 
-1.17069e-05 -7.40642e-06 2.69238e+25 -1.34618 2.1675 271.906 
-9.79558e-06 -7.40642e-06 2.69084e+25 -1.76146 2.22039 272.004 
-7.88425e-06 -7.40642e-06 2.69543e+25 -2.6533 2.50497 271.568 
-5.97292e-06 -7.40642e-06 2.69461e+25 -3.55568 1.66686 271.642 
-4.06158e-06 -7.40642e-06 2.69333e+25 -4.27892 1.30693 271.834 
-2.15025e-06 -7.40642e-06 2.69045e+25 -4.5624 1.23092 272.007 
-2.38917e-07 -7.40642e-06 2.68547e+25 -5.26047 0.226598 272.21 
-1.55296e-05 -6.92858e-06 2.69388e+25 -0.100586 0.848797 271.874 
-1.36182e-05 -6.92858e-06 2.69265e+25 -0.797334 1.69601 271.849 
-1.17069e-05 -6.92858e-06 2.69365e+25 -1.29684 2.32278 271.672 
-9.79558e-06 -6.92858e-06 2.69025e+25 -2.02172 2.25825 271.883 
-7.88425e-06 -6.92858e-06 2.69573e+25 -2.70942 2.73316 271.632 
-5.97292e-06 -6.92858e-06 2.69261e+25 -3.45368 1.79815 271.853 
-4.06158e-06 -6.92858e-06 2.69197e+25 -4.35968 1.51409 271.856 
-2.15025e-06 -6.92858e-06 2.69164e+25 -4.85821 1.22493 271.985 
-2.38917e-07 -6.92858e-06 2.68464e+25 -5.52089 0.35584 272.236 
-1.55296e-05 -6.45075e-06 2.69283e+25 -0.227883 1.00425 271.874 
-1.36182e-05 -6.45075e-06 2.69348e+25 -0.565319 1.941 271.878 
-1.17069e-05 -6.45075e-06 2.69604e+25 -1.27944 2.33822 271.604 
-9.79558e-06 -6.45075e-06 2.69234e+25 -2.40449 2.57414 271.845 
-7.88425e-06 -6.45075e-06 2.69473e+25 -2.97065 2.98766 271.706 
-5.97292e-06 -6.45075e-06 2.6942e+25 -3.56786 2.05907 271.663 
-4.06158e-06 -6.45075e-06 2.69257e+25 -4.58328 1.71107 271.725 
-2.15025e-06 -6.45075e-06 2.69131e+25 -5.3159 1.32651 272.089 
-2.38917e-07 -6.45075e-06 2.68812e+25 -5.48337 0.451365 272.162 
-1.55296e-05 -5.97292e-06 2.69049e+25 -0.257509 1.11185 272.233 
-1.36182e-05 -5.97292e-06 2.69258e+25 -0.680567 2.09762 271.753 
-1.17069e-05 -5.97292e-06 2.69315e+25 -1.58763 2.50293 271.822 
-9.79558e-06 -5.97292e-06 2.69399e+25 -2.52597 2.68915 271.753 
-7.88425e-06 -5.97292e-06 2.69431e+25 -3.29029 3.03488 271.578 
-5.97292e-06 -5.97292e-06 2.69567e+25 -4.15803 2.341 271.597 
-4.06158e-06 -5.97292e-06 2.6948e+25 -4.71093 1.87539 271.74 
-2.15025e-06 -5.97292e-06 2.69092e+25 -5.57332 1.46836 271.949 
-2.38917e-07 -5.97292e-06 2.68828e+25 -5.77157 0.476611 272.084 
-1.55296e-05 -5.49508e-06 2.68977e+25 -0.451377 1.1959 272.148 
-1.36182e-05 -5.49508e-06 2.69176e+25 -0.758176 2.36013 271.981 
-1.17069e-05 -5.49508e-06 2.69282e+25 -2.04102 2.76934 271.837 
-9.79558e-06 -5.49508e-06 2.6953e+25 -2.66638 2.84475 271.568 
-7.88425e-06 -5.49508e-06 2.69927e+25 -3.581 3.20228 271.369 
-5.97292e-06 -5.49508e-06 2.69411e+25 -4.30615 2.59535 271.681 
-4.06158e-06 -5.49508e-06 2.6935e+25 -5.12335 2.19791 271.71 
-2.15025e-06 -5.49508e-06 2.692e+25 -5.68812 1.54556 272.023 
-2.38917e-07 -5.49508e-06 2.68754e+25 -6.1529 0.583647 272.089 
-1.55296e-05 -5.01725e-06 2.69028e+25 -0.486996 1.51161 272.019 
-1.36182e-05 -5.01725e-06 2.69102e+25 -0.964762 2.64694 272.022 
-1.17069e-05 -5.01725e-06 2.69154e+25 -1.8339 3.17106 271.955 
-9.79558e-06 -5.01725e-06 2.6968e+25 -2.87494 3.09225 271.45 
-7.88425e-06 -5.01725e-06 2.69672e+25 -3.73711 3.42324 271.448 
-5.97292e-06 -5.01725e-06 2.69423e+25 -4.45364 2.80125 271.752 
-4.06158e-06 -5.01725e-06 2.69203e+25 -5.55232 2.46418 271.778 
-2.15025e-06 -5.01725e-06 2.68953e+25 -5.91562 1.49736 271.989 
-2.38917e-07 -5.01725e-06 2.68732e+25 -6.4795 0.601492 272.172 
-1.55296e-05 -4.53942e-06 2.6926e+25 -0.410561 1.88291 272.005 
-1.36182e-05 -4.53942e-06 2.69036e+25 -0.952479 2.84853 272.215 
-1.17069e-05 -4.53942e-06 2.69169e+25 -1.77145 3.5358 271.871 
-9.79558e-06 -4.53942e-06 2.69524e+25 -2.97716 3.25546 271.612 
-7.88425e-06 -4.53942e-06 2.6941e+25 -3.68234 3.59316 271.727 
-5.97292e-06 -4.53942e-06 2.692e+25 -4.42602 3.01885 271.873 
-4.06158e-06 -4.53942e-06 2.69314e+25 -5.61197 2.56551 271.748 
-2.15025e-06 -4.53942e-06 2.6881e+25 -6.07701 1.5343 272.184 
-2.38917e-07 -4.53942e-06 2.6882e+25 -6.4629 0.50883 272.123 
-1.55296e-05 -4.06158e-06 2.69278e+25 -0.309429 1.97661 271.937 
-1.36182e-05 -4.06158e-06 2.68995e+25 -0.979465 2.96399 272.112 
-1.17069e-05 -4.06158e-06 2.69358e+25 -1.82094 3.82657 271.833 
-9.79558e-06 -4.06158e-06 2.69616e+25 -2.80503 3.43704 271.436 
-7.88425e-06 -4.06158e-06 2.69283e+25 -3.6649 3.7252 271.832 
-5.97292e-06 -4.06158e-06 2.69039e+25 -4.24811 3.21927 271.998 
-4.06158e-06 -4.06158e-06 2.69121e+25 -5.45074 2.65955 271.847 
-2.15025e-06 -4.06158e-06 2.69232e+25 -6.01978 1.69207 271.805 
-2.38917e-07 -4.06158e-06 2.6893e+25 -6.58089 0.585824 272.003 
-1.55296e-05 -3.58375e-06 2.69163e+25 -0.40839 2.02487 272.101 
-1.36182e-05 -3.58375e-06 2.69011e+25 -0.881119 3.10297 272.093 
-1.17069e-05 -3.58375e-06 2.69256e+25 -1.76643 3.99473 271.843 
-9.79558e-06 -3.58375e-06 2.6938e+25 -2.63955 3.63311 271.734 
-7.88425e-06 -3.58375e-06 2.69464e+25 -3.5072 3.7843 271.654 
-5.97292e-06 -3.58375e-06 2.69061e+25 -4.54524 3.53319 271.998 
-4.06158e-06 -3.58375e-06 2.69165e+25 -5.41386 2.91999 271.905 
-2.15025e-06 -3.58375e-06 2.69213e+25 -6.1641 1.88192 271.889 
-2.38917e-07 -3.58375e-06 2.68733e+25 -6.66466 0.665443 272.008 
-1.55296e-05 -3.10592e-06 2.68904e+25 -0.283054 2.08833 272.323 
-1.36182e-05 -3.10592e-06 2.68999e+25 -1.23525 3.1851 272.12 
-1.17069e-05 -3.10592e-06 2.69248e+25 -1.90622 4.06016 271.789 
-9.79558e-06 -3.10592e-06 2.69113e+25 -2.33367 4.11157 271.923 
-7.88425e-06 -3.10592e-06 2.69447e+25 -3.35629 3.87583 271.653 
-5.97292e-06 -3.10592e-06 2.68964e+25 -4.63054 3.8294 271.975 
-4.06158e-06 -3.10592e-06 2.69168e+25 -5.50138 3.13268 272.093 
-2.15025e-06 -3.10592e-06 2.69236e+25 -6.39351 2.18484 271.755 
-2.38917e-07 -3.10592e-06 2.68954e+25 -6.72217 0.904155 272.104 
-1.55296e-05 -2.62808e-06 2.68911e+25 -0.477126 2.26057 272.299 
-1.36182e-05 -2.62808e-06 2.68842e+25 -1.39801 3.30411 272.203 
-1.17069e-05 -2.62808e-06 2.69383e+25 -1.63623 4.01832 271.702 
-9.79558e-06 -2.62808e-06 2.69348e+25 -2.20427 4.50162 271.765 
-7.88425e-06 -2.62808e-06 2.69151e+25 -3.46198 4.24793 271.951 
-5.97292e-06 -2.62808e-06 2.68993e+25 -4.57007 4.11032 272.189 
-4.06158e-06 -2.62808e-06 2.68862e+25 -5.45863 3.35483 272.134 
-2.15025e-06 -2.62808e-06 2.6913e+25 -6.39891 2.32895 271.869 
-2.38917e-07 -2.62808e-06 2.68912e+25 -6.86992 1.04998 271.956 
-1.55296e-05 -2.15025e-06 2.68826e+25 -0.238746 2.34469 272.354 
-1.36182e-05 -2.15025e-06 2.68795e+25 -1.06931 3.37311 272.249 
-1.17069e-05 -2.15025e-06 2.69198e+25 -1.63959 3.97079 271.83 
-9.79558e-06 -2.15025e-06 2.69326e+25 -2.37806 4.79732 271.755 
-7.88425e-06 -2.15025e-06 2.69206e+25 -3.50266 4.80168 272.011 
-5.97292e-06 -2.15025e-06 2.68699e+25 -4.69705 4.39456 272.196 
-4.06158e-06 -2.15025e-06 2.68972e+25 -5.49225 3.56491 272.129 
-2.15025e-06 -2.15025e-06 2.69143e+25 -6.19841 2.51269 271.74 
-2.38917e-07 -2.15025e-06 2.68855e+25 -7.02584 1.23599 271.877 
-1.55296e-05 -1.67242e-06 2.68797e+25 -0.0229316 2.44209 272.356 
-1.36182e-05 -1.67242e-06 2.69119e+25 -0.599178 3.57436 271.865 
-1.17069e-05 -1.67242e-06 2.6936e+25 -1.40927 4.22878 271.618 
-9.79558e-06 -1.67242e-06 2.69364e+25 -2.45895 4.99026 271.802 
-7.88425e-06 -1.67242e-06 2.6911e+25 -3.48731 5.06006 271.956 
-5.97292e-06 -1.67242e-06 2.68704e+25 -4.57905 4.63502 272.374 
-4.06158e-06 -1.67242e-06 2.68858e+25 -5.4919 3.72556 272.087 
-2.15025e-06 -1.67242e-06 2.69147e+25 -6.24833 2.80456 271.778 
-2.38917e-07 -1.67242e-06 2.69058e+25 -7.41102 1.45303 271.928 
-1.55296e-05 -1.19458e-06 2.68716e+25 -0.0408956 2.65288 272.278 
-1.36182e-05 -1.19458e-06 2.6905e+25 -0.568864 3.80927 272.007 
-1.17069e-05 -1.19458e-06 2.69433e+25 -1.15851 4.57831 271.667 
-9.79558e-06 -1.19458e-06 2.69348e+25 -2.31844 5.07245 271.667 
-7.88425e-06 -1.19458e-06 2.69498e+25 -3.31594 5.40789 271.453 
-5.97292e-06 -1.19458e-06 2.6896e+25 -4.62541 4.92162 272.096 
-4.06158e-06 -1.19458e-06 2.68958e+25 -5.49122 3.82541 272.101 
-2.15025e-06 -1.19458e-06 2.69522e+25 -6.08972 3.17893 271.728 
-2.38917e-07 -1.19458e-06 2.68893e+25 -7.67394 1.6084 271.894 
-1.55296e-05 -7.1675e-07 2.68999e+25 -0.110146 2.781 272.046 
-1.36182e-05 -7.1675e-07 2.69003e+25 -0.504509 4.09383 272.003 
-1.17069e-05 -7.1675e-07 2.69331e+25 -1.21316 5.03187 271.795 
-9.79558e-06 -7.1675e-07 2.69597e+25 -2.2141 5.27925 271.533 
-7.88425e-06 -7.1675e-07 2.69611e+25 -3.28188 5.57986 271.62 
-5.97292e-06 -7.1675e-07 2.69131e+25 -4.54415 5.20505 271.947 
-4.06158e-06 -7.1675e-07 2.69216e+25 -5.66119 4.14082 271.876 
-2.15025e-06 -7.1675e-07 2.69352e+25 -6.59988 3.54225 271.698 
-2.38917e-07 -7.1675e-07 2.68791e+25 -7.59933 1.81805 271.857 
-1.55296e-05 -2.38917e-07 2.68765e+25 -0.140015 2.86237 272.294 
-1.36182e-05 -2.38917e-07 2.69157e+25 -0.24825 4.3393 271.814 
-1.17069e-05 -2.38917e-07 2.69053e+25 -1.39849 5.30738 271.891 
-9.79558e-06 -2.38917e-07 2.69173e+25 -2.31609 5.61192 271.755 
-7.88425e-06 -2.38917e-07 2.69259e+25 -3.569 5.88016 271.626 
-5.97292e-06 -2.38917e-07 2.68993e+25 -4.29522 5.53057 271.827 
-4.06158e-06 -2.38917e-07 2.68834e+25 -5.64293 4.4211 271.858 
-2.15025e-06 -2.38917e-07 2.68791e+25 -6.68428 3.64413 271.933 
-2.38917e-07 -2.38917e-07 2.68514e+25 -7.44062 2.11324 272.079 
-1.64852e-05 2.38917e-07 2.68379e+25 -0.0433253 1.36056 272.487 
-1.45739e-05 2.38917e-07 2.68759e+25 -0.177937 3.69001 272.082 
-1.26626e-05 2.38917e-07 2.69117e+25 -0.946812 4.89426 271.782 
-1.07512e-05 2.38917e-07 2.69525e+25 -2.15281 5.72925 271.518 
-8.83992e-06 2.38917e-07 2.6902e+25 -3.14639 6.1673 271.734 
-6.92858e-06 2.38917e-07 2.69333e+25 -3.84464 6.05173 271.666 
-5.01725e-06 2.38917e-07 2.69113e+25 -4.97153 5.08578 271.64 
-3.10592e-06 2.38917e-07 2.68682e+25 -6.17154 4.16212 272.026 
-1.19458e-06 2.38917e-07 2.68841e+25 -7.1198 3.17126 272.02 
-1.64852e-05 7.1675e-07 2.68715e+25 0.0369192 1.42529 272.282 
-1.45739e-05 7.1675e-07 2.69098e+25 -0.258567 3.76742 271.803 
-1.26626e-05 7.1675e-07 2.69005e+25 -0.947315 5.31476 271.851 
-1.07512e-05 7.1675e-07 2.69728e+25 -2.5823 6.02615 271.381 
-8.83992e-06 7.1675e-07 2.69351e+25 -3.04817 6.4429 271.663 
-6.92858e-06 7.1675e-07 2.69291e+25 -3.86075 6.26632 271.658 
-5.01725e-06 7.1675e-07 2.69517e+25 -4.7097 5.39333 271.435 
-3.10592e-06 7.1675e-07 2.69016e+25 -5.92055 4.60347 271.948 
-1.19458e-06 7.1675e-07 2.68778e+25 -6.87464 3.29641 272.236 
-1.64852e-05 1.19458e-06 2.68941e+25 -0.129954 1.52132 272.2 
-1.45739e-05 1.19458e-06 2.69245e+25 -0.235846 3.85416 271.896 
-1.26626e-05 1.19458e-06 2.69136e+25 -1.18321 5.75158 271.867 
-1.07512e-05 1.19458e-06 2.69404e+25 -2.37875 6.29422 271.46 
-8.83992e-06 1.19458e-06 2.69344e+25 -3.04856 6.46695 271.655 
-6.92858e-06 1.19458e-06 2.69233e+25 -3.7788 6.46239 271.65 
-5.01725e-06 1.19458e-06 2.69387e+25 -4.59084 5.76503 271.591 
-3.10592e-06 1.19458e-06 2.6881e+25 -5.7874 4.94147 272.034 
-1.19458e-06 1.19458e-06 2.68488e+25 -6.64346 3.45684 272.414 
-1.64852e-05 1.67242e-06 2.68542e+25 0.00630522 1.5063 272.47 
-1.45739e-05 1.67242e-06 2.68841e+25 -0.351311 4.03647 272.236 
-1.26626e-05 1.67242e-06 2.69086e+25 -1.18358 6.13359 271.747 
-1.07512e-05 1.67242e-06 2.69574e+25 -2.39449 6.60963 271.554 
-8.83992e-06 1.67242e-06 2.69341e+25 -3.26629 6.49942 271.765 
-6.92858e-06 1.67242e-06 2.69117e+25 -3.80006 6.52072 271.875 
-5.01725e-06 1.67242e-06 2.69162e+25 -4.46844 5.93783 271.747 
-3.10592e-06 1.67242e-06 2.68579e+25 -5.5348 5.13632 272.312 
-1.19458e-06 1.67242e-06 2.68449e+25 -6.24552 3.6104 272.387 
-1.64852e-05 2.15025e-06 2.68631e+25 0.207948 1.33883 272.409 
-1.45739e-05 2.15025e-06 2.68672e+25 -0.178784 4.25131 272.315 
-1.26626e-05 2.15025e-06 2.69605e+25 -1.29176 6.24513 271.413 
-1.07512e-05 2.15025e-06 2.69335e+25 -2.2844 6.89776 271.584 
-8.83992e-06 2.15025e-06 2.69394e+25 -3.3226 6.59292 271.598 
-6.92858e-06 2.15025e-06 2.69379e+25 -3.78616 6.66639 271.571 
-5.01725e-06 2.15025e-06 2.69241e+25 -4.35287 6.0654 271.7 
-3.10592e-06 2.15025e-06 2.688e+25 -5.35451 5.26729 272.18 
-1.19458e-06 2.15025e-06 2.68412e+25 -5.80983 3.69925 272.417 
-1.64852e-05 2.62808e-06 2.68407e+25 0.131394 1.19651 272.454 
-1.45739e-05 2.62808e-06 2.68916e+25 -0.105801 4.54204 272.087 
-1.26626e-05 2.62808e-06 2.6947e+25 -1.3034 6.33402 271.444 
-1.07512e-05 2.62808e-06 2.69218e+25 -2.10808 7.10004 271.72 
-8.83992e-06 2.62808e-06 2.69273e+25 -3.19592 6.76845 271.559 
-6.92858e-06 2.62808e-06 2.69334e+25 -3.87736 6.89992 271.692 
-5.01725e-06 2.62808e-06 2.69077e+25 -4.24866 6.20744 271.894 
-3.10592e-06 2.62808e-06 2.68643e+25 -4.9927 5.604 272.187 
-1.19458e-06 2.62808e-06 2.68303e+25 -5.40801 3.81219 272.487 
-1.64852e-05 3.10592e-06 2.6851e+25 -0.121319 1.25709 272.591 
-1.45739e-05 3.10592e-06 2.68942e+25 -0.345027 4.79313 272.03 
-1.26626e-05 3.10592e-06 2.69365e+25 -1.32762 6.70983 271.539 
-1.07512e-05 3.10592e-06 2.69482e+25 -2.10028 7.22434 271.512 
-8.83992e-06 3.10592e-06 2.69621e+25 -2.82477 6.89196 271.363 
-6.92858e-06 3.10592e-06 2.69033e+25 -3.68817 7.0261 271.881 
-5.01725e-06 3.10592e-06 2.69059e+25 -4.21114 6.34619 271.894 
-3.10592e-06 3.10592e-06 2.68623e+25 -4.62176 5.73275 272.265 
-1.19458e-06 3.10592e-06 2.68414e+25 -5.19203 3.99603 272.288 
-1.64852e-05 3.58375e-06 2.68559e+25 -0.0588551 1.25247 272.457 
-1.45739e-05 3.58375e-06 2.69389e+25 -0.348479 4.88209 271.841 
-1.26626e-05 3.58375e-06 2.69326e+25 -1.21464 7.04544 271.559 
-1.07512e-05 3.58375e-06 2.69312e+25 -1.69871 7.44409 271.753 
-8.83992e-06 3.58375e-06 2.69363e+25 -2.60553 7.1156 271.62 
-6.92858e-06 3.58375e-06 2.68724e+25 -3.45645 7.13364 272.03 
-5.01725e-06 3.58375e-06 2.68989e+25 -4.08698 6.47197 271.879 
-3.10592e-06 3.58375e-06 2.68419e+25 -4.35864 5.81046 272.482 
-1.19458e-06 3.58375e-06 2.68539e+25 -4.97713 4.18883 272.18 
-1.64852e-05 4.06158e-06 2.68488e+25 -0.079296 1.35598 272.358 
-1.45739e-05 4.06158e-06 2.69194e+25 -0.377244 5.05055 271.769 
-1.26626e-05 4.06158e-06 2.69193e+25 -1.23627 7.21055 271.67 
-1.07512e-05 4.06158e-06 2.69254e+25 -1.4495 7.53852 271.688 
-8.83992e-06 4.06158e-06 2.69376e+25 -2.43161 7.3708 271.521 
-6.92858e-06 4.06158e-06 2.69097e+25 -3.11363 7.283 272.058 
-5.01725e-06 4.06158e-06 2.68819e+25 -3.67377 6.62707 271.935 
-3.10592e-06 4.06158e-06 2.6845e+25 -4.03951 5.87379 272.5 
-1.19458e-06 4.06158e-06 2.68448e+25 -4.61336 4.37707 272.42 
-1.64852e-05 4.53942e-06 2.68594e+25 -0.122136 1.51012 272.433 
-1.45739e-05 4.53942e-06 2.69113e+25 -0.753176 5.24379 271.973 
-1.26626e-05 4.53942e-06 2.69099e+25 -1.0334 7.31585 271.785 
-1.07512e-05 4.53942e-06 2.69326e+25 -1.49613 7.6085 271.796 
-8.83992e-06 4.53942e-06 2.69522e+25 -2.13935 7.64982 271.467 
-6.92858e-06 4.53942e-06 2.69003e+25 -2.72598 7.42405 271.871 
-5.01725e-06 4.53942e-06 2.68629e+25 -3.32472 6.86637 272.219 
-3.10592e-06 4.53942e-06 2.68237e+25 -3.64295 5.9986 272.504 
-1.19458e-06 4.53942e-06 2.68325e+25 -4.14013 4.34832 272.582 
-1.64852e-05 5.01725e-06 2.68677e+25 -0.0792429 1.63675 272.355 
-1.45739e-05 5.01725e-06 2.69185e+25 -0.766831 5.36055 271.977 
-1.26626e-05 5.01725e-06 2.68813e+25 -0.822646 7.3075 271.944 
-1.07512e-05 5.01725e-06 2.69118e+25 -1.60132 7.68127 271.649 
-8.83992e-06 5.01725e-06 2.69482e+25 -1.87927 7.78865 271.374 
-6.92858e-06 5.01725e-06 2.69127e+25 -2.64212 7.51056 271.749 
-5.01725e-06 5.01725e-06 2.68757e+25 -3.09572 7.01744 272.133 
-3.10592e-06 5.01725e-06 2.68612e+25 -3.44563 6.02627 272.335 
-1.19458e-06 5.01725e-06 2.68716e+25 -3.97176 4.4449 272.087 
-1.64852e-05 5.49508e-06 2.68586e+25 -0.042018 1.58357 272.384 
-1.45739e-05 5.49508e-06 2.68828e+25 -0.753321 5.41022 272.057 
-1.26626e-05 5.49508e-06 2.69334e+25 -0.69607 7.3789 271.733 
-1.07512e-05 5.49508e-06 2.69094e+25 -1.54891 7.83626 271.571 
-8.83992e-06 5.49508e-06 2.69528e+25 -2.10693 7.84475 271.356 
-6.92858e-06 5.49508e-06 2.6959e+25 -2.51343 7.63913 271.511 
-5.01725e-06 5.49508e-06 2.68977e+25 -2.96405 7.0788 271.856 
-3.10592e-06 5.49508e-06 2.68485e+25 -3.02329 6.13603 272.159 
-1.19458e-06 5.49508e-06 2.68856e+25 -3.53862 4.63313 271.874 
-1.64852e-05 5.97292e-06 2.68674e+25 -0.104394 1.67446 272.135 
-1.45739e-05 5.97292e-06 2.68947e+25 -0.547231 5.44131 271.958 
-1.26626e-05 5.97292e-06 2.6913e+25 -0.898764 7.36086 271.796 
-1.07512e-05 5.97292e-06 2.69434e+25 -1.71305 8.08339 271.424 
-8.83992e-06 5.97292e-06 2.69474e+25 -2.26879 8.09421 271.279 
-6.92858e-06 5.97292e-06 2.69476e+25 -2.64364 7.65071 271.318 
-5.01725e-06 5.97292e-06 2.68972e+25 -2.6651 7.19598 271.815 
-3.10592e-06 5.97292e-06 2.68775e+25 -2.71438 6.2767 272.008 
-1.19458e-06 5.97292e-06 2.68677e+25 -3.012 4.81104 271.968 
-1.64852e-05 6.45075e-06 2.68608e+25 -0.0421176 1.75492 272.363 
-1.45739e-05 6.45075e-06 2.68959e+25 -0.600402 5.69402 271.816 
-1.26626e-05 6.45075e-06 2.69327e+25 -1.08023 7.33969 271.569 
-1.07512e-05 6.45075e-06 2.69307e+25 -1.37748 8.34786 271.382 
-8.83992e-06 6.45075e-06 2.69307e+25 -2.30357 8.36754 271.648 
-6.92858e-06 6.45075e-06 2.69357e+25 -2.40919 7.62859 271.582 
-5.01725e-06 6.45075e-06 2.68987e+25 -2.49078 7.22462 271.763 
-3.10592e-06 6.45075e-06 2.68947e+25 -2.48761 6.43633 272.002 
-1.19458e-06 6.45075e-06 2.69045e+25 -2.51785 4.8821 271.756 
-1.64852e-05 6.92858e-06 2.68392e+25 0.0711672 1.75024 272.616 
-1.45739e-05 6.92858e-06 2.68945e+25 -0.477196 6.03173 271.952 
-1.26626e-05 6.92858e-06 2.69219e+25 -1.12964 7.40728 271.584 
-1.07512e-05 6.92858e-06 2.69515e+25 -1.26604 8.56419 271.341 
-8.83992e-06 6.92858e-06 2.68907e+25 -1.8521 8.48585 271.87 
-6.92858e-06 6.92858e-06 2.69128e+25 -2.13198 7.72488 271.545 
-5.01725e-06 6.92858e-06 2.68765e+25 -1.96531 7.14728 271.956 
-3.10592e-06 6.92858e-06 2.69099e+25 -2.07676 6.39347 271.833 
-1.19458e-06 6.92858e-06 2.68846e+25 -2.32262 4.90311 272.029 
-1.64852e-05 7.40642e-06 2.68654e+25 -0.134466 1.81547 272.507 
-1.45739e-05 7.40642e-06 2.69319e+25 -0.447533 6.20379 271.8 
-1.26626e-05 7.40642e-06 2.69205e+25 -0.99873 7.50167 271.794 
-1.07512e-05 7.40642e-06 2.69574e+25 -1.18593 8.61768 271.354 
-8.83992e-06 7.40642e-06 2.68732e+25 -1.62709 8.44052 271.993 
-6.92858e-06 7.40642e-06 2.6952e+25 -2.00176 7.65902 271.563 
-5.01725e-06 7.40642e-06 2.68927e+25 -1.63684 7.02876 271.876 
-3.10592e-06 7.40642e-06 2.69051e+25 -1.77685 6.23026 271.745 
-1.19458e-06 7.40642e-06 2.69033e+25 -1.7971 4.91327 271.712 
-1.64852e-05 7.88425e-06 2.6831e+25 -0.0436423 1.81991 272.578 
-1.45739e-05 7.88425e-06 2.69032e+25 -0.516864 6.19689 271.804 
-1.26626e-05 7.88425e-06 2.692e+25 -1.15617 7.60113 271.779 
-1.07512e-05 7.88425e-06 2.69111e+25 -1.3232 8.68733 271.616 
-8.83992e-06 7.88425e-06 2.68917e+25 -1.69024 8.5329 271.98 
-6.92858e-06 7.88425e-06 2.69227e+25 -1.66793 7.67667 271.735 
-5.01725e-06 7.88425e-06 2.69024e+25 -1.32765 6.96828 271.742 
-3.10592e-06 7.88425e-06 2.68854e+25 -1.3159 6.14473 271.992 
-1.19458e-06 7.88425e-06 2.6906e+25 -0.918684 5.02454 271.756 
-1.64852e-05 8.36208e-06 2.68762e+25 -0.0020483 1.9037 272.289 
-1.45739e-05 8.36208e-06 2.68791e+25 -0.416752 6.20492 272.058 
-1.26626e-05 8.36208e-06 2.69109e+25 -1.36039 7.87826 271.751 
-1.07512e-05 8.36208e-06 2.68989e+25 -1.47932 8.71142 271.822 
-8.83992e-06 8.36208e-06 2.6908e+25 -1.43178 8.56942 271.853 
-6.92858e-06 8.36208e-06 2.69081e+25 -1.11926 7.69156 271.827 
-5.01725e-06 8.36208e-06 2.6905e+25 -1.20272 6.94131 271.805 
-3.10592e-06 8.36208e-06 2.68832e+25 -0.822582 6.13241 271.923 
-1.19458e-06 8.36208e-06 2.69034e+25 -0.302539 4.92512 271.831 
-1.64852e-05 8.83992e-06 2.68286e+25 0.05139 1.98027 272.438 
-1.45739e-05 8.83992e-06 2.68892e+25 -0.453702 6.29336 272.109 
-1.26626e-05 8.83992e-06 2.69003e+25 -1.39542 8.26135 271.626 
-1.07512e-05 8.83992e-06 2.69128e+25 -1.81353 8.71412 271.758 
-8.83992e-06 8.83992e-06 2.68968e+25 -1.65046 8.47858 271.828 
-6.92858e-06 8.83992e-06 2.68766e+25 -1.12584 7.68435 272.175 
-5.01725e-06 8.83992e-06 2.68849e+25 -0.695332 6.72336 272.005 
-3.10592e-06 8.83992e-06 2.68696e+25 -0.0304096 6.04132 272.13 
-1.19458e-06 8.83992e-06 2.68963e+25 0.469806 4.68021 271.71 
-1.64852e-05 9.31775e-06 2.68164e+25 -0.188755 2.17262 272.542 
-1.45739e-05 9.31775e-06 2.68599e+25 -0.67098 6.55615 272.086 
-1.26626e-05 9.31775e-06 2.68883e+25 -1.74925 8.43561 271.748 
-1.07512e-05 9.31775e-06 2.69169e+25 -1.9066 8.84642 271.549 
-8.83992e-06 9.31775e-06 2.6905e+25 -1.51598 8.3799 271.908 
-6.92858e-06 9.31775e-06 2.68537e+25 -1.16771 7.56169 272.265 
-5.01725e-06 9.31775e-06 2.68876e+25 -0.257807 6.34874 271.896 
-3.10592e-06 9.31775e-06 2.68634e+25 0.762136 5.91879 272.059 
-1.19458e-06 9.31775e-06 2.68939e+25 1.32602 4.51819 271.848 
-1.64852e-05 9.79558e-06 2.67942e+25 -0.230571 2.35647 272.624 
-1.45739e-05 9.79558e-06 2.68652e+25 -0.86371 6.74551 272.081 
-1.26626e-05 9.79558e-06 2.68953e+25 -2.13365 8.5759 271.822 
-1.07512e-05 9.79558e-06 2.69423e+25 -2.40564 8.82188 271.445 
-8.83992e-06 9.79558e-06 2.68922e+25 -1.6274 8.27978 272.03 
-6.92858e-06 9.79558e-06 2.68789e+25 -1.20025 7.54732 272.133 
-5.01725e-06 9.79558e-06 2.68871e+25 0.164348 5.96824 271.905 
-3.10592e-06 9.79558e-06 2.68941e+25 1.56943 5.7006 271.895 
-1.19458e-06 9.79558e-06 2.68679e+25 2.08079 4.47398 271.906 
-1.64852e-05 1.02734e-05 2.68153e+25 -0.308367 2.52773 272.539 
-1.45739e-05 1.02734e-05 2.68758e+25 -1.24425 7.05418 271.946 
-1.26626e-05 1.02734e-05 2.69088e+25 -2.21754 8.74621 271.731 
-1.07512e-05 1.02734e-05 2.69246e+25 -2.37965 8.61311 271.696 
-8.83992e-06 1.02734e-05 2.68933e+25 -1.43002 8.09293 271.962 
-6.92858e-06 1.02734e-05 2.68557e+25 -0.947959 7.47462 272.236 
-5.01725e-06 1.02734e-05 2.69059e+25 0.503547 5.60538 271.908 
-3.10592e-06 1.02734e-05 2.68847e+25 2.02848 5.50669 271.835 
-1.19458e-06 1.02734e-05 2.68676e+25 3.06767 4.36751 272.002 
-1.64852e-05 1.07512e-05 2.68059e+25 -0.169205 2.69035 272.617 
-1.45739e-05 1.07512e-05 2.68936e+25 -1.28582 7.35533 271.839 
-1.26626e-05 1.07512e-05 2.68953e+25 -2.15383 8.86827 271.825 
-1.07512e-05 1.07512e-05 2.69295e+25 -2.02913 8.46265 271.582 
-8.83992e-06 1.07512e-05 2.68994e+25 -1.19314 7.74519 271.857 
-6.92858e-06 1.07512e-05 2.68549e+25 -0.32936 7.03047 272.239 
-5.01725e-06 1.07512e-05 2.69037e+25 1.14915 5.13577 271.847 
-3.10592e-06 1.07512e-05 2.68676e+25 2.77463 5.14789 272.002 
-1.19458e-06 1.07512e-05 2.6861e+25 3.95199 4.04068 271.969 
-1.64852e-05 1.12291e-05 2.68229e+25 -0.21937 3.03071 272.417 
-1.45739e-05 1.12291e-05 2.68754e+25 -1.73938 7.64353 271.995 
-1.26626e-05 1.12291e-05 2.68798e+25 -2.15028 8.98351 271.783 
-1.07512e-05 1.12291e-05 2.69451e+25 -2.02391 8.13965 271.465 
-8.83992e-06 1.12291e-05 2.69126e+25 -0.76767 7.45857 271.719 
-6.92858e-06 1.12291e-05 2.68738e+25 0.640164 6.57422 272.156 
-5.01725e-06 1.12291e-05 2.68585e+25 1.87448 4.75116 272.055 
-3.10592e-06 1.12291e-05 2.68937e+25 3.39091 4.72541 271.945 
-1.19458e-06 1.12291e-05 2.68702e+25 4.94302 3.7771 272.024 
-1.64852e-05 1.17069e-05 2.68211e+25 -0.225761 3.31683 272.44 
-1.45739e-05 1.17069e-05 2.68628e+25 -1.86287 8.01139 272.051 
-1.26626e-05 1.17069e-05 2.68673e+25 -2.27404 9.02657 271.95 
-1.07512e-05 1.17069e-05 2.69533e+25 -2.08226 7.99127 271.439 
-8.83992e-06 1.17069e-05 2.68859e+25 -0.505326 7.16089 271.886 
-6.92858e-06 1.17069e-05 2.68729e+25 1.67642 6.11744 272.153 
-5.01725e-06 1.17069e-05 2.6838e+25 2.93859 4.40583 272.238 
-3.10592e-06 1.17069e-05 2.68683e+25 4.48295 4.3067 271.997 
-1.19458e-06 1.17069e-05 2.68919e+25 6.10202 3.59087 271.76 
-1.64852e-05 1.21847e-05 2.68078e+25 -0.305284 3.64899 272.499 
-1.45739e-05 1.21847e-05 2.68498e+25 -2.07442 8.26087 271.973 
-1.26626e-05 1.21847e-05 2.68663e+25 -2.61761 8.92847 271.955 
-1.07512e-05 1.21847e-05 2.693e+25 -1.75758 7.6857 271.556 
-8.83992e-06 1.21847e-05 2.69046e+25 -0.0737031 6.79091 272.016 
-6.92858e-06 1.21847e-05 2.68608e+25 2.42395 5.63882 272.118 
-5.01725e-06 1.21847e-05 2.68618e+25 4.06612 4.23138 271.969 
-3.10592e-06 1.21847e-05 2.68597e+25 5.62164 3.95462 272.119 
-1.19458e-06 1.21847e-05 2.68666e+25 7.45535 3.24721 271.96 
-1.64852e-05 1.26626e-05 2.68016e+25 -0.319057 3.96391 272.577 
-1.45739e-05 1.26626e-05 2.68188e+25 -2.34652 8.52501 272.282 
-1.26626e-05 1.26626e-05 2.68676e+25 -2.74934 8.62422 272.02 
-1.07512e-05 1.26626e-05 2.68957e+25 -1.2813 7.4663 271.835 
-8.83992e-06 1.26626e-05 2.68921e+25 0.870911 6.10649 271.893 
-6.92858e-06 1.26626e-05 2.68666e+25 3.33096 5.06097 272.118 
-5.01725e-06 1.26626e-05 2.68546e+25 5.54599 4.02803 272.188 
-3.10592e-06 1.26626e-05 2.6862e+25 7.1406 3.43152 272.165 
-1.19458e-06 1.26626e-05 2.68813e+25 9.07975 2.78473 271.891 
-1.64852e-05 1.31404e-05 2.68038e+25 -0.475655 4.40162 272.544 
-1.45739e-05 1.31404e-05 2.68086e+25 -3.11428 8.78749 272.298 
-1.26626e-05 1.31404e-05 2.68983e+25 -2.57537 8.35103 271.799 
-1.07512e-05 1.31404e-05 2.69071e+25 -0.59703 6.87535 271.872 
-8.83992e-06 1.31404e-05 2.68791e+25 2.09246 5.51075 272.002 
-6.92858e-06 1.31404e-05 2.68741e+25 4.74069 4.45152 272.243 
-5.01725e-06 1.31404e-05 2.68547e+25 7.04579 3.53881 272.178 
-3.10592e-06 1.31404e-05 2.68768e+25 9.08862 2.99906 272.113 
-1.19458e-06 1.31404e-05 2.68637e+25 11.1152 2.24902 272.106 
-1.64852e-05 1.36182e-05 2.67871e+25 -0.873587 5.19076 272.487 
-1.45739e-05 1.36182e-05 2.68209e+25 -3.47685 9.09522 272.211 
-1.26626e-05 1.36182e-05 2.68615e+25 -2.12035 7.93851 272.102 
-1.07512e-05 1.36182e-05 2.6871e+25 0.609462 6.13912 271.929 
-8.83992e-06 1.36182e-05 2.68995e+25 3.80247 4.73603 271.983 
-6.92858e-06 1.36182e-05 2.68841e+25 6.50032 3.86828 272.061 
-5.01725e-06 1.36182e-05 2.68554e+25 9.04076 2.94283 272.342 
-3.10592e-06 1.36182e-05 2.68587e+25 11.3137 2.42917 272.192 
-1.19458e-06 1.36182e-05 2.68578e+25 12.8949 1.72764 272.236 
-1.64852e-05 1.40961e-05 2.67642e+25 -0.929728 5.97932 272.524 
-1.45739e-05 1.40961e-05 2.6825e+25 -3.34167 9.26061 272.103 
-1.26626e-05 1.40961e-05 2.68743e+25 -1.04342 7.30473 271.995 
-1.07512e-05 1.40961e-05 2.68735e+25 2.46785 5.24751 272.067 
-8.83992e-06 1.40961e-05 2.69158e+25 5.47449 3.98411 271.918 
-6.92858e-06 1.40961e-05 2.68816e+25 8.76345 3.12719 272.095 
-5.01725e-06 1.40961e-05 2.68408e+25 11.4019 2.35221 272.461 
-3.10592e-06 1.40961e-05 2.68655e+25 13.4311 2.07685 272.161 
-1.19458e-06 1.40961e-05 2.68598e+25 14.7061 1.24309 272.116 
-1.64852e-05 1.45739e-05 2.67404e+25 -1.37371 6.98167 272.595 
-1.45739e-05 1.45739e-05 2.68049e+25 -2.95524 8.96711 272.235 
-1.26626e-05 1.45739e-05 2.68514e+25 0.560335 6.31227 272.124 
-1.07512e-05 1.45739e-05 2.68731e+25 4.74557 4.23928 272.217 
-8.83992e-06 1.45739e-05 2.69003e+25 8.10407 3.16129 272.023 
-6.92858e-06 1.45739e-05 2.6886e+25 11.4885 2.35304 272.12 
-5.01725e-06 1.45739e-05 2.6849e+25 13.9449 1.70014 272.354 
-3.10592e-06 1.45739e-05 2.68462e+25 15.9261 1.54313 272.22 
-1.19458e-06 1.45739e-05 2.68539e+25 17.2566 1.01343 272.239 
-1.64852e-05 1.50518e-05 2.66869e+25 -1.77514 8.27958 272.701 
-1.45739e-05 1.50518e-05 2.67637e+25 -2.00464 8.32157 272.364 
-1.26626e-05 1.50518e-05 2.68266e+25 3.226 5.05686 272.336 
-1.07512e-05 1.50518e-05 2.68422e+25 7.99448 3.25981 272.519 
-8.83992e-06 1.50518e-05 2.68815e+25 11.7078 2.23648 272.284 
-6.92858e-06 1.50518e-05 2.68693e+25 14.4522 1.82969 272.16 
-5.01725e-06 1.50518e-05 2.68407e+25 16.7355 1.19616 272.433 
-3.10592e-06 1.50518e-05 2.68381e+25 18.795 1.13145 272.416 
-1.19458e-06 1.50518e-05 2.68581e+25 20.0156 0.708086 272.268 
-1.64852e-05 1.55296e-05 2.66454e+25 -2.15603 9.71789 272.625 
-1.45739e-05 1.55296e-05 2.6749e+25 0.673459 6.95064 272.44 
-1.26626e-05 1.55296e-05 2.68058e+25 7.37208 3.70482 272.55 
-1.07512e-05 1.55296e-05 2.68097e+25 12.3244 2.26385 272.771 
-8.83992e-06 1.55296e-05 2.686e+25 15.9638 1.39111 272.277 
-6.92858e-06 1.55296e-05 2.68751e+25 18.5274 1.38345 272.321 
-5.01725e-06 1.55296e-05 2.68545e+25 20.3683 0.726297 272.499 
-3.10592e-06 1.55296e-05 2.68496e+25 21.8857 0.734654 272.442 
-1.19458e-06 1.55296e-05 2.68423e+25 23.3254 0.525367 272.472 
-1.64852e-05 1.60074e-05 2.65945e+25 -1.85846 10.629 272.61 
-1.45739e-05 1.60074e-05 2.67774e+25 6.04638 5.01747 272.449 
-1.26626e-05 1.60074e-05 2.67951e+25 13.1481 2.28974 272.783 
-1.07512e-05 1.60074e-05 2.68008e+25 17.7333 1.23948 272.9 
-8.83992e-06 1.60074e-05 2.6859e+25 20.7504 0.698251 272.443 
-6.92858e-06 1.60074e-05 2.68363e+25 22.8988 0.860842 272.63 
-5.01725e-06 1.60074e-05 2.68389e+25 24.5264 0.375353 272.527 
-3.10592e-06 1.60074e-05 2.68354e+25 25.4975 0.372056 272.525 
-1.19458e-06 1.60074e-05 2.68371e+25 26.5565 0.273071 272.458 
-1.64852e-05 1.64852e-05 2.64553e+25 0.881547 9.35932 272.959 
-1.45739e-05 1.64852e-05 2.67379e+25 14.5743 2.5045 272.78 
-1.26626e-05 1.64852e-05 2.67973e+25 20.7862 1.02049 272.898 
-1.07512e-05 1.64852e-05 2.68253e+25 24.073 0.491812 272.882 
-8.83992e-06 1.64852e-05 2.68342e+25 26.1684 0.186777 272.781 
-6.92858e-06 1.64852e-05 2.68313e+25 27.6416 0.452294 272.921 
-5.01725e-06 1.64852e-05 2.68192e+25 28.5528 0.0985795 272.67 
-3.10592e-06 1.64852e-05 2.68335e+25 29.0511 0.200042 272.584 
-1.19458e-06 1.64852e-05 2.68353e+25 29.9535 0.171448 272.602 
-1.64852e-05 1.69631e-05 2.62072e+25 12.407 3.56401 273.672 
-1.45739e-05 1.69631e-05 2.67269e+25 25.9685 0.595427 273.135 
-1.26626e-05 1.69631e-05 2.68173e+25 29.0884 0.200558 272.913 
-1.07512e-05 1.69631e-05 2.68314e+25 30.6689 0.0650135 272.908 
-8.83992e-06 1.69631e-05 2.68309e+25 31.2221 0.0330051 272.808 
-6.92858e-06 1.69631e-05 2.68306e+25 31.838 0.0724195 273.03 
-5.01725e-06 1.69631e-05 2.68088e+25 32.2006 0.0116756 272.826 
-3.10592e-06 1.69631e-05 2.68119e+25 32.4879 0.067346 272.799 
-1.19458e-06 1.69631e-05 2.68084e+25 32.8916 0.0638067 272.824 
-1.69631e-05 2.38917e-07 2.68015e+25 0.0346126 0.475986 272.708 
-1.50517e-05 2.38917e-07 2.68777e+25 -0.0873688 3.32613 271.958 
-1.31404e-05 2.38917e-07 2.68937e+25 -0.542671 4.65262 271.832 
-1.12291e-05 2.38917e-07 2.6926e+25 -1.90669 5.49557 271.667 
-9.31775e-06 2.38917e-07 2.68921e+25 -2.82025 6.12176 271.823 
-7.40642e-06 2.38917e-07 2.6917e+25 -3.78074 5.90288 271.622 
-5.49508e-06 2.38917e-07 2.69072e+25 -4.56405 5.47518 271.659 
-3.58375e-06 2.38917e-07 2.68917e+25 -5.8212 4.51003 271.77 
-1.67242e-06 2.38917e-07 2.68491e+25 -6.97703 3.70675 272.228 
-1.69631e-05 7.1675e-07 2.68387e+25 -0.0190705 0.431582 272.753 
-1.50517e-05 7.1675e-07 2.69013e+25 -0.255757 3.34785 272.011 
-1.31404e-05 7.1675e-07 2.68989e+25 -0.604654 4.9342 271.935 
-1.12291e-05 7.1675e-07 2.69553e+25 -2.19415 5.8659 271.567 
-9.31775e-06 7.1675e-07 2.69194e+25 -3.00918 6.1944 271.77 
-7.40642e-06 7.1675e-07 2.69465e+25 -3.62033 5.9771 271.526 
-5.49508e-06 7.1675e-07 2.69169e+25 -4.49998 5.71473 271.662 
-3.58375e-06 7.1675e-07 2.68939e+25 -5.65178 4.76017 271.943 
-1.67242e-06 7.1675e-07 2.68719e+25 -6.85403 3.76752 272.213 
-1.69631e-05 1.19458e-06 2.68621e+25 0.0143426 0.469436 272.645 
-1.50517e-05 1.19458e-06 2.68978e+25 -0.134837 3.34038 272.136 
-1.31404e-05 1.19458e-06 2.69099e+25 -0.769563 5.29604 272.058 
-1.12291e-05 1.19458e-06 2.69381e+25 -2.05044 6.32185 271.643 
-9.31775e-06 1.19458e-06 2.69211e+25 -3.07433 6.16588 271.795 
-7.40642e-06 1.19458e-06 2.69272e+25 -3.58723 6.21836 271.71 
-5.49508e-06 1.19458e-06 2.69228e+25 -4.37366 5.80901 271.574 
-3.58375e-06 1.19458e-06 2.69054e+25 -5.45818 5.02503 271.951 
-1.67242e-06 1.19458e-06 2.68742e+25 -6.48092 3.76456 272.235 
-1.69631e-05 1.67242e-06 2.68458e+25 -0.0420199 0.528577 272.645 
-1.50517e-05 1.67242e-06 2.68691e+25 -0.103093 3.49364 272.238 
-1.31404e-05 1.67242e-06 2.68891e+25 -1.01595 5.51596 271.946 
-1.12291e-05 1.67242e-06 2.69429e+25 -2.01086 6.70821 271.548 
-9.31775e-06 1.67242e-06 2.69298e+25 -3.18899 6.22266 271.748 
-7.40642e-06 1.67242e-06 2.69376e+25 -3.48089 6.60675 271.552 
-5.49508e-06 1.67242e-06 2.69311e+25 -4.22057 6.15056 271.743 
-3.58375e-06 1.67242e-06 2.68828e+25 -5.36432 5.31996 272.192 
-1.67242e-06 1.67242e-06 2.68284e+25 -6.09702 4.00043 272.458 
-1.69631e-05 2.15025e-06 2.6829e+25 0.052808 0.500044 272.719 
-1.50517e-05 2.15025e-06 2.6882e+25 0.0582453 3.79559 272.293 
-1.31404e-05 2.15025e-06 2.69485e+25 -1.22915 5.70929 271.661 
-1.12291e-05 2.15025e-06 2.69362e+25 -2.00777 7.02879 271.525 
-9.31775e-06 2.15025e-06 2.69309e+25 -3.11747 6.39346 271.719 
-7.40642e-06 2.15025e-06 2.69354e+25 -3.75235 6.76857 271.622 
-5.49508e-06 2.15025e-06 2.69274e+25 -4.23798 6.32564 271.715 
-3.58375e-06 2.15025e-06 2.68645e+25 -5.02938 5.64724 272.188 
-1.67242e-06 2.15025e-06 2.68557e+25 -5.71648 4.08724 272.348 
-1.69631e-05 2.62808e-06 2.68471e+25 0.0325725 0.4028 272.666 
-1.50517e-05 2.62808e-06 2.68954e+25 -0.0247201 3.71328 272.175 
-1.31404e-05 2.62808e-06 2.69588e+25 -1.03651 5.93314 271.451 
-1.12291e-05 2.62808e-06 2.69537e+25 -1.9855 7.24142 271.546 
-9.31775e-06 2.62808e-06 2.69331e+25 -3.00789 6.63086 271.619 
-7.40642e-06 2.62808e-06 2.69469e+25 -3.66091 6.84566 271.45 
-5.49508e-06 2.62808e-06 2.69111e+25 -4.12992 6.44888 271.906 
-3.58375e-06 2.62808e-06 2.68718e+25 -4.73587 5.83291 272.231 
-1.67242e-06 2.62808e-06 2.68518e+25 -5.25598 4.19268 272.265 
-1.69631e-05 3.10592e-06 2.68229e+25 -0.060845 0.379769 272.961 
-1.50517e-05 3.10592e-06 2.68827e+25 -0.128811 3.8452 272.221 
-1.31404e-05 3.10592e-06 2.69447e+25 -0.907233 6.25742 271.508 
-1.12291e-05 3.10592e-06 2.6941e+25 -2.0617 7.32176 271.534 
-9.31775e-06 3.10592e-06 2.69559e+25 -2.68852 6.902 271.478 
-7.40642e-06 3.10592e-06 2.69494e+25 -3.59847 7.06659 271.602 
-5.49508e-06 3.10592e-06 2.68959e+25 -4.09681 6.48614 271.888 
-3.58375e-06 3.10592e-06 2.68804e+25 -4.57138 5.99961 272.179 
-1.67242e-06 3.10592e-06 2.6884e+25 -5.10352 4.32277 272.063 
-1.69631e-05 3.58375e-06 2.6824e+25 0.00409908 0.461858 272.84 
-1.50517e-05 3.58375e-06 2.68971e+25 -0.14816 4.12412 272.056 
-1.31404e-05 3.58375e-06 2.69426e+25 -0.996585 6.52439 271.5 
-1.12291e-05 3.58375e-06 2.69134e+25 -1.47495 7.35779 271.712 
-9.31775e-06 3.58375e-06 2.69473e+25 -2.30159 7.13798 271.518 
-7.40642e-06 3.58375e-06 2.69299e+25 -3.26868 7.17551 271.85 
-5.49508e-06 3.58375e-06 2.69028e+25 -3.99181 6.59808 271.888 
-3.58375e-06 3.58375e-06 2.68502e+25 -4.33551 6.00458 272.207 
-1.67242e-06 3.58375e-06 2.6867e+25 -4.73336 4.4985 272.19 
-1.69631e-05 4.06158e-06 2.68402e+25 0.0177293 0.477877 272.584 
-1.50517e-05 4.06158e-06 2.69092e+25 -0.278326 4.17138 271.877 
-1.31404e-05 4.06158e-06 2.69298e+25 -1.08665 6.75909 271.689 
-1.12291e-05 4.06158e-06 2.69094e+25 -1.45047 7.45771 271.88 
-9.31775e-06 4.06158e-06 2.69369e+25 -2.18615 7.45644 271.544 
-7.40642e-06 4.06158e-06 2.68863e+25 -3.01525 7.37095 272.02 
-5.49508e-06 4.06158e-06 2.68995e+25 -3.38561 6.78156 271.966 
-3.58375e-06 4.06158e-06 2.68617e+25 -3.98418 6.01431 272.307 
-1.67242e-06 4.06158e-06 2.68671e+25 -4.57053 4.63749 271.969 
-1.69631e-05 4.53942e-06 2.68089e+25 -0.0463685 0.506207 272.905 
-1.50517e-05 4.53942e-06 2.6896e+25 -0.589774 4.29748 272.043 
-1.31404e-05 4.53942e-06 2.69215e+25 -1.0695 6.80918 271.679 
-1.12291e-05 4.53942e-06 2.6912e+25 -1.37682 7.5397 271.728 
-9.31775e-06 4.53942e-06 2.69547e+25 -1.76431 7.75717 271.47 
-7.40642e-06 4.53942e-06 2.68959e+25 -2.59547 7.5008 271.918 
-5.49508e-06 4.53942e-06 2.68969e+25 -3.13113 6.96519 271.909 
-3.58375e-06 4.53942e-06 2.68592e+25 -3.62851 6.05112 272.244 
-1.67242e-06 4.53942e-06 2.68609e+25 -4.05988 4.81926 272.155 
-1.69631e-05 5.01725e-06 2.67942e+25 -0.0349087 0.590354 272.869 
-1.50517e-05 5.01725e-06 2.68872e+25 -0.61795 4.47672 272.136 
-1.31404e-05 5.01725e-06 2.69167e+25 -0.762468 6.84125 271.891 
-1.12291e-05 5.01725e-06 2.69368e+25 -1.45152 7.75191 271.678 
-9.31775e-06 5.01725e-06 2.69351e+25 -1.95322 7.97 271.626 
-7.40642e-06 5.01725e-06 2.69278e+25 -2.52203 7.714 271.668 
-5.49508e-06 5.01725e-06 2.68844e+25 -2.98827 7.14022 271.942 
-3.58375e-06 5.01725e-06 2.68645e+25 -3.34433 6.13195 272.081 
-1.67242e-06 5.01725e-06 2.68589e+25 -3.72879 4.97216 272.129 
-1.69631e-05 5.49508e-06 2.68469e+25 -0.00989248 0.643534 272.608 
-1.50517e-05 5.49508e-06 2.68847e+25 -0.593541 4.7461 272.19 
-1.31404e-05 5.49508e-06 2.69052e+25 -0.763307 6.7759 271.846 
-1.12291e-05 5.49508e-06 2.69254e+25 -1.37215 7.9345 271.658 
-9.31775e-06 5.49508e-06 2.6944e+25 -1.95645 8.00404 271.426 
-7.40642e-06 5.49508e-06 2.69483e+25 -2.43947 7.68885 271.509 
-5.49508e-06 5.49508e-06 2.68786e+25 -2.91601 7.25272 271.937 
-3.58375e-06 5.49508e-06 2.68846e+25 -2.90963 6.19755 271.974 
-1.67242e-06 5.49508e-06 2.68475e+25 -3.34171 5.18805 272.138 
-1.69631e-05 5.97292e-06 2.68581e+25 -0.0276203 0.686534 272.471 
-1.50517e-05 5.97292e-06 2.68822e+25 -0.399102 4.96546 272.112 
-1.31404e-05 5.97292e-06 2.6921e+25 -0.830815 6.73897 271.801 
-1.12291e-05 5.97292e-06 2.69413e+25 -1.39205 8.23283 271.515 
-9.31775e-06 5.97292e-06 2.69554e+25 -1.99878 8.19961 271.433 
-7.40642e-06 5.97292e-06 2.69474e+25 -2.58652 7.74213 271.323 
-5.49508e-06 5.97292e-06 2.68873e+25 -2.55013 7.27984 271.867 
-3.58375e-06 5.97292e-06 2.68907e+25 -2.60442 6.25005 271.983 
-1.67242e-06 5.97292e-06 2.68782e+25 -2.97868 5.27349 271.892 
-1.69631e-05 6.45075e-06 2.68128e+25 -0.00131598 0.724126 272.833 
-1.50517e-05 6.45075e-06 2.68797e+25 -0.283908 5.22363 272.106 
-1.31404e-05 6.45075e-06 2.69202e+25 -1.05784 6.80609 271.804 
-1.12291e-05 6.45075e-06 2.69569e+25 -1.13842 8.4926 271.335 
-9.31775e-06 6.45075e-06 2.69534e+25 -2.06399 8.4745 271.558 
-7.40642e-06 6.45075e-06 2.69386e+25 -2.42858 7.85787 271.531 
-5.49508e-06 6.45075e-06 2.68988e+25 -2.56191 7.27465 271.785 
-3.58375e-06 6.45075e-06 2.689e+25 -2.37533 6.30368 271.948 
-1.67242e-06 6.45075e-06 2.69022e+25 -2.4799 5.25187 271.741 
-1.69631e-05 6.92858e-06 2.68261e+25 -0.0114837 0.67897 272.825 
-1.50517e-05 6.92858e-06 2.68908e+25 -0.291866 5.33302 271.957 
-1.31404e-05 6.92858e-06 2.68864e+25 -0.974404 7.00973 271.977 
-1.12291e-05 6.92858e-06 2.69677e+25 -1.12391 8.61617 271.186 
-9.31775e-06 6.92858e-06 2.69132e+25 -1.83614 8.60444 271.691 
-7.40642e-06 6.92858e-06 2.69237e+25 -2.13971 7.79696 271.499 
-5.49508e-06 6.92858e-06 2.68759e+25 -2.05267 7.21337 271.951 
-3.58375e-06 6.92858e-06 2.68917e+25 -2.04232 6.44369 271.694 
-1.67242e-06 6.92858e-06 2.69076e+25 -2.29226 5.37729 271.584 
-1.69631e-05 7.40642e-06 2.68233e+25 0.0034646 0.729156 272.812 
-1.50517e-05 7.40642e-06 2.68933e+25 -0.334965 5.49449 272.117 
-1.31404e-05 7.40642e-06 2.692e+25 -0.960543 7.13991 271.839 
-1.12291e-05 7.40642e-06 2.69827e+25 -1.25044 8.5291 271.014 
-9.31775e-06 7.40642e-06 2.68961e+25 -1.70099 8.59156 271.893 
-7.40642e-06 7.40642e-06 2.69399e+25 -1.88385 7.98592 271.423 
-5.49508e-06 7.40642e-06 2.6903e+25 -1.78904 7.13845 271.69 
-3.58375e-06 7.40642e-06 2.68789e+25 -1.93475 6.48733 271.841 
-1.67242e-06 7.40642e-06 2.69238e+25 -1.67519 5.4835 271.58 
-1.69631e-05 7.88425e-06 2.68108e+25 0.00524975 0.777106 272.86 
-1.50517e-05 7.88425e-06 2.68785e+25 -0.447017 5.68338 272.09 
-1.31404e-05 7.88425e-06 2.69123e+25 -0.925217 7.29486 271.796 
-1.12291e-05 7.88425e-06 2.6939e+25 -1.31899 8.46966 271.408 
-9.31775e-06 7.88425e-06 2.6886e+25 -1.47765 8.69176 271.922 
-7.40642e-06 7.88425e-06 2.6921e+25 -1.62476 8.0802 271.717 
-5.49508e-06 7.88425e-06 2.689e+25 -1.46147 6.89008 271.775 
-3.58375e-06 7.88425e-06 2.68751e+25 -1.34741 6.432 271.988 
-1.67242e-06 7.88425e-06 2.69211e+25 -1.00696 5.39643 271.65 
-1.69631e-05 8.36208e-06 2.68173e+25 0.0153179 0.755924 272.774 
-1.50517e-05 8.36208e-06 2.6883e+25 -0.414864 5.79346 271.985 
-1.31404e-05 8.36208e-06 2.69003e+25 -0.99495 7.64566 271.97 
-1.12291e-05 8.36208e-06 2.69049e+25 -1.51082 8.49421 271.657 
-9.31775e-06 8.36208e-06 2.68852e+25 -1.52359 8.72734 271.882 
-7.40642e-06 8.36208e-06 2.68934e+25 -1.27585 7.99165 271.839 
-5.49508e-06 8.36208e-06 2.68836e+25 -1.2743 6.67902 271.818 
-3.58375e-06 8.36208e-06 2.68912e+25 -0.782691 6.52392 271.96 
-1.67242e-06 8.36208e-06 2.69072e+25 -0.543416 5.26809 271.68 
-1.69631e-05 8.83992e-06 2.68116e+25 0.0238657 0.704465 272.681 
-1.50517e-05 8.83992e-06 2.68512e+25 -0.36962 5.77074 272.214 
-1.31404e-05 8.83992e-06 2.68867e+25 -1.17847 7.8807 271.976 
-1.12291e-05 8.83992e-06 2.6909e+25 -1.71499 8.46435 271.743 
-9.31775e-06 8.83992e-06 2.69148e+25 -1.64914 8.66329 271.72 
-7.40642e-06 8.83992e-06 2.68775e+25 -1.22469 7.75825 272.006 
-5.49508e-06 8.83992e-06 2.68668e+25 -0.895664 6.62761 272.121 
-3.58375e-06 8.83992e-06 2.68939e+25 -0.101902 6.47744 271.943 
-1.67242e-06 8.83992e-06 2.69141e+25 0.364463 5.14989 271.688 
-1.69631e-05 9.31775e-06 2.68148e+25 -0.0223781 0.7 272.566 
-1.50517e-05 9.31775e-06 2.68403e+25 -0.493822 5.75166 272.173 
-1.31404e-05 9.31775e-06 2.69019e+25 -1.53801 8.08637 271.807 
-1.12291e-05 9.31775e-06 2.69177e+25 -1.85044 8.40423 271.547 
-9.31775e-06 9.31775e-06 2.68808e+25 -1.66381 8.62577 271.895 
-7.40642e-06 9.31775e-06 2.68812e+25 -1.31723 7.57213 271.97 
-5.49508e-06 9.31775e-06 2.68768e+25 -0.487482 6.58844 272.045 
-3.58375e-06 9.31775e-06 2.68896e+25 0.472202 6.23255 271.896 
-1.67242e-06 9.31775e-06 2.68902e+25 1.17638 5.05042 271.769 
-1.69631e-05 9.79558e-06 2.6819e+25 -0.0941874 0.831001 272.759 
-1.50517e-05 9.79558e-06 2.68712e+25 -0.68673 5.89377 272.052 
-1.31404e-05 9.79558e-06 2.68979e+25 -1.8712 8.45163 271.794 
-1.12291e-05 9.79558e-06 2.69301e+25 -2.45578 8.45916 271.486 
-9.31775e-06 9.79558e-06 2.68833e+25 -1.70879 8.48437 271.848 
-7.40642e-06 9.79558e-06 2.68754e+25 -1.11844 7.56531 272.165 
-5.49508e-06 9.79558e-06 2.68942e+25 -0.272851 6.28152 272.109 
-3.58375e-06 9.79558e-06 2.6906e+25 1.27817 5.86471 271.818 
-1.67242e-06 9.79558e-06 2.6907e+25 1.95295 4.82469 271.651 
-1.69631e-05 1.02734e-05 2.67842e+25 -0.0501138 1.02103 272.883 
-1.50517e-05 1.02734e-05 2.68656e+25 -0.996991 6.11402 272.039 
-1.31404e-05 1.02734e-05 2.69044e+25 -2.05435 8.6887 271.682 
-1.12291e-05 1.02734e-05 2.69067e+25 -2.47632 8.53035 271.648 
-9.31775e-06 1.02734e-05 2.69011e+25 -1.66663 8.33139 271.883 
-7.40642e-06 1.02734e-05 2.68634e+25 -1.19983 7.5833 272.156 
-5.49508e-06 1.02734e-05 2.68825e+25 0.122252 5.77526 272.097 
-3.58375e-06 1.02734e-05 2.68876e+25 1.7667 5.52585 271.846 
-1.67242e-06 1.02734e-05 2.68839e+25 2.78266 4.60695 271.903 
-1.69631e-05 1.07512e-05 2.68048e+25 -0.0551653 1.16853 272.783 
-1.50517e-05 1.07512e-05 2.68832e+25 -1.02061 6.35135 271.89 
-1.31404e-05 1.07512e-05 2.69052e+25 -1.98504 8.9137 271.812 
-1.12291e-05 1.07512e-05 2.69019e+25 -2.19353 8.42949 271.648 
-9.31775e-06 1.07512e-05 2.69113e+25 -1.52685 8.15222 271.737 
-7.40642e-06 1.07512e-05 2.68364e+25 -0.638312 7.46712 272.341 
-5.49508e-06 1.07512e-05 2.68819e+25 0.728234 5.43857 272.052 
-3.58375e-06 1.07512e-05 2.68907e+25 2.27237 5.29682 271.879 
-1.67242e-06 1.07512e-05 2.68858e+25 3.66954 4.38729 271.895 
-1.69631e-05 1.12291e-05 2.68019e+25 0.00809106 1.21255 272.759 
-1.50517e-05 1.12291e-05 2.6888e+25 -1.34882 6.65469 271.88 
-1.31404e-05 1.12291e-05 2.68758e+25 -2.063 9.02959 272.065 
-1.12291e-05 1.12291e-05 2.69265e+25 -2.11861 8.38715 271.6 
-9.31775e-06 1.12291e-05 2.6931e+25 -1.08338 7.68499 271.536 
-7.40642e-06 1.12291e-05 2.68671e+25 0.247234 7.15186 272.208 
-5.49508e-06 1.12291e-05 2.68882e+25 1.61064 5.12243 271.87 
-3.58375e-06 1.12291e-05 2.68889e+25 3.0988 4.8622 271.936 
-1.67242e-06 1.12291e-05 2.68761e+25 4.66231 4.09482 271.867 
-1.69631e-05 1.17069e-05 2.67815e+25 -0.0592287 1.30731 272.835 
-1.50517e-05 1.17069e-05 2.68648e+25 -1.50109 7.06821 272.12 
-1.31404e-05 1.17069e-05 2.68464e+25 -2.30357 9.05702 272.229 
-1.12291e-05 1.17069e-05 2.69252e+25 -2.23238 8.34333 271.524 
-9.31775e-06 1.17069e-05 2.69065e+25 -0.835655 7.30414 271.746 
-7.40642e-06 1.17069e-05 2.68828e+25 1.13111 6.75769 272.204 
-5.49508e-06 1.17069e-05 2.68896e+25 2.71185 5.05249 271.973 
-3.58375e-06 1.17069e-05 2.689e+25 4.01124 4.37559 271.98 
-1.67242e-06 1.17069e-05 2.68916e+25 5.69442 3.65987 271.839 
-1.69631e-05 1.21847e-05 2.6775e+25 -0.0445226 1.42179 273.068 
-1.50517e-05 1.21847e-05 2.68632e+25 -1.72218 7.57514 272.065 
-1.31404e-05 1.21847e-05 2.68423e+25 -2.795 9.0547 272.277 
-1.12291e-05 1.21847e-05 2.69e+25 -2.04439 8.18243 271.629 
-9.31775e-06 1.21847e-05 2.69259e+25 -0.558677 6.86108 271.598 
-7.40642e-06 1.21847e-05 2.68778e+25 1.78814 6.0586 272.131 
-5.49508e-06 1.21847e-05 2.68768e+25 3.80247 4.72528 272.106 
-3.58375e-06 1.21847e-05 2.68805e+25 5.17811 3.88548 272.137 
-1.67242e-06 1.21847e-05 2.68907e+25 7.07821 3.20193 271.904 
-1.69631e-05 1.26626e-05 2.67955e+25 -0.0843516 1.56603 272.806 
-1.50517e-05 1.26626e-05 2.68077e+25 -2.07288 8.05673 272.417 
-1.31404e-05 1.26626e-05 2.68571e+25 -2.8444 9.0556 272.087 
-1.12291e-05 1.26626e-05 2.68895e+25 -1.57266 7.84659 271.758 
-9.31775e-06 1.26626e-05 2.69027e+25 0.217767 6.39802 271.818 
-7.40642e-06 1.26626e-05 2.68668e+25 2.71839 5.4206 272.223 
-5.49508e-06 1.26626e-05 2.68743e+25 5.12115 4.21424 272.171 
-3.58375e-06 1.26626e-05 2.6877e+25 6.63922 3.47276 272.136 
-1.67242e-06 1.26626e-05 2.68739e+25 8.62544 2.77574 272.045 
-1.69631e-05 1.31404e-05 2.67946e+25 -0.0563271 1.79383 272.638 
-1.50517e-05 1.31404e-05 2.6813e+25 -2.52152 8.65702 272.195 
-1.31404e-05 1.31404e-05 2.68512e+25 -2.96358 8.87938 271.949 
-1.12291e-05 1.31404e-05 2.68764e+25 -1.20998 7.4749 271.964 
-9.31775e-06 1.31404e-05 2.69246e+25 1.49287 5.7577 271.777 
-7.40642e-06 1.31404e-05 2.68474e+25 4.22559 4.87675 272.205 
-5.49508e-06 1.31404e-05 2.68634e+25 6.44536 3.59522 272.312 
-3.58375e-06 1.31404e-05 2.68749e+25 8.62657 2.91802 272.046 
-1.67242e-06 1.31404e-05 2.68608e+25 10.6749 2.37638 272.166 
-1.69631e-05 1.36182e-05 2.67807e+25 -0.192746 2.0729 272.651 
-1.50517e-05 1.36182e-05 2.68139e+25 -3.17899 9.22888 272.126 
-1.31404e-05 1.36182e-05 2.68551e+25 -2.63233 8.39696 272.106 
-1.12291e-05 1.36182e-05 2.68717e+25 -0.10782 6.79188 272.097 
-9.31775e-06 1.36182e-05 2.69002e+25 2.95034 5.08925 271.809 
-7.40642e-06 1.36182e-05 2.6901e+25 5.88654 4.3272 271.965 
-5.49508e-06 1.36182e-05 2.68793e+25 8.4685 2.97683 272.294 
-3.58375e-06 1.36182e-05 2.68675e+25 10.8335 2.42356 272.32 
-1.67242e-06 1.36182e-05 2.68514e+25 12.2587 1.80335 272.263 
-1.69631e-05 1.40961e-05 2.67292e+25 -0.281074 2.62484 272.914 
-1.50517e-05 1.40961e-05 2.67792e+25 -3.21284 9.54064 272.351 
-1.31404e-05 1.40961e-05 2.68739e+25 -1.87214 7.76445 271.807 
-1.12291e-05 1.40961e-05 2.68606e+25 1.33094 5.89763 272.149 
-9.31775e-06 1.40961e-05 2.68878e+25 4.76166 4.2361 271.982 
-7.40642e-06 1.40961e-05 2.69051e+25 8.02067 3.68945 271.954 
-5.49508e-06 1.40961e-05 2.68746e+25 10.7531 2.42324 272.391 
-3.58375e-06 1.40961e-05 2.6845e+25 12.9742 1.94531 272.412 
-1.67242e-06 1.40961e-05 2.68523e+25 14.4738 1.50368 272.368 
-1.69631e-05 1.45739e-05 2.67061e+25 -0.312374 3.2739 272.865 
-1.50517e-05 1.45739e-05 2.67725e+25 -3.19351 9.68734 272.486 
-1.31404e-05 1.45739e-05 2.68635e+25 -0.534811 6.85484 271.999 
-1.12291e-05 1.45739e-05 2.6861e+25 3.68052 4.70573 272.211 
-9.31775e-06 1.45739e-05 2.68814e+25 7.2433 3.48672 272.024 
-7.40642e-06 1.45739e-05 2.68864e+25 10.7997 2.98484 272.043 
-5.49508e-06 1.45739e-05 2.68605e+25 13.2879 1.80859 272.276 
-3.58375e-06 1.45739e-05 2.68264e+25 15.5341 1.56477 272.487 
-1.67242e-06 1.45739e-05 2.68308e+25 17.0324 1.30531 272.427 
-1.69631e-05 1.50518e-05 2.66668e+25 -0.412568 4.19197 273.027 
-1.50517e-05 1.50518e-05 2.67421e+25 -2.83287 9.39775 272.521 
-1.31404e-05 1.50518e-05 2.68657e+25 1.83552 5.67959 272.13 
-1.12291e-05 1.50518e-05 2.685e+25 6.95832 3.64899 272.284 
-9.31775e-06 1.50518e-05 2.68608e+25 10.795 2.67104 272.298 
-7.40642e-06 1.50518e-05 2.68795e+25 13.8785 2.2745 272.261 
-5.49508e-06 1.50518e-05 2.68465e+25 16.2596 1.16353 272.42 
-3.58375e-06 1.50518e-05 2.68111e+25 18.3109 1.0893 272.583 
-1.67242e-06 1.50518e-05 2.68492e+25 19.8208 1.1274 272.421 
-1.69631e-05 1.55296e-05 2.65933e+25 -0.669896 5.45852 272.911 
-1.50517e-05 1.55296e-05 2.67336e+25 -0.956774 8.31531 272.549 
-1.31404e-05 1.55296e-05 2.6815e+25 5.78934 4.05854 272.553 
-1.12291e-05 1.55296e-05 2.68042e+25 11.3573 2.63144 272.79 
-9.31775e-06 1.55296e-05 2.6873e+25 15.0874 1.6538 272.348 
-7.40642e-06 1.55296e-05 2.68676e+25 17.9833 1.57206 272.351 
-5.49508e-06 1.55296e-05 2.68346e+25 20.033 0.725642 272.497 
-3.58375e-06 1.55296e-05 2.68428e+25 21.5409 0.583638 272.523 
-1.67242e-06 1.55296e-05 2.68514e+25 23.0283 0.848758 272.485 
-1.69631e-05 1.60074e-05 2.64716e+25 -0.824767 7.03958 273.06 
-1.50517e-05 1.60074e-05 2.67417e+25 3.65163 6.25483 272.614 
-1.31404e-05 1.60074e-05 2.6805e+25 11.7456 2.39835 272.699 
-1.12291e-05 1.60074e-05 2.67789e+25 16.7452 1.61714 273.12 
-9.31775e-06 1.60074e-05 2.68364e+25 20.1316 0.869276 272.592 
-7.40642e-06 1.60074e-05 2.68424e+25 22.3183 0.969232 272.511 
-5.49508e-06 1.60074e-05 2.68337e+25 24.1171 0.374105 272.619 
-3.58375e-06 1.60074e-05 2.68391e+25 25.3743 0.350238 272.582 
-1.67242e-06 1.60074e-05 2.68511e+25 26.3353 0.528969 272.534 
-1.69631e-05 1.64852e-05 2.62556e+25 -0.361257 8.49472 273.045 
-1.50517e-05 1.64852e-05 2.67195e+25 11.8322 3.50283 272.885 
-1.31404e-05 1.64852e-05 2.68073e+25 19.6212 1.03767 272.69 
-1.12291e-05 1.64852e-05 2.6812e+25 23.3854 0.655735 272.906 
-9.31775e-06 1.64852e-05 2.68252e+25 25.7848 0.291556 272.702 
-7.40642e-06 1.64852e-05 2.6807e+25 27.2239 0.386386 272.89 
-5.49508e-06 1.64852e-05 2.68087e+25 28.3758 0.107323 272.87 
-3.58375e-06 1.64852e-05 2.68252e+25 28.8015 0.219814 272.806 
-1.67242e-06 1.64852e-05 2.68475e+25 29.8037 0.322243 272.584 
-1.69631e-05 1.69631e-05 2.55312e+25 4.00517 6.17185 273.178 
-1.50517e-05 1.69631e-05 2.67129e+25 24.3601 0.838106 273.183 
-1.31404e-05 1.69631e-05 2.67916e+25 28.6382 0.181358 273.142 
-1.12291e-05 1.69631e-05 2.67989e+25 30.4492 0.130075 273.053 
-9.31775e-06 1.69631e-05 2.68388e+25 31.1562 0.0043221 272.851 
-7.40642e-06 1.69631e-05 2.68181e+25 31.6852 0.0634149 272.956 
-5.49508e-06 1.69631e-05 2.67858e+25 32.2428 -0.0115521 273.052 
-3.58375e-06 1.69631e-05 2.68041e+25 32.3824 -0.0019577 272.965 
-1.67242e-06 1.69631e-05 2.68362e+25 32.6746 0.0567239 272.688 
-1.60074e-05 2.38917e-07 2.68494e+25 -0.10628 2.14309 272.248 
-1.40961e-05 2.38917e-07 2.68855e+25 -0.320028 3.95362 271.996 
-1.21847e-05 2.38917e-07 2.68647e+25 -1.34131 5.14154 272.17 
-1.02734e-05 2.38917e-07 2.69258e+25 -2.50912 5.72396 271.576 
-8.36208e-06 2.38917e-07 2.69206e+25 -3.51113 5.99784 271.72 
-6.45075e-06 2.38917e-07 2.68937e+25 -4.09129 5.77187 271.89 
-4.53942e-06 2.38917e-07 2.68942e+25 -5.2955 4.82025 271.815 
-2.62808e-06 2.38917e-07 2.6883e+25 -6.61445 3.89478 272.044 
-7.1675e-07 2.38917e-07 2.68673e+25 -7.32368 2.71024 272.223 
-1.60074e-05 7.1675e-07 2.68886e+25 -0.0778204 2.21779 272.238 
-1.40961e-05 7.1675e-07 2.69052e+25 -0.340321 4.1037 272.005 
-1.21847e-05 7.1675e-07 2.68963e+25 -1.38309 5.61521 271.965 
-1.02734e-05 7.1675e-07 2.69298e+25 -2.84922 5.93366 271.511 
-8.36208e-06 7.1675e-07 2.6918e+25 -3.31894 6.318 271.676 
-6.45075e-06 7.1675e-07 2.6923e+25 -4.15449 6.05154 271.809 
-4.53942e-06 7.1675e-07 2.69048e+25 -5.07476 5.13087 271.795 
-2.62808e-06 7.1675e-07 2.68877e+25 -6.35677 4.31748 272.026 
-7.1675e-07 7.1675e-07 2.68823e+25 -7.07089 2.92966 272.194 
-1.60074e-05 1.19458e-06 2.68971e+25 -0.201261 2.41767 272.101 
-1.40961e-05 1.19458e-06 2.68962e+25 -0.351142 4.23532 272.09 
-1.21847e-05 1.19458e-06 2.69361e+25 -1.6066 5.9563 271.717 
-1.02734e-05 1.19458e-06 2.69513e+25 -2.66704 6.31008 271.486 
-8.36208e-06 1.19458e-06 2.69319e+25 -3.09501 6.5913 271.757 
-6.45075e-06 1.19458e-06 2.69363e+25 -3.87004 6.28005 271.617 
-4.53942e-06 1.19458e-06 2.69334e+25 -4.86864 5.47259 271.716 
-2.62808e-06 1.19458e-06 2.68995e+25 -6.02994 4.67177 271.969 
-7.1675e-07 1.19458e-06 2.68832e+25 -6.73277 3.08031 272.171 
-1.60074e-05 1.67242e-06 2.68723e+25 0.167344 2.32919 272.258 
-1.40961e-05 1.67242e-06 2.68969e+25 -0.570138 4.32913 272.084 
-1.21847e-05 1.67242e-06 2.69308e+25 -1.43525 6.25237 271.71 
-1.02734e-05 1.67242e-06 2.69398e+25 -2.64184 6.53562 271.549 
-8.36208e-06 1.67242e-06 2.69336e+25 -3.20926 6.58307 271.522 
-6.45075e-06 1.67242e-06 2.69338e+25 -3.83225 6.43737 271.561 
-4.53942e-06 1.67242e-06 2.69174e+25 -4.68413 5.72832 271.764 
-2.62808e-06 1.67242e-06 2.6873e+25 -5.69197 4.88599 272.094 
-7.1675e-07 1.67242e-06 2.68726e+25 -6.30761 3.10689 272.221 
-1.60074e-05 2.15025e-06 2.6865e+25 0.340034 2.24615 272.435 
-1.40961e-05 2.15025e-06 2.68876e+25 -0.454657 4.67028 272.14 
-1.21847e-05 2.15025e-06 2.69617e+25 -1.39183 6.44069 271.366 
-1.02734e-05 2.15025e-06 2.69287e+25 -2.54147 6.81541 271.637 
-8.36208e-06 2.15025e-06 2.69531e+25 -3.44409 6.58436 271.574 
-6.45075e-06 2.15025e-06 2.69504e+25 -3.99998 6.572 271.548 
-4.53942e-06 2.15025e-06 2.69099e+25 -4.48854 5.97044 271.761 
-2.62808e-06 2.15025e-06 2.68724e+25 -5.5343 5.07877 272.163 
-7.1675e-07 2.15025e-06 2.68591e+25 -5.8723 3.16936 272.306 
-1.60074e-05 2.62808e-06 2.68802e+25 0.0893033 2.32321 272.279 
-1.40961e-05 2.62808e-06 2.6913e+25 -0.490827 5.03085 272.054 
-1.21847e-05 2.62808e-06 2.69663e+25 -1.50339 6.6478 271.338 
-1.02734e-05 2.62808e-06 2.69381e+25 -2.37978 7.16173 271.531 
-8.36208e-06 2.62808e-06 2.69488e+25 -3.31147 6.70784 271.536 
-6.45075e-06 2.62808e-06 2.69304e+25 -4.01909 6.65451 271.671 
-4.53942e-06 2.62808e-06 2.68983e+25 -4.36676 6.15457 271.914 
-2.62808e-06 2.62808e-06 2.68818e+25 -5.1046 5.20439 272.202 
-7.1675e-07 2.62808e-06 2.68626e+25 -5.6315 3.3327 272.265 
-1.60074e-05 3.10592e-06 2.69028e+25 -0.10653 2.31115 272.099 
-1.40961e-05 3.10592e-06 2.69155e+25 -0.517881 5.32607 271.718 
-1.21847e-05 3.10592e-06 2.69592e+25 -1.61406 6.8575 271.522 
-1.02734e-05 3.10592e-06 2.69384e+25 -2.24301 7.35462 271.582 
-8.36208e-06 3.10592e-06 2.69403e+25 -3.1188 6.99564 271.508 
-6.45075e-06 3.10592e-06 2.69098e+25 -3.82327 6.71812 271.816 
-4.53942e-06 3.10592e-06 2.69013e+25 -4.4477 6.34473 271.927 
-2.62808e-06 3.10592e-06 2.68569e+25 -4.75871 5.24325 272.263 
-7.1675e-07 3.10592e-06 2.68518e+25 -5.43684 3.71515 272.372 
-1.60074e-05 3.58375e-06 2.68771e+25 -0.198502 2.38212 272.155 
-1.40961e-05 3.58375e-06 2.69188e+25 -0.432815 5.43859 271.72 
-1.21847e-05 3.58375e-06 2.69426e+25 -1.50608 7.11986 271.52 
-1.02734e-05 3.58375e-06 2.69417e+25 -1.94427 7.54928 271.501 
-8.36208e-06 3.58375e-06 2.69475e+25 -2.84685 7.28425 271.506 
-6.45075e-06 3.58375e-06 2.6883e+25 -3.63002 7.01287 271.983 
-4.53942e-06 3.58375e-06 2.68892e+25 -4.1553 6.52699 271.972 
-2.62808e-06 3.58375e-06 2.68435e+25 -4.45243 5.43964 272.216 
-7.1675e-07 3.58375e-06 2.68459e+25 -5.12708 3.86167 272.315 
-1.60074e-05 4.06158e-06 2.69027e+25 -0.149686 2.54603 271.958 
-1.40961e-05 4.06158e-06 2.69361e+25 -0.625195 5.67717 271.658 
-1.21847e-05 4.06158e-06 2.69341e+25 -1.44907 7.35588 271.511 
-1.02734e-05 4.06158e-06 2.69279e+25 -1.47532 7.75679 271.533 
-8.36208e-06 4.06158e-06 2.69395e+25 -2.58571 7.43613 271.51 
-6.45075e-06 4.06158e-06 2.69085e+25 -3.27278 7.11624 271.926 
-4.53942e-06 4.06158e-06 2.68868e+25 -3.80588 6.59594 272.122 
-2.62808e-06 4.06158e-06 2.68671e+25 -4.14721 5.55407 272.212 
-7.1675e-07 4.06158e-06 2.68389e+25 -4.71349 3.96709 272.506 
-1.60074e-05 4.53942e-06 2.68917e+25 -0.301168 2.57974 272.114 
-1.40961e-05 4.53942e-06 2.68964e+25 -0.997263 5.94807 271.795 
-1.21847e-05 4.53942e-06 2.69359e+25 -1.08515 7.42986 271.658 
-1.02734e-05 4.53942e-06 2.69288e+25 -1.61023 7.82532 271.555 
-8.36208e-06 4.53942e-06 2.69669e+25 -2.3622 7.55703 271.277 
-6.45075e-06 4.53942e-06 2.69135e+25 -2.85617 7.29989 271.782 
-4.53942e-06 4.53942e-06 2.68532e+25 -3.40313 6.65766 272.38 
-2.62808e-06 4.53942e-06 2.68546e+25 -3.75438 5.69266 272.248 
-7.1675e-07 4.53942e-06 2.68363e+25 -4.25971 4.09905 272.42 
-1.60074e-05 5.01725e-06 2.69126e+25 -0.0734528 2.64651 271.906 
-1.40961e-05 5.01725e-06 2.69119e+25 -0.735699 6.00478 271.844 
-1.21847e-05 5.01725e-06 2.6923e+25 -0.887043 7.55527 271.775 
-1.02734e-05 5.01725e-06 2.69196e+25 -1.73325 7.91433 271.493 
-8.36208e-06 5.01725e-06 2.69259e+25 -2.07548 7.84314 271.561 
-6.45075e-06 5.01725e-06 2.68972e+25 -2.74093 7.3241 271.887 
-4.53942e-06 5.01725e-06 2.68857e+25 -3.2603 6.72974 272.19 
-2.62808e-06 5.01725e-06 2.68683e+25 -3.53458 5.84924 272.187 
-7.1675e-07 5.01725e-06 2.68645e+25 -4.02076 4.21019 272.153 
-1.60074e-05 5.49508e-06 2.69006e+25 -0.0529967 2.76842 271.997 
-1.40961e-05 5.49508e-06 2.68886e+25 -0.747021 5.98528 271.952 
-1.21847e-05 5.49508e-06 2.69305e+25 -0.883107 7.75034 271.608 
-1.02734e-05 5.49508e-06 2.69351e+25 -1.77794 8.14088 271.541 
-8.36208e-06 5.49508e-06 2.69464e+25 -2.23258 8.05876 271.373 
-6.45075e-06 5.49508e-06 2.69088e+25 -2.64901 7.46156 271.846 
-4.53942e-06 5.49508e-06 2.69016e+25 -3.03812 6.84014 271.938 
-2.62808e-06 5.49508e-06 2.688e+25 -3.08282 5.84156 272.062 
-7.1675e-07 5.49508e-06 2.68693e+25 -3.79677 4.37118 271.914 
-1.60074e-05 5.97292e-06 2.68963e+25 -0.216146 2.77936 272.114 
-1.40961e-05 5.97292e-06 2.68739e+25 -0.772318 6.145 272.069 
-1.21847e-05 5.97292e-06 2.68989e+25 -0.898976 7.98819 271.754 
-1.02734e-05 5.97292e-06 2.69411e+25 -1.77528 8.14139 271.542 
-8.36208e-06 5.97292e-06 2.69376e+25 -2.49499 8.20013 271.534 
-6.45075e-06 5.97292e-06 2.69189e+25 -2.5656 7.51609 271.543 
-4.53942e-06 5.97292e-06 2.69109e+25 -2.74183 6.79303 271.835 
-2.62808e-06 5.97292e-06 2.6894e+25 -2.86058 5.9536 271.879 
-7.1675e-07 5.97292e-06 2.68638e+25 -3.19523 4.58814 272.144 
-1.60074e-05 6.45075e-06 2.68797e+25 -0.0940066 2.79629 272.152 
-1.40961e-05 6.45075e-06 2.68887e+25 -0.791689 6.26727 271.902 
-1.21847e-05 6.45075e-06 2.69225e+25 -1.04055 7.9586 271.727 
-1.02734e-05 6.45075e-06 2.69488e+25 -1.68054 8.20492 271.365 
-8.36208e-06 6.45075e-06 2.69634e+25 -2.38894 8.19454 271.512 
-6.45075e-06 6.45075e-06 2.69322e+25 -2.48744 7.49099 271.598 
-4.53942e-06 6.45075e-06 2.69033e+25 -2.36182 6.7181 271.791 
-2.62808e-06 6.45075e-06 2.69041e+25 -2.5376 5.96272 271.814 
-7.1675e-07 6.45075e-06 2.68593e+25 -2.54039 4.69478 272.084 
-1.60074e-05 6.92858e-06 2.68573e+25 -0.105606 3.00366 272.386 
-1.40961e-05 6.92858e-06 2.69172e+25 -0.680274 6.34492 271.798 
-1.21847e-05 6.92858e-06 2.6917e+25 -1.14625 7.89809 271.691 
-1.02734e-05 6.92858e-06 2.69327e+25 -1.4198 8.5053 271.477 
-8.36208e-06 6.92858e-06 2.69085e+25 -1.88238 8.30573 271.644 
-6.45075e-06 6.92858e-06 2.68943e+25 -2.13323 7.49404 271.799 
-4.53942e-06 6.92858e-06 2.69022e+25 -1.93573 6.68254 271.894 
-2.62808e-06 6.92858e-06 2.69102e+25 -2.03179 6.05948 271.811 
-7.1675e-07 6.92858e-06 2.68646e+25 -2.37272 4.75619 271.963 
-1.60074e-05 7.40642e-06 2.68726e+25 -0.114841 3.1136 272.201 
-1.40961e-05 7.40642e-06 2.6906e+25 -0.532719 6.44575 271.795 
-1.21847e-05 7.40642e-06 2.69292e+25 -1.22101 7.98515 271.478 
-1.02734e-05 7.40642e-06 2.69407e+25 -1.28119 8.74648 271.588 
-8.36208e-06 7.40642e-06 2.6914e+25 -1.79418 8.47433 271.692 
-6.45075e-06 7.40642e-06 2.69077e+25 -1.92896 7.52837 271.617 
-4.53942e-06 7.40642e-06 2.6887e+25 -1.67132 6.80855 272.044 
-2.62808e-06 7.40642e-06 2.68921e+25 -1.62053 6.08582 271.918 
-7.1675e-07 7.40642e-06 2.6871e+25 -1.7273 4.67111 271.888 
-1.60074e-05 7.88425e-06 2.68515e+25 -0.0718435 3.09478 272.316 
-1.40961e-05 7.88425e-06 2.69168e+25 -0.556247 6.61488 271.68 
-1.21847e-05 7.88425e-06 2.69394e+25 -1.15592 8.16646 271.397 
-1.02734e-05 7.88425e-06 2.69057e+25 -1.43055 8.86665 271.8 
-8.36208e-06 7.88425e-06 2.6887e+25 -1.61303 8.49303 271.849 
-6.45075e-06 7.88425e-06 2.69237e+25 -1.66988 7.41541 271.67 
-4.53942e-06 7.88425e-06 2.68827e+25 -1.34202 6.89114 271.953 
-2.62808e-06 7.88425e-06 2.69011e+25 -1.24907 5.93332 271.83 
-7.1675e-07 7.88425e-06 2.68662e+25 -0.962508 4.50372 271.881 
-1.60074e-05 8.36208e-06 2.68576e+25 -0.159091 3.23822 272.159 
-1.40961e-05 8.36208e-06 2.68903e+25 -0.396734 6.73058 271.802 
-1.21847e-05 8.36208e-06 2.69437e+25 -1.65464 8.10731 271.386 
-1.02734e-05 8.36208e-06 2.69168e+25 -1.46117 8.92967 271.803 
-8.36208e-06 8.36208e-06 2.68755e+25 -1.48817 8.46538 271.924 
-6.45075e-06 8.36208e-06 2.68957e+25 -1.24095 7.54778 271.838 
-4.53942e-06 8.36208e-06 2.69136e+25 -0.959696 6.66273 271.809 
-2.62808e-06 8.36208e-06 2.68797e+25 -0.795418 5.82964 271.857 
-7.1675e-07 8.36208e-06 2.68788e+25 -0.222198 4.51434 272.045 
-1.60074e-05 8.83992e-06 2.68444e+25 -0.174757 3.49194 272.321 
-1.40961e-05 8.83992e-06 2.68773e+25 -0.633853 6.84958 272.032 
-1.21847e-05 8.83992e-06 2.69203e+25 -1.66548 8.29314 271.606 
-1.02734e-05 8.83992e-06 2.69061e+25 -1.7716 8.86277 271.77 
-8.36208e-06 8.83992e-06 2.6872e+25 -1.47827 8.49373 271.97 
-6.45075e-06 8.83992e-06 2.68609e+25 -1.0737 7.64046 272.125 
-4.53942e-06 8.83992e-06 2.68803e+25 -0.429845 6.41126 272.046 
-2.62808e-06 8.83992e-06 2.68665e+25 0.0969208 5.75398 272.011 
-7.1675e-07 8.83992e-06 2.68776e+25 0.639009 4.40858 272.095 
-1.60074e-05 9.31775e-06 2.6879e+25 -0.396892 3.67376 272.249 
-1.40961e-05 9.31775e-06 2.68591e+25 -0.942197 7.11202 272.032 
-1.21847e-05 9.31775e-06 2.69101e+25 -1.90517 8.5023 271.671 
-1.02734e-05 9.31775e-06 2.69082e+25 -1.92894 8.8207 271.822 
-8.36208e-06 9.31775e-06 2.68818e+25 -1.54153 8.40412 272.062 
-6.45075e-06 9.31775e-06 2.68679e+25 -0.928679 7.42841 272.177 
-4.53942e-06 9.31775e-06 2.68964e+25 0.118986 6.18725 271.81 
-2.62808e-06 9.31775e-06 2.68702e+25 0.928911 5.63125 271.891 
-7.1675e-07 9.31775e-06 2.68698e+25 1.46891 4.25182 272.15 
-1.60074e-05 9.79558e-06 2.68687e+25 -0.36744 3.7795 272.192 
-1.40961e-05 9.79558e-06 2.6854e+25 -1.20398 7.48924 272.1 
-1.21847e-05 9.79558e-06 2.68987e+25 -2.13851 8.54107 271.765 
-1.02734e-05 9.79558e-06 2.69214e+25 -2.19328 8.65689 271.578 
-8.36208e-06 9.79558e-06 2.68734e+25 -1.40463 8.34092 272.027 
-6.45075e-06 9.79558e-06 2.68734e+25 -1.14178 7.0991 272.007 
-4.53942e-06 9.79558e-06 2.68992e+25 0.501574 5.87966 271.886 
-2.62808e-06 9.79558e-06 2.68827e+25 1.71416 5.52853 271.918 
-7.1675e-07 9.79558e-06 2.68781e+25 2.13733 4.13633 271.868 
-1.60074e-05 1.02734e-05 2.68652e+25 -0.427795 3.92319 272.173 
-1.40961e-05 1.02734e-05 2.68707e+25 -1.63437 7.8545 272.055 
-1.21847e-05 1.02734e-05 2.69239e+25 -2.38903 8.56111 271.602 
-1.02734e-05 1.02734e-05 2.69047e+25 -2.12935 8.29874 271.749 
-8.36208e-06 1.02734e-05 2.68648e+25 -1.14585 8.03071 272.173 
-6.45075e-06 1.02734e-05 2.68924e+25 -0.649424 6.87787 271.902 
-4.53942e-06 1.02734e-05 2.6907e+25 0.874859 5.51305 271.765 
-2.62808e-06 1.02734e-05 2.68781e+25 2.22937 5.32827 271.854 
-7.1675e-07 1.02734e-05 2.68783e+25 3.28653 3.93423 271.943 
-1.60074e-05 1.07512e-05 2.68346e+25 -0.499291 4.16276 272.267 
-1.40961e-05 1.07512e-05 2.68887e+25 -1.5353 8.21035 271.848 
-1.21847e-05 1.07512e-05 2.69052e+25 -2.21985 8.67548 271.744 
-1.02734e-05 1.07512e-05 2.69317e+25 -1.90134 8.10876 271.529 
-8.36208e-06 1.07512e-05 2.68927e+25 -0.931393 7.85887 272.042 
-6.45075e-06 1.07512e-05 2.68846e+25 0.168558 6.54159 271.982 
-4.53942e-06 1.07512e-05 2.69011e+25 1.55351 5.15125 271.819 
-2.62808e-06 1.07512e-05 2.68892e+25 3.14242 5.07689 271.861 
-7.1675e-07 1.07512e-05 2.6863e+25 4.26473 3.74028 272.095 
-1.60074e-05 1.12291e-05 2.68493e+25 -0.546634 4.55839 272.182 
-1.40961e-05 1.12291e-05 2.68484e+25 -1.90931 8.37078 271.994 
-1.21847e-05 1.12291e-05 2.69039e+25 -2.18095 8.70813 271.7 
-1.02734e-05 1.12291e-05 2.69434e+25 -1.80362 8.03253 271.366 
-8.36208e-06 1.12291e-05 2.68888e+25 -0.50404 7.5722 271.975 
-6.45075e-06 1.12291e-05 2.68959e+25 1.06165 6.10429 272.089 
-4.53942e-06 1.12291e-05 2.68845e+25 2.28071 4.74315 271.889 
-2.62808e-06 1.12291e-05 2.68677e+25 3.8283 4.71441 271.986 
-7.1675e-07 1.12291e-05 2.68426e+25 5.10719 3.56338 272.113 
-1.60074e-05 1.17069e-05 2.68223e+25 -0.616017 4.96412 272.361 
-1.40961e-05 1.17069e-05 2.68393e+25 -2.19001 8.469 272.223 
-1.21847e-05 1.17069e-05 2.6883e+25 -2.23962 8.71379 271.887 
-1.02734e-05 1.17069e-05 2.69262e+25 -1.65718 7.63388 271.585 
-8.36208e-06 1.17069e-05 2.68728e+25 -0.0345595 7.19457 271.948 
-6.45075e-06 1.17069e-05 2.6879e+25 2.04591 5.71525 272.054 
-4.53942e-06 1.17069e-05 2.68693e+25 3.22742 4.44207 271.96 
-2.62808e-06 1.17069e-05 2.68724e+25 4.93084 4.32346 271.919 
-7.1675e-07 1.17069e-05 2.68871e+25 6.34114 3.33751 271.97 
-1.60074e-05 1.21847e-05 2.68037e+25 -0.635412 5.40285 272.501 
-1.40961e-05 1.21847e-05 2.68633e+25 -2.31215 8.72587 272.01 
-1.21847e-05 1.21847e-05 2.68814e+25 -2.40789 8.55127 271.93 
-1.02734e-05 1.21847e-05 2.69277e+25 -1.37463 7.18343 271.675 
-8.36208e-06 1.21847e-05 2.69077e+25 0.458309 6.59087 271.96 
-6.45075e-06 1.21847e-05 2.68904e+25 2.87401 5.29543 271.92 
-4.53942e-06 1.21847e-05 2.69021e+25 4.27461 4.08531 271.878 
-2.62808e-06 1.21847e-05 2.68845e+25 6.04551 3.82573 272.064 
-7.1675e-07 1.21847e-05 2.6864e+25 7.85129 2.98966 271.999 
-1.60074e-05 1.26626e-05 2.68109e+25 -0.874558 5.88689 272.448 
-1.40961e-05 1.26626e-05 2.68462e+25 -2.54821 8.96785 272.239 
-1.21847e-05 1.26626e-05 2.68834e+25 -2.38099 8.25808 271.912 
-1.02734e-05 1.26626e-05 2.68742e+25 -0.812734 6.65808 271.957 
-8.36208e-06 1.26626e-05 2.68611e+25 1.5072 6.06783 272.15 
-6.45075e-06 1.26626e-05 2.6877e+25 3.91567 4.85001 272.007 
-4.53942e-06 1.26626e-05 2.68621e+25 5.91057 3.74572 272.157 
-2.62808e-06 1.26626e-05 2.68642e+25 7.74808 3.26984 272.115 
-7.1675e-07 1.26626e-05 2.68471e+25 9.74823 2.43828 272.093 
-1.60074e-05 1.31404e-05 2.68136e+25 -1.1234 6.61763 272.369 
-1.40961e-05 1.31404e-05 2.68522e+25 -3.42626 9.17589 272.046 
-1.21847e-05 1.31404e-05 2.68745e+25 -2.25253 7.87578 271.968 
-1.02734e-05 1.31404e-05 2.68886e+25 0.0884426 6.08963 271.866 
-8.36208e-06 1.31404e-05 2.685e+25 2.87966 5.25602 272.367 
-6.45075e-06 1.31404e-05 2.68711e+25 5.34253 4.23087 272.216 
-4.53942e-06 1.31404e-05 2.6843e+25 7.60045 3.3152 272.386 
-2.62808e-06 1.31404e-05 2.68811e+25 9.50997 2.67858 272.073 
-7.1675e-07 1.31404e-05 2.68592e+25 11.5322 1.94461 272.147 
-1.60074e-05 1.36182e-05 2.6784e+25 -1.77626 7.3471 272.41 
-1.40961e-05 1.36182e-05 2.68716e+25 -3.45545 9.1607 271.862 
-1.21847e-05 1.36182e-05 2.6857e+25 -1.6098 7.45302 272.223 
-1.02734e-05 1.36182e-05 2.6877e+25 1.43932 5.38318 271.951 
-8.36208e-06 1.36182e-05 2.68881e+25 4.55355 4.50321 272.169 
-6.45075e-06 1.36182e-05 2.68524e+25 7.22996 3.57432 272.242 
-4.53942e-06 1.36182e-05 2.68436e+25 9.63693 2.82541 272.427 
-2.62808e-06 1.36182e-05 2.6875e+25 11.6993 2.45692 272.014 
-7.1675e-07 1.36182e-05 2.68496e+25 13.4079 1.60198 272.17 
-1.60074e-05 1.40961e-05 2.679e+25 -1.88217 8.28602 272.151 
-1.40961e-05 1.40961e-05 2.6863e+25 -3.15833 8.8834 271.847 
-1.21847e-05 1.40961e-05 2.68379e+25 -0.34254 6.82787 272.241 
-1.02734e-05 1.40961e-05 2.68591e+25 3.21373 4.65604 272.197 
-8.36208e-06 1.40961e-05 2.69314e+25 6.32876 3.68335 271.841 
-6.45075e-06 1.40961e-05 2.6883e+25 9.44937 2.911 272.226 
-4.53942e-06 1.40961e-05 2.68276e+25 12.0331 2.17136 272.589 
-2.62808e-06 1.40961e-05 2.68824e+25 13.9243 1.99341 272.11 
-7.1675e-07 1.40961e-05 2.68478e+25 15.0706 1.19585 272.299 
-1.60074e-05 1.45739e-05 2.67549e+25 -2.30707 9.21909 272.129 
-1.40961e-05 1.45739e-05 2.68275e+25 -2.30316 8.38743 272.108 
-1.21847e-05 1.45739e-05 2.68434e+25 1.67827 6.03992 272.204 
-1.02734e-05 1.45739e-05 2.68722e+25 5.64411 3.90672 272.199 
-8.36208e-06 1.45739e-05 2.6902e+25 8.97431 2.73599 271.996 
-6.45075e-06 1.45739e-05 2.68948e+25 12.0778 2.35994 272.079 
-4.53942e-06 1.45739e-05 2.68203e+25 14.6115 1.56046 272.514 
-2.62808e-06 1.45739e-05 2.68608e+25 16.3879 1.55833 272.184 
-7.1675e-07 1.45739e-05 2.68595e+25 17.4846 0.86488 272.161 
-1.60074e-05 1.50518e-05 2.67044e+25 -2.96337 10.0589 272.453 
-1.40961e-05 1.50518e-05 2.67882e+25 -0.799607 7.3123 272.318 
-1.21847e-05 1.50518e-05 2.68317e+25 4.56969 4.79648 272.459 
-1.02734e-05 1.50518e-05 2.68676e+25 8.9512 3.08296 272.338 
-8.36208e-06 1.50518e-05 2.68619e+25 12.5187 1.97083 272.285 
-6.45075e-06 1.50518e-05 2.6871e+25 14.9643 1.79285 272.174 
-4.53942e-06 1.50518e-05 2.68258e+25 17.2465 0.968634 272.537 
-2.62808e-06 1.50518e-05 2.68582e+25 19.1289 1.15358 272.362 
-7.1675e-07 1.50518e-05 2.68714e+25 20.2972 0.614842 272.102 
-1.60074e-05 1.55296e-05 2.66999e+25 -2.89159 10.5661 272.435 
-1.40961e-05 1.55296e-05 2.67911e+25 2.33195 5.81538 272.435 
-1.21847e-05 1.55296e-05 2.67954e+25 8.79706 3.35243 272.807 
-1.02734e-05 1.55296e-05 2.68479e+25 13.2931 2.14563 272.494 
-8.36208e-06 1.55296e-05 2.68686e+25 16.763 1.24379 272.318 
-6.45075e-06 1.55296e-05 2.68374e+25 19.0979 1.14089 272.467 
-4.53942e-06 1.55296e-05 2.68305e+25 20.7726 0.568497 272.475 
-2.62808e-06 1.55296e-05 2.6833e+25 22.342 0.741 272.55 
-7.1675e-07 1.55296e-05 2.68456e+25 23.5375 0.251384 272.34 
-1.60074e-05 1.60074e-05 2.66438e+25 -0.987751 9.82858 272.776 
-1.40961e-05 1.60074e-05 2.67887e+25 8.20653 3.88929 272.434 
-1.21847e-05 1.60074e-05 2.68055e+25 14.4019 2.04646 272.825 
-1.02734e-05 1.60074e-05 2.68171e+25 18.6475 1.24337 272.711 
-8.36208e-06 1.60074e-05 2.6847e+25 21.2754 0.657736 272.603 
-6.45075e-06 1.60074e-05 2.6817e+25 23.4107 0.651952 272.8 
-4.53942e-06 1.60074e-05 2.68307e+25 24.7721 0.201246 272.703 
-2.62808e-06 1.60074e-05 2.68295e+25 25.815 0.458098 272.466 
-7.1675e-07 1.60074e-05 2.68527e+25 26.6667 0.159129 272.453 
-1.60074e-05 1.64852e-05 2.65429e+25 4.7715 6.96525 273.25 
-1.40961e-05 1.64852e-05 2.67947e+25 16.6808 1.93124 272.517 
-1.21847e-05 1.64852e-05 2.68173e+25 21.7933 0.940335 273 
-1.02734e-05 1.64852e-05 2.6797e+25 24.6964 0.478011 272.985 
-8.36208e-06 1.64852e-05 2.68387e+25 26.3769 0.32198 272.562 
-6.45075e-06 1.64852e-05 2.68171e+25 28.0322 0.2625 272.954 
-4.53942e-06 1.64852e-05 2.68314e+25 28.6452 0.0915413 272.691 
-2.62808e-06 1.64852e-05 2.68467e+25 29.189 0.102469 272.472 
-7.1675e-07 1.64852e-05 2.68261e+25 30.0795 0.0765278 272.565 
-1.60074e-05 1.69631e-05 2.64921e+25 18.2663 2.16263 273.542 
-1.40961e-05 1.69631e-05 2.67751e+25 27.1054 0.462879 272.949 
-1.21847e-05 1.69631e-05 2.67959e+25 29.6598 0.237753 272.992 
-1.02734e-05 1.69631e-05 2.679e+25 30.9105 0.0878205 273.131 
-8.36208e-06 1.69631e-05 2.68227e+25 31.4253 0.104262 272.853 
-6.45075e-06 1.69631e-05 2.6828e+25 32.0298 0.0725279 273.064 
-4.53942e-06 1.69631e-05 2.68047e+25 32.2977 0.106897 272.916 
-2.62808e-06 1.69631e-05 2.68138e+25 32.5522 -0.0463004 272.674 
-7.1675e-07 1.69631e-05 2.68051e+25 32.9536 0.016667 272.834 
-1.55296e-05 2.38917e-07 2.68607e+25 -0.117839 2.88579 272.172 
-1.36182e-05 2.38917e-07 2.68773e+25 -0.411005 4.36974 271.998 
-1.17069e-05 2.38917e-07 2.68713e+25 -1.65218 5.6033 271.981 
-9.79558e-06 2.38917e-07 2.69019e+25 -2.65384 5.74105 271.749 
-7.88425e-06 2.38917e-07 2.69355e+25 -3.72465 6.07647 271.685 
-5.97292e-06 2.38917e-07 2.69083e+25 -4.28476 5.71152 271.696 
-4.06158e-06 2.38917e-07 2.68891e+25 -5.53471 4.69422 271.843 
-2.15025e-06 2.38917e-07 2.68563e+25 -6.90128 3.71956 272.266 
-2.38917e-07 2.38917e-07 2.68406e+25 -7.50759 2.32803 272.203 
-1.55296e-05 7.1675e-07 2.69147e+25 -0.250267 2.88868 272.021 
-1.36182e-05 7.1675e-07 2.68911e+25 -0.401674 4.39979 272.088 
-1.17069e-05 7.1675e-07 2.69193e+25 -1.77052 5.93555 271.784 
-9.79558e-06 7.1675e-07 2.69107e+25 -3.02112 5.86886 271.836 
-7.88425e-06 7.1675e-07 2.69288e+25 -3.57022 6.16162 271.678 
-5.97292e-06 7.1675e-07 2.69354e+25 -4.34264 5.87991 271.752 
-4.06158e-06 7.1675e-07 2.68962e+25 -5.40711 4.95577 271.924 
-2.15025e-06 7.1675e-07 2.68704e+25 -6.69595 3.96045 272.154 
-2.38917e-07 7.1675e-07 2.68377e+25 -7.21887 2.47505 272.188 
-1.55296e-05 1.19458e-06 2.69166e+25 -0.179131 2.86435 271.927 
-1.36182e-05 1.19458e-06 2.68998e+25 -0.554886 4.51251 272.085 
-1.17069e-05 1.19458e-06 2.69257e+25 -1.79233 6.15685 271.723 
-9.79558e-06 1.19458e-06 2.6946e+25 -2.99196 5.95592 271.576 
-7.88425e-06 1.19458e-06 2.69429e+25 -3.2532 6.3638 271.74 
-5.97292e-06 1.19458e-06 2.69417e+25 -4.15884 6.16115 271.591 
-4.06158e-06 1.19458e-06 2.69066e+25 -5.17348 5.20881 271.947 
-2.15025e-06 1.19458e-06 2.68793e+25 -6.3033 4.22265 272.185 
-2.38917e-07 1.19458e-06 2.68372e+25 -6.76645 2.57369 272.159 
-1.55296e-05 1.67242e-06 2.69032e+25 0.167429 2.93276 272.095 
-1.36182e-05 1.67242e-06 2.69022e+25 -0.752246 4.79448 271.987 
-1.17069e-05 1.67242e-06 2.68926e+25 -1.67879 6.37516 271.834 
-9.79558e-06 1.67242e-06 2.69258e+25 -2.93638 6.29113 271.65 
-7.88425e-06 1.67242e-06 2.69409e+25 -3.29072 6.51525 271.624 
-5.97292e-06 1.67242e-06 2.69432e+25 -3.98862 6.31669 271.546 
-4.06158e-06 1.67242e-06 2.69012e+25 -5.02018 5.58211 271.944 
-2.15025e-06 1.67242e-06 2.68656e+25 -5.94643 4.43833 272.27 
-2.38917e-07 1.67242e-06 2.68538e+25 -6.30424 2.56653 272.049 
-1.55296e-05 2.15025e-06 2.68637e+25 0.208851 3.14307 272.293 
-1.36182e-05 2.15025e-06 2.68648e+25 -0.904155 5.0727 272.083 
-1.17069e-05 2.15025e-06 2.6947e+25 -1.69827 6.67293 271.421 
-9.79558e-06 2.15025e-06 2.69389e+25 -2.85895 6.58594 271.579 
-7.88425e-06 2.15025e-06 2.6941e+25 -3.56608 6.71808 271.704 
-5.97292e-06 2.15025e-06 2.69293e+25 -4.14891 6.47785 271.702 
-4.06158e-06 2.15025e-06 2.68878e+25 -4.75712 5.90022 271.949 
-2.15025e-06 2.15025e-06 2.68471e+25 -5.62497 4.62053 272.292 
-2.38917e-07 2.15025e-06 2.68562e+25 -6.15299 2.7349 272.127 
-1.55296e-05 2.62808e-06 2.68702e+25 -0.0980158 3.3159 272.315 
-1.36182e-05 2.62808e-06 2.69304e+25 -0.749205 5.44657 271.814 
-1.17069e-05 2.62808e-06 2.69567e+25 -1.78281 7.01762 271.373 
-9.79558e-06 2.62808e-06 2.69648e+25 -2.67137 6.91632 271.524 
-7.88425e-06 2.62808e-06 2.694e+25 -3.55059 6.91119 271.484 
-5.97292e-06 2.62808e-06 2.69208e+25 -4.02833 6.52689 271.858 
-4.06158e-06 2.62808e-06 2.68882e+25 -4.53156 6.16334 272.101 
-2.15025e-06 2.62808e-06 2.687e+25 -5.17626 4.65532 272.353 
-2.38917e-07 2.62808e-06 2.68398e+25 -5.89102 3.04736 272.212 
-1.55296e-05 3.10592e-06 2.68891e+25 0.0359433 3.27809 272.191 
-1.36182e-05 3.10592e-06 2.69351e+25 -0.654861 5.61099 271.78 
-1.17069e-05 3.10592e-06 2.69437e+25 -1.88692 7.32435 271.447 
-9.79558e-06 3.10592e-06 2.69547e+25 -2.42233 7.19636 271.503 
-7.88425e-06 3.10592e-06 2.69528e+25 -3.36945 7.05922 271.522 
-5.97292e-06 3.10592e-06 2.69146e+25 -4.03016 6.7016 271.784 
-4.06158e-06 3.10592e-06 2.69186e+25 -4.58216 6.24775 271.92 
-2.15025e-06 3.10592e-06 2.68827e+25 -4.88051 4.75073 272.127 
-2.38917e-07 3.10592e-06 2.68166e+25 -5.73923 3.27838 272.315 
-1.55296e-05 3.58375e-06 2.69044e+25 -0.211769 3.13969 272.073 
-1.36182e-05 3.58375e-06 2.69327e+25 -0.71924 5.89952 271.754 
-1.17069e-05 3.58375e-06 2.69435e+25 -1.56997 7.39557 271.557 
-9.79558e-06 3.58375e-06 2.69493e+25 -2.11996 7.35674 271.487 
-7.88425e-06 3.58375e-06 2.69323e+25 -3.13295 7.33476 271.663 
-5.97292e-06 3.58375e-06 2.69113e+25 -3.75994 6.8628 271.728 
-4.06158e-06 3.58375e-06 2.68855e+25 -4.24265 6.28403 272.039 
-2.15025e-06 3.58375e-06 2.68722e+25 -4.60181 4.88024 272.053 
-2.38917e-07 3.58375e-06 2.67936e+25 -5.29435 3.55283 272.496 
-1.55296e-05 4.06158e-06 2.6905e+25 -0.229433 3.09636 271.868 
-1.36182e-05 4.06158e-06 2.69356e+25 -0.898165 6.1985 271.769 
-1.17069e-05 4.06158e-06 2.69274e+25 -1.40686 7.23637 271.763 
-9.79558e-06 4.06158e-06 2.69426e+25 -1.74855 7.628 271.543 
-7.88425e-06 4.06158e-06 2.69366e+25 -2.72466 7.56884 271.647 
-5.97292e-06 4.06158e-06 2.69003e+25 -3.32592 6.92063 272.019 
-4.06158e-06 4.06158e-06 2.68907e+25 -3.85104 6.33663 271.96 
-2.15025e-06 4.06158e-06 2.68723e+25 -4.34716 5.10799 272.083 
-2.38917e-07 4.06158e-06 2.68101e+25 -4.86764 3.8311 272.375 
-1.55296e-05 4.53942e-06 2.68814e+25 -0.395538 3.19496 271.999 
-1.36182e-05 4.53942e-06 2.68999e+25 -1.14885 6.3179 271.889 
-1.17069e-05 4.53942e-06 2.6925e+25 -1.22214 7.29191 271.726 
-9.79558e-06 4.53942e-06 2.69254e+25 -1.61412 7.87487 271.588 
-7.88425e-06 4.53942e-06 2.6921e+25 -2.49404 7.71463 271.741 
-5.97292e-06 4.53942e-06 2.69108e+25 -2.95637 6.96124 271.805 
-4.06158e-06 4.53942e-06 2.68349e+25 -3.53946 6.5464 272.174 
-2.15025e-06 4.53942e-06 2.68446e+25 -3.93901 5.28219 272.187 
-2.38917e-07 4.53942e-06 2.68266e+25 -4.41984 4.04117 272.345 
-1.55296e-05 5.01725e-06 2.69016e+25 -0.375276 3.50531 271.945 
-1.36182e-05 5.01725e-06 2.68907e+25 -0.711614 6.33348 271.995 
-1.17069e-05 5.01725e-06 2.69216e+25 -1.09132 7.53962 271.722 
-9.79558e-06 5.01725e-06 2.69302e+25 -1.81379 7.91434 271.585 
-7.88425e-06 5.01725e-06 2.6911e+25 -2.35971 7.83124 271.847 
-5.97292e-06 5.01725e-06 2.68823e+25 -2.86551 7.16409 271.93 
-4.06158e-06 5.01725e-06 2.68673e+25 -3.32161 6.61021 272.194 
-2.15025e-06 5.01725e-06 2.68545e+25 -3.60362 5.4222 272.229 
-2.38917e-07 5.01725e-06 2.68634e+25 -4.12264 4.18936 272.111 
-1.55296e-05 5.49508e-06 2.68925e+25 -0.229301 3.82319 272.083 
-1.36182e-05 5.49508e-06 2.69289e+25 -0.787022 6.35013 271.691 
-1.17069e-05 5.49508e-06 2.69176e+25 -1.19617 7.8744 271.632 
-9.79558e-06 5.49508e-06 2.69481e+25 -1.89008 7.98811 271.429 
-7.88425e-06 5.49508e-06 2.69154e+25 -2.42547 8.098 271.64 
-5.97292e-06 5.49508e-06 2.68992e+25 -2.81508 7.25627 271.947 
-4.06158e-06 5.49508e-06 2.68802e+25 -2.92618 6.52047 272.036 
-2.15025e-06 5.49508e-06 2.68601e+25 -3.18009 5.51958 272.146 
-2.38917e-07 5.49508e-06 2.68466e+25 -3.89214 4.2457 272.056 
-1.55296e-05 5.97292e-06 2.68723e+25 -0.271302 4.09589 272.096 
-1.36182e-05 5.97292e-06 2.69283e+25 -0.83032 6.37018 271.671 
-1.17069e-05 5.97292e-06 2.69269e+25 -1.09076 8.14933 271.635 
-9.79558e-06 5.97292e-06 2.69266e+25 -1.78724 8.0433 271.526 
-7.88425e-06 5.97292e-06 2.6927e+25 -2.50052 8.14946 271.598 
-5.97292e-06 5.97292e-06 2.68916e+25 -2.55097 7.34219 271.826 
-4.06158e-06 5.97292e-06 2.68952e+25 -2.62436 6.40499 271.896 
-2.15025e-06 5.97292e-06 2.68792e+25 -2.92498 5.64209 271.966 
-2.38917e-07 5.97292e-06 2.68235e+25 -3.28319 4.23076 272.145 
-1.55296e-05 6.45075e-06 2.68517e+25 -0.133933 4.11213 272.126 
-1.36182e-05 6.45075e-06 2.69058e+25 -0.865248 6.4494 271.819 
-1.17069e-05 6.45075e-06 2.69326e+25 -1.01485 8.29684 271.568 
-9.79558e-06 6.45075e-06 2.69252e+25 -1.80693 8.21205 271.631 
-7.88425e-06 6.45075e-06 2.69605e+25 -2.45463 8.15216 271.486 
-5.97292e-06 6.45075e-06 2.69101e+25 -2.57116 7.4322 271.842 
-4.06158e-06 6.45075e-06 2.6882e+25 -2.29789 6.34792 271.941 
-2.15025e-06 6.45075e-06 2.69048e+25 -2.50774 5.63182 271.725 
-2.38917e-07 6.45075e-06 2.68582e+25 -2.65249 4.36372 272.009 
-1.55296e-05 6.92858e-06 2.68543e+25 -0.221225 4.22906 272.387 
-1.36182e-05 6.92858e-06 2.69188e+25 -0.849009 6.58776 271.797 
-1.17069e-05 6.92858e-06 2.6949e+25 -1.10815 8.27428 271.315 
-9.79558e-06 6.92858e-06 2.69358e+25 -1.78422 8.46594 271.479 
-7.88425e-06 6.92858e-06 2.69263e+25 -2.01288 8.20998 271.468 
-5.97292e-06 6.92858e-06 2.68744e+25 -2.05367 7.43695 271.988 
-4.06158e-06 6.92858e-06 2.69035e+25 -2.02588 6.36881 271.681 
-2.15025e-06 6.92858e-06 2.6917e+25 -2.13369 5.60048 271.658 
-2.38917e-07 6.92858e-06 2.68393e+25 -2.27646 4.33938 271.925 
-1.55296e-05 7.40642e-06 2.6869e+25 -0.166677 4.25548 272.3 
-1.36182e-05 7.40642e-06 2.69056e+25 -0.744748 6.78407 271.75 
-1.17069e-05 7.40642e-06 2.69669e+25 -1.38075 8.29604 271.293 
-9.79558e-06 7.40642e-06 2.68993e+25 -1.52471 8.73116 271.799 
-7.88425e-06 7.40642e-06 2.69218e+25 -1.78399 8.22298 271.539 
-5.97292e-06 7.40642e-06 2.69193e+25 -1.91856 7.30673 271.7 
-4.06158e-06 7.40642e-06 2.6887e+25 -1.80695 6.43882 272.004 
-2.15025e-06 7.40642e-06 2.68976e+25 -1.61093 5.6782 271.718 
-2.38917e-07 7.40642e-06 2.68445e+25 -1.54008 4.12769 271.916 
-1.55296e-05 7.88425e-06 2.68768e+25 -0.211832 4.50553 272.155 
-1.36182e-05 7.88425e-06 2.69191e+25 -0.727706 6.98366 271.728 
-1.17069e-05 7.88425e-06 2.69405e+25 -1.23542 8.34275 271.357 
-9.79558e-06 7.88425e-06 2.6892e+25 -1.45451 8.872 271.951 
-7.88425e-06 7.88425e-06 2.69117e+25 -1.63225 8.25141 271.699 
-5.97292e-06 7.88425e-06 2.69012e+25 -1.64036 7.27458 271.74 
-4.06158e-06 7.88425e-06 2.68585e+25 -1.31292 6.57147 272.042 
-2.15025e-06 7.88425e-06 2.69091e+25 -1.16404 5.72772 271.662 
-2.38917e-07 7.88425e-06 2.68397e+25 -0.859038 4.05277 272.039 
-1.55296e-05 8.36208e-06 2.68575e+25 -0.325809 4.64807 272.281 
-1.36182e-05 8.36208e-06 2.68957e+25 -0.622176 7.25946 272.018 
-1.17069e-05 8.36208e-06 2.6922e+25 -1.56376 8.36974 271.506 
-9.79558e-06 8.36208e-06 2.69084e+25 -1.54448 8.85045 271.748 
-7.88425e-06 8.36208e-06 2.69007e+25 -1.51726 8.24103 271.813 
-5.97292e-06 8.36208e-06 2.69014e+25 -1.34313 7.29849 271.957 
-4.06158e-06 8.36208e-06 2.6876e+25 -0.743774 6.5582 271.988 
-2.15025e-06 8.36208e-06 2.68863e+25 -0.633467 5.56167 271.764 
-2.38917e-07 8.36208e-06 2.68497e+25 -0.168754 4.0017 272.041 
-1.55296e-05 8.83992e-06 2.68493e+25 -0.324843 4.77331 272.306 
-1.36182e-05 8.83992e-06 2.69003e+25 -0.98282 7.62437 271.929 
-1.17069e-05 8.83992e-06 2.69415e+25 -1.80435 8.31496 271.576 
-9.79558e-06 8.83992e-06 2.69237e+25 -1.64773 8.90539 271.646 
-7.88425e-06 8.83992e-06 2.68867e+25 -1.34398 8.11368 271.884 
-5.97292e-06 8.83992e-06 2.6852e+25 -0.985023 7.20231 272.26 
-4.06158e-06 8.83992e-06 2.69007e+25 -0.247226 6.49512 271.796 
-2.15025e-06 8.83992e-06 2.6899e+25 0.225734 5.42192 271.772 
-2.38917e-07 8.83992e-06 2.68313e+25 0.863785 3.88072 272.163 
-1.55296e-05 9.31775e-06 2.68652e+25 -0.469725 4.82579 272.22 
-1.36182e-05 9.31775e-06 2.69008e+25 -1.18399 7.91818 271.91 
-1.17069e-05 9.31775e-06 2.68982e+25 -1.88033 8.24274 271.696 
-9.79558e-06 9.31775e-06 2.69403e+25 -1.78827 8.74869 271.469 
-7.88425e-06 9.31775e-06 2.68769e+25 -1.48024 8.01117 272.027 
-5.97292e-06 9.31775e-06 2.68736e+25 -0.645539 7.04933 272.312 
-4.06158e-06 9.31775e-06 2.69137e+25 0.244181 6.36018 271.662 
-2.15025e-06 9.31775e-06 2.6875e+25 1.00152 5.32482 271.874 
-2.38917e-07 9.31775e-06 2.68509e+25 1.55896 3.76833 271.893 
-1.55296e-05 9.79558e-06 2.68586e+25 -0.499599 4.94809 272.07 
-1.36182e-05 9.79558e-06 2.68767e+25 -1.54525 8.21551 271.9 
-1.17069e-05 9.79558e-06 2.69112e+25 -2.29085 8.31328 271.784 
-9.79558e-06 9.79558e-06 2.69095e+25 -1.88627 8.5443 271.525 
-7.88425e-06 9.79558e-06 2.68879e+25 -1.1969 7.79616 272.205 
-5.97292e-06 9.79558e-06 2.68683e+25 -0.780633 6.7125 272.131 
-4.06158e-06 9.79558e-06 2.69046e+25 0.859773 6.10318 271.769 
-2.15025e-06 9.79558e-06 2.68866e+25 1.84117 5.20067 271.82 
-2.38917e-07 9.79558e-06 2.68387e+25 2.33842 3.58757 271.819 
-1.55296e-05 1.02734e-05 2.68774e+25 -0.675547 5.15794 272.077 
-1.36182e-05 1.02734e-05 2.68855e+25 -1.89804 8.44894 271.901 
-1.17069e-05 1.02734e-05 2.69139e+25 -2.42462 8.49928 271.718 
-9.79558e-06 1.02734e-05 2.69124e+25 -1.87578 8.31192 271.729 
-7.88425e-06 1.02734e-05 2.68637e+25 -1.04965 7.78046 272.173 
-5.97292e-06 1.02734e-05 2.68646e+25 -0.33937 6.1911 272.154 
-4.06158e-06 1.02734e-05 2.69175e+25 1.42268 5.64778 271.578 
-2.15025e-06 1.02734e-05 2.68705e+25 2.47771 5.04072 271.858 
-2.38917e-07 1.02734e-05 2.68489e+25 3.31674 3.53366 271.916 
-1.55296e-05 1.07512e-05 2.68769e+25 -0.815101 5.44537 272.059 
-1.36182e-05 1.07512e-05 2.69027e+25 -1.80264 8.59161 271.842 
-1.17069e-05 1.07512e-05 2.6903e+25 -2.30111 8.55108 271.711 
-9.79558e-06 1.07512e-05 2.69306e+25 -1.75069 8.07529 271.518 
-7.88425e-06 1.07512e-05 2.68346e+25 -0.786822 7.83358 272.211 
-5.97292e-06 1.07512e-05 2.68791e+25 0.493121 5.92869 272.125 
-4.06158e-06 1.07512e-05 2.69076e+25 1.91009 5.12307 271.587 
-2.15025e-06 1.07512e-05 2.68614e+25 3.48235 4.7171 271.994 
-2.38917e-07 1.07512e-05 2.6842e+25 4.5131 3.47293 271.866 
-1.55296e-05 1.12291e-05 2.69023e+25 -1.01516 5.73983 271.849 
-1.36182e-05 1.12291e-05 2.68815e+25 -1.94838 8.75198 272.1 
-1.17069e-05 1.12291e-05 2.69197e+25 -2.15329 8.50284 271.69 
-9.79558e-06 1.12291e-05 2.69282e+25 -1.54743 7.82442 271.319 
-7.88425e-06 1.12291e-05 2.68594e+25 -0.125263 7.60226 272.214 
-5.97292e-06 1.12291e-05 2.68876e+25 1.43665 5.7013 271.998 
-4.06158e-06 1.12291e-05 2.68848e+25 2.63501 4.76806 271.8 
-2.15025e-06 1.12291e-05 2.68785e+25 4.25957 4.29316 271.951 
-2.38917e-07 1.12291e-05 2.68746e+25 5.2676 3.32793 271.839 
-1.55296e-05 1.17069e-05 2.68655e+25 -0.971399 6.16628 272.001 
-1.36182e-05 1.17069e-05 2.68439e+25 -2.30623 8.85228 272.322 
-1.17069e-05 1.17069e-05 2.69145e+25 -2.21882 8.45244 271.749 
-9.79558e-06 1.17069e-05 2.69463e+25 -1.22619 7.48602 271.448 
-7.88425e-06 1.17069e-05 2.68735e+25 0.53994 7.03007 272.07 
-5.97292e-06 1.17069e-05 2.6854e+25 2.4442 5.31829 272.147 
-4.06158e-06 1.17069e-05 2.68898e+25 3.54131 4.42229 271.99 
-2.15025e-06 1.17069e-05 2.68833e+25 5.30089 3.95579 271.838 
-2.38917e-07 1.17069e-05 2.68428e+25 6.77122 2.96689 272.105 
-1.55296e-05 1.21847e-05 2.68278e+25 -1.21676 6.66124 272.255 
-1.36182e-05 1.21847e-05 2.68756e+25 -2.60016 8.99637 272.117 
-1.17069e-05 1.21847e-05 2.69043e+25 -2.21314 8.45861 271.781 
-9.79558e-06 1.21847e-05 2.69007e+25 -1.00035 7.05229 271.748 
-7.88425e-06 1.21847e-05 2.6881e+25 1.0751 6.39145 272.074 
-5.97292e-06 1.21847e-05 2.68845e+25 3.32191 4.95902 272.026 
-4.06158e-06 1.21847e-05 2.68816e+25 4.75174 3.99355 271.989 
-2.15025e-06 1.21847e-05 2.68725e+25 6.55054 3.46852 272.095 
-2.38917e-07 1.21847e-05 2.68404e+25 8.37469 2.56142 272.094 
-1.55296e-05 1.26626e-05 2.68204e+25 -1.49229 7.30066 272.387 
-1.36182e-05 1.26626e-05 2.68622e+25 -2.79016 9.28051 272.083 
-1.17069e-05 1.26626e-05 2.68869e+25 -1.96984 8.20178 271.883 
-9.79558e-06 1.26626e-05 2.6894e+25 -0.268938 6.69968 271.951 
-7.88425e-06 1.26626e-05 2.68639e+25 2.15082 5.7207 272.198 
-5.97292e-06 1.26626e-05 2.68571e+25 4.49042 4.35358 272.215 
-4.06158e-06 1.26626e-05 2.68764e+25 6.18103 3.57059 272.139 
-2.15025e-06 1.26626e-05 2.68749e+25 8.28503 3.03047 272.146 
-2.38917e-07 1.26626e-05 2.68106e+25 10.148 2.19602 272.28 
-1.55296e-05 1.31404e-05 2.68289e+25 -1.79647 7.9132 272.15 
-1.36182e-05 1.31404e-05 2.68546e+25 -3.2821 9.21928 271.895 
-1.17069e-05 1.31404e-05 2.68634e+25 -1.80741 7.68202 272.116 
-9.79558e-06 1.31404e-05 2.69171e+25 0.772123 6.01981 271.718 
-7.88425e-06 1.31404e-05 2.68619e+25 3.63146 5.14421 272.346 
-5.97292e-06 1.31404e-05 2.6871e+25 5.90067 3.87458 272.212 
-4.06158e-06 1.31404e-05 2.68476e+25 8.11067 3.20724 272.272 
-2.15025e-06 1.31404e-05 2.68639e+25 10.0227 2.48864 272.088 
-2.38917e-07 1.31404e-05 2.68213e+25 11.9319 1.90282 272.164 
-1.55296e-05 1.36182e-05 2.68314e+25 -2.62448 8.68956 272.101 
-1.36182e-05 1.36182e-05 2.6859e+25 -3.17007 8.82806 271.971 
-1.17069e-05 1.36182e-05 2.68475e+25 -0.920296 6.97522 272.254 
-9.79558e-06 1.36182e-05 2.6898e+25 2.17874 5.2729 271.784 
-7.88425e-06 1.36182e-05 2.68725e+25 5.27421 4.40627 272.262 
-5.97292e-06 1.36182e-05 2.68927e+25 7.87276 3.28057 272.183 
-4.06158e-06 1.36182e-05 2.68343e+25 10.2674 2.59195 272.49 
-2.15025e-06 1.36182e-05 2.68541e+25 11.9305 2.03909 272.203 
-2.38917e-07 1.36182e-05 2.68184e+25 13.6886 1.67225 272.225 
-1.55296e-05 1.40961e-05 2.67895e+25 -2.74438 9.47956 272.334 
-1.36182e-05 1.40961e-05 2.68704e+25 -2.56046 8.22167 271.861 
-1.17069e-05 1.40961e-05 2.68352e+25 0.372708 6.20285 272.357 
-9.79558e-06 1.40961e-05 2.68796e+25 3.95772 4.49469 271.984 
-7.88425e-06 1.40961e-05 2.68809e+25 7.29905 3.66261 272.129 
-5.97292e-06 1.40961e-05 2.68752e+25 10.1211 2.62869 272.218 
-4.06158e-06 1.40961e-05 2.68384e+25 12.5981 1.97795 272.576 
-2.15025e-06 1.40961e-05 2.68602e+25 14.3171 1.82322 272.296 
-2.38917e-07 1.40961e-05 2.6827e+25 15.6025 1.24898 272.172 
-1.55296e-05 1.45739e-05 2.67759e+25 -2.99069 10.0359 272.258 
-1.36182e-05 1.45739e-05 2.68335e+25 -1.50212 7.46846 272.105 
-1.17069e-05 1.45739e-05 2.6851e+25 2.63883 5.31925 272.46 
-9.79558e-06 1.45739e-05 2.68738e+25 6.46967 3.69111 272.157 
-7.88425e-06 1.45739e-05 2.69056e+25 9.88713 2.73609 272.109 
-5.97292e-06 1.45739e-05 2.68779e+25 12.6295 1.95597 272.123 
-4.06158e-06 1.45739e-05 2.68396e+25 15.0754 1.5954 272.425 
-2.15025e-06 1.45739e-05 2.68659e+25 16.8084 1.55366 272.278 
-2.38917e-07 1.45739e-05 2.68354e+25 17.7762 0.804544 272.204 
-1.55296e-05 1.50518e-05 2.67562e+25 -3.2579 10.2197 272.438 
-1.36182e-05 1.50518e-05 2.68348e+25 0.516061 6.4059 272.204 
-1.17069e-05 1.50518e-05 2.68077e+25 5.91953 4.30767 272.607 
-9.79558e-06 1.50518e-05 2.6852e+25 9.84613 2.77682 272.375 
-7.88425e-06 1.50518e-05 2.687e+25 13.2006 1.8615 272.283 
-5.97292e-06 1.50518e-05 2.68794e+25 15.6433 1.27525 272.186 
-4.06158e-06 1.50518e-05 2.68571e+25 17.7416 1.08634 272.346 
-2.15025e-06 1.50518e-05 2.68424e+25 19.5389 1.17932 272.486 
-2.38917e-07 1.50518e-05 2.68541e+25 20.7436 0.396321 272.153 
-1.55296e-05 1.55296e-05 2.67105e+25 -2.33142 9.62765 272.721 
-1.36182e-05 1.55296e-05 2.68187e+25 4.01918 4.92935 272.489 
-1.17069e-05 1.55296e-05 2.6786e+25 10.1295 2.99103 272.939 
-9.79558e-06 1.55296e-05 2.68438e+25 14.1499 1.87439 272.497 
-7.88425e-06 1.55296e-05 2.68626e+25 17.3829 1.29835 272.414 
-5.97292e-06 1.55296e-05 2.68558e+25 19.5751 0.786125 272.47 
-4.06158e-06 1.55296e-05 2.68395e+25 21.1344 0.632847 272.411 
-2.15025e-06 1.55296e-05 2.68399e+25 22.6282 0.845728 272.546 
-2.38917e-07 1.55296e-05 2.67982e+25 23.7342 0.200487 272.418 
-1.55296e-05 1.60074e-05 2.66841e+25 1.18527 7.91342 272.688 
-1.36182e-05 1.60074e-05 2.67977e+25 10.0756 3.15129 272.537 
-1.17069e-05 1.60074e-05 2.68061e+25 15.6439 1.73139 272.948 
-9.79558e-06 1.60074e-05 2.68282e+25 19.4664 1.06845 272.787 
-7.88425e-06 1.60074e-05 2.68441e+25 21.7581 0.700005 272.454 
-5.97292e-06 1.60074e-05 2.68565e+25 23.7789 0.335846 272.492 
-4.06158e-06 1.60074e-05 2.68484e+25 25.1215 0.267067 272.548 
-2.15025e-06 1.60074e-05 2.68295e+25 26.1343 0.51448 272.571 
-2.38917e-07 1.60074e-05 2.68157e+25 26.8334 0.0476366 272.48 
-1.55296e-05 1.64852e-05 2.66136e+25 8.57563 4.81162 273.155 
-1.36182e-05 1.64852e-05 2.67863e+25 18.2963 1.47942 272.831 
-1.17069e-05 1.64852e-05 2.68038e+25 22.6348 0.735245 272.923 
-9.79558e-06 1.64852e-05 2.67989e+25 25.2215 0.417876 272.868 
-7.88425e-06 1.64852e-05 2.68314e+25 26.7221 0.282344 272.619 
-5.97292e-06 1.64852e-05 2.68212e+25 28.2602 0.121665 272.738 
-4.06158e-06 1.64852e-05 2.68171e+25 28.6345 -0.0172463 272.915 
-2.15025e-06 1.64852e-05 2.68369e+25 29.538 0.22881 272.587 
-2.38917e-07 1.64852e-05 2.67956e+25 30.1127 -0.016895 272.586 
-1.55296e-05 1.69631e-05 2.6653e+25 21.9537 1.35246 273.242 
-1.36182e-05 1.69631e-05 2.67966e+25 28.0214 0.282581 272.909 
-1.17069e-05 1.69631e-05 2.67973e+25 30.0992 0.181382 273.148 
-9.79558e-06 1.69631e-05 2.68221e+25 31.1117 0.0225941 272.988 
-7.88425e-06 1.69631e-05 2.68303e+25 31.5323 0.0284745 272.922 
-5.97292e-06 1.69631e-05 2.67997e+25 32.1266 0.00661284 273.086 
-4.06158e-06 1.69631e-05 2.67842e+25 32.3734 -0.0111319 273.054 
-2.15025e-06 1.69631e-05 2.67954e+25 32.5404 0.0719705 272.865 
-2.38917e-07 1.69631e-05 2.68057e+25 33.0033 -0.0516526 272.625 
1.19458e-06 -1.69631e-05 2.68207e+25 -0.248655 -0.0231411 272.979 
3.10592e-06 -1.69631e-05 2.68329e+25 -0.235094 -0.119771 272.884 
5.01725e-06 -1.69631e-05 2.68581e+25 -0.20481 0.0951517 272.714 
6.92858e-06 -1.69631e-05 2.68398e+25 -0.346845 -0.0389286 272.782 
8.83992e-06 -1.69631e-05 2.68562e+25 -0.339487 -0.0166502 272.831 
1.07512e-05 -1.69631e-05 2.68503e+25 -0.0455707 -0.0813139 272.796 
1.26626e-05 -1.69631e-05 2.68423e+25 -0.148327 -0.0118138 272.78 
1.45739e-05 -1.69631e-05 2.68247e+25 0.0677114 0.0158362 272.922 
1.64852e-05 -1.69631e-05 2.68108e+25 -0.0322378 0.0212414 273.039 
1.19458e-06 -1.64852e-05 2.68515e+25 -0.461939 -0.0681386 272.721 
3.10592e-06 -1.64852e-05 2.68766e+25 -0.319617 -0.278577 272.619 
5.01725e-06 -1.64852e-05 2.68402e+25 -0.470642 0.300023 272.754 
6.92858e-06 -1.64852e-05 2.68869e+25 -0.625969 -0.0814612 272.481 
8.83992e-06 -1.64852e-05 2.68821e+25 -0.387469 -0.050252 272.467 
1.07512e-05 -1.64852e-05 2.68875e+25 -0.229744 -0.233228 272.36 
1.26626e-05 -1.64852e-05 2.68596e+25 -0.151945 0.0154592 272.621 
1.45739e-05 -1.64852e-05 2.68784e+25 -0.143883 -0.0127773 272.694 
1.64852e-05 -1.64852e-05 2.68553e+25 0.0295456 -0.0470416 272.76 
1.19458e-06 -1.60074e-05 2.68923e+25 -0.802385 -0.165341 272.255 
3.10592e-06 -1.60074e-05 2.69113e+25 -0.559159 -0.0810098 272.086 
5.01725e-06 -1.60074e-05 2.68813e+25 -0.939611 0.338103 272.595 
6.92858e-06 -1.60074e-05 2.69128e+25 -0.7571 -0.148303 272.264 
8.83992e-06 -1.60074e-05 2.68708e+25 -0.628573 -0.205296 272.517 
1.07512e-05 -1.60074e-05 2.69293e+25 -0.440423 -0.162995 272.043 
1.26626e-05 -1.60074e-05 2.68868e+25 -0.149537 0.0492575 272.316 
1.45739e-05 -1.60074e-05 2.6888e+25 -0.060518 0.000251651 272.359 
1.64852e-05 -1.60074e-05 2.68827e+25 0.0619947 -0.0327907 272.539 
1.19458e-06 -1.55296e-05 2.68967e+25 -1.07255 -0.193201 272.283 
3.10592e-06 -1.55296e-05 2.69012e+25 -0.717584 0.0902331 272.1 
5.01725e-06 -1.55296e-05 2.68965e+25 -1.09508 0.324463 272.314 
6.92858e-06 -1.55296e-05 2.68953e+25 -0.999089 -0.191266 272.441 
8.83992e-06 -1.55296e-05 2.68664e+25 -0.64749 -0.336668 272.522 
1.07512e-05 -1.55296e-05 2.69092e+25 -0.466612 -0.257945 272.286 
1.26626e-05 -1.55296e-05 2.68812e+25 -0.240748 0.0685306 272.278 
1.45739e-05 -1.55296e-05 2.68916e+25 -0.223118 -0.0770205 272.434 
1.64852e-05 -1.55296e-05 2.68945e+25 0.110534 0.152259 272.407 
1.19458e-06 -1.50517e-05 2.68935e+25 -1.30578 -0.243863 272.092 
3.10592e-06 -1.50517e-05 2.69344e+25 -1.00538 0.0483465 271.871 
5.01725e-06 -1.50517e-05 2.68914e+25 -1.16234 0.279617 272.159 
6.92858e-06 -1.50517e-05 2.6895e+25 -1.0402 -0.167039 272.238 
8.83992e-06 -1.50517e-05 2.68626e+25 -0.699752 -0.522235 272.51 
1.07512e-05 -1.50517e-05 2.68743e+25 -0.508843 -0.2042 272.457 
1.26626e-05 -1.50517e-05 2.68969e+25 -0.301771 -0.0430663 272.172 
1.45739e-05 -1.50517e-05 2.68713e+25 0.0846264 -0.154078 272.399 
1.64852e-05 -1.50517e-05 2.68792e+25 0.0491842 0.226684 272.338 
1.19458e-06 -1.45739e-05 2.69455e+25 -1.34177 -0.183392 271.774 
3.10592e-06 -1.45739e-05 2.69275e+25 -1.29383 -0.0165529 271.916 
5.01725e-06 -1.45739e-05 2.69159e+25 -1.05811 0.184139 272.017 
6.92858e-06 -1.45739e-05 2.68953e+25 -1.08498 -0.171744 272.363 
8.83992e-06 -1.45739e-05 2.68559e+25 -0.751657 -0.393658 272.487 
1.07512e-05 -1.45739e-05 2.68769e+25 -0.449213 -0.300032 272.446 
1.26626e-05 -1.45739e-05 2.69029e+25 0.0177779 -0.158639 272.143 
1.45739e-05 -1.45739e-05 2.6896e+25 0.0749458 -0.284609 272.42 
1.64852e-05 -1.45739e-05 2.68686e+25 0.0981326 0.324483 272.489 
1.19458e-06 -1.40961e-05 2.69457e+25 -1.4958 -0.279456 271.783 
3.10592e-06 -1.40961e-05 2.6936e+25 -1.62681 0.0451556 271.843 
5.01725e-06 -1.40961e-05 2.69331e+25 -1.17484 0.116629 271.881 
6.92858e-06 -1.40961e-05 2.69115e+25 -1.20351 -0.317148 272.225 
8.83992e-06 -1.40961e-05 2.68514e+25 -0.807874 -0.211902 272.58 
1.07512e-05 -1.40961e-05 2.68914e+25 -0.300459 -0.380102 272.304 
1.26626e-05 -1.40961e-05 2.68902e+25 -0.210686 -0.197841 272.162 
1.45739e-05 -1.40961e-05 2.68872e+25 0.222454 -0.402863 272.323 
1.64852e-05 -1.40961e-05 2.6848e+25 -0.111012 0.376526 272.829 
1.19458e-06 -1.36182e-05 2.69231e+25 -1.74124 -0.226927 271.779 
3.10592e-06 -1.36182e-05 2.69587e+25 -1.87685 0.0767961 271.738 
5.01725e-06 -1.36182e-05 2.69125e+25 -1.28486 0.24723 272.107 
6.92858e-06 -1.36182e-05 2.6902e+25 -1.41654 -0.392531 272.189 
8.83992e-06 -1.36182e-05 2.6863e+25 -0.974806 -0.305727 272.5 
1.07512e-05 -1.36182e-05 2.6891e+25 -0.317174 -0.491125 272.412 
1.26626e-05 -1.36182e-05 2.68926e+25 -0.366675 -0.279322 272.294 
1.45739e-05 -1.36182e-05 2.68762e+25 0.369193 -0.324798 272.364 
1.64852e-05 -1.36182e-05 2.68493e+25 -0.132818 0.461487 272.633 
1.19458e-06 -1.31404e-05 2.69209e+25 -1.98859 -0.104746 271.969 
3.10592e-06 -1.31404e-05 2.69372e+25 -1.91589 -0.0541139 271.777 
5.01725e-06 -1.31404e-05 2.68966e+25 -1.53966 0.193611 272.202 
6.92858e-06 -1.31404e-05 2.69012e+25 -1.55309 -0.297423 272.211 
8.83992e-06 -1.31404e-05 2.68915e+25 -0.953508 -0.63025 272.43 
1.07512e-05 -1.31404e-05 2.68715e+25 -0.475123 -0.552349 272.516 
1.26626e-05 -1.31404e-05 2.68755e+25 -0.422206 -0.527749 272.362 
1.45739e-05 -1.31404e-05 2.68596e+25 -0.12877 -0.232129 272.628 
1.64852e-05 -1.31404e-05 2.68578e+25 -0.105959 0.217808 272.597 
1.19458e-06 -1.26626e-05 2.69236e+25 -2.31964 -0.0547418 272.015 
3.10592e-06 -1.26626e-05 2.69235e+25 -2.13417 -0.17654 271.794 
5.01725e-06 -1.26626e-05 2.69147e+25 -1.71664 -0.0634476 272.059 
6.92858e-06 -1.26626e-05 2.69006e+25 -1.3791 -0.393948 272.314 
8.83992e-06 -1.26626e-05 2.69024e+25 -1.0485 -0.951947 272.397 
1.07512e-05 -1.26626e-05 2.68863e+25 -0.517846 -0.576 272.385 
1.26626e-05 -1.26626e-05 2.68865e+25 -0.530988 -0.61689 272.38 
1.45739e-05 -1.26626e-05 2.68472e+25 -0.391036 -0.182163 272.616 
1.64852e-05 -1.26626e-05 2.68661e+25 -0.17851 -0.054048 272.478 
1.19458e-06 -1.21847e-05 2.69035e+25 -2.48713 -0.0792407 272.081 
3.10592e-06 -1.21847e-05 2.69441e+25 -2.26451 -0.248452 271.884 
5.01725e-06 -1.21847e-05 2.69315e+25 -1.93075 -0.240065 271.974 
6.92858e-06 -1.21847e-05 2.69133e+25 -1.41821 -0.517182 272.061 
8.83992e-06 -1.21847e-05 2.69044e+25 -1.37813 -1.03122 272.217 
1.07512e-05 -1.21847e-05 2.68891e+25 -0.858544 -0.624608 272.221 
1.26626e-05 -1.21847e-05 2.69024e+25 -0.541399 -0.609046 272.176 
1.45739e-05 -1.21847e-05 2.68732e+25 -0.538478 -0.113813 272.558 
1.64852e-05 -1.21847e-05 2.68754e+25 -0.122374 -0.248244 272.358 
1.19458e-06 -1.17069e-05 2.69183e+25 -2.81072 -0.158559 272 
3.10592e-06 -1.17069e-05 2.69241e+25 -2.76672 -0.372777 272.005 
5.01725e-06 -1.17069e-05 2.69332e+25 -1.95302 -0.42733 271.862 
6.92858e-06 -1.17069e-05 2.69115e+25 -1.50889 -0.575191 272.084 
8.83992e-06 -1.17069e-05 2.69092e+25 -1.57847 -1.03729 272.197 
1.07512e-05 -1.17069e-05 2.68914e+25 -1.40655 -0.825166 272.331 
1.26626e-05 -1.17069e-05 2.6907e+25 -0.622489 -0.747724 272.139 
1.45739e-05 -1.17069e-05 2.68712e+25 -0.565976 -0.113346 272.456 
1.64852e-05 -1.17069e-05 2.69025e+25 -0.1314 -0.401146 272.176 
1.19458e-06 -1.12291e-05 2.68985e+25 -3.27076 -0.021576 272.256 
3.10592e-06 -1.12291e-05 2.69352e+25 -3.02678 -0.567285 271.778 
5.01725e-06 -1.12291e-05 2.69236e+25 -2.59764 -0.523585 271.888 
6.92858e-06 -1.12291e-05 2.69168e+25 -1.81931 -0.473705 272.199 
8.83992e-06 -1.12291e-05 2.69166e+25 -1.46477 -1.0754 272.215 
1.07512e-05 -1.12291e-05 2.69172e+25 -1.53926 -0.974882 271.982 
1.26626e-05 -1.12291e-05 2.69292e+25 -0.435306 -1.06033 271.898 
1.45739e-05 -1.12291e-05 2.68884e+25 -0.479274 -0.226397 272.222 
1.64852e-05 -1.12291e-05 2.6871e+25 -0.043736 -0.40913 272.44 
1.19458e-06 -1.07512e-05 2.69333e+25 -3.58888 -0.122863 271.86 
3.10592e-06 -1.07512e-05 2.69323e+25 -3.10616 -0.756276 271.741 
5.01725e-06 -1.07512e-05 2.69426e+25 -3.01028 -0.665847 272.015 
6.92858e-06 -1.07512e-05 2.69087e+25 -2.12449 -0.603791 272.135 
8.83992e-06 -1.07512e-05 2.6914e+25 -1.84559 -1.06776 272.225 
1.07512e-05 -1.07512e-05 2.69199e+25 -1.80231 -1.12919 271.775 
1.26626e-05 -1.07512e-05 2.69095e+25 -0.41822 -1.19325 271.86 
1.45739e-05 -1.07512e-05 2.69214e+25 -0.0963108 -0.227968 272.087 
1.64852e-05 -1.07512e-05 2.68668e+25 0.0550212 -0.453939 272.556 
1.19458e-06 -1.02734e-05 2.69144e+25 -3.78762 -0.253025 271.813 
3.10592e-06 -1.02734e-05 2.69307e+25 -3.46021 -0.885289 271.957 
5.01725e-06 -1.02734e-05 2.69255e+25 -3.26372 -0.664584 271.952 
6.92858e-06 -1.02734e-05 2.69017e+25 -2.30394 -0.864483 272.232 
8.83992e-06 -1.02734e-05 2.68643e+25 -2.05933 -0.996121 272.334 
1.07512e-05 -1.02734e-05 2.69654e+25 -1.60806 -1.31807 271.543 
1.26626e-05 -1.02734e-05 2.69304e+25 -0.440677 -1.30985 271.839 
1.45739e-05 -1.02734e-05 2.69043e+25 -0.328745 -0.398952 272.149 
1.64852e-05 -1.02734e-05 2.6864e+25 0.15882 -0.430567 272.581 
1.19458e-06 -9.79558e-06 2.69401e+25 -3.89288 -0.225935 271.846 
3.10592e-06 -9.79558e-06 2.69173e+25 -4.03357 -1.01693 272.097 
5.01725e-06 -9.79558e-06 2.69296e+25 -3.52835 -0.781165 272.027 
6.92858e-06 -9.79558e-06 2.69137e+25 -2.59832 -1.22722 272.01 
8.83992e-06 -9.79558e-06 2.68887e+25 -1.81476 -1.06302 272.273 
1.07512e-05 -9.79558e-06 2.69578e+25 -1.1035 -1.61923 271.729 
1.26626e-05 -9.79558e-06 2.69232e+25 -0.58391 -1.28594 271.98 
1.45739e-05 -9.79558e-06 2.69255e+25 -0.330785 -0.700546 272.032 
1.64852e-05 -9.79558e-06 2.68605e+25 0.114684 -0.339649 272.6 
1.19458e-06 -9.31775e-06 2.69221e+25 -4.18809 -0.154882 271.984 
3.10592e-06 -9.31775e-06 2.69333e+25 -4.31949 -1.08184 271.776 
5.01725e-06 -9.31775e-06 2.69162e+25 -3.53785 -0.999341 271.933 
6.92858e-06 -9.31775e-06 2.69257e+25 -2.86546 -1.45713 272.012 
8.83992e-06 -9.31775e-06 2.6904e+25 -1.96805 -1.47236 272.176 
1.07512e-05 -9.31775e-06 2.69167e+25 -1.02286 -1.75414 271.779 
1.26626e-05 -9.31775e-06 2.69092e+25 -0.658974 -1.49281 272.064 
1.45739e-05 -9.31775e-06 2.69207e+25 -0.220207 -0.653148 271.994 
1.64852e-05 -9.31775e-06 2.68508e+25 0.033746 -0.333417 272.536 
1.19458e-06 -8.83992e-06 2.68898e+25 -4.66482 -0.207916 272.246 
3.10592e-06 -8.83992e-06 2.69073e+25 -4.30037 -1.22889 271.91 
5.01725e-06 -8.83992e-06 2.68987e+25 -3.71816 -1.20577 272.16 
6.92858e-06 -8.83992e-06 2.69104e+25 -3.00935 -1.4657 272.21 
8.83992e-06 -8.83992e-06 2.69297e+25 -2.11879 -1.71041 271.986 
1.07512e-05 -8.83992e-06 2.6928e+25 -1.29666 -1.77284 271.884 
1.26626e-05 -8.83992e-06 2.69299e+25 -0.846462 -1.73958 271.825 
1.45739e-05 -8.83992e-06 2.69182e+25 -0.223493 -0.783803 271.958 
1.64852e-05 -8.83992e-06 2.68524e+25 0.0245133 -0.398029 272.493 
1.19458e-06 -8.36208e-06 2.689e+25 -5.13715 -0.11102 272.195 
3.10592e-06 -8.36208e-06 2.69042e+25 -4.55006 -1.43895 272.086 
5.01725e-06 -8.36208e-06 2.68799e+25 -4.03529 -1.36957 272.355 
6.92858e-06 -8.36208e-06 2.69139e+25 -2.93495 -1.68592 272.029 
8.83992e-06 -8.36208e-06 2.69115e+25 -2.3814 -1.81978 271.934 
1.07512e-05 -8.36208e-06 2.69285e+25 -1.45461 -1.9831 271.784 
1.26626e-05 -8.36208e-06 2.69293e+25 -0.8528 -1.79111 271.886 
1.45739e-05 -8.36208e-06 2.6939e+25 -0.0121831 -0.984904 271.899 
1.64852e-05 -8.36208e-06 2.68721e+25 -0.100423 -0.325714 272.436 
1.19458e-06 -7.88425e-06 2.69089e+25 -5.365 -0.0525103 272.046 
3.10592e-06 -7.88425e-06 2.69085e+25 -4.62178 -1.56618 271.914 
5.01725e-06 -7.88425e-06 2.69242e+25 -4.05798 -1.60601 271.92 
6.92858e-06 -7.88425e-06 2.69373e+25 -3.5286 -1.94208 271.929 
8.83992e-06 -7.88425e-06 2.69142e+25 -2.79821 -2.0806 271.892 
1.07512e-05 -7.88425e-06 2.6935e+25 -1.70451 -2.25348 271.767 
1.26626e-05 -7.88425e-06 2.69463e+25 -1.10952 -1.86408 271.774 
1.45739e-05 -7.88425e-06 2.69161e+25 -0.0917426 -1.09029 271.919 
1.64852e-05 -7.88425e-06 2.68629e+25 -0.107175 -0.207335 272.538 
1.19458e-06 -7.40642e-06 2.69135e+25 -5.24018 0.0211978 272.022 
3.10592e-06 -7.40642e-06 2.69103e+25 -4.99437 -1.72623 272.177 
5.01725e-06 -7.40642e-06 2.69305e+25 -4.30398 -1.74815 271.934 
6.92858e-06 -7.40642e-06 2.69303e+25 -3.92467 -2.17279 272.013 
8.83992e-06 -7.40642e-06 2.69386e+25 -3.16395 -2.19481 271.787 
1.07512e-05 -7.40642e-06 2.6959e+25 -1.84116 -2.64468 271.573 
1.26626e-05 -7.40642e-06 2.69558e+25 -0.954611 -1.86755 271.695 
1.45739e-05 -7.40642e-06 2.69207e+25 -0.26683 -1.27494 272.016 
1.64852e-05 -7.40642e-06 2.6841e+25 0.10174 -0.146904 272.574 
1.19458e-06 -6.92858e-06 2.6934e+25 -5.60285 -0.0994784 271.904 
3.10592e-06 -6.92858e-06 2.69046e+25 -5.44773 -1.91938 272.131 
5.01725e-06 -6.92858e-06 2.69144e+25 -4.67331 -1.87725 272.022 
6.92858e-06 -6.92858e-06 2.69295e+25 -4.36777 -2.22488 271.861 
8.83992e-06 -6.92858e-06 2.69224e+25 -3.66789 -2.34739 271.863 
1.07512e-05 -6.92858e-06 2.69521e+25 -2.11814 -3.0442 271.76 
1.26626e-05 -6.92858e-06 2.69538e+25 -1.03598 -1.93989 271.623 
1.45739e-05 -6.92858e-06 2.69239e+25 -0.189878 -1.48633 272.058 
1.64852e-05 -6.92858e-06 2.68755e+25 0.0848944 -0.291089 272.45 
1.19458e-06 -6.45075e-06 2.69158e+25 -5.62339 -0.128477 271.901 
3.10592e-06 -6.45075e-06 2.69255e+25 -5.49669 -1.90426 271.958 
5.01725e-06 -6.45075e-06 2.69411e+25 -5.41562 -2.03289 271.815 
6.92858e-06 -6.45075e-06 2.693e+25 -4.79963 -2.35126 271.95 
8.83992e-06 -6.45075e-06 2.6932e+25 -3.57938 -2.64651 271.851 
1.07512e-05 -6.45075e-06 2.69558e+25 -2.32843 -3.33797 271.697 
1.26626e-05 -6.45075e-06 2.69302e+25 -1.41069 -2.12482 271.82 
1.45739e-05 -6.45075e-06 2.69093e+25 -0.383955 -1.68588 272.093 
1.64852e-05 -6.45075e-06 2.68637e+25 -0.0513284 -0.384094 272.665 
1.19458e-06 -5.97292e-06 2.69391e+25 -5.57859 -0.077665 271.927 
3.10592e-06 -5.97292e-06 2.69589e+25 -5.85273 -1.74767 271.755 
5.01725e-06 -5.97292e-06 2.69165e+25 -5.6826 -2.11893 272.082 
6.92858e-06 -5.97292e-06 2.69388e+25 -5.103 -2.57341 271.855 
8.83992e-06 -5.97292e-06 2.69246e+25 -3.91605 -3.09458 271.843 
1.07512e-05 -5.97292e-06 2.69253e+25 -2.60853 -3.64036 271.847 
1.26626e-05 -5.97292e-06 2.69189e+25 -1.35691 -2.28098 271.981 
1.45739e-05 -5.97292e-06 2.69151e+25 -0.700802 -1.65144 272.137 
1.64852e-05 -5.97292e-06 2.68445e+25 -0.165599 -0.341963 272.77 
1.19458e-06 -5.49508e-06 2.69154e+25 -5.92244 -0.172942 272.003 
3.10592e-06 -5.49508e-06 2.69415e+25 -5.87564 -1.52714 271.787 
5.01725e-06 -5.49508e-06 2.69129e+25 -6.0097 -2.30601 271.952 
6.92858e-06 -5.49508e-06 2.69088e+25 -5.32563 -2.75796 271.973 
8.83992e-06 -5.49508e-06 2.69346e+25 -4.11737 -3.59188 271.761 
1.07512e-05 -5.49508e-06 2.69269e+25 -2.83121 -3.94701 272.06 
1.26626e-05 -5.49508e-06 2.69207e+25 -1.4576 -2.60539 272.182 
1.45739e-05 -5.49508e-06 2.69263e+25 -0.877346 -1.7816 272.011 
1.64852e-05 -5.49508e-06 2.68681e+25 -0.0256758 -0.512897 272.495 
1.19458e-06 -5.01725e-06 2.6871e+25 -6.34136 -0.219613 272.269 
3.10592e-06 -5.01725e-06 2.69239e+25 -6.3126 -1.49527 271.806 
5.01725e-06 -5.01725e-06 2.68921e+25 -5.9434 -2.50157 272.119 
6.92858e-06 -5.01725e-06 2.69099e+25 -5.49112 -2.83607 272.132 
8.83992e-06 -5.01725e-06 2.69552e+25 -4.19364 -3.85197 271.801 
1.07512e-05 -5.01725e-06 2.69304e+25 -3.05337 -4.16859 271.96 
1.26626e-05 -5.01725e-06 2.6925e+25 -1.64542 -2.95565 271.972 
1.45739e-05 -5.01725e-06 2.69148e+25 -0.744562 -1.99122 272.043 
1.64852e-05 -5.01725e-06 2.6905e+25 -0.0652259 -0.633758 272.196 
1.19458e-06 -4.53942e-06 2.69007e+25 -6.54774 -0.339838 272.034 
3.10592e-06 -4.53942e-06 2.69126e+25 -6.62108 -1.63758 271.945 
5.01725e-06 -4.53942e-06 2.69344e+25 -6.40861 -2.5658 271.909 
6.92858e-06 -4.53942e-06 2.69037e+25 -5.44096 -3.15002 272.117 
8.83992e-06 -4.53942e-06 2.69383e+25 -4.45424 -4.16758 271.835 
1.07512e-05 -4.53942e-06 2.68883e+25 -3.33024 -4.32464 272.202 
1.26626e-05 -4.53942e-06 2.69018e+25 -1.56406 -3.37738 272.104 
1.45739e-05 -4.53942e-06 2.69206e+25 -0.477783 -2.06569 271.872 
1.64852e-05 -4.53942e-06 2.68886e+25 -0.0990319 -0.691725 272.276 
1.19458e-06 -4.06158e-06 2.68885e+25 -6.60321 -0.370742 272.244 
3.10592e-06 -4.06158e-06 2.69134e+25 -7.0933 -1.6663 271.938 
5.01725e-06 -4.06158e-06 2.69274e+25 -6.72665 -2.69014 271.909 
6.92858e-06 -4.06158e-06 2.69502e+25 -6.07143 -3.4743 271.901 
8.83992e-06 -4.06158e-06 2.69194e+25 -4.74839 -4.32038 271.983 
1.07512e-05 -4.06158e-06 2.69012e+25 -3.15467 -4.63501 272.283 
1.26626e-05 -4.06158e-06 2.68903e+25 -1.69424 -3.9046 272.351 
1.45739e-05 -4.06158e-06 2.68888e+25 -0.283564 -2.37996 272.19 
1.64852e-05 -4.06158e-06 2.69065e+25 -0.0945952 -0.720441 272.35 
1.19458e-06 -3.58375e-06 2.69072e+25 -6.83479 -0.425347 272.048 
3.10592e-06 -3.58375e-06 2.68889e+25 -7.45946 -1.62773 272.007 
5.01725e-06 -3.58375e-06 2.69396e+25 -7.01908 -2.86028 271.809 
6.92858e-06 -3.58375e-06 2.69366e+25 -6.13294 -3.50754 271.779 
8.83992e-06 -3.58375e-06 2.69198e+25 -4.95927 -4.70987 272.039 
1.07512e-05 -3.58375e-06 2.68977e+25 -3.14694 -5.08874 272.159 
1.26626e-05 -3.58375e-06 2.6882e+25 -1.68871 -4.19954 272.382 
1.45739e-05 -3.58375e-06 2.6868e+25 -0.409501 -2.75456 272.325 
1.64852e-05 -3.58375e-06 2.68942e+25 -0.123393 -0.723937 272.415 
1.19458e-06 -3.10592e-06 2.68856e+25 -7.25105 -0.304567 272.094 
3.10592e-06 -3.10592e-06 2.69174e+25 -7.74386 -1.49303 272.045 
5.01725e-06 -3.10592e-06 2.69268e+25 -7.4459 -2.94769 271.704 
6.92858e-06 -3.10592e-06 2.69236e+25 -6.82301 -3.79052 271.757 
8.83992e-06 -3.10592e-06 2.69203e+25 -5.21637 -5.21339 271.908 
1.07512e-05 -3.10592e-06 2.69189e+25 -3.49395 -5.55885 272.173 
1.26626e-05 -3.10592e-06 2.68725e+25 -1.7896 -4.59116 272.364 
1.45739e-05 -3.10592e-06 2.69056e+25 -0.529755 -2.94493 272.194 
1.64852e-05 -3.10592e-06 2.68676e+25 -0.0137288 -0.711217 272.305 
1.19458e-06 -2.62808e-06 2.6896e+25 -7.65187 -0.080541 272.124 
3.10592e-06 -2.62808e-06 2.68841e+25 -7.923 -1.51472 272.085 
5.01725e-06 -2.62808e-06 2.69204e+25 -7.56412 -3.01281 271.821 
6.92858e-06 -2.62808e-06 2.69321e+25 -7.2957 -4.15697 271.783 
8.83992e-06 -2.62808e-06 2.69585e+25 -5.57815 -5.72151 271.758 
1.07512e-05 -2.62808e-06 2.6915e+25 -4.08628 -6.05347 272.017 
1.26626e-05 -2.62808e-06 2.68908e+25 -2.18285 -4.99165 272.213 
1.45739e-05 -2.62808e-06 2.68766e+25 -0.744956 -3.16042 272.232 
1.64852e-05 -2.62808e-06 2.68318e+25 0.0817628 -0.657083 272.574 
1.19458e-06 -2.15025e-06 2.6911e+25 -7.82687 0.226505 271.938 
3.10592e-06 -2.15025e-06 2.68735e+25 -7.94676 -1.69854 272.258 
5.01725e-06 -2.15025e-06 2.69013e+25 -7.82071 -3.05598 271.88 
6.92858e-06 -2.15025e-06 2.69322e+25 -7.42755 -4.38139 271.925 
8.83992e-06 -2.15025e-06 2.69179e+25 -5.9871 -6.14741 271.875 
1.07512e-05 -2.15025e-06 2.68966e+25 -4.3314 -6.45785 272.065 
1.26626e-05 -2.15025e-06 2.68976e+25 -2.30421 -5.45104 272.257 
1.45739e-05 -2.15025e-06 2.69008e+25 -0.638083 -3.5252 272.233 
1.64852e-05 -2.15025e-06 2.68446e+25 -0.0240384 -0.776071 272.506 
1.19458e-06 -1.67242e-06 2.69148e+25 -8.11916 0.44524 271.859 
3.10592e-06 -1.67242e-06 2.6895e+25 -7.92232 -1.83689 272.27 
5.01725e-06 -1.67242e-06 2.69007e+25 -7.91701 -2.99524 271.999 
6.92858e-06 -1.67242e-06 2.69068e+25 -7.40497 -4.63712 272.029 
8.83992e-06 -1.67242e-06 2.69043e+25 -6.10762 -6.68247 272.062 
1.07512e-05 -1.67242e-06 2.69034e+25 -4.58564 -6.91191 272.162 
1.26626e-05 -1.67242e-06 2.69008e+25 -2.71426 -6.06594 272.267 
1.45739e-05 -1.67242e-06 2.69024e+25 -0.873021 -3.97683 272.195 
1.64852e-05 -1.67242e-06 2.68788e+25 0.0476693 -0.837475 272.436 
1.19458e-06 -1.19458e-06 2.69108e+25 -8.17821 0.549489 271.964 
3.10592e-06 -1.19458e-06 2.68964e+25 -7.79798 -1.84735 271.999 
5.01725e-06 -1.19458e-06 2.68919e+25 -7.84799 -3.03001 272.138 
6.92858e-06 -1.19458e-06 2.69049e+25 -7.14089 -4.91486 271.996 
8.83992e-06 -1.19458e-06 2.69166e+25 -6.18119 -7.044 271.752 
1.07512e-05 -1.19458e-06 2.69238e+25 -4.59042 -7.38813 271.91 
1.26626e-05 -1.19458e-06 2.68978e+25 -3.0794 -6.53764 272.249 
1.45739e-05 -1.19458e-06 2.68796e+25 -1.2093 -4.3127 272.292 
1.64852e-05 -1.19458e-06 2.68611e+25 0.0222345 -0.940966 272.441 
1.19458e-06 -7.1675e-07 2.69187e+25 -7.89707 0.558759 271.772 
3.10592e-06 -7.1675e-07 2.69095e+25 -7.88614 -1.73981 271.95 
5.01725e-06 -7.1675e-07 2.68964e+25 -7.70843 -3.1233 272.236 
6.92858e-06 -7.1675e-07 2.69576e+25 -7.26246 -5.32504 271.735 
8.83992e-06 -7.1675e-07 2.69271e+25 -6.32692 -7.19827 271.789 
1.07512e-05 -7.1675e-07 2.69156e+25 -4.74668 -7.7912 271.943 
1.26626e-05 -7.1675e-07 2.68773e+25 -3.31446 -6.91076 272.164 
1.45739e-05 -7.1675e-07 2.69019e+25 -1.50837 -4.58441 272.265 
1.64852e-05 -7.1675e-07 2.68818e+25 -0.0399718 -1.04592 272.332 
1.19458e-06 -2.38917e-07 2.68941e+25 -7.83654 0.50363 271.739 
3.10592e-06 -2.38917e-07 2.68729e+25 -7.95664 -1.80071 272.047 
5.01725e-06 -2.38917e-07 2.68486e+25 -7.59273 -3.2498 272.082 
6.92858e-06 -2.38917e-07 2.69181e+25 -6.91405 -5.43463 271.652 
8.83992e-06 -2.38917e-07 2.68932e+25 -6.45336 -7.40783 272.039 
1.07512e-05 -2.38917e-07 2.69197e+25 -4.74311 -8.10987 271.853 
1.26626e-05 -2.38917e-07 2.68703e+25 -3.61127 -7.29641 272.073 
1.45739e-05 -2.38917e-07 2.68847e+25 -1.70091 -5.04401 272.206 
1.64852e-05 -2.38917e-07 2.68608e+25 -0.180751 -1.15501 272.358 
2.38917e-07 -1.69631e-05 2.68216e+25 -0.205383 0.0730573 272.792 
2.15025e-06 -1.69631e-05 2.68392e+25 -0.289001 0.0477216 273.025 
4.06158e-06 -1.69631e-05 2.68143e+25 0.0161815 0.0315256 272.923 
5.97292e-06 -1.69631e-05 2.68381e+25 -0.468279 -0.0293786 272.983 
7.88425e-06 -1.69631e-05 2.68224e+25 -0.372324 -0.0116837 272.873 
9.79558e-06 -1.69631e-05 2.6857e+25 -0.15933 0.0333247 272.661 
1.17069e-05 -1.69631e-05 2.68679e+25 0.108947 0.0513833 272.602 
1.36182e-05 -1.69631e-05 2.68369e+25 0.0705576 -0.0410981 272.927 
1.55296e-05 -1.69631e-05 2.68378e+25 0.02159 0.0598521 272.855 
2.38917e-07 -1.64852e-05 2.68325e+25 -0.547324 0.258192 272.602 
2.15025e-06 -1.64852e-05 2.68533e+25 -0.252689 0.0115421 272.758 
4.06158e-06 -1.64852e-05 2.68537e+25 -0.273818 0.0471462 272.723 
5.97292e-06 -1.64852e-05 2.68547e+25 -0.825077 0.0460411 272.556 
7.88425e-06 -1.64852e-05 2.68589e+25 -0.457462 -0.0859758 272.717 
9.79558e-06 -1.64852e-05 2.68862e+25 -0.334943 -0.0220066 272.374 
1.17069e-05 -1.64852e-05 2.68883e+25 -0.168504 0.220484 272.34 
1.36182e-05 -1.64852e-05 2.68522e+25 -0.14848 -0.118043 272.691 
1.55296e-05 -1.64852e-05 2.68809e+25 -0.0580205 -0.0156947 272.498 
2.38917e-07 -1.60074e-05 2.68657e+25 -0.803548 0.236349 272.408 
2.15025e-06 -1.60074e-05 2.69023e+25 -0.589249 -0.171054 272.207 
4.06158e-06 -1.60074e-05 2.68813e+25 -0.8585 0.0798113 272.513 
5.97292e-06 -1.60074e-05 2.68805e+25 -0.932603 0.0118204 272.5 
7.88425e-06 -1.60074e-05 2.68686e+25 -0.794691 -0.138242 272.505 
9.79558e-06 -1.60074e-05 2.68697e+25 -0.44546 0.0207357 272.436 
1.17069e-05 -1.60074e-05 2.6898e+25 -0.31165 0.124151 272.287 
1.36182e-05 -1.60074e-05 2.68519e+25 -0.292361 -0.0930426 272.731 
1.55296e-05 -1.60074e-05 2.68921e+25 0.0137621 -0.121843 272.245 
2.38917e-07 -1.55296e-05 2.68822e+25 -1.15532 0.188441 272.255 
2.15025e-06 -1.55296e-05 2.69308e+25 -0.967013 -0.214577 271.891 
4.06158e-06 -1.55296e-05 2.6899e+25 -1.01376 0.0949088 272.186 
5.97292e-06 -1.55296e-05 2.6915e+25 -0.922818 -0.0362931 272.25 
7.88425e-06 -1.55296e-05 2.68393e+25 -0.913611 -0.135801 272.788 
9.79558e-06 -1.55296e-05 2.68711e+25 -0.529984 0.0277994 272.397 
1.17069e-05 -1.55296e-05 2.69141e+25 -0.560758 -0.0363866 272.105 
1.36182e-05 -1.55296e-05 2.68979e+25 -0.32282 -0.105518 272.288 
1.55296e-05 -1.55296e-05 2.69193e+25 0.00553845 -0.128423 271.932 
2.38917e-07 -1.50517e-05 2.68627e+25 -1.36628 0.112071 272.223 
2.15025e-06 -1.50517e-05 2.69417e+25 -1.09196 -0.27907 271.669 
4.06158e-06 -1.50517e-05 2.69156e+25 -1.11359 0.183402 271.983 
5.97292e-06 -1.50517e-05 2.69309e+25 -1.05989 -0.0380802 271.907 
7.88425e-06 -1.50517e-05 2.68714e+25 -0.829692 -0.316681 272.654 
9.79558e-06 -1.50517e-05 2.68546e+25 -0.456057 -0.0328435 272.513 
1.17069e-05 -1.50517e-05 2.68978e+25 -0.397472 -0.15326 272.179 
1.36182e-05 -1.50517e-05 2.69273e+25 -0.114713 -0.062262 272.113 
1.55296e-05 -1.50517e-05 2.69288e+25 0.246492 -0.228914 272.046 
2.38917e-07 -1.45739e-05 2.68942e+25 -1.52482 -0.0634868 272.081 
2.15025e-06 -1.45739e-05 2.69404e+25 -1.30802 -0.447968 271.693 
4.06158e-06 -1.45739e-05 2.6923e+25 -1.3177 0.268198 271.977 
5.97292e-06 -1.45739e-05 2.69228e+25 -0.957997 -0.0536574 271.846 
7.88425e-06 -1.45739e-05 2.68489e+25 -0.865846 -0.465951 272.589 
9.79558e-06 -1.45739e-05 2.68539e+25 -0.742496 -0.134358 272.68 
1.17069e-05 -1.45739e-05 2.69011e+25 -0.118625 -0.214708 272.279 
1.36182e-05 -1.45739e-05 2.69459e+25 0.0040018 -0.0611205 271.918 
1.55296e-05 -1.45739e-05 2.68832e+25 0.223496 -0.306799 272.413 
2.38917e-07 -1.40961e-05 2.68983e+25 -1.764 -0.225333 271.924 
2.15025e-06 -1.40961e-05 2.69427e+25 -1.46319 -0.408146 271.705 
4.06158e-06 -1.40961e-05 2.69222e+25 -1.32141 0.0894251 272.16 
5.97292e-06 -1.40961e-05 2.6929e+25 -1.38037 0.0387361 271.812 
7.88425e-06 -1.40961e-05 2.68542e+25 -0.964689 -0.566546 272.518 
9.79558e-06 -1.40961e-05 2.68804e+25 -0.845314 -0.345111 272.466 
1.17069e-05 -1.40961e-05 2.68909e+25 -0.176518 -0.258531 272.283 
1.36182e-05 -1.40961e-05 2.69044e+25 0.0779539 -0.259062 272.184 
1.55296e-05 -1.40961e-05 2.68932e+25 0.144801 -0.0483851 272.421 
2.38917e-07 -1.36182e-05 2.6894e+25 -1.76693 -0.239073 271.978 
2.15025e-06 -1.36182e-05 2.69406e+25 -1.93216 -0.280481 271.706 
4.06158e-06 -1.36182e-05 2.69233e+25 -1.5409 -0.124935 271.91 
5.97292e-06 -1.36182e-05 2.6917e+25 -1.28405 -0.0635153 271.969 
7.88425e-06 -1.36182e-05 2.68819e+25 -1.11331 -0.579298 272.437 
9.79558e-06 -1.36182e-05 2.69012e+25 -0.69286 -0.563842 272.287 
1.17069e-05 -1.36182e-05 2.68882e+25 -0.555952 -0.263794 272.316 
1.36182e-05 -1.36182e-05 2.68825e+25 0.12279 -0.520606 272.493 
1.55296e-05 -1.36182e-05 2.68736e+25 -0.147271 0.0234014 272.442 
2.38917e-07 -1.31404e-05 2.68809e+25 -1.83692 -0.241432 272.157 
2.15025e-06 -1.31404e-05 2.69504e+25 -2.18276 -0.25469 271.816 
4.06158e-06 -1.31404e-05 2.69532e+25 -1.7049 -0.187226 271.913 
5.97292e-06 -1.31404e-05 2.69079e+25 -1.19873 0.0126612 272.109 
7.88425e-06 -1.31404e-05 2.68773e+25 -1.48127 -0.712128 272.356 
9.79558e-06 -1.31404e-05 2.68912e+25 -0.518066 -0.719149 272.496 
1.17069e-05 -1.31404e-05 2.68958e+25 -0.463691 -0.100235 272.301 
1.36182e-05 -1.31404e-05 2.6872e+25 -0.099154 -0.758194 272.554 
1.55296e-05 -1.31404e-05 2.68899e+25 -0.295624 0.107339 272.309 
2.38917e-07 -1.26626e-05 2.68842e+25 -2.06346 -0.127339 272.212 
2.15025e-06 -1.26626e-05 2.69167e+25 -2.19258 -0.374639 272.061 
4.06158e-06 -1.26626e-05 2.69326e+25 -1.95321 -0.259369 271.762 
5.97292e-06 -1.26626e-05 2.69116e+25 -1.52764 -0.0140069 272.168 
7.88425e-06 -1.26626e-05 2.6898e+25 -1.31284 -0.812416 272.39 
9.79558e-06 -1.26626e-05 2.68262e+25 -0.66236 -0.838868 272.705 
1.17069e-05 -1.26626e-05 2.68881e+25 -0.496807 -0.0229888 272.273 
1.36182e-05 -1.26626e-05 2.68649e+25 -0.273504 -0.68648 272.422 
1.55296e-05 -1.26626e-05 2.68642e+25 -0.46625 0.240234 272.396 
2.38917e-07 -1.21847e-05 2.68925e+25 -2.44965 0.106589 272.071 
2.15025e-06 -1.21847e-05 2.69156e+25 -2.44718 -0.518471 272.094 
4.06158e-06 -1.21847e-05 2.69072e+25 -2.18249 -0.259783 271.943 
5.97292e-06 -1.21847e-05 2.69176e+25 -1.57223 -0.0102437 271.908 
7.88425e-06 -1.21847e-05 2.68808e+25 -1.44968 -0.787913 272.213 
9.79558e-06 -1.21847e-05 2.68604e+25 -1.1319 -0.850492 272.511 
1.17069e-05 -1.21847e-05 2.69063e+25 -0.657591 0.00250209 272.127 
1.36182e-05 -1.21847e-05 2.68758e+25 -0.316736 -0.777909 272.366 
1.55296e-05 -1.21847e-05 2.68862e+25 -0.496645 0.0438429 272.206 
2.38917e-07 -1.17069e-05 2.69272e+25 -2.64857 0.13607 271.852 
2.15025e-06 -1.17069e-05 2.69224e+25 -3.02745 -0.484466 272.032 
4.06158e-06 -1.17069e-05 2.6924e+25 -2.29081 -0.497836 272.027 
5.97292e-06 -1.17069e-05 2.69262e+25 -1.68191 -0.0930403 271.912 
7.88425e-06 -1.17069e-05 2.69151e+25 -1.43472 -0.890882 272.138 
9.79558e-06 -1.17069e-05 2.68677e+25 -1.4974 -0.979918 272.588 
1.17069e-05 -1.17069e-05 2.69106e+25 -1.05907 -0.171591 272.098 
1.36182e-05 -1.17069e-05 2.69088e+25 -0.573193 -0.785767 272.224 
1.55296e-05 -1.17069e-05 2.68776e+25 -0.314868 -0.0698328 272.346 
2.38917e-07 -1.12291e-05 2.69248e+25 -3.2572 0.208987 271.722 
2.15025e-06 -1.12291e-05 2.69136e+25 -3.18332 -0.378786 272.035 
4.06158e-06 -1.12291e-05 2.69445e+25 -2.66244 -0.5958 271.758 
5.97292e-06 -1.12291e-05 2.691e+25 -2.15826 -0.389988 272.22 
7.88425e-06 -1.12291e-05 2.69091e+25 -1.72899 -0.903816 271.973 
9.79558e-06 -1.12291e-05 2.68601e+25 -1.64451 -1.04687 272.596 
1.17069e-05 -1.12291e-05 2.69285e+25 -0.960093 -0.40128 271.777 
1.36182e-05 -1.12291e-05 2.69164e+25 -0.336629 -0.670011 272.096 
1.55296e-05 -1.12291e-05 2.68877e+25 -0.142428 -0.176086 272.278 
2.38917e-07 -1.07512e-05 2.69111e+25 -3.79069 0.213727 271.855 
2.15025e-06 -1.07512e-05 2.69192e+25 -3.41569 -0.364998 271.855 
4.06158e-06 -1.07512e-05 2.69362e+25 -3.10196 -0.698157 271.905 
5.97292e-06 -1.07512e-05 2.68883e+25 -2.7354 -0.631271 272.253 
7.88425e-06 -1.07512e-05 2.69028e+25 -1.75643 -0.940514 272.148 
9.79558e-06 -1.07512e-05 2.68658e+25 -1.98283 -1.0137 272.375 
1.17069e-05 -1.07512e-05 2.69504e+25 -1.03357 -0.815361 271.791 
1.36182e-05 -1.07512e-05 2.69188e+25 -0.268189 -0.64435 272.159 
1.55296e-05 -1.07512e-05 2.69096e+25 0.000706753 -0.245827 272.147 
2.38917e-07 -1.02734e-05 2.6884e+25 -3.95753 0.131047 272.042 
2.15025e-06 -1.02734e-05 2.69327e+25 -3.72972 -0.391566 271.842 
4.06158e-06 -1.02734e-05 2.69374e+25 -3.28946 -0.705769 271.876 
5.97292e-06 -1.02734e-05 2.68886e+25 -2.90956 -0.819716 272.169 
7.88425e-06 -1.02734e-05 2.68986e+25 -2.14378 -0.971604 272.233 
9.79558e-06 -1.02734e-05 2.69015e+25 -1.91246 -1.0364 272.131 
1.17069e-05 -1.02734e-05 2.69349e+25 -0.956145 -1.23523 271.827 
1.36182e-05 -1.02734e-05 2.6911e+25 -0.60786 -0.611447 272.03 
1.55296e-05 -1.02734e-05 2.69005e+25 0.12308 -0.423007 272.065 
2.38917e-07 -9.79558e-06 2.68764e+25 -4.08866 -0.0808423 272.133 
2.15025e-06 -9.79558e-06 2.69171e+25 -4.12574 -0.494868 272.104 
4.06158e-06 -9.79558e-06 2.69257e+25 -3.71837 -0.740534 271.941 
5.97292e-06 -9.79558e-06 2.68762e+25 -3.14689 -1.06464 272.296 
7.88425e-06 -9.79558e-06 2.69028e+25 -2.14779 -0.893682 272.11 
9.79558e-06 -9.79558e-06 2.6914e+25 -1.48512 -1.19893 272.072 
1.17069e-05 -9.79558e-06 2.6905e+25 -0.88235 -1.51849 271.999 
1.36182e-05 -9.79558e-06 2.69241e+25 -0.540095 -0.541598 271.917 
1.55296e-05 -9.79558e-06 2.69233e+25 0.0377454 -0.547169 272.008 
2.38917e-07 -9.31775e-06 2.68886e+25 -4.25333 -0.21127 272.148 
2.15025e-06 -9.31775e-06 2.69235e+25 -4.20758 -0.570053 271.993 
4.06158e-06 -9.31775e-06 2.69351e+25 -4.02023 -0.877294 271.901 
5.97292e-06 -9.31775e-06 2.69097e+25 -3.08586 -1.30233 272.126 
7.88425e-06 -9.31775e-06 2.69326e+25 -2.46315 -1.07132 271.932 
9.79558e-06 -9.31775e-06 2.68965e+25 -1.39498 -1.38405 272.158 
1.17069e-05 -9.31775e-06 2.6929e+25 -1.03671 -1.69781 271.77 
1.36182e-05 -9.31775e-06 2.69201e+25 -0.30355 -0.643338 271.994 
1.55296e-05 -9.31775e-06 2.69254e+25 -0.245091 -0.68552 271.978 
2.38917e-07 -8.83992e-06 2.68681e+25 -4.61143 -0.0417938 272.148 
2.15025e-06 -8.83992e-06 2.68983e+25 -4.61754 -0.562812 272.185 
4.06158e-06 -8.83992e-06 2.6931e+25 -4.10435 -1.0343 271.92 
5.97292e-06 -8.83992e-06 2.68899e+25 -3.33546 -1.53978 272.176 
7.88425e-06 -8.83992e-06 2.69243e+25 -2.52477 -1.3965 271.915 
9.79558e-06 -8.83992e-06 2.69157e+25 -1.69061 -1.62232 272.145 
1.17069e-05 -8.83992e-06 2.69398e+25 -1.15605 -1.79056 271.697 
1.36182e-05 -8.83992e-06 2.69319e+25 -0.553969 -0.812583 271.859 
1.55296e-05 -8.83992e-06 2.69176e+25 -0.0369702 -0.795163 272.006 
2.38917e-07 -8.36208e-06 2.6871e+25 -4.84145 0.180757 272.323 
2.15025e-06 -8.36208e-06 2.69084e+25 -4.89733 -0.702944 272.095 
4.06158e-06 -8.36208e-06 2.69307e+25 -4.33415 -1.13284 271.843 
5.97292e-06 -8.36208e-06 2.68967e+25 -3.56366 -1.86685 272.288 
7.88425e-06 -8.36208e-06 2.69009e+25 -2.65205 -1.65952 271.959 
9.79558e-06 -8.36208e-06 2.69007e+25 -1.99205 -1.81609 272.114 
1.17069e-05 -8.36208e-06 2.69282e+25 -0.966648 -1.94362 271.802 
1.36182e-05 -8.36208e-06 2.6939e+25 -0.628844 -0.935419 271.748 
1.55296e-05 -8.36208e-06 2.69191e+25 0.224528 -0.731946 271.99 
2.38917e-07 -7.88425e-06 2.68583e+25 -5.03374 0.251416 272.23 
2.15025e-06 -7.88425e-06 2.68981e+25 -5.22667 -0.995837 272.158 
4.06158e-06 -7.88425e-06 2.69203e+25 -4.35036 -1.24383 272.034 
5.97292e-06 -7.88425e-06 2.6894e+25 -3.82108 -1.95406 272.113 
7.88425e-06 -7.88425e-06 2.69247e+25 -3.23167 -1.76749 271.94 
9.79558e-06 -7.88425e-06 2.69207e+25 -2.31222 -2.03042 271.858 
1.17069e-05 -7.88425e-06 2.69187e+25 -1.1649 -1.98972 272.03 
1.36182e-05 -7.88425e-06 2.6943e+25 -0.6373 -1.26355 271.717 
1.55296e-05 -7.88425e-06 2.69272e+25 0.0893452 -0.633523 271.964 
2.38917e-07 -7.40642e-06 2.68726e+25 -5.33193 0.27471 272.187 
2.15025e-06 -7.40642e-06 2.69148e+25 -5.26314 -1.09036 272.003 
4.06158e-06 -7.40642e-06 2.68798e+25 -4.61087 -1.35951 272.189 
5.97292e-06 -7.40642e-06 2.69037e+25 -4.09061 -1.97505 272.156 
7.88425e-06 -7.40642e-06 2.69514e+25 -3.55321 -1.9606 271.859 
9.79558e-06 -7.40642e-06 2.69126e+25 -2.58579 -2.3001 272.012 
1.17069e-05 -7.40642e-06 2.69214e+25 -1.17316 -2.15947 271.922 
1.36182e-05 -7.40642e-06 2.69274e+25 -0.624059 -1.72023 272.01 
1.55296e-05 -7.40642e-06 2.69052e+25 0.0382999 -0.722052 272.103 
2.38917e-07 -6.92858e-06 2.6846e+25 -5.57448 0.253787 272.302 
2.15025e-06 -6.92858e-06 2.69034e+25 -5.42946 -1.04599 272.123 
4.06158e-06 -6.92858e-06 2.69201e+25 -5.06733 -1.53186 272.026 
5.97292e-06 -6.92858e-06 2.69153e+25 -4.51111 -2.07357 271.911 
7.88425e-06 -6.92858e-06 2.6944e+25 -3.9547 -2.21435 271.806 
9.79558e-06 -6.92858e-06 2.68806e+25 -2.91203 -2.77766 272.317 
1.17069e-05 -6.92858e-06 2.69541e+25 -1.45911 -2.36396 271.685 
1.36182e-05 -6.92858e-06 2.69245e+25 -0.843974 -1.9697 271.878 
1.55296e-05 -6.92858e-06 2.68989e+25 -0.210067 -0.732793 272.209 
2.38917e-07 -6.45075e-06 2.6866e+25 -5.52022 0.271704 272.324 
2.15025e-06 -6.45075e-06 2.69216e+25 -5.45174 -1.08295 272.046 
4.06158e-06 -6.45075e-06 2.69492e+25 -5.65123 -1.72157 271.834 
5.97292e-06 -6.45075e-06 2.69515e+25 -5.12137 -2.14297 271.692 
7.88425e-06 -6.45075e-06 2.69266e+25 -4.26054 -2.4861 271.848 
9.79558e-06 -6.45075e-06 2.69105e+25 -3.00774 -3.19804 272.149 
1.17069e-05 -6.45075e-06 2.69319e+25 -1.9482 -2.59071 271.633 
1.36182e-05 -6.45075e-06 2.69393e+25 -0.906692 -2.23567 271.834 
1.55296e-05 -6.45075e-06 2.68907e+25 -0.227716 -0.849104 272.248 
2.38917e-07 -5.97292e-06 2.68579e+25 -5.80125 0.137071 272.235 
2.15025e-06 -5.97292e-06 2.69267e+25 -5.51203 -1.1189 271.878 
4.06158e-06 -5.97292e-06 2.6905e+25 -5.95937 -1.80596 272.19 
5.97292e-06 -5.97292e-06 2.69305e+25 -5.28304 -2.27811 271.739 
7.88425e-06 -5.97292e-06 2.69111e+25 -4.59229 -2.72838 272.011 
9.79558e-06 -5.97292e-06 2.69308e+25 -3.08909 -3.56261 271.931 
1.17069e-05 -5.97292e-06 2.69384e+25 -1.92313 -2.9812 271.829 
1.36182e-05 -5.97292e-06 2.69271e+25 -0.957844 -2.39076 272.012 
1.55296e-05 -5.97292e-06 2.68895e+25 -0.47569 -0.960836 272.102 
2.38917e-07 -5.49508e-06 2.68581e+25 -6.20317 0.0993318 272.305 
2.15025e-06 -5.49508e-06 2.69259e+25 -5.73399 -1.20349 271.906 
4.06158e-06 -5.49508e-06 2.68917e+25 -5.88923 -1.77116 272.219 
5.97292e-06 -5.49508e-06 2.69102e+25 -5.59299 -2.45262 271.916 
7.88425e-06 -5.49508e-06 2.69275e+25 -4.80914 -3.10671 272.041 
9.79558e-06 -5.49508e-06 2.69298e+25 -3.12708 -3.74161 271.853 
1.17069e-05 -5.49508e-06 2.69164e+25 -2.10975 -3.28664 272.022 
1.36182e-05 -5.49508e-06 2.69131e+25 -1.12389 -2.54346 272.15 
1.55296e-05 -5.49508e-06 2.69013e+25 -0.608433 -1.28419 272.028 
2.38917e-07 -5.01725e-06 2.68662e+25 -6.42214 0.0228144 272.248 
2.15025e-06 -5.01725e-06 2.69041e+25 -6.34331 -1.18782 272.06 
4.06158e-06 -5.01725e-06 2.68962e+25 -6.31883 -1.82301 272.137 
5.97292e-06 -5.01725e-06 2.69234e+25 -5.77329 -2.59718 272.026 
7.88425e-06 -5.01725e-06 2.69182e+25 -4.93651 -3.40131 271.965 
9.79558e-06 -5.01725e-06 2.69161e+25 -3.63219 -3.91593 271.975 
1.17069e-05 -5.01725e-06 2.69224e+25 -2.36459 -3.67847 272.033 
1.36182e-05 -5.01725e-06 2.69196e+25 -1.01828 -2.63497 271.995 
1.55296e-05 -5.01725e-06 2.69175e+25 -0.428612 -1.40712 271.974 
2.38917e-07 -4.53942e-06 2.68788e+25 -6.55622 0.113039 272.117 
2.15025e-06 -4.53942e-06 2.69153e+25 -6.62111 -1.07134 272.044 
4.06158e-06 -4.53942e-06 2.69247e+25 -6.56669 -1.9315 271.734 
5.97292e-06 -4.53942e-06 2.69114e+25 -6.10775 -2.97263 271.887 
7.88425e-06 -4.53942e-06 2.69337e+25 -4.857 -3.61276 271.743 
9.79558e-06 -4.53942e-06 2.69332e+25 -3.92308 -4.29293 271.981 
1.17069e-05 -4.53942e-06 2.69008e+25 -2.47565 -4.18497 272.174 
1.36182e-05 -4.53942e-06 2.69209e+25 -0.947895 -2.83036 271.969 
1.55296e-05 -4.53942e-06 2.69273e+25 -0.112808 -1.58744 272.049 
2.38917e-07 -4.06158e-06 2.68955e+25 -6.71458 0.233386 271.973 
2.15025e-06 -4.06158e-06 2.68805e+25 -7.00167 -0.933074 272.322 
4.06158e-06 -4.06158e-06 2.69465e+25 -6.99424 -1.91279 271.714 
5.97292e-06 -4.06158e-06 2.69282e+25 -6.47711 -3.18484 271.808 
7.88425e-06 -4.06158e-06 2.69417e+25 -5.46615 -4.01666 271.757 
9.79558e-06 -4.06158e-06 2.69106e+25 -4.00767 -4.72624 272.266 
1.17069e-05 -4.06158e-06 2.69002e+25 -2.46165 -4.63371 272.222 
1.36182e-05 -4.06158e-06 2.6919e+25 -0.779136 -3.00982 271.986 
1.55296e-05 -4.06158e-06 2.69262e+25 0.0950795 -1.65268 271.873 
2.38917e-07 -3.58375e-06 2.68677e+25 -6.69194 0.299021 272.064 
2.15025e-06 -3.58375e-06 2.68623e+25 -7.10742 -0.749125 272.234 
4.06158e-06 -3.58375e-06 2.69381e+25 -7.20305 -2.06479 271.719 
5.97292e-06 -3.58375e-06 2.69513e+25 -6.71719 -3.41367 271.514 
7.88425e-06 -3.58375e-06 2.69215e+25 -5.73685 -4.39046 271.898 
9.79558e-06 -3.58375e-06 2.69292e+25 -4.21183 -5.1324 271.938 
1.17069e-05 -3.58375e-06 2.6892e+25 -2.43112 -4.94863 272.373 
1.36182e-05 -3.58375e-06 2.69044e+25 -1.0458 -3.32072 272.213 
1.55296e-05 -3.58375e-06 2.69148e+25 -0.119986 -1.64554 272.014 
2.38917e-07 -3.10592e-06 2.68762e+25 -6.96163 0.420457 272.109 
2.15025e-06 -3.10592e-06 2.69035e+25 -7.55688 -0.553586 272.049 
4.06158e-06 -3.10592e-06 2.69213e+25 -7.73085 -2.25388 271.785 
5.97292e-06 -3.10592e-06 2.69339e+25 -7.04717 -3.53216 271.604 
7.88425e-06 -3.10592e-06 2.68931e+25 -6.23204 -4.77508 271.974 
9.79558e-06 -3.10592e-06 2.69078e+25 -4.48375 -5.42728 272.007 
1.17069e-05 -3.10592e-06 2.68436e+25 -2.72827 -5.34588 272.442 
1.36182e-05 -3.10592e-06 2.68935e+25 -0.9841 -3.65196 272.177 
1.55296e-05 -3.10592e-06 2.69202e+25 -0.102242 -1.7433 272.028 
2.38917e-07 -2.62808e-06 2.68954e+25 -7.11726 0.64229 271.93 
2.15025e-06 -2.62808e-06 2.69031e+25 -7.91773 -0.287778 271.915 
4.06158e-06 -2.62808e-06 2.68897e+25 -7.74556 -2.28008 272.119 
5.97292e-06 -2.62808e-06 2.69129e+25 -7.46694 -3.5266 271.851 
7.88425e-06 -2.62808e-06 2.6903e+25 -6.58341 -5.18954 272.151 
9.79558e-06 -2.62808e-06 2.6922e+25 -4.73554 -5.88502 271.878 
1.17069e-05 -2.62808e-06 2.68846e+25 -3.14707 -5.85422 272.278 
1.36182e-05 -2.62808e-06 2.68624e+25 -1.22683 -4.03871 272.528 
1.55296e-05 -2.62808e-06 2.68888e+25 -0.0640292 -2.02633 272.261 
2.38917e-07 -2.15025e-06 2.68779e+25 -7.37334 0.908916 272.022 
2.15025e-06 -2.15025e-06 2.6906e+25 -8.13232 -0.20787 271.858 
4.06158e-06 -2.15025e-06 2.68907e+25 -7.72415 -2.29977 272.291 
5.97292e-06 -2.15025e-06 2.69233e+25 -7.79221 -3.5471 271.801 
7.88425e-06 -2.15025e-06 2.69025e+25 -6.83939 -5.64727 272.151 
9.79558e-06 -2.15025e-06 2.69339e+25 -5.11885 -6.43659 271.868 
1.17069e-05 -2.15025e-06 2.69037e+25 -3.36732 -6.2318 272.197 
1.36182e-05 -2.15025e-06 2.6882e+25 -1.49334 -4.44426 272.438 
1.55296e-05 -2.15025e-06 2.68891e+25 -0.0984465 -2.16332 272.312 
2.38917e-07 -1.67242e-06 2.68928e+25 -7.63617 1.25655 271.843 
2.15025e-06 -1.67242e-06 2.69174e+25 -8.08102 -0.312521 271.954 
4.06158e-06 -1.67242e-06 2.68774e+25 -7.77501 -2.34702 272.424 
5.97292e-06 -1.67242e-06 2.69422e+25 -7.81712 -3.61594 271.744 
7.88425e-06 -1.67242e-06 2.69061e+25 -6.76458 -6.02384 271.968 
9.79558e-06 -1.67242e-06 2.69324e+25 -5.30918 -6.841 271.753 
1.17069e-05 -1.67242e-06 2.69063e+25 -3.63393 -6.65737 272.119 
1.36182e-05 -1.67242e-06 2.68831e+25 -1.85845 -4.94769 272.171 
1.55296e-05 -1.67242e-06 2.68959e+25 -0.183359 -2.19778 272.249 
2.38917e-07 -1.19458e-06 2.68759e+25 -7.87033 1.45903 271.955 
2.15025e-06 -1.19458e-06 2.69156e+25 -8.0001 -0.620996 271.883 
4.06158e-06 -1.19458e-06 2.68956e+25 -7.88594 -2.38231 272.141 
5.97292e-06 -1.19458e-06 2.6926e+25 -7.73084 -3.80954 271.761 
7.88425e-06 -1.19458e-06 2.69106e+25 -6.58091 -6.18269 272.126 
9.79558e-06 -1.19458e-06 2.69157e+25 -5.52428 -7.17427 271.958 
1.17069e-05 -1.19458e-06 2.6905e+25 -3.76943 -7.14526 272.126 
1.36182e-05 -1.19458e-06 2.69075e+25 -2.15598 -5.47838 272.071 
1.55296e-05 -1.19458e-06 2.68887e+25 -0.569491 -2.46432 272.143 
2.38917e-07 -7.1675e-07 2.68777e+25 -7.78136 1.55334 272.058 
2.15025e-06 -7.1675e-07 2.68998e+25 -7.78565 -0.833493 271.844 
4.06158e-06 -7.1675e-07 2.68718e+25 -7.92237 -2.4224 272.273 
5.97292e-06 -7.1675e-07 2.6925e+25 -7.59353 -3.96491 271.851 
7.88425e-06 -7.1675e-07 2.69024e+25 -6.65559 -6.21717 272.104 
9.79558e-06 -7.1675e-07 2.69123e+25 -5.55266 -7.59614 272.122 
1.17069e-05 -7.1675e-07 2.6919e+25 -4.02542 -7.5319 272.004 
1.36182e-05 -7.1675e-07 2.68955e+25 -2.34257 -5.9282 272.178 
1.55296e-05 -7.1675e-07 2.68835e+25 -0.799528 -2.85728 272.287 
2.38917e-07 -2.38917e-07 2.68423e+25 -7.73785 1.75344 271.99 
2.15025e-06 -2.38917e-07 2.68699e+25 -7.88327 -0.762241 271.922 
4.06158e-06 -2.38917e-07 2.68555e+25 -7.8611 -2.44378 272.238 
5.97292e-06 -2.38917e-07 2.68695e+25 -7.32545 -3.91835 272.155 
7.88425e-06 -2.38917e-07 2.68775e+25 -6.88004 -6.35515 272.1 
9.79558e-06 -2.38917e-07 2.69074e+25 -5.60712 -8.0366 272.039 
1.17069e-05 -2.38917e-07 2.68684e+25 -4.31688 -7.77742 272.188 
1.36182e-05 -2.38917e-07 2.68718e+25 -2.5142 -6.3721 272.092 
1.55296e-05 -2.38917e-07 2.68792e+25 -0.748876 -3.26021 272.143 
7.1675e-07 -1.69631e-05 2.68733e+25 -0.297854 -0.010584 272.759 
2.62808e-06 -1.69631e-05 2.68439e+25 -0.344374 -0.00173652 272.854 
4.53942e-06 -1.69631e-05 2.68224e+25 -0.0266875 0.0568773 272.809 
6.45075e-06 -1.69631e-05 2.68417e+25 -0.381398 0.0291792 272.769 
8.36208e-06 -1.69631e-05 2.68422e+25 -0.350099 0.0361051 272.798 
1.02734e-05 -1.69631e-05 2.68438e+25 -0.116367 -0.0442385 272.824 
1.21847e-05 -1.69631e-05 2.68553e+25 -0.0830155 0.0800111 272.625 
1.40961e-05 -1.69631e-05 2.68403e+25 0.106403 0.0333911 272.809 
1.60074e-05 -1.69631e-05 2.68231e+25 -0.0360572 0.0121048 273.057 
7.1675e-07 -1.64852e-05 2.68866e+25 -0.530172 -0.0894181 272.49 
2.62808e-06 -1.64852e-05 2.68681e+25 -0.210877 0.0429621 272.497 
4.53942e-06 -1.64852e-05 2.68367e+25 -0.340321 0.160717 272.784 
6.45075e-06 -1.64852e-05 2.6855e+25 -0.77805 -0.189967 272.564 
8.36208e-06 -1.64852e-05 2.68744e+25 -0.42896 0.0339893 272.526 
1.02734e-05 -1.64852e-05 2.68743e+25 -0.284115 -0.062853 272.418 
1.21847e-05 -1.64852e-05 2.68691e+25 -0.175779 0.152923 272.523 
1.40961e-05 -1.64852e-05 2.68496e+25 -0.180728 0.0594262 272.779 
1.60074e-05 -1.64852e-05 2.68652e+25 0.0462928 0.0504014 272.641 
7.1675e-07 -1.60074e-05 2.68974e+25 -0.816392 -0.0478983 272.171 
2.62808e-06 -1.60074e-05 2.69052e+25 -0.441015 0.0727091 272.343 
4.53942e-06 -1.60074e-05 2.68615e+25 -0.96487 0.279957 272.508 
6.45075e-06 -1.60074e-05 2.68991e+25 -0.899904 -0.268211 272.466 
8.36208e-06 -1.60074e-05 2.68787e+25 -0.709683 -0.013531 272.542 
1.02734e-05 -1.60074e-05 2.68946e+25 -0.532007 -0.170806 272.204 
1.21847e-05 -1.60074e-05 2.68919e+25 -0.136471 0.0739817 272.393 
1.40961e-05 -1.60074e-05 2.68751e+25 -0.185656 -0.0874197 272.345 
1.60074e-05 -1.60074e-05 2.69103e+25 0.0723623 0.0342509 272.207 
7.1675e-07 -1.55296e-05 2.68969e+25 -1.08985 -0.0437719 272.066 
2.62808e-06 -1.55296e-05 2.69126e+25 -0.839268 -0.0744778 272.008 
4.53942e-06 -1.55296e-05 2.6903e+25 -1.05926 0.317646 272.17 
6.45075e-06 -1.55296e-05 2.68954e+25 -0.918657 -0.304509 272.4 
8.36208e-06 -1.55296e-05 2.68515e+25 -0.863034 -0.168723 272.655 
1.02734e-05 -1.55296e-05 2.68831e+25 -0.465216 -0.167485 272.329 
1.21847e-05 -1.55296e-05 2.69062e+25 -0.387132 -0.10383 272.149 
1.40961e-05 -1.55296e-05 2.68855e+25 -0.292429 -0.207962 272.383 
1.60074e-05 -1.55296e-05 2.68994e+25 0.0543922 -0.120797 272.268 
7.1675e-07 -1.50517e-05 2.69139e+25 -1.32032 -0.0725967 272.098 
2.62808e-06 -1.50517e-05 2.69446e+25 -1.06231 -0.218312 271.757 
4.53942e-06 -1.50517e-05 2.69216e+25 -1.14954 0.373212 271.95 
6.45075e-06 -1.50517e-05 2.69165e+25 -1.0089 -0.295351 272.228 
8.36208e-06 -1.50517e-05 2.68669e+25 -0.704967 -0.218986 272.586 
1.02734e-05 -1.50517e-05 2.68573e+25 -0.473569 -0.153323 272.692 
1.21847e-05 -1.50517e-05 2.68904e+25 -0.309462 -0.190238 272.26 
1.40961e-05 -1.50517e-05 2.69019e+25 -0.0881925 -0.26777 272.269 
1.60074e-05 -1.50517e-05 2.69017e+25 0.20924 -0.100483 272.235 
7.1675e-07 -1.45739e-05 2.69295e+25 -1.37598 -0.0873273 272.016 
2.62808e-06 -1.45739e-05 2.6926e+25 -1.27644 -0.173525 271.852 
4.53942e-06 -1.45739e-05 2.69357e+25 -1.24532 0.311105 271.986 
6.45075e-06 -1.45739e-05 2.69167e+25 -1.0409 -0.19631 272.105 
8.36208e-06 -1.45739e-05 2.68697e+25 -0.739781 -0.306365 272.541 
1.02734e-05 -1.45739e-05 2.68596e+25 -0.543287 -0.172446 272.552 
1.21847e-05 -1.45739e-05 2.69029e+25 -0.164498 -0.151479 272.166 
1.40961e-05 -1.45739e-05 2.68991e+25 0.00771837 -0.360212 272.316 
1.60074e-05 -1.45739e-05 2.68764e+25 0.181056 0.0168265 272.425 
7.1675e-07 -1.40961e-05 2.69304e+25 -1.60414 -0.168436 271.879 
2.62808e-06 -1.40961e-05 2.69442e+25 -1.56119 -0.132074 271.688 
4.53942e-06 -1.40961e-05 2.69429e+25 -1.20315 0.157163 271.769 
6.45075e-06 -1.40961e-05 2.6911e+25 -1.28353 -0.236683 272.119 
8.36208e-06 -1.40961e-05 2.68616e+25 -0.808875 -0.461556 272.607 
1.02734e-05 -1.40961e-05 2.68658e+25 -0.562784 -0.419141 272.532 
1.21847e-05 -1.40961e-05 2.69255e+25 -0.145529 -0.231141 272.083 
1.40961e-05 -1.40961e-05 2.68865e+25 0.230738 -0.299343 272.396 
1.60074e-05 -1.40961e-05 2.6873e+25 0.0196507 0.0591489 272.557 
7.1675e-07 -1.36182e-05 2.69271e+25 -1.70948 -0.286289 271.893 
2.62808e-06 -1.36182e-05 2.69607e+25 -1.91361 -0.125427 271.548 
4.53942e-06 -1.36182e-05 2.69359e+25 -1.27384 0.0369925 271.92 
6.45075e-06 -1.36182e-05 2.69136e+25 -1.33213 -0.187559 271.984 
8.36208e-06 -1.36182e-05 2.68858e+25 -1.1561 -0.535325 272.472 
1.02734e-05 -1.36182e-05 2.68866e+25 -0.491931 -0.674466 272.455 
1.21847e-05 -1.36182e-05 2.69051e+25 -0.552302 -0.227873 272.275 
1.40961e-05 -1.36182e-05 2.6863e+25 0.352274 -0.447811 272.501 
1.60074e-05 -1.36182e-05 2.68607e+25 -0.0976936 0.118696 272.521 
7.1675e-07 -1.31404e-05 2.69106e+25 -1.89115 -0.214321 272.018 
2.62808e-06 -1.31404e-05 2.69644e+25 -2.05511 -0.281976 271.578 
4.53942e-06 -1.31404e-05 2.69282e+25 -1.72798 -0.135711 272.08 
6.45075e-06 -1.31404e-05 2.69046e+25 -1.39991 -0.0687232 272.132 
8.36208e-06 -1.31404e-05 2.68787e+25 -1.26233 -0.68407 272.411 
1.02734e-05 -1.31404e-05 2.68663e+25 -0.468685 -0.783988 272.543 
1.21847e-05 -1.31404e-05 2.69009e+25 -0.562509 -0.347521 272.234 
1.40961e-05 -1.31404e-05 2.6871e+25 -0.11803 -0.494606 272.459 
1.60074e-05 -1.31404e-05 2.68827e+25 -0.378052 0.108142 272.411 
7.1675e-07 -1.26626e-05 2.68979e+25 -2.23795 -0.108425 272.106 
2.62808e-06 -1.26626e-05 2.69256e+25 -2.16198 -0.340524 271.909 
4.53942e-06 -1.26626e-05 2.6933e+25 -1.90836 -0.187961 272.038 
6.45075e-06 -1.26626e-05 2.68918e+25 -1.46564 0.066947 272.071 
8.36208e-06 -1.26626e-05 2.68999e+25 -1.22274 -0.908288 272.333 
1.02734e-05 -1.26626e-05 2.68756e+25 -0.592728 -0.777012 272.576 
1.21847e-05 -1.26626e-05 2.69122e+25 -0.528638 -0.313604 272.246 
1.40961e-05 -1.26626e-05 2.68567e+25 -0.261611 -0.476266 272.577 
1.60074e-05 -1.26626e-05 2.68786e+25 -0.383713 -0.053203 272.295 
7.1675e-07 -1.21847e-05 2.68866e+25 -2.53026 -0.0651679 272.147 
2.62808e-06 -1.21847e-05 2.6918e+25 -2.35921 -0.318648 271.961 
4.53942e-06 -1.21847e-05 2.69121e+25 -2.03027 -0.330263 271.938 
6.45075e-06 -1.21847e-05 2.68943e+25 -1.57783 0.00389532 272.114 
8.36208e-06 -1.21847e-05 2.68826e+25 -1.38464 -1.04823 272.297 
1.02734e-05 -1.21847e-05 2.68793e+25 -1.03841 -0.994885 272.594 
1.21847e-05 -1.21847e-05 2.69087e+25 -0.51978 -0.387312 272.197 
1.40961e-05 -1.21847e-05 2.68856e+25 -0.409063 -0.266991 272.389 
1.60074e-05 -1.21847e-05 2.68805e+25 -0.257637 -0.208491 272.361 
7.1675e-07 -1.17069e-05 2.69104e+25 -2.72132 0.0612944 271.971 
2.62808e-06 -1.17069e-05 2.69243e+25 -2.93519 -0.457488 271.866 
4.53942e-06 -1.17069e-05 2.6943e+25 -2.15603 -0.418675 271.784 
6.45075e-06 -1.17069e-05 2.68857e+25 -1.53931 -0.109045 272.199 
8.36208e-06 -1.17069e-05 2.69075e+25 -1.48988 -0.988061 272.233 
1.02734e-05 -1.17069e-05 2.6862e+25 -1.43191 -0.998902 272.353 
1.21847e-05 -1.17069e-05 2.69017e+25 -0.914217 -0.534489 272.006 
1.40961e-05 -1.17069e-05 2.68957e+25 -0.607551 -0.193497 272.273 
1.60074e-05 -1.17069e-05 2.69103e+25 -0.250384 -0.345273 272.227 
7.1675e-07 -1.12291e-05 2.6914e+25 -3.24089 0.0804509 272.09 
2.62808e-06 -1.12291e-05 2.69201e+25 -3.23541 -0.675404 271.811 
4.53942e-06 -1.12291e-05 2.6927e+25 -2.62401 -0.565379 271.842 
6.45075e-06 -1.12291e-05 2.68891e+25 -1.87102 -0.256177 272.292 
8.36208e-06 -1.12291e-05 2.68955e+25 -1.59413 -1.02196 272.209 
1.02734e-05 -1.12291e-05 2.69007e+25 -1.64806 -1.0684 272.189 
1.21847e-05 -1.12291e-05 2.69312e+25 -0.726135 -0.738611 271.847 
1.40961e-05 -1.12291e-05 2.68741e+25 -0.461612 -0.169067 272.366 
1.60074e-05 -1.12291e-05 2.68643e+25 -0.0407195 -0.453135 272.435 
7.1675e-07 -1.07512e-05 2.6918e+25 -3.69625 0.0170223 271.931 
2.62808e-06 -1.07512e-05 2.69098e+25 -3.27872 -0.754214 271.852 
4.53942e-06 -1.07512e-05 2.69166e+25 -3.07954 -0.509196 272.03 
6.45075e-06 -1.07512e-05 2.68873e+25 -2.4391 -0.541812 272.263 
8.36208e-06 -1.07512e-05 2.69008e+25 -1.7683 -1.14133 272.218 
1.02734e-05 -1.07512e-05 2.68908e+25 -1.90475 -1.04672 272.012 
1.21847e-05 -1.07512e-05 2.6918e+25 -0.604764 -1.00037 271.917 
1.40961e-05 -1.07512e-05 2.68823e+25 -0.154648 -0.148008 272.303 
1.60074e-05 -1.07512e-05 2.69011e+25 0.050795 -0.450445 272.364 
7.1675e-07 -1.02734e-05 2.69163e+25 -3.90625 -0.0639004 271.843 
2.62808e-06 -1.02734e-05 2.69243e+25 -3.59401 -0.942962 271.963 
4.53942e-06 -1.02734e-05 2.69039e+25 -3.27442 -0.600897 272.172 
6.45075e-06 -1.02734e-05 2.68995e+25 -2.61953 -0.912198 272.346 
8.36208e-06 -1.02734e-05 2.68855e+25 -2.1243 -1.09945 272.33 
1.02734e-05 -1.02734e-05 2.69239e+25 -1.82414 -1.21868 272.035 
1.21847e-05 -1.02734e-05 2.694e+25 -0.623592 -1.32812 271.89 
1.40961e-05 -1.02734e-05 2.69082e+25 -0.634681 -0.344658 271.996 
1.60074e-05 -1.02734e-05 2.68878e+25 0.238864 -0.409435 272.297 
7.1675e-07 -9.79558e-06 2.69255e+25 -3.86562 -0.121009 271.899 
2.62808e-06 -9.79558e-06 2.69089e+25 -4.0678 -1.00319 271.998 
4.53942e-06 -9.79558e-06 2.69271e+25 -3.61587 -0.599911 272.087 
6.45075e-06 -9.79558e-06 2.69333e+25 -2.9261 -1.2167 272.095 
8.36208e-06 -9.79558e-06 2.68921e+25 -2.1147 -1.28523 272.184 
1.02734e-05 -9.79558e-06 2.69141e+25 -1.3092 -1.3365 271.981 
1.21847e-05 -9.79558e-06 2.69146e+25 -0.66211 -1.60756 271.979 
1.40961e-05 -9.79558e-06 2.69242e+25 -0.435674 -0.45709 271.986 
1.60074e-05 -9.79558e-06 2.68841e+25 0.144774 -0.445627 272.344 
7.1675e-07 -9.31775e-06 2.68811e+25 -4.26159 -0.172569 272.051 
2.62808e-06 -9.31775e-06 2.69183e+25 -4.27999 -0.945036 272.099 
4.53942e-06 -9.31775e-06 2.69311e+25 -3.82291 -0.775257 271.863 
6.45075e-06 -9.31775e-06 2.69287e+25 -2.91183 -1.34342 271.987 
8.36208e-06 -9.31775e-06 2.69234e+25 -2.22815 -1.43908 272.02 
1.02734e-05 -9.31775e-06 2.69083e+25 -1.14653 -1.54338 272.176 
1.21847e-05 -9.31775e-06 2.69224e+25 -0.926938 -1.73704 271.907 
1.40961e-05 -9.31775e-06 2.69146e+25 -0.189176 -0.594873 271.872 
1.60074e-05 -9.31775e-06 2.68939e+25 -0.0784348 -0.536302 272.299 
7.1675e-07 -8.83992e-06 2.69008e+25 -4.69892 -0.233327 272.187 
2.62808e-06 -8.83992e-06 2.69085e+25 -4.55576 -0.937811 272.021 
4.53942e-06 -8.83992e-06 2.69405e+25 -3.9824 -1.04379 271.976 
6.45075e-06 -8.83992e-06 2.68881e+25 -3.1025 -1.4599 272.23 
8.36208e-06 -8.83992e-06 2.69519e+25 -2.2459 -1.65827 271.86 
1.02734e-05 -8.83992e-06 2.69166e+25 -1.43061 -1.74396 272.255 
1.21847e-05 -8.83992e-06 2.69297e+25 -0.990112 -1.86792 271.814 
1.40961e-05 -8.83992e-06 2.69194e+25 -0.491177 -0.575856 271.907 
1.60074e-05 -8.83992e-06 2.69081e+25 -0.0166554 -0.606331 272.074 
7.1675e-07 -8.36208e-06 2.6898e+25 -4.98635 -0.158018 272.2 
2.62808e-06 -8.36208e-06 2.68797e+25 -4.65697 -1.10308 272.205 
4.53942e-06 -8.36208e-06 2.69144e+25 -4.20022 -1.27375 272.024 
6.45075e-06 -8.36208e-06 2.68865e+25 -3.19913 -1.69933 272.329 
8.36208e-06 -8.36208e-06 2.69157e+25 -2.46342 -1.81435 271.989 
1.02734e-05 -8.36208e-06 2.69436e+25 -1.7994 -2.00928 271.851 
1.21847e-05 -8.36208e-06 2.68975e+25 -0.913625 -1.95987 272.029 
1.40961e-05 -8.36208e-06 2.69339e+25 -0.289613 -0.876755 271.904 
1.60074e-05 -8.36208e-06 2.69241e+25 0.0847831 -0.529439 272.073 
7.1675e-07 -7.88425e-06 2.68973e+25 -5.18686 0.0978625 272.219 
2.62808e-06 -7.88425e-06 2.69059e+25 -4.89839 -1.33996 272.023 
4.53942e-06 -7.88425e-06 2.69307e+25 -4.21382 -1.39628 271.931 
6.45075e-06 -7.88425e-06 2.69303e+25 -3.72494 -2.0009 272.045 
8.36208e-06 -7.88425e-06 2.69376e+25 -3.08539 -1.95858 271.912 
1.02734e-05 -7.88425e-06 2.69297e+25 -1.95021 -2.3377 271.882 
1.21847e-05 -7.88425e-06 2.69417e+25 -1.12618 -1.95333 271.911 
1.40961e-05 -7.88425e-06 2.69385e+25 -0.253768 -1.26604 271.984 
1.60074e-05 -7.88425e-06 2.68735e+25 0.0240829 -0.408102 272.244 
7.1675e-07 -7.40642e-06 2.68984e+25 -5.30121 0.136829 272.219 
2.62808e-06 -7.40642e-06 2.69184e+25 -5.20313 -1.6889 272.141 
4.53942e-06 -7.40642e-06 2.69097e+25 -4.45601 -1.55484 271.882 
6.45075e-06 -7.40642e-06 2.69353e+25 -4.1418 -2.06774 272.026 
8.36208e-06 -7.40642e-06 2.69152e+25 -3.32698 -2.23939 271.993 
1.02734e-05 -7.40642e-06 2.69272e+25 -2.27494 -2.69188 271.99 
1.21847e-05 -7.40642e-06 2.69588e+25 -1.05198 -1.99463 271.709 
1.40961e-05 -7.40642e-06 2.69132e+25 -0.38742 -1.35506 272.188 
1.60074e-05 -7.40642e-06 2.68875e+25 0.0679991 -0.327396 272.276 
7.1675e-07 -6.92858e-06 2.68906e+25 -5.66235 0.173528 272.107 
2.62808e-06 -6.92858e-06 2.69071e+25 -5.46177 -1.7288 272.124 
4.53942e-06 -6.92858e-06 2.69289e+25 -4.90509 -1.75487 271.889 
6.45075e-06 -6.92858e-06 2.69138e+25 -4.3427 -2.11097 272.037 
8.36208e-06 -6.92858e-06 2.69193e+25 -3.75224 -2.37678 271.955 
1.02734e-05 -6.92858e-06 2.69035e+25 -2.47389 -3.08294 272.197 
1.21847e-05 -6.92858e-06 2.69319e+25 -1.19827 -2.19552 271.7 
1.40961e-05 -6.92858e-06 2.68922e+25 -0.537984 -1.66807 272.11 
1.60074e-05 -6.92858e-06 2.69061e+25 -0.0942136 -0.409813 272.186 
7.1675e-07 -6.45075e-06 2.69132e+25 -5.47465 0.260696 272.057 
2.62808e-06 -6.45075e-06 2.69414e+25 -5.41023 -1.68372 271.768 
4.53942e-06 -6.45075e-06 2.69428e+25 -5.45268 -1.89772 271.845 
6.45075e-06 -6.45075e-06 2.69222e+25 -5.02489 -2.32749 271.885 
8.36208e-06 -6.45075e-06 2.69121e+25 -4.03516 -2.61016 271.919 
1.02734e-05 -6.45075e-06 2.69174e+25 -2.57587 -3.46385 272.017 
1.21847e-05 -6.45075e-06 2.69405e+25 -1.65928 -2.53062 271.638 
1.40961e-05 -6.45075e-06 2.69155e+25 -0.60466 -1.96372 271.943 
1.60074e-05 -6.45075e-06 2.68743e+25 -0.177025 -0.558349 272.466 
7.1675e-07 -5.97292e-06 2.68844e+25 -5.67956 0.291003 272.154 
2.62808e-06 -5.97292e-06 2.69588e+25 -5.54089 -1.50975 271.767 
4.53942e-06 -5.97292e-06 2.69076e+25 -5.85151 -2.04834 272.16 
6.45075e-06 -5.97292e-06 2.69125e+25 -5.24346 -2.4038 271.849 
8.36208e-06 -5.97292e-06 2.68887e+25 -4.32195 -2.92621 272.013 
1.02734e-05 -5.97292e-06 2.69214e+25 -2.92586 -3.66827 271.919 
1.21847e-05 -5.97292e-06 2.69193e+25 -1.614 -2.74446 272.08 
1.40961e-05 -5.97292e-06 2.69038e+25 -0.784651 -2.27631 272.146 
1.60074e-05 -5.97292e-06 2.68538e+25 -0.191504 -0.777091 272.573 
7.1675e-07 -5.49508e-06 2.68969e+25 -6.03072 0.138429 272.282 
2.62808e-06 -5.49508e-06 2.69109e+25 -5.81093 -1.31918 272.02 
4.53942e-06 -5.49508e-06 2.68982e+25 -6.03769 -2.00607 272.141 
6.45075e-06 -5.49508e-06 2.69187e+25 -5.38923 -2.4811 271.961 
8.36208e-06 -5.49508e-06 2.69488e+25 -4.44576 -3.18516 271.827 
1.02734e-05 -5.49508e-06 2.69142e+25 -3.03416 -3.83873 271.982 
1.21847e-05 -5.49508e-06 2.69109e+25 -1.82509 -3.09857 272.109 
1.40961e-05 -5.49508e-06 2.69334e+25 -1.06476 -2.34838 272.076 
1.60074e-05 -5.49508e-06 2.68866e+25 -0.326386 -0.96736 272.371 
7.1675e-07 -5.01725e-06 2.68899e+25 -6.43317 -0.00829933 272.244 
2.62808e-06 -5.01725e-06 2.69253e+25 -6.40597 -1.32385 271.926 
4.53942e-06 -5.01725e-06 2.68823e+25 -6.14794 -2.04967 272.168 
6.45075e-06 -5.01725e-06 2.6911e+25 -5.63013 -2.6191 272.053 
8.36208e-06 -5.01725e-06 2.69499e+25 -4.5914 -3.71196 271.746 
1.02734e-05 -5.01725e-06 2.68987e+25 -3.25875 -4.08452 271.986 
1.21847e-05 -5.01725e-06 2.6923e+25 -1.95906 -3.37668 272.006 
1.40961e-05 -5.01725e-06 2.6924e+25 -0.848848 -2.46793 272.02 
1.60074e-05 -5.01725e-06 2.68886e+25 -0.248963 -1.29181 272.136 
7.1675e-07 -4.53942e-06 2.69017e+25 -6.63341 0.0121261 272.139 
2.62808e-06 -4.53942e-06 2.69208e+25 -6.59923 -1.31389 271.834 
4.53942e-06 -4.53942e-06 2.69048e+25 -6.4702 -2.20063 271.969 
6.45075e-06 -4.53942e-06 2.68963e+25 -5.77443 -2.75168 272.104 
8.36208e-06 -4.53942e-06 2.69499e+25 -4.60054 -3.92038 271.929 
1.02734e-05 -4.53942e-06 2.68866e+25 -3.58876 -4.39373 272.123 
1.21847e-05 -4.53942e-06 2.69008e+25 -2.05044 -3.78372 272.15 
1.40961e-05 -4.53942e-06 2.6933e+25 -0.760758 -2.71071 271.877 
1.60074e-05 -4.53942e-06 2.6911e+25 -0.112144 -1.37284 272.047 
7.1675e-07 -4.06158e-06 2.68809e+25 -6.68072 -0.0713145 272.256 
2.62808e-06 -4.06158e-06 2.69024e+25 -7.14218 -1.36459 272.046 
4.53942e-06 -4.06158e-06 2.69206e+25 -6.9698 -2.35819 271.923 
6.45075e-06 -4.06158e-06 2.69497e+25 -6.2622 -3.05655 271.802 
8.36208e-06 -4.06158e-06 2.69149e+25 -5.07651 -4.20425 271.848 
1.02734e-05 -4.06158e-06 2.68921e+25 -3.5735 -4.73058 272.269 
1.21847e-05 -4.06158e-06 2.68682e+25 -2.05202 -4.16263 272.484 
1.40961e-05 -4.06158e-06 2.69208e+25 -0.52662 -2.94867 272.085 
1.60074e-05 -4.06158e-06 2.69117e+25 -0.0118851 -1.19853 272.067 
7.1675e-07 -3.58375e-06 2.68951e+25 -6.82642 -0.0535077 272.11 
2.62808e-06 -3.58375e-06 2.68671e+25 -7.2937 -1.20327 272.291 
4.53942e-06 -3.58375e-06 2.69398e+25 -7.02389 -2.3967 271.741 
6.45075e-06 -3.58375e-06 2.69466e+25 -6.38586 -3.37122 271.736 
8.36208e-06 -3.58375e-06 2.69139e+25 -5.35719 -4.58464 271.839 
1.02734e-05 -3.58375e-06 2.68989e+25 -3.71109 -5.30399 272.195 
1.21847e-05 -3.58375e-06 2.68739e+25 -2.06141 -4.6087 272.583 
1.40961e-05 -3.58375e-06 2.68788e+25 -0.771591 -3.15648 272.38 
1.60074e-05 -3.58375e-06 2.68897e+25 -0.123691 -1.1723 272.106 
7.1675e-07 -3.10592e-06 2.68889e+25 -7.03663 0.0329864 272.144 
2.62808e-06 -3.10592e-06 2.68805e+25 -7.69296 -1.08956 272.14 
4.53942e-06 -3.10592e-06 2.69097e+25 -7.59193 -2.54936 271.824 
6.45075e-06 -3.10592e-06 2.69421e+25 -7.02773 -3.59344 271.84 
8.36208e-06 -3.10592e-06 2.69213e+25 -5.75772 -5.02738 271.86 
1.02734e-05 -3.10592e-06 2.69028e+25 -4.00331 -5.88963 272.116 
1.21847e-05 -3.10592e-06 2.68724e+25 -2.2733 -5.00542 272.372 
1.40961e-05 -3.10592e-06 2.68677e+25 -0.655771 -3.47006 272.382 
1.60074e-05 -3.10592e-06 2.68934e+25 0.00925027 -1.17836 272.172 
7.1675e-07 -2.62808e-06 2.69081e+25 -7.36137 0.240446 272.09 
2.62808e-06 -2.62808e-06 2.69206e+25 -8.0149 -1.07953 272.02 
4.53942e-06 -2.62808e-06 2.69257e+25 -7.66036 -2.71228 271.973 
6.45075e-06 -2.62808e-06 2.69452e+25 -7.49263 -3.62196 271.734 
8.36208e-06 -2.62808e-06 2.69228e+25 -6.07703 -5.57295 272.039 
1.02734e-05 -2.62808e-06 2.69075e+25 -4.35606 -6.23986 272.038 
1.21847e-05 -2.62808e-06 2.68602e+25 -2.59615 -5.51621 272.346 
1.40961e-05 -2.62808e-06 2.68555e+25 -0.966733 -3.68295 272.441 
1.60074e-05 -2.62808e-06 2.69293e+25 0.0822028 -1.19465 272.119 
7.1675e-07 -2.15025e-06 2.69019e+25 -7.65225 0.470647 272.074 
2.62808e-06 -2.15025e-06 2.69272e+25 -8.10965 -1.18912 271.95 
4.53942e-06 -2.15025e-06 2.69025e+25 -7.78017 -2.76423 272.032 
6.45075e-06 -2.15025e-06 2.69598e+25 -7.64253 -3.75306 271.679 
8.36208e-06 -2.15025e-06 2.69166e+25 -6.4304 -6.05025 272.032 
1.02734e-05 -2.15025e-06 2.69164e+25 -4.71891 -6.47702 271.975 
1.21847e-05 -2.15025e-06 2.68942e+25 -2.89444 -6.07559 272.32 
1.40961e-05 -2.15025e-06 2.6882e+25 -1.04645 -3.9441 272.287 
1.60074e-05 -2.15025e-06 2.68845e+25 -0.151341 -1.18349 272.166 
7.1675e-07 -1.67242e-06 2.69105e+25 -7.92521 0.718155 272.023 
2.62808e-06 -1.67242e-06 2.68998e+25 -7.96699 -1.24532 272.005 
4.53942e-06 -1.67242e-06 2.69013e+25 -7.80907 -2.62973 272.126 
6.45075e-06 -1.67242e-06 2.69223e+25 -7.72605 -3.9984 271.777 
8.36208e-06 -1.67242e-06 2.69119e+25 -6.51081 -6.3827 272.129 
1.02734e-05 -1.67242e-06 2.69523e+25 -4.98261 -6.82874 271.902 
1.21847e-05 -1.67242e-06 2.689e+25 -3.19902 -6.58307 272.241 
1.40961e-05 -1.67242e-06 2.69111e+25 -1.31188 -4.38119 272.056 
1.60074e-05 -1.67242e-06 2.69124e+25 0.00857147 -1.28981 272.167 
7.1675e-07 -1.19458e-06 2.68747e+25 -7.99767 0.955303 272.187 
2.62808e-06 -1.19458e-06 2.69244e+25 -7.75848 -1.28958 271.848 
4.53942e-06 -1.19458e-06 2.68904e+25 -7.89646 -2.5672 272.084 
6.45075e-06 -1.19458e-06 2.69077e+25 -7.38348 -4.29544 271.835 
8.36208e-06 -1.19458e-06 2.69233e+25 -6.48258 -6.65124 271.903 
1.02734e-05 -1.19458e-06 2.69078e+25 -5.12317 -7.2372 271.954 
1.21847e-05 -1.19458e-06 2.69066e+25 -3.40389 -6.84467 272.205 
1.40961e-05 -1.19458e-06 2.69052e+25 -1.60028 -4.93387 271.994 
1.60074e-05 -1.19458e-06 2.68788e+25 -0.235052 -1.45446 272.366 
7.1675e-07 -7.1675e-07 2.69153e+25 -7.92213 1.1389 271.984 
2.62808e-06 -7.1675e-07 2.69012e+25 -7.81746 -1.27678 271.95 
4.53942e-06 -7.1675e-07 2.68778e+25 -7.87441 -2.64032 272.19 
6.45075e-06 -7.1675e-07 2.69348e+25 -7.54971 -4.4698 271.788 
8.36208e-06 -7.1675e-07 2.69146e+25 -6.53814 -6.89114 271.971 
1.02734e-05 -7.1675e-07 2.69082e+25 -5.07135 -7.73033 272.084 
1.21847e-05 -7.1675e-07 2.69107e+25 -3.67091 -7.22092 272.209 
1.40961e-05 -7.1675e-07 2.68972e+25 -1.93789 -5.41016 272.152 
1.60074e-05 -7.1675e-07 2.68751e+25 -0.304841 -1.88409 272.287 
7.1675e-07 -2.38917e-07 2.68759e+25 -7.86367 1.21354 271.892 
2.62808e-06 -2.38917e-07 2.68608e+25 -7.95654 -1.18654 271.972 
4.53942e-06 -2.38917e-07 2.68529e+25 -7.71059 -2.75893 272.184 
6.45075e-06 -2.38917e-07 2.68931e+25 -7.09989 -4.74594 272.075 
8.36208e-06 -2.38917e-07 2.69042e+25 -6.61772 -7.08519 271.963 
1.02734e-05 -2.38917e-07 2.69226e+25 -5.12645 -8.13874 271.845 
1.21847e-05 -2.38917e-07 2.68753e+25 -4.02686 -7.59335 272.197 
1.40961e-05 -2.38917e-07 2.6883e+25 -2.12737 -5.79461 272.172 
1.60074e-05 -2.38917e-07 2.68777e+25 -0.488825 -2.30173 272.348 
1.67242e-06 -1.69631e-05 2.68197e+25 -0.229497 0.0340904 273.007 
3.58375e-06 -1.69631e-05 2.68518e+25 0.0260681 -0.0729778 272.792 
5.49508e-06 -1.69631e-05 2.68478e+25 -0.384536 0.0655371 272.843 
7.40642e-06 -1.69631e-05 2.68391e+25 -0.29903 0.0276282 272.799 
9.31775e-06 -1.69631e-05 2.68514e+25 -0.273604 -0.0682222 272.743 
1.12291e-05 -1.69631e-05 2.6842e+25 0.14034 -0.0616409 272.718 
1.31404e-05 -1.69631e-05 2.68329e+25 -0.109934 -0.082878 272.893 
1.50518e-05 -1.69631e-05 2.68418e+25 0.0814027 -0.034071 272.862 
1.69631e-05 -1.69631e-05 2.6828e+25 -0.0102803 -0.0405766 272.951 
1.67242e-06 -1.64852e-05 2.68532e+25 -0.440421 -0.00462324 272.741 
3.58375e-06 -1.64852e-05 2.68594e+25 -0.318819 -0.171572 272.526 
5.49508e-06 -1.64852e-05 2.68433e+25 -0.698867 0.242531 272.663 
7.40642e-06 -1.64852e-05 2.68652e+25 -0.600017 0.0276177 272.614 
9.31775e-06 -1.64852e-05 2.68875e+25 -0.31942 -0.189134 272.36 
1.12291e-05 -1.64852e-05 2.68642e+25 -0.178396 -0.134601 272.342 
1.31404e-05 -1.64852e-05 2.6847e+25 -0.160418 -0.161509 272.707 
1.50518e-05 -1.64852e-05 2.68695e+25 -0.141191 -0.0259839 272.56 
1.69631e-05 -1.64852e-05 2.68172e+25 0.0115833 0.0072297 272.955 
1.67242e-06 -1.60074e-05 2.69075e+25 -0.681822 -0.098491 272.253 
3.58375e-06 -1.60074e-05 2.691e+25 -0.74975 -0.1022 272.245 
5.49508e-06 -1.60074e-05 2.68763e+25 -0.945264 0.389727 272.496 
7.40642e-06 -1.60074e-05 2.6862e+25 -0.762235 -0.011993 272.524 
9.31775e-06 -1.60074e-05 2.69062e+25 -0.447983 -0.207721 272.371 
1.12291e-05 -1.60074e-05 2.68958e+25 -0.425296 -0.233114 272.141 
1.31404e-05 -1.60074e-05 2.68777e+25 -0.212616 -0.103838 272.51 
1.50518e-05 -1.60074e-05 2.68962e+25 -0.0258156 -0.0368234 272.269 
1.69631e-05 -1.60074e-05 2.68427e+25 -0.0511123 0.0580637 272.91 
1.67242e-06 -1.55296e-05 2.6901e+25 -0.978727 -0.251936 272.201 
3.58375e-06 -1.55296e-05 2.68844e+25 -0.96543 0.101874 272.381 
5.49508e-06 -1.55296e-05 2.68866e+25 -0.996535 0.316402 272.323 
7.40642e-06 -1.55296e-05 2.68456e+25 -0.989283 -0.0267541 272.522 
9.31775e-06 -1.55296e-05 2.69032e+25 -0.563908 -0.26698 272.346 
1.12291e-05 -1.55296e-05 2.69249e+25 -0.506895 -0.168029 272.018 
1.31404e-05 -1.55296e-05 2.69086e+25 -0.293268 -0.0099112 272.288 
1.50518e-05 -1.55296e-05 2.69238e+25 -0.108757 -0.137145 272.083 
1.69631e-05 -1.55296e-05 2.68524e+25 0.0212555 -0.00125736 272.826 
1.67242e-06 -1.50517e-05 2.69159e+25 -1.24827 -0.288978 272.001 
3.58375e-06 -1.50517e-05 2.68926e+25 -0.935024 0.263447 272.284 
5.49508e-06 -1.50517e-05 2.69324e+25 -1.10944 0.254884 272.07 
7.40642e-06 -1.50517e-05 2.68722e+25 -0.996901 -0.0502384 272.468 
9.31775e-06 -1.50517e-05 2.68604e+25 -0.613906 -0.319546 272.478 
1.12291e-05 -1.50517e-05 2.68907e+25 -0.50695 -0.119618 272.235 
1.31404e-05 -1.50517e-05 2.68965e+25 -0.129136 -0.0449054 272.401 
1.50518e-05 -1.50517e-05 2.68902e+25 0.110504 -0.244445 272.222 
1.69631e-05 -1.50517e-05 2.68217e+25 0.0185313 0.070862 273.001 
1.67242e-06 -1.45739e-05 2.69677e+25 -1.37295 -0.395875 271.624 
3.58375e-06 -1.45739e-05 2.69257e+25 -1.34152 0.296241 271.927 
5.49508e-06 -1.45739e-05 2.69455e+25 -0.931581 0.18036 271.72 
7.40642e-06 -1.45739e-05 2.68767e+25 -1.04771 -0.250658 272.385 
9.31775e-06 -1.45739e-05 2.68623e+25 -0.803291 -0.481945 272.44 
1.12291e-05 -1.45739e-05 2.69013e+25 -0.233185 -0.250491 272.356 
1.31404e-05 -1.45739e-05 2.69328e+25 -0.0262722 -0.102592 272.052 
1.50518e-05 -1.45739e-05 2.68908e+25 0.20377 -0.319872 272.289 
1.69631e-05 -1.45739e-05 2.68532e+25 0.0623795 0.135866 272.856 
1.67242e-06 -1.40961e-05 2.69497e+25 -1.39718 -0.383501 271.701 
3.58375e-06 -1.40961e-05 2.69282e+25 -1.58875 0.222252 271.934 
5.49508e-06 -1.40961e-05 2.68885e+25 -1.2913 0.211706 272.143 
7.40642e-06 -1.40961e-05 2.68766e+25 -0.936678 -0.284542 272.384 
9.31775e-06 -1.40961e-05 2.68955e+25 -0.919923 -0.483443 272.217 
1.12291e-05 -1.40961e-05 2.68898e+25 -0.314042 -0.434855 272.285 
1.31404e-05 -1.40961e-05 2.68905e+25 -0.125761 -0.113517 272.207 
1.50518e-05 -1.40961e-05 2.687e+25 0.30253 -0.41416 272.349 
1.69631e-05 -1.40961e-05 2.68337e+25 -0.0863851 0.10339 272.895 
1.67242e-06 -1.36182e-05 2.69315e+25 -1.88325 -0.392023 271.844 
3.58375e-06 -1.36182e-05 2.69244e+25 -1.73621 0.0284934 271.985 
5.49508e-06 -1.36182e-05 2.69113e+25 -1.32382 0.267986 272.088 
7.40642e-06 -1.36182e-05 2.68639e+25 -1.33053 -0.538106 272.292 
9.31775e-06 -1.36182e-05 2.68653e+25 -0.768386 -0.442297 272.438 
1.12291e-05 -1.36182e-05 2.68912e+25 -0.32412 -0.373026 272.355 
1.31404e-05 -1.36182e-05 2.68561e+25 -0.192469 -0.322655 272.555 
1.50518e-05 -1.36182e-05 2.68812e+25 0.0743416 -0.217764 272.407 
1.69631e-05 -1.36182e-05 2.68539e+25 -0.0588526 -0.0383713 272.773 
1.67242e-06 -1.31404e-05 2.69249e+25 -2.09659 -0.328515 271.906 
3.58375e-06 -1.31404e-05 2.69335e+25 -1.79933 -0.148512 271.892 
5.49508e-06 -1.31404e-05 2.68767e+25 -1.3391 0.137353 272.328 
7.40642e-06 -1.31404e-05 2.68969e+25 -1.56633 -0.599431 272.29 
9.31775e-06 -1.31404e-05 2.68667e+25 -0.655119 -0.601194 272.477 
1.12291e-05 -1.31404e-05 2.68988e+25 -0.468069 -0.253905 272.296 
1.31404e-05 -1.31404e-05 2.68614e+25 -0.169032 -0.463491 272.6 
1.50518e-05 -1.31404e-05 2.68715e+25 -0.135548 0.0332726 272.44 
1.69631e-05 -1.31404e-05 2.68293e+25 0.0242422 -0.0612592 272.778 
1.67242e-06 -1.26626e-05 2.69067e+25 -2.33009 -0.211388 271.956 
3.58375e-06 -1.26626e-05 2.6927e+25 -2.00124 -0.244724 271.809 
5.49508e-06 -1.26626e-05 2.68909e+25 -1.55423 0.0222588 272.047 
7.40642e-06 -1.26626e-05 2.69181e+25 -1.26653 -0.608265 272.146 
9.31775e-06 -1.26626e-05 2.68722e+25 -0.804453 -0.758555 272.374 
1.12291e-05 -1.26626e-05 2.69235e+25 -0.446373 -0.314349 272.236 
1.31404e-05 -1.26626e-05 2.68733e+25 -0.403224 -0.765124 272.364 
1.50518e-05 -1.26626e-05 2.68735e+25 -0.465512 0.0813209 272.393 
1.69631e-05 -1.26626e-05 2.6831e+25 -0.0290898 -0.0759846 272.909 
1.67242e-06 -1.21847e-05 2.69145e+25 -2.37111 -0.243465 271.939 
3.58375e-06 -1.21847e-05 2.69264e+25 -2.25399 -0.298068 271.845 
5.49508e-06 -1.21847e-05 2.69148e+25 -1.67444 -0.146439 271.943 
7.40642e-06 -1.21847e-05 2.68963e+25 -1.45635 -0.616373 272.115 
9.31775e-06 -1.21847e-05 2.68981e+25 -1.26687 -1.00948 272.245 
1.12291e-05 -1.21847e-05 2.68982e+25 -0.787519 -0.40013 272.174 
1.31404e-05 -1.21847e-05 2.68781e+25 -0.44253 -0.911527 272.434 
1.50518e-05 -1.21847e-05 2.68867e+25 -0.581433 0.133797 272.348 
1.69631e-05 -1.21847e-05 2.68592e+25 -0.00953586 -0.11335 272.778 
1.67242e-06 -1.17069e-05 2.69125e+25 -2.99069 -0.140208 272.068 
3.58375e-06 -1.17069e-05 2.69109e+25 -2.55583 -0.430443 271.878 
5.49508e-06 -1.17069e-05 2.69398e+25 -1.88431 -0.31566 271.795 
7.40642e-06 -1.17069e-05 2.69161e+25 -1.54101 -0.500589 272.069 
9.31775e-06 -1.17069e-05 2.6859e+25 -1.58179 -1.04516 272.59 
1.12291e-05 -1.17069e-05 2.68954e+25 -1.1386 -0.481672 272.07 
1.31404e-05 -1.17069e-05 2.6886e+25 -0.457982 -0.999473 272.336 
1.50518e-05 -1.17069e-05 2.68733e+25 -0.437187 0.0894539 272.363 
1.69631e-05 -1.17069e-05 2.68496e+25 0.00317963 -0.159457 272.734 
1.67242e-06 -1.12291e-05 2.69012e+25 -3.15388 -0.139824 272.015 
3.58375e-06 -1.12291e-05 2.69401e+25 -2.82147 -0.705237 271.805 
5.49508e-06 -1.12291e-05 2.69406e+25 -2.3921 -0.490059 271.926 
7.40642e-06 -1.12291e-05 2.68946e+25 -1.73119 -0.63465 272.289 
9.31775e-06 -1.12291e-05 2.68675e+25 -1.48928 -0.962288 272.499 
1.12291e-05 -1.12291e-05 2.69046e+25 -1.34081 -0.675043 272.126 
1.31404e-05 -1.12291e-05 2.69402e+25 -0.346371 -0.941647 271.979 
1.50518e-05 -1.12291e-05 2.68783e+25 -0.290332 -0.110344 272.19 
1.69631e-05 -1.12291e-05 2.68502e+25 -0.0352525 -0.239233 272.679 
1.67242e-06 -1.07512e-05 2.69174e+25 -3.37156 -0.261796 271.866 
3.58375e-06 -1.07512e-05 2.69645e+25 -3.13121 -0.728389 271.725 
5.49508e-06 -1.07512e-05 2.69073e+25 -2.90786 -0.663888 272.039 
7.40642e-06 -1.07512e-05 2.69026e+25 -1.92667 -0.787619 272.124 
9.31775e-06 -1.07512e-05 2.68655e+25 -1.93363 -0.821654 272.307 
1.12291e-05 -1.07512e-05 2.69178e+25 -1.52039 -1.13516 271.874 
1.31404e-05 -1.07512e-05 2.69185e+25 -0.297154 -1.04144 272.066 
1.50518e-05 -1.07512e-05 2.6917e+25 -0.126712 -0.30482 272.207 
1.69631e-05 -1.07512e-05 2.68694e+25 0.0238744 -0.217765 272.714 
1.67242e-06 -1.02734e-05 2.69271e+25 -3.84717 -0.339079 271.89 
3.58375e-06 -1.02734e-05 2.69173e+25 -3.26605 -0.747432 271.986 
5.49508e-06 -1.02734e-05 2.69161e+25 -3.11481 -0.881062 272.104 
7.40642e-06 -1.02734e-05 2.69193e+25 -2.07388 -0.920703 272.215 
9.31775e-06 -1.02734e-05 2.68753e+25 -2.03057 -0.898455 272.256 
1.12291e-05 -1.02734e-05 2.69603e+25 -1.25661 -1.49182 271.615 
1.31404e-05 -1.02734e-05 2.69264e+25 -0.504744 -1.01912 272.104 
1.50518e-05 -1.02734e-05 2.69173e+25 -0.0240775 -0.381576 272.042 
1.69631e-05 -1.02734e-05 2.68688e+25 0.0260084 -0.120868 272.652 
1.67242e-06 -9.79558e-06 2.69138e+25 -4.04774 -0.256173 272.062 
3.58375e-06 -9.79558e-06 2.6932e+25 -3.88972 -0.896989 271.862 
5.49508e-06 -9.79558e-06 2.69186e+25 -3.3383 -1.09023 271.984 
7.40642e-06 -9.79558e-06 2.6927e+25 -2.29193 -1.01508 272.053 
9.31775e-06 -9.79558e-06 2.68758e+25 -1.65782 -1.01944 272.405 
1.12291e-05 -9.79558e-06 2.69747e+25 -1.0494 -1.65634 271.598 
1.31404e-05 -9.79558e-06 2.68946e+25 -0.522084 -0.938809 272.118 
1.50518e-05 -9.79558e-06 2.692e+25 -0.200535 -0.613202 272.055 
1.69631e-05 -9.79558e-06 2.68414e+25 0.0439736 -0.0361385 272.693 
1.67242e-06 -9.31775e-06 2.69145e+25 -4.23601 -0.12812 271.988 
3.58375e-06 -9.31775e-06 2.69464e+25 -4.17192 -1.09866 271.755 
5.49508e-06 -9.31775e-06 2.69034e+25 -3.27555 -1.24409 272.072 
7.40642e-06 -9.31775e-06 2.69468e+25 -2.78525 -1.25497 271.941 
9.31775e-06 -9.31775e-06 2.69097e+25 -1.59191 -1.2073 272.172 
1.12291e-05 -9.31775e-06 2.69283e+25 -1.05033 -1.58435 271.738 
1.31404e-05 -9.31775e-06 2.69134e+25 -0.494439 -1.02592 272.058 
1.50518e-05 -9.31775e-06 2.69313e+25 -0.226318 -0.733439 271.908 
1.69631e-05 -9.31775e-06 2.68504e+25 0.00370882 0.0371719 272.71 
1.67242e-06 -8.83992e-06 2.68934e+25 -4.62593 -0.121328 272.203 
3.58375e-06 -8.83992e-06 2.69393e+25 -4.18278 -1.18372 271.836 
5.49508e-06 -8.83992e-06 2.68886e+25 -3.61883 -1.47781 272.133 
7.40642e-06 -8.83992e-06 2.69239e+25 -2.78638 -1.53528 272.058 
9.31775e-06 -8.83992e-06 2.69197e+25 -1.88163 -1.4902 272.111 
1.12291e-05 -8.83992e-06 2.69382e+25 -1.21524 -1.60819 271.728 
1.31404e-05 -8.83992e-06 2.69219e+25 -0.641536 -1.14997 271.907 
1.50518e-05 -8.83992e-06 2.69295e+25 -0.12777 -0.74706 271.95 
1.69631e-05 -8.83992e-06 2.68361e+25 -0.0287891 0.06256 272.945 
1.67242e-06 -8.36208e-06 2.69095e+25 -5.17407 -0.21395 272.066 
3.58375e-06 -8.36208e-06 2.69381e+25 -4.46182 -1.24547 271.973 
5.49508e-06 -8.36208e-06 2.68741e+25 -3.80526 -1.69108 272.349 
7.40642e-06 -8.36208e-06 2.6922e+25 -2.75884 -1.66674 271.954 
9.31775e-06 -8.36208e-06 2.69049e+25 -2.21014 -1.67444 272.014 
1.12291e-05 -8.36208e-06 2.69398e+25 -1.12863 -1.78943 271.861 
1.31404e-05 -8.36208e-06 2.69406e+25 -0.824089 -1.36043 271.793 
1.50518e-05 -8.36208e-06 2.69141e+25 0.18931 -0.903936 272.011 
1.69631e-05 -8.36208e-06 2.68651e+25 -0.0343985 -0.00273446 272.66 
1.67242e-06 -7.88425e-06 2.69082e+25 -5.30856 -0.328539 272.135 
3.58375e-06 -7.88425e-06 2.68987e+25 -4.47119 -1.38389 272.145 
5.49508e-06 -7.88425e-06 2.69113e+25 -3.90039 -1.8498 272.126 
7.40642e-06 -7.88425e-06 2.69214e+25 -3.33481 -1.76942 271.936 
9.31775e-06 -7.88425e-06 2.6925e+25 -2.53202 -1.9242 271.953 
1.12291e-05 -7.88425e-06 2.69459e+25 -1.383 -2.13015 271.82 
1.31404e-05 -7.88425e-06 2.69508e+25 -0.955733 -1.52696 271.823 
1.50518e-05 -7.88425e-06 2.69364e+25 0.0798095 -1.0468 271.887 
1.69631e-05 -7.88425e-06 2.68723e+25 -0.0837143 -0.150203 272.74 
1.67242e-06 -7.40642e-06 2.68914e+25 -5.23783 -0.323957 272.083 
3.58375e-06 -7.40642e-06 2.68738e+25 -4.8134 -1.60354 272.308 
5.49508e-06 -7.40642e-06 2.69179e+25 -4.16658 -2.03586 271.914 
7.40642e-06 -7.40642e-06 2.69419e+25 -3.8371 -1.91806 271.912 
9.31775e-06 -7.40642e-06 2.69371e+25 -2.97194 -2.21338 271.836 
1.12291e-05 -7.40642e-06 2.69352e+25 -1.42807 -2.4207 271.773 
1.31404e-05 -7.40642e-06 2.69438e+25 -0.921516 -1.75647 271.762 
1.50518e-05 -7.40642e-06 2.69176e+25 -0.117464 -1.16574 271.873 
1.69631e-05 -7.40642e-06 2.68592e+25 0.0446893 -0.215988 272.58 
1.67242e-06 -6.92858e-06 2.69025e+25 -5.49313 -0.391158 272.047 
3.58375e-06 -6.92858e-06 2.69196e+25 -5.23168 -1.76884 272.043 
5.49508e-06 -6.92858e-06 2.69275e+25 -4.56946 -2.08614 271.851 
7.40642e-06 -6.92858e-06 2.69333e+25 -4.18217 -2.13716 271.856 
9.31775e-06 -6.92858e-06 2.6935e+25 -3.37844 -2.53957 271.91 
1.12291e-05 -6.92858e-06 2.69605e+25 -1.72627 -2.76915 271.654 
1.31404e-05 -6.92858e-06 2.69452e+25 -0.976743 -1.8022 271.689 
1.50518e-05 -6.92858e-06 2.69075e+25 -0.154168 -1.20498 272.008 
1.69631e-05 -6.92858e-06 2.6852e+25 0.110987 0.0135456 272.638 
1.67242e-06 -6.45075e-06 2.69277e+25 -5.52446 -0.505622 271.985 
3.58375e-06 -6.45075e-06 2.69381e+25 -5.63177 -1.82956 271.767 
5.49508e-06 -6.45075e-06 2.69436e+25 -5.29218 -2.12853 271.815 
7.40642e-06 -6.45075e-06 2.69247e+25 -4.54719 -2.36588 271.917 
9.31775e-06 -6.45075e-06 2.69452e+25 -3.32981 -2.8735 271.928 
1.12291e-05 -6.45075e-06 2.69725e+25 -2.17671 -3.01867 271.479 
1.31404e-05 -6.45075e-06 2.69359e+25 -1.17191 -1.94844 271.887 
1.50518e-05 -6.45075e-06 2.6901e+25 -0.327977 -1.17336 272.078 
1.69631e-05 -6.45075e-06 2.68542e+25 -0.0188121 0.0425324 272.755 
1.67242e-06 -5.97292e-06 2.69417e+25 -5.58211 -0.646338 271.918 
3.58375e-06 -5.97292e-06 2.69235e+25 -6.00365 -1.70465 272.031 
5.49508e-06 -5.97292e-06 2.69627e+25 -5.55833 -2.41835 271.719 
7.40642e-06 -5.97292e-06 2.69064e+25 -4.87798 -2.63415 271.944 
9.31775e-06 -5.97292e-06 2.69303e+25 -3.4067 -3.17764 271.77 
1.12291e-05 -5.97292e-06 2.69493e+25 -2.31218 -3.2218 271.639 
1.31404e-05 -5.97292e-06 2.69304e+25 -1.10617 -2.23423 271.941 
1.50518e-05 -5.97292e-06 2.69036e+25 -0.671994 -1.28507 272.043 
1.69631e-05 -5.97292e-06 2.68226e+25 -0.0753666 -0.102625 273.04 
1.67242e-06 -5.49508e-06 2.69437e+25 -5.81684 -0.686109 271.887 
3.58375e-06 -5.49508e-06 2.69304e+25 -5.90701 -1.78562 271.985 
5.49508e-06 -5.49508e-06 2.6937e+25 -5.72623 -2.62786 271.879 
7.40642e-06 -5.49508e-06 2.69156e+25 -5.1739 -2.8861 271.886 
9.31775e-06 -5.49508e-06 2.69484e+25 -3.5461 -3.70992 271.703 
1.12291e-05 -5.49508e-06 2.69292e+25 -2.50001 -3.58856 271.802 
1.31404e-05 -5.49508e-06 2.69195e+25 -1.25684 -2.40525 272.005 
1.50518e-05 -5.49508e-06 2.69332e+25 -0.756268 -1.3586 271.921 
1.69631e-05 -5.49508e-06 2.68487e+25 0.0451415 -0.123137 272.846 
1.67242e-06 -5.01725e-06 2.69029e+25 -6.27236 -0.724515 272.038 
3.58375e-06 -5.01725e-06 2.6936e+25 -6.3172 -1.77019 271.81 
5.49508e-06 -5.01725e-06 2.69129e+25 -5.86142 -2.75318 271.946 
7.40642e-06 -5.01725e-06 2.68926e+25 -5.18109 -3.19974 272.145 
9.31775e-06 -5.01725e-06 2.69321e+25 -3.91071 -4.23294 271.932 
1.12291e-05 -5.01725e-06 2.69275e+25 -2.8182 -3.97733 272.026 
1.31404e-05 -5.01725e-06 2.69225e+25 -1.25887 -2.64006 271.989 
1.50518e-05 -5.01725e-06 2.69275e+25 -0.516537 -1.49275 271.875 
1.69631e-05 -5.01725e-06 2.68662e+25 -0.00464006 -0.083137 272.641 
1.67242e-06 -4.53942e-06 2.69118e+25 -6.54382 -0.704722 272.268 
3.58375e-06 -4.53942e-06 2.69247e+25 -6.57029 -1.70657 271.751 
5.49508e-06 -4.53942e-06 2.69026e+25 -6.41771 -2.78061 272.031 
7.40642e-06 -4.53942e-06 2.68956e+25 -5.13458 -3.51251 272.033 
9.31775e-06 -4.53942e-06 2.69388e+25 -4.24402 -4.45213 271.84 
1.12291e-05 -4.53942e-06 2.69125e+25 -2.97048 -4.41157 272.021 
1.31404e-05 -4.53942e-06 2.69127e+25 -1.09602 -2.95802 272.104 
1.50518e-05 -4.53942e-06 2.69346e+25 -0.334769 -1.68398 271.862 
1.69631e-05 -4.53942e-06 2.68395e+25 -0.0786128 -0.167855 272.704 
1.67242e-06 -4.06158e-06 2.6895e+25 -6.70187 -0.531887 272.387 
3.58375e-06 -4.06158e-06 2.69338e+25 -7.04511 -1.7177 271.842 
5.49508e-06 -4.06158e-06 2.69309e+25 -6.59843 -2.8843 271.838 
7.40642e-06 -4.06158e-06 2.69344e+25 -5.84088 -3.75027 271.775 
9.31775e-06 -4.06158e-06 2.69255e+25 -4.45415 -4.787 271.983 
1.12291e-05 -4.06158e-06 2.69064e+25 -2.74984 -4.86392 272.141 
1.31404e-05 -4.06158e-06 2.6905e+25 -1.20276 -3.35462 272.227 
1.50518e-05 -4.06158e-06 2.68994e+25 -0.0203187 -1.88063 272.052 
1.69631e-05 -4.06158e-06 2.68638e+25 -0.0359857 -0.266171 272.63 
1.67242e-06 -3.58375e-06 2.69019e+25 -6.93151 -0.315527 272.01 
3.58375e-06 -3.58375e-06 2.69123e+25 -7.4208 -1.8293 271.803 
5.49508e-06 -3.58375e-06 2.69758e+25 -6.82903 -2.98438 271.51 
7.40642e-06 -3.58375e-06 2.69435e+25 -6.01627 -4.04949 271.659 
9.31775e-06 -3.58375e-06 2.69355e+25 -4.48614 -5.15611 271.843 
1.12291e-05 -3.58375e-06 2.6906e+25 -2.78509 -5.12162 272.269 
1.31404e-05 -3.58375e-06 2.68834e+25 -1.39968 -3.80069 272.44 
1.50518e-05 -3.58375e-06 2.68906e+25 -0.182814 -2.00906 272.133 
1.69631e-05 -3.58375e-06 2.68441e+25 -0.0518391 -0.366466 272.671 
1.67242e-06 -3.10592e-06 2.69138e+25 -7.36986 -0.189096 272.006 
3.58375e-06 -3.10592e-06 2.69008e+25 -7.75682 -1.94469 271.956 
5.49508e-06 -3.10592e-06 2.69455e+25 -7.20255 -3.20817 271.669 
7.40642e-06 -3.10592e-06 2.69001e+25 -6.51 -4.21289 271.923 
9.31775e-06 -3.10592e-06 2.69275e+25 -4.82063 -5.53189 271.869 
1.12291e-05 -3.10592e-06 2.68688e+25 -3.08027 -5.47577 272.487 
1.31404e-05 -3.10592e-06 2.68708e+25 -1.40324 -4.16155 272.436 
1.50518e-05 -3.10592e-06 2.69191e+25 -0.357531 -2.21192 272.042 
1.69631e-05 -3.10592e-06 2.68309e+25 -0.0293915 -0.455548 272.747 
1.67242e-06 -2.62808e-06 2.69075e+25 -7.79739 -0.121336 271.987 
3.58375e-06 -2.62808e-06 2.68897e+25 -7.84799 -2.02954 272.201 
5.49508e-06 -2.62808e-06 2.6936e+25 -7.53101 -3.44546 271.738 
7.40642e-06 -2.62808e-06 2.69209e+25 -6.95466 -4.50219 271.953 
9.31775e-06 -2.62808e-06 2.69509e+25 -5.1711 -5.8178 271.66 
1.12291e-05 -2.62808e-06 2.68744e+25 -3.63138 -5.86621 272.37 
1.31404e-05 -2.62808e-06 2.69e+25 -1.69549 -4.6491 272.277 
1.50518e-05 -2.62808e-06 2.69007e+25 -0.355709 -2.46351 272.048 
1.69631e-05 -2.62808e-06 2.68102e+25 0.00321813 -0.424508 272.993 
1.67242e-06 -2.15025e-06 2.68943e+25 -8.11666 0.00042595 271.866 
3.58375e-06 -2.15025e-06 2.68902e+25 -7.74328 -2.09279 272.167 
5.49508e-06 -2.15025e-06 2.69391e+25 -7.8407 -3.41539 271.919 
7.40642e-06 -2.15025e-06 2.68995e+25 -7.20392 -4.80362 272.166 
9.31775e-06 -2.15025e-06 2.69659e+25 -5.52588 -6.21536 271.76 
1.12291e-05 -2.15025e-06 2.69005e+25 -3.78642 -6.3785 272.209 
1.31404e-05 -2.15025e-06 2.68986e+25 -1.82007 -5.09191 272.232 
1.50518e-05 -2.15025e-06 2.68777e+25 -0.248126 -2.82053 272.323 
1.69631e-05 -2.15025e-06 2.68047e+25 0.0347407 -0.361448 272.959 
1.67242e-06 -1.67242e-06 2.69155e+25 -8.20569 0.0433897 271.854 
3.58375e-06 -1.67242e-06 2.68489e+25 -7.89588 -2.19458 272.481 
5.49508e-06 -1.67242e-06 2.69175e+25 -7.82431 -3.49088 271.77 
7.40642e-06 -1.67242e-06 2.68806e+25 -7.13683 -5.07997 272.235 
9.31775e-06 -1.67242e-06 2.69284e+25 -5.68332 -6.57007 271.794 
1.12291e-05 -1.67242e-06 2.69012e+25 -4.12589 -6.94188 272.251 
1.31404e-05 -1.67242e-06 2.68943e+25 -2.32009 -5.3961 272.138 
1.50518e-05 -1.67242e-06 2.69228e+25 -0.466411 -3.14953 271.988 
1.69631e-05 -1.67242e-06 2.68506e+25 0.0291588 -0.303049 272.712 
1.67242e-06 -1.19458e-06 2.69125e+25 -8.1548 0.0644224 271.745 
3.58375e-06 -1.19458e-06 2.6869e+25 -7.83334 -2.18307 272.348 
5.49508e-06 -1.19458e-06 2.69129e+25 -7.86743 -3.44472 271.845 
7.40642e-06 -1.19458e-06 2.69011e+25 -6.73952 -5.45514 271.902 
9.31775e-06 -1.19458e-06 2.69317e+25 -5.89083 -6.94027 271.958 
1.12291e-05 -1.19458e-06 2.69146e+25 -4.18625 -7.33572 272 
1.31404e-05 -1.19458e-06 2.69197e+25 -2.59479 -5.81607 272.053 
1.50518e-05 -1.19458e-06 2.68837e+25 -0.919521 -3.53558 272.178 
1.69631e-05 -1.19458e-06 2.68194e+25 0.0750691 -0.265201 272.853 
1.67242e-06 -7.1675e-07 2.69296e+25 -7.93402 0.000186898 271.631 
3.58375e-06 -7.1675e-07 2.68996e+25 -7.93408 -2.11928 272.079 
5.49508e-06 -7.1675e-07 2.69018e+25 -7.57711 -3.43202 272.077 
7.40642e-06 -7.1675e-07 2.68848e+25 -6.89762 -5.82253 272.035 
9.31775e-06 -7.1675e-07 2.6928e+25 -6.00146 -7.35899 271.928 
1.12291e-05 -7.1675e-07 2.69294e+25 -4.32428 -7.695 271.973 
1.31404e-05 -7.1675e-07 2.69092e+25 -2.83833 -6.30622 272.128 
1.50518e-05 -7.1675e-07 2.6888e+25 -1.17263 -3.87112 272.254 
1.69631e-05 -7.1675e-07 2.68481e+25 -0.0424405 -0.200494 272.832 
1.67242e-06 -2.38917e-07 2.68886e+25 -7.7709 0.0163374 271.71 
3.58375e-06 -2.38917e-07 2.6882e+25 -7.85182 -2.13922 272.168 
5.49508e-06 -2.38917e-07 2.68664e+25 -7.43171 -3.58439 272.067 
7.40642e-06 -2.38917e-07 2.68846e+25 -7.02293 -5.9968 271.9 
9.31775e-06 -2.38917e-07 2.68931e+25 -6.03938 -7.88538 272.069 
1.12291e-05 -2.38917e-07 2.69059e+25 -4.53388 -7.98285 272.114 
1.31404e-05 -2.38917e-07 2.68939e+25 -3.06612 -6.87312 272.151 
1.50518e-05 -2.38917e-07 2.69075e+25 -1.17582 -4.27189 272.14 
1.69631e-05 -2.38917e-07 2.68267e+25 -0.0410293 -0.270872 272.708 
1.67242e-06 2.38917e-07 2.68771e+25 -7.98588 -0.0582535 271.913 
3.58375e-06 2.38917e-07 2.68814e+25 -8.08684 -2.29342 271.932 
5.49508e-06 2.38917e-07 2.68645e+25 -7.41963 -3.70321 272.023 
7.40642e-06 2.38917e-07 2.69157e+25 -6.95987 -6.02085 271.877 
9.31775e-06 2.38917e-07 2.68783e+25 -6.08123 -8.21502 272.147 
1.12291e-05 2.38917e-07 2.69097e+25 -4.72577 -8.13394 271.931 
1.31404e-05 2.38917e-07 2.68578e+25 -3.06792 -7.56358 272.396 
1.50518e-05 2.38917e-07 2.68867e+25 -1.06841 -4.75101 272.225 
1.69631e-05 2.38917e-07 2.68073e+25 -0.104361 -0.433814 272.848 
1.67242e-06 7.1675e-07 2.69215e+25 -7.74744 -0.134154 271.796 
3.58375e-06 7.1675e-07 2.68939e+25 -8.1819 -2.27459 271.903 
5.49508e-06 7.1675e-07 2.68905e+25 -7.49503 -3.86523 271.961 
7.40642e-06 7.1675e-07 2.69037e+25 -6.89488 -5.95031 271.933 
9.31775e-06 7.1675e-07 2.69188e+25 -6.23801 -8.49227 272.064 
1.12291e-05 7.1675e-07 2.69047e+25 -4.99764 -8.54333 272.111 
1.31404e-05 7.1675e-07 2.68703e+25 -3.20766 -8.05347 272.449 
1.50518e-05 7.1675e-07 2.68818e+25 -1.20238 -5.01424 272.402 
1.69631e-05 7.1675e-07 2.6816e+25 -0.117421 -0.606857 272.89 
1.67242e-06 1.19458e-06 2.69005e+25 -7.51579 0.105408 271.731 
3.58375e-06 1.19458e-06 2.69091e+25 -8.09327 -2.20308 271.935 
5.49508e-06 1.19458e-06 2.68979e+25 -7.63637 -4.01949 272.067 
7.40642e-06 1.19458e-06 2.69058e+25 -6.93202 -6.09762 272.036 
9.31775e-06 1.19458e-06 2.69048e+25 -6.25887 -8.87235 272.117 
1.12291e-05 1.19458e-06 2.69108e+25 -5.15386 -8.89363 272.123 
1.31404e-05 1.19458e-06 2.68808e+25 -2.99087 -8.4331 272.414 
1.50518e-05 1.19458e-06 2.68874e+25 -1.20407 -5.25798 272.302 
1.69631e-05 1.19458e-06 2.68296e+25 -0.0404807 -0.80232 272.952 
1.67242e-06 1.67242e-06 2.68782e+25 -7.24843 0.336001 271.979 
3.58375e-06 1.67242e-06 2.69111e+25 -7.99068 -2.23871 271.933 
5.49508e-06 1.67242e-06 2.69132e+25 -7.75676 -4.31597 271.869 
7.40642e-06 1.67242e-06 2.68745e+25 -7.18686 -6.32761 272.064 
9.31775e-06 1.67242e-06 2.6897e+25 -6.48599 -9.06202 272.035 
1.12291e-05 1.67242e-06 2.68783e+25 -5.273 -9.41925 272.29 
1.31404e-05 1.67242e-06 2.68576e+25 -3.0329 -8.87211 272.416 
1.50518e-05 1.67242e-06 2.68662e+25 -1.17839 -5.7749 272.495 
1.69631e-05 1.67242e-06 2.68326e+25 0.0359501 -0.861422 272.981 
1.67242e-06 2.15025e-06 2.68984e+25 -7.07437 0.751731 271.843 
3.58375e-06 2.15025e-06 2.69101e+25 -7.98835 -2.059 271.774 
5.49508e-06 2.15025e-06 2.6891e+25 -8.14687 -4.50148 271.91 
7.40642e-06 2.15025e-06 2.68881e+25 -7.37778 -6.50364 272.007 
9.31775e-06 2.15025e-06 2.68668e+25 -6.55585 -9.08012 272.328 
1.12291e-05 2.15025e-06 2.69012e+25 -5.31674 -10.0707 272.063 
1.31404e-05 2.15025e-06 2.68843e+25 -3.11841 -9.39269 272.247 
1.50518e-05 2.15025e-06 2.68996e+25 -1.16001 -6.40631 272.342 
1.69631e-05 2.15025e-06 2.68331e+25 -0.0456128 -0.888494 272.86 
1.67242e-06 2.62808e-06 2.6902e+25 -6.86242 1.19137 271.821 
3.58375e-06 2.62808e-06 2.69178e+25 -7.79125 -1.84757 271.669 
5.49508e-06 2.62808e-06 2.69067e+25 -8.06487 -4.61918 271.925 
7.40642e-06 2.62808e-06 2.68865e+25 -7.50645 -6.72522 271.869 
9.31775e-06 2.62808e-06 2.68437e+25 -6.70798 -9.13892 272.419 
1.12291e-05 2.62808e-06 2.68995e+25 -5.60023 -10.5723 272.071 
1.31404e-05 2.62808e-06 2.68899e+25 -3.42389 -9.9485 272.076 
1.50518e-05 2.62808e-06 2.68946e+25 -1.35113 -6.94641 272.3 
1.69631e-05 2.62808e-06 2.68239e+25 0.0252489 -0.918668 272.867 
1.67242e-06 3.10592e-06 2.68905e+25 -6.41219 1.43925 271.783 
3.58375e-06 3.10592e-06 2.6892e+25 -7.48782 -1.6638 271.849 
5.49508e-06 3.10592e-06 2.69137e+25 -8.04723 -4.64785 271.779 
7.40642e-06 3.10592e-06 2.69065e+25 -7.5952 -6.8067 271.859 
9.31775e-06 3.10592e-06 2.68698e+25 -6.91414 -9.08866 272.326 
1.12291e-05 3.10592e-06 2.68889e+25 -5.77317 -11.0494 272.075 
1.31404e-05 3.10592e-06 2.69028e+25 -3.7045 -10.5559 272.041 
1.50518e-05 3.10592e-06 2.68911e+25 -1.25824 -7.36755 272.296 
1.69631e-05 3.10592e-06 2.68266e+25 -0.0738925 -0.951394 272.891 
1.67242e-06 3.58375e-06 2.69104e+25 -6.03726 1.62493 271.828 
3.58375e-06 3.58375e-06 2.68868e+25 -6.99867 -1.45031 271.991 
5.49508e-06 3.58375e-06 2.68912e+25 -7.96502 -4.65303 272.058 
7.40642e-06 3.58375e-06 2.68492e+25 -7.34773 -7.05296 272.28 
9.31775e-06 3.58375e-06 2.69032e+25 -7.12224 -9.22723 272.097 
1.12291e-05 3.58375e-06 2.69027e+25 -5.82989 -11.5287 272.212 
1.31404e-05 3.58375e-06 2.69185e+25 -3.73157 -11.2871 272.008 
1.50518e-05 3.58375e-06 2.68899e+25 -1.30848 -8.00753 272.243 
1.69631e-05 3.58375e-06 2.68315e+25 -0.0051793 -1.0308 272.993 
1.67242e-06 4.06158e-06 2.68939e+25 -5.50117 1.75921 271.922 
3.58375e-06 4.06158e-06 2.69034e+25 -6.53831 -1.19739 271.969 
5.49508e-06 4.06158e-06 2.68813e+25 -7.38102 -4.64965 271.984 
7.40642e-06 4.06158e-06 2.68652e+25 -7.16797 -7.02838 272.253 
9.31775e-06 4.06158e-06 2.69061e+25 -7.12182 -9.45342 271.969 
1.12291e-05 4.06158e-06 2.69244e+25 -5.97473 -11.844 271.971 
1.31404e-05 4.06158e-06 2.68958e+25 -3.8552 -11.8863 272.08 
1.50518e-05 4.06158e-06 2.68881e+25 -1.37343 -8.51159 272.186 
1.69631e-05 4.06158e-06 2.68469e+25 -0.00865634 -1.05788 272.958 
1.67242e-06 4.53942e-06 2.68688e+25 -5.13038 1.68566 271.961 
3.58375e-06 4.53942e-06 2.68702e+25 -5.80399 -0.807523 272.087 
5.49508e-06 4.53942e-06 2.68483e+25 -6.69334 -4.5299 272.19 
7.40642e-06 4.53942e-06 2.68921e+25 -6.94663 -7.02031 272.047 
9.31775e-06 4.53942e-06 2.68751e+25 -6.98181 -9.76098 272.133 
1.12291e-05 4.53942e-06 2.69068e+25 -5.89825 -12.1603 271.966 
1.31404e-05 4.53942e-06 2.69294e+25 -3.94535 -12.6019 271.859 
1.50518e-05 4.53942e-06 2.69053e+25 -1.36306 -9.01603 272.166 
1.69631e-05 4.53942e-06 2.68347e+25 -0.0380438 -1.13752 272.823 
1.67242e-06 5.01725e-06 2.68599e+25 -4.62837 1.75362 272.152 
3.58375e-06 5.01725e-06 2.68694e+25 -5.18702 -0.524313 272.055 
5.49508e-06 5.01725e-06 2.6899e+25 -6.16237 -4.45082 272.067 
7.40642e-06 5.01725e-06 2.68811e+25 -6.62591 -7.02973 272.137 
9.31775e-06 5.01725e-06 2.68493e+25 -6.62907 -10.0503 272.43 
1.12291e-05 5.01725e-06 2.68816e+25 -5.93179 -12.4496 272.138 
1.31404e-05 5.01725e-06 2.69337e+25 -3.93703 -13.2786 271.837 
1.50518e-05 5.01725e-06 2.69022e+25 -1.50088 -9.4618 272.355 
1.69631e-05 5.01725e-06 2.68471e+25 -0.134 -1.3023 272.789 
1.67242e-06 5.49508e-06 2.68869e+25 -4.13284 1.93312 271.968 
3.58375e-06 5.49508e-06 2.68741e+25 -4.52881 -0.524053 272 
5.49508e-06 5.49508e-06 2.68705e+25 -5.6646 -4.32394 272.167 
7.40642e-06 5.49508e-06 2.68817e+25 -6.45769 -7.02628 272.093 
9.31775e-06 5.49508e-06 2.68637e+25 -6.52411 -10.3508 272.405 
1.12291e-05 5.49508e-06 2.68871e+25 -5.38555 -12.79 272.036 
1.31404e-05 5.49508e-06 2.6897e+25 -3.93457 -13.7259 272.034 
1.50518e-05 5.49508e-06 2.68897e+25 -1.52006 -9.8456 272.365 
1.69631e-05 5.49508e-06 2.68478e+25 -0.0347026 -1.44392 272.662 
1.67242e-06 5.97292e-06 2.68837e+25 -3.39863 2.07382 271.885 
3.58375e-06 5.97292e-06 2.68555e+25 -3.89826 -0.402834 272.059 
5.49508e-06 5.97292e-06 2.68424e+25 -4.84129 -3.87152 272.178 
7.40642e-06 5.97292e-06 2.69059e+25 -5.83221 -6.9672 271.848 
9.31775e-06 5.97292e-06 2.68668e+25 -6.07114 -10.4947 272.341 
1.12291e-05 5.97292e-06 2.69104e+25 -5.34718 -13.148 272.05 
1.31404e-05 5.97292e-06 2.69061e+25 -3.5683 -14.2359 272.11 
1.50518e-05 5.97292e-06 2.68796e+25 -1.6045 -10.3627 272.23 
1.69631e-05 5.97292e-06 2.68586e+25 -0.0292674 -1.56879 272.603 
1.67242e-06 6.45075e-06 2.68624e+25 -2.86551 2.18444 272.057 
3.58375e-06 6.45075e-06 2.68558e+25 -3.14556 -0.171381 272.211 
5.49508e-06 6.45075e-06 2.68526e+25 -4.00581 -3.31014 272.161 
7.40642e-06 6.45075e-06 2.68724e+25 -5.2851 -6.8909 271.995 
9.31775e-06 6.45075e-06 2.68844e+25 -5.70554 -10.4349 272.038 
1.12291e-05 6.45075e-06 2.69002e+25 -5.26886 -13.3682 272.143 
1.31404e-05 6.45075e-06 2.69042e+25 -3.79718 -14.6965 272.214 
1.50518e-05 6.45075e-06 2.69091e+25 -1.49442 -10.866 272.359 
1.69631e-05 6.45075e-06 2.68239e+25 -0.0010072 -1.67595 272.825 
1.67242e-06 6.92858e-06 2.68952e+25 -1.98665 2.31557 272.001 
3.58375e-06 6.92858e-06 2.68411e+25 -2.61982 0.109381 272.238 
5.49508e-06 6.92858e-06 2.68698e+25 -3.18214 -2.91747 272.061 
7.40642e-06 6.92858e-06 2.68724e+25 -4.72054 -6.65764 271.935 
9.31775e-06 6.92858e-06 2.68711e+25 -5.28572 -10.2982 272.224 
1.12291e-05 6.92858e-06 2.68632e+25 -5.04053 -13.5307 272.511 
1.31404e-05 6.92858e-06 2.6918e+25 -4.01009 -15.1592 272.108 
1.50518e-05 6.92858e-06 2.69292e+25 -1.42305 -11.432 272.029 
1.69631e-05 6.92858e-06 2.68391e+25 -0.113215 -1.79504 272.776 
1.67242e-06 7.40642e-06 2.68696e+25 -1.16222 2.29967 272.209 
3.58375e-06 7.40642e-06 2.68445e+25 -1.96279 0.264553 272.209 
5.49508e-06 7.40642e-06 2.6873e+25 -2.1935 -2.72038 272.083 
7.40642e-06 7.40642e-06 2.68756e+25 -3.82847 -6.43776 272.128 
9.31775e-06 7.40642e-06 2.68592e+25 -4.43926 -10.1083 272.386 
1.12291e-05 7.40642e-06 2.68664e+25 -4.87684 -13.5814 272.61 
1.31404e-05 7.40642e-06 2.68992e+25 -3.94943 -15.7996 272.202 
1.50518e-05 7.40642e-06 2.68935e+25 -1.62346 -12.1105 272.37 
1.69631e-05 7.40642e-06 2.68602e+25 -0.0702518 -1.98911 272.778 
1.67242e-06 7.88425e-06 2.68434e+25 -0.52447 2.30805 272.234 
3.58375e-06 7.88425e-06 2.68614e+25 -0.800032 0.364837 272.042 
5.49508e-06 7.88425e-06 2.68561e+25 -1.38341 -2.5661 272.239 
7.40642e-06 7.88425e-06 2.68218e+25 -2.66145 -6.17124 272.463 
9.31775e-06 7.88425e-06 2.68447e+25 -3.55921 -9.73608 272.48 
1.12291e-05 7.88425e-06 2.68851e+25 -4.63999 -13.6392 272.168 
1.31404e-05 7.88425e-06 2.69126e+25 -3.97127 -16.3002 272.175 
1.50518e-05 7.88425e-06 2.69183e+25 -1.60146 -12.724 272.435 
1.69631e-05 7.88425e-06 2.68822e+25 -0.0141615 -2.09494 272.674 
1.67242e-06 8.36208e-06 2.68867e+25 0.0671109 2.30561 271.847 
3.58375e-06 8.36208e-06 2.68498e+25 0.151569 0.352821 272.139 
5.49508e-06 8.36208e-06 2.68395e+25 -0.650825 -2.45795 272.426 
7.40642e-06 8.36208e-06 2.68524e+25 -1.77452 -5.72725 272.27 
9.31775e-06 8.36208e-06 2.68472e+25 -3.09362 -9.39118 272.474 
1.12291e-05 8.36208e-06 2.69194e+25 -4.0944 -13.4734 272.104 
1.31404e-05 8.36208e-06 2.69119e+25 -4.07832 -16.5812 272.245 
1.50518e-05 8.36208e-06 2.69012e+25 -1.98636 -13.2688 272.294 
1.69631e-05 8.36208e-06 2.6842e+25 -0.0081407 -2.14592 272.883 
1.67242e-06 8.83992e-06 2.68738e+25 0.815463 2.19902 271.907 
3.58375e-06 8.83992e-06 2.68747e+25 1.07876 0.409193 272.072 
5.49508e-06 8.83992e-06 2.68544e+25 0.306481 -2.33206 272.375 
7.40642e-06 8.83992e-06 2.68564e+25 -0.746515 -5.34472 272.341 
9.31775e-06 8.83992e-06 2.68724e+25 -2.46992 -9.00909 272.368 
1.12291e-05 8.83992e-06 2.68781e+25 -3.5803 -13.2077 272.272 
1.31404e-05 8.83992e-06 2.69259e+25 -3.96992 -16.7784 272.281 
1.50518e-05 8.83992e-06 2.69219e+25 -2.27687 -13.8776 272.37 
1.69631e-05 8.83992e-06 2.68623e+25 -0.0846472 -2.24923 272.714 
1.67242e-06 9.31775e-06 2.68744e+25 1.468 2.22509 271.908 
3.58375e-06 9.31775e-06 2.68468e+25 1.74178 0.386822 272.223 
5.49508e-06 9.31775e-06 2.68392e+25 1.37596 -2.11654 272.267 
7.40642e-06 9.31775e-06 2.68188e+25 0.238943 -5.00566 272.442 
9.31775e-06 9.31775e-06 2.68516e+25 -1.50908 -8.68464 272.434 
1.12291e-05 9.31775e-06 2.6905e+25 -2.78238 -12.9415 272.185 
1.31404e-05 9.31775e-06 2.69043e+25 -3.76811 -16.7329 272.374 
1.50518e-05 9.31775e-06 2.69448e+25 -2.34439 -14.5414 272.3 
1.69631e-05 9.31775e-06 2.68725e+25 -0.106204 -2.49265 272.881 
1.67242e-06 9.79558e-06 2.68813e+25 2.76217 2.03601 271.765 
3.58375e-06 9.79558e-06 2.68364e+25 2.947 0.405514 272.264 
5.49508e-06 9.79558e-06 2.68286e+25 2.47158 -1.82243 272.296 
7.40642e-06 9.79558e-06 2.68504e+25 1.53559 -4.60692 272.262 
9.31775e-06 9.79558e-06 2.68807e+25 -0.217948 -8.35674 272.215 
1.12291e-05 9.79558e-06 2.69204e+25 -2.09149 -12.42 272.013 
1.31404e-05 9.79558e-06 2.68896e+25 -3.29143 -16.5878 272.567 
1.50518e-05 9.79558e-06 2.69097e+25 -2.27674 -15.2292 272.575 
1.69631e-05 9.79558e-06 2.68794e+25 -0.109223 -2.76678 272.783 
1.67242e-06 1.02734e-05 2.68878e+25 3.94134 1.80408 271.759 
3.58375e-06 1.02734e-05 2.68371e+25 4.25112 0.455697 272.309 
5.49508e-06 1.02734e-05 2.68283e+25 3.69387 -1.54534 272.308 
7.40642e-06 1.02734e-05 2.68505e+25 2.66309 -4.32839 272.271 
9.31775e-06 1.02734e-05 2.6861e+25 1.16487 -7.86541 272.331 
1.12291e-05 1.02734e-05 2.6905e+25 -1.24352 -11.9262 272.134 
1.31404e-05 1.02734e-05 2.69043e+25 -2.85343 -16.5754 272.588 
1.50518e-05 1.02734e-05 2.69105e+25 -1.8115 -15.9773 272.52 
1.69631e-05 1.02734e-05 2.68874e+25 -0.0323893 -2.89839 272.794 
1.67242e-06 1.07512e-05 2.68876e+25 5.04212 1.75424 271.633 
3.58375e-06 1.07512e-05 2.68741e+25 5.51858 0.407427 272.124 
5.49508e-06 1.07512e-05 2.68412e+25 4.93288 -1.19584 272.343 
7.40642e-06 1.07512e-05 2.68772e+25 3.934 -3.95775 272.086 
9.31775e-06 1.07512e-05 2.68754e+25 2.31359 -7.3603 272.317 
1.12291e-05 1.07512e-05 2.69053e+25 -0.355855 -11.3345 272.225 
1.31404e-05 1.07512e-05 2.69011e+25 -2.36382 -16.3211 272.508 
1.50518e-05 1.07512e-05 2.69486e+25 -1.84543 -16.5168 272.253 
1.69631e-05 1.07512e-05 2.68906e+25 -0.120794 -3.07436 272.81 
1.67242e-06 1.12291e-05 2.68815e+25 6.32573 1.59291 271.867 
3.58375e-06 1.12291e-05 2.68716e+25 6.76347 0.525227 272.144 
5.49508e-06 1.12291e-05 2.68516e+25 6.43258 -1.0839 272.248 
7.40642e-06 1.12291e-05 2.68645e+25 5.53364 -3.57465 272.119 
9.31775e-06 1.12291e-05 2.68617e+25 3.72708 -6.838 272.486 
1.12291e-05 1.12291e-05 2.69241e+25 0.552837 -10.6874 272.146 
1.31404e-05 1.12291e-05 2.69234e+25 -1.71572 -15.9038 272.364 
1.50518e-05 1.12291e-05 2.69533e+25 -2.02863 -17.1073 272.388 
1.69631e-05 1.12291e-05 2.69226e+25 -0.0514249 -3.26564 272.843 
1.67242e-06 1.17069e-05 2.68811e+25 7.60031 1.50248 271.886 
3.58375e-06 1.17069e-05 2.68541e+25 8.3274 0.515584 272.246 
5.49508e-06 1.17069e-05 2.6871e+25 7.85928 -1.13406 272.116 
7.40642e-06 1.17069e-05 2.6918e+25 6.81426 -3.23362 271.788 
9.31775e-06 1.17069e-05 2.6842e+25 4.818 -6.23005 272.656 
1.12291e-05 1.17069e-05 2.69174e+25 1.40449 -9.87511 272.191 
1.31404e-05 1.17069e-05 2.69235e+25 -1.53914 -15.3786 272.313 
1.50518e-05 1.17069e-05 2.69525e+25 -2.18276 -17.5024 272.418 
1.69631e-05 1.17069e-05 2.68991e+25 -0.0152334 -3.39773 273.022 
1.67242e-06 1.21847e-05 2.68988e+25 9.10786 1.34723 271.731 
3.58375e-06 1.21847e-05 2.68592e+25 9.55386 0.494692 271.944 
5.49508e-06 1.21847e-05 2.68621e+25 9.36849 -1.11594 272.051 
7.40642e-06 1.21847e-05 2.69027e+25 8.22358 -2.70828 271.936 
9.31775e-06 1.21847e-05 2.68576e+25 6.52737 -5.42109 272.403 
1.12291e-05 1.21847e-05 2.69324e+25 2.92569 -8.97192 272.173 
1.31404e-05 1.21847e-05 2.69296e+25 -0.702923 -14.9125 272.461 
1.50518e-05 1.21847e-05 2.69844e+25 -2.15671 -17.6654 272.398 
1.69631e-05 1.21847e-05 2.69337e+25 -0.111516 -3.55808 272.971 
1.67242e-06 1.26626e-05 2.68843e+25 10.9294 1.12974 271.851 
3.58375e-06 1.26626e-05 2.68646e+25 11.1422 0.533315 272.12 
5.49508e-06 1.26626e-05 2.68569e+25 11.2358 -0.874274 272.155 
7.40642e-06 1.26626e-05 2.68655e+25 10.148 -2.37286 272.085 
9.31775e-06 1.26626e-05 2.68999e+25 8.2658 -4.58189 272.224 
1.12291e-05 1.26626e-05 2.69145e+25 4.79033 -8.00817 272.309 
1.31404e-05 1.26626e-05 2.69438e+25 0.441275 -14.0624 272.391 
1.50518e-05 1.26626e-05 2.70014e+25 -2.01232 -17.8253 272.435 
1.69631e-05 1.26626e-05 2.69843e+25 -0.177576 -3.89247 272.801 
1.67242e-06 1.31404e-05 2.68773e+25 12.5727 1.10064 271.978 
3.58375e-06 1.31404e-05 2.68391e+25 13.2013 0.529741 272.272 
5.49508e-06 1.31404e-05 2.68634e+25 13.1159 -0.685193 272.218 
7.40642e-06 1.31404e-05 2.68883e+25 12.208 -2.14085 272.107 
9.31775e-06 1.31404e-05 2.6891e+25 10.1947 -3.89088 272.139 
1.12291e-05 1.31404e-05 2.69143e+25 6.82974 -6.93158 272.408 
1.31404e-05 1.31404e-05 2.69439e+25 1.8022 -12.8074 272.537 
1.50518e-05 1.31404e-05 2.6992e+25 -1.95473 -17.8441 272.66 
1.69631e-05 1.31404e-05 2.69962e+25 -0.189533 -4.30142 272.888 
1.67242e-06 1.36182e-05 2.68754e+25 14.7135 1.00481 272.021 
3.58375e-06 1.36182e-05 2.68551e+25 15.2372 0.385481 272.231 
5.49508e-06 1.36182e-05 2.68738e+25 15.1839 -0.423559 272.25 
7.40642e-06 1.36182e-05 2.68488e+25 14.2772 -1.81953 272.247 
9.31775e-06 1.36182e-05 2.69066e+25 12.3115 -3.26317 272.154 
1.12291e-05 1.36182e-05 2.69167e+25 8.99606 -5.93948 272.443 
1.31404e-05 1.36182e-05 2.69221e+25 3.3174 -11.28 272.878 
1.50518e-05 1.36182e-05 2.70123e+25 -1.93254 -17.4896 272.539 
1.69631e-05 1.36182e-05 2.70085e+25 -0.203757 -4.72778 272.84 
1.67242e-06 1.40961e-05 2.68742e+25 16.8543 0.852265 272.224 
3.58375e-06 1.40961e-05 2.68221e+25 17.356 0.119168 272.416 
5.49508e-06 1.40961e-05 2.68401e+25 17.1172 -0.0803385 272.348 
7.40642e-06 1.40961e-05 2.68875e+25 16.4911 -1.61662 272.176 
9.31775e-06 1.40961e-05 2.69067e+25 14.5481 -2.70514 272.274 
1.12291e-05 1.40961e-05 2.68898e+25 11.3192 -4.81988 272.65 
1.31404e-05 1.40961e-05 2.69445e+25 5.44943 -9.57869 272.853 
1.50518e-05 1.40961e-05 2.70388e+25 -1.25576 -16.6342 272.592 
1.69631e-05 1.40961e-05 2.7056e+25 -0.194673 -5.221 272.842 
1.67242e-06 1.45739e-05 2.68369e+25 19.1194 0.70582 272.289 
3.58375e-06 1.45739e-05 2.68468e+25 19.5059 0.0732036 272.283 
5.49508e-06 1.45739e-05 2.68686e+25 19.6373 0.169954 272.185 
7.40642e-06 1.45739e-05 2.6861e+25 18.85 -1.34631 272.329 
9.31775e-06 1.45739e-05 2.68727e+25 16.9149 -2.25756 272.361 
1.12291e-05 1.45739e-05 2.68965e+25 13.6498 -3.60957 272.714 
1.31404e-05 1.45739e-05 2.69472e+25 7.93237 -7.75588 272.77 
1.50518e-05 1.45739e-05 2.70559e+25 -0.30997 -15.3098 272.714 
1.69631e-05 1.45739e-05 2.70958e+25 -0.364026 -5.87748 272.865 
1.67242e-06 1.50518e-05 2.68447e+25 21.7081 0.555261 272.262 
3.58375e-06 1.50518e-05 2.68528e+25 22.0171 -0.0251236 272.317 
5.49508e-06 1.50518e-05 2.6853e+25 21.9042 0.305159 272.313 
7.40642e-06 1.50518e-05 2.68789e+25 21.3202 -1.05668 272.258 
9.31775e-06 1.50518e-05 2.68815e+25 19.6452 -1.70526 272.496 
1.12291e-05 1.50518e-05 2.69017e+25 16.3528 -2.53167 272.776 
1.31404e-05 1.50518e-05 2.69356e+25 10.7791 -5.7888 272.987 
1.50518e-05 1.50518e-05 2.70801e+25 1.49962 -13.2882 272.667 
1.69631e-05 1.50518e-05 2.71639e+25 -0.452785 -6.74595 272.96 
1.67242e-06 1.55296e-05 2.68309e+25 24.5469 0.526523 272.498 
3.58375e-06 1.55296e-05 2.68638e+25 24.6681 -0.0504449 272.194 
5.49508e-06 1.55296e-05 2.68554e+25 24.5118 0.271214 272.398 
7.40642e-06 1.55296e-05 2.68824e+25 24.0099 -0.744007 272.157 
9.31775e-06 1.55296e-05 2.6873e+25 22.3749 -1.19609 272.541 
1.12291e-05 1.55296e-05 2.69052e+25 19.6835 -1.55426 272.682 
1.31404e-05 1.55296e-05 2.69638e+25 14.516 -3.82238 272.985 
1.50518e-05 1.55296e-05 2.71207e+25 4.37291 -10.5033 272.661 
1.69631e-05 1.55296e-05 2.72804e+25 -0.576096 -7.81212 273.002 
1.67242e-06 1.60074e-05 2.68233e+25 27.2481 0.411727 272.552 
3.58375e-06 1.60074e-05 2.688e+25 27.52 0.00416299 272.143 
5.49508e-06 1.60074e-05 2.68421e+25 27.5335 0.137717 272.512 
7.40642e-06 1.60074e-05 2.68586e+25 26.8504 -0.343332 272.44 
9.31775e-06 1.60074e-05 2.68487e+25 25.5262 -0.665373 272.709 
1.12291e-05 1.60074e-05 2.68912e+25 23.5546 -0.813001 272.741 
1.31404e-05 1.60074e-05 2.69324e+25 19.1154 -2.14955 273.188 
1.50518e-05 1.60074e-05 2.70953e+25 9.43109 -7.16616 273.286 
1.69631e-05 1.60074e-05 2.74681e+25 -0.59263 -8.91538 272.902 
1.67242e-06 1.64852e-05 2.67943e+25 30.1533 0.280236 272.809 
3.58375e-06 1.64852e-05 2.68395e+25 30.1782 -0.0164289 272.378 
5.49508e-06 1.64852e-05 2.6821e+25 30.3331 0.0347585 272.596 
7.40642e-06 1.64852e-05 2.68257e+25 29.9596 -0.180078 272.652 
9.31775e-06 1.64852e-05 2.68452e+25 28.9861 -0.295628 272.648 
1.12291e-05 1.64852e-05 2.68902e+25 27.762 -0.404414 272.819 
1.31404e-05 1.64852e-05 2.69234e+25 24.701 -0.865294 273.198 
1.50518e-05 1.64852e-05 2.70736e+25 16.8916 -3.58893 273.486 
1.69631e-05 1.64852e-05 2.77084e+25 -0.0138635 -9.48815 273.235 
1.67242e-06 1.69631e-05 2.67824e+25 33.0179 0.134825 272.949 
3.58375e-06 1.69631e-05 2.68087e+25 32.8131 -0.0184019 272.765 
5.49508e-06 1.69631e-05 2.68109e+25 33.0853 -0.0029913 272.751 
7.40642e-06 1.69631e-05 2.68127e+25 32.8973 -0.0948733 272.877 
9.31775e-06 1.69631e-05 2.6839e+25 32.3377 -0.0494377 272.956 
1.12291e-05 1.69631e-05 2.68918e+25 31.7624 -0.105516 272.847 
1.31404e-05 1.69631e-05 2.69239e+25 30.7865 -0.181198 273.242 
1.50518e-05 1.69631e-05 2.70691e+25 26.7485 -0.841453 273.282 
1.69631e-05 1.69631e-05 2.85188e+25 4.05274 -6.12596 273.922 
2.38917e-07 2.38917e-07 2.68749e+25 -7.70679 1.94111 271.887 
2.15025e-06 2.38917e-07 2.68921e+25 -8.05554 -0.609143 271.782 
4.06158e-06 2.38917e-07 2.68602e+25 -7.93635 -2.53032 272.15 
5.97292e-06 2.38917e-07 2.68775e+25 -7.20066 -4.11587 272.072 
7.88425e-06 2.38917e-07 2.68903e+25 -6.94585 -6.61562 272.026 
9.79558e-06 2.38917e-07 2.68952e+25 -5.71659 -8.48001 272.06 
1.17069e-05 2.38917e-07 2.68714e+25 -4.45782 -8.17308 272.158 
1.36182e-05 2.38917e-07 2.68814e+25 -2.39706 -6.89015 272.024 
1.55296e-05 2.38917e-07 2.68604e+25 -0.83502 -3.50597 272.387 
2.38917e-07 7.1675e-07 2.6879e+25 -7.30286 2.02871 272.121 
2.15025e-06 7.1675e-07 2.69026e+25 -7.88181 -0.432886 271.889 
4.06158e-06 7.1675e-07 2.69027e+25 -8.12989 -2.71995 272.01 
5.97292e-06 7.1675e-07 2.6896e+25 -7.25263 -4.3735 272.076 
7.88425e-06 7.1675e-07 2.69088e+25 -6.83768 -6.73291 272.022 
9.79558e-06 7.1675e-07 2.69047e+25 -5.88727 -8.84967 272.04 
1.17069e-05 7.1675e-07 2.68903e+25 -4.54306 -8.47344 272.203 
1.36182e-05 7.1675e-07 2.69024e+25 -2.80236 -7.44168 272.274 
1.55296e-05 7.1675e-07 2.68796e+25 -0.851414 -3.81768 272.47 
2.38917e-07 1.19458e-06 2.68588e+25 -6.97038 2.23796 272.181 
2.15025e-06 1.19458e-06 2.69156e+25 -7.57225 -0.375712 271.773 
4.06158e-06 1.19458e-06 2.68979e+25 -7.97117 -2.89415 271.999 
5.97292e-06 1.19458e-06 2.68904e+25 -7.39475 -4.66489 272.148 
7.88425e-06 1.19458e-06 2.69155e+25 -6.77381 -6.72052 271.887 
9.79558e-06 1.19458e-06 2.68917e+25 -6.10735 -9.06707 272.16 
1.17069e-05 1.19458e-06 2.69071e+25 -4.62779 -9.04297 272.059 
1.36182e-05 1.19458e-06 2.68976e+25 -2.46821 -8.04318 272.274 
1.55296e-05 1.19458e-06 2.6876e+25 -0.820646 -4.33324 272.382 
2.38917e-07 1.67242e-06 2.68449e+25 -6.34174 2.36697 272.091 
2.15025e-06 1.67242e-06 2.68931e+25 -7.59482 -0.234713 271.848 
4.06158e-06 1.67242e-06 2.69257e+25 -7.98276 -2.95743 271.711 
5.97292e-06 1.67242e-06 2.6917e+25 -7.50456 -4.91171 271.94 
7.88425e-06 1.67242e-06 2.68985e+25 -6.9313 -6.90589 272.061 
9.79558e-06 1.67242e-06 2.68831e+25 -6.34786 -9.20483 272.175 
1.17069e-05 1.67242e-06 2.69187e+25 -4.72996 -9.58841 272.078 
1.36182e-05 1.67242e-06 2.6871e+25 -2.57568 -8.55426 272.362 
1.55296e-05 1.67242e-06 2.68541e+25 -0.60728 -4.70277 272.544 
2.38917e-07 2.15025e-06 2.68754e+25 -6.38478 2.47812 271.868 
2.15025e-06 2.15025e-06 2.69058e+25 -7.41358 0.0802219 271.903 
4.06158e-06 2.15025e-06 2.69132e+25 -8.18077 -2.84322 271.761 
5.97292e-06 2.15025e-06 2.68942e+25 -7.90813 -5.14903 272.029 
7.88425e-06 2.15025e-06 2.68996e+25 -7.17677 -7.12578 272.19 
9.79558e-06 2.15025e-06 2.68742e+25 -6.4061 -9.45969 272.342 
1.17069e-05 2.15025e-06 2.69117e+25 -4.70657 -10.1112 271.963 
1.36182e-05 2.15025e-06 2.69066e+25 -2.6701 -8.89478 272.294 
1.55296e-05 2.15025e-06 2.68846e+25 -0.674963 -5.10812 272.42 
2.38917e-07 2.62808e-06 2.68911e+25 -6.22051 2.7164 271.768 
2.15025e-06 2.62808e-06 2.69316e+25 -7.1881 0.344868 271.715 
4.06158e-06 2.62808e-06 2.69244e+25 -7.959 -2.7687 271.755 
5.97292e-06 2.62808e-06 2.68896e+25 -8.03739 -5.29234 271.969 
7.88425e-06 2.62808e-06 2.68945e+25 -7.32033 -7.40772 271.952 
9.79558e-06 2.62808e-06 2.68752e+25 -6.67343 -9.6809 272.184 
1.17069e-05 2.62808e-06 2.69195e+25 -5.11729 -10.5886 271.926 
1.36182e-05 2.62808e-06 2.69188e+25 -2.89352 -9.30272 272.022 
1.55296e-05 2.62808e-06 2.68779e+25 -0.877611 -5.61272 272.488 
2.38917e-07 3.10592e-06 2.68541e+25 -5.89579 2.90889 271.956 
2.15025e-06 3.10592e-06 2.69038e+25 -6.72715 0.68801 271.766 
4.06158e-06 3.10592e-06 2.69167e+25 -7.70419 -2.61782 271.821 
5.97292e-06 3.10592e-06 2.68836e+25 -8.08678 -5.27613 271.933 
7.88425e-06 3.10592e-06 2.68895e+25 -7.29846 -7.67268 272.058 
9.79558e-06 3.10592e-06 2.68931e+25 -6.91586 -9.74074 272.074 
1.17069e-05 3.10592e-06 2.69148e+25 -5.26625 -11.2119 272.004 
1.36182e-05 3.10592e-06 2.69124e+25 -3.07611 -9.93086 272.031 
1.55296e-05 3.10592e-06 2.68514e+25 -0.809815 -6.11584 272.684 
2.38917e-07 3.58375e-06 2.68627e+25 -5.52118 3.05708 271.998 
2.15025e-06 3.58375e-06 2.68993e+25 -6.16292 0.924426 272.039 
4.06158e-06 3.58375e-06 2.68818e+25 -7.24131 -2.28142 272.1 
5.97292e-06 3.58375e-06 2.68539e+25 -7.89683 -5.28637 272.368 
7.88425e-06 3.58375e-06 2.68684e+25 -7.31335 -7.88958 272.291 
9.79558e-06 3.58375e-06 2.69073e+25 -6.80635 -9.807 272.126 
1.17069e-05 3.58375e-06 2.69175e+25 -5.45487 -11.6103 272.017 
1.36182e-05 3.58375e-06 2.68981e+25 -3.08993 -10.4753 272.207 
1.55296e-05 3.58375e-06 2.68798e+25 -0.861009 -6.41046 272.452 
2.38917e-07 4.06158e-06 2.68212e+25 -5.23047 3.33303 272.132 
2.15025e-06 4.06158e-06 2.68758e+25 -5.63251 1.03378 272.048 
4.06158e-06 4.06158e-06 2.68794e+25 -6.95693 -1.8841 271.98 
5.97292e-06 4.06158e-06 2.68594e+25 -7.443 -5.33803 272.315 
7.88425e-06 4.06158e-06 2.6875e+25 -7.18131 -7.903 272.209 
9.79558e-06 4.06158e-06 2.68769e+25 -6.90322 -10.1616 272.219 
1.17069e-05 4.06158e-06 2.69439e+25 -5.4734 -12.1218 271.743 
1.36182e-05 4.06158e-06 2.69163e+25 -3.10826 -11.1768 271.963 
1.55296e-05 4.06158e-06 2.688e+25 -0.894093 -6.87658 272.4 
2.38917e-07 4.53942e-06 2.6809e+25 -4.56291 3.53451 272.363 
2.15025e-06 4.53942e-06 2.68854e+25 -5.15857 1.27378 271.909 
4.06158e-06 4.53942e-06 2.68711e+25 -6.20528 -1.50791 272.026 
5.97292e-06 4.53942e-06 2.6848e+25 -6.77697 -5.50624 272.326 
7.88425e-06 4.53942e-06 2.6899e+25 -6.88605 -7.89345 272.004 
9.79558e-06 4.53942e-06 2.68629e+25 -6.57295 -10.4823 272.363 
1.17069e-05 4.53942e-06 2.69401e+25 -5.59189 -12.5727 271.929 
1.36182e-05 4.53942e-06 2.69195e+25 -3.29871 -11.8465 271.979 
1.55296e-05 4.53942e-06 2.69044e+25 -0.814154 -7.31094 272.324 
2.38917e-07 5.01725e-06 2.68178e+25 -4.31245 3.63539 272.335 
2.15025e-06 5.01725e-06 2.68627e+25 -4.71573 1.33883 272.03 
4.06158e-06 5.01725e-06 2.69091e+25 -5.34472 -1.16971 271.798 
5.97292e-06 5.01725e-06 2.68783e+25 -6.21246 -5.37915 272.175 
7.88425e-06 5.01725e-06 2.68858e+25 -6.69372 -7.77727 272.013 
9.79558e-06 5.01725e-06 2.68479e+25 -6.41008 -10.8323 272.515 
1.17069e-05 5.01725e-06 2.69074e+25 -5.51625 -12.9741 272.026 
1.36182e-05 5.01725e-06 2.69197e+25 -3.19278 -12.5333 271.994 
1.55296e-05 5.01725e-06 2.68989e+25 -1.07152 -7.78646 272.168 
2.38917e-07 5.49508e-06 2.68141e+25 -3.87521 3.73024 272.28 
2.15025e-06 5.49508e-06 2.68727e+25 -4.3613 1.54569 271.933 
4.06158e-06 5.49508e-06 2.68804e+25 -4.59741 -1.01647 271.864 
5.97292e-06 5.49508e-06 2.68815e+25 -5.85025 -5.18658 271.994 
7.88425e-06 5.49508e-06 2.68685e+25 -6.50973 -7.65909 272.04 
9.79558e-06 5.49508e-06 2.6883e+25 -6.18154 -11.0901 272.284 
1.17069e-05 5.49508e-06 2.69178e+25 -5.05792 -13.3819 272.052 
1.36182e-05 5.49508e-06 2.69162e+25 -3.32667 -13.3739 272.058 
1.55296e-05 5.49508e-06 2.68956e+25 -1.10713 -8.28575 272.284 
2.38917e-07 5.97292e-06 2.68227e+25 -3.35795 3.74267 272.282 
2.15025e-06 5.97292e-06 2.6863e+25 -3.50039 1.68405 271.92 
4.06158e-06 5.97292e-06 2.68618e+25 -4.04941 -0.888937 272.09 
5.97292e-06 5.97292e-06 2.68805e+25 -5.4108 -4.92182 272.028 
7.88425e-06 5.97292e-06 2.68806e+25 -5.94228 -7.53953 272.022 
9.79558e-06 5.97292e-06 2.68661e+25 -6.02518 -11.3359 272.293 
1.17069e-05 5.97292e-06 2.68863e+25 -4.99035 -13.7329 272.064 
1.36182e-05 5.97292e-06 2.68909e+25 -3.14721 -13.8364 272.223 
1.55296e-05 5.97292e-06 2.68804e+25 -1.12756 -8.70122 272.482 
2.38917e-07 6.45075e-06 2.68578e+25 -2.64602 3.64658 271.867 
2.15025e-06 6.45075e-06 2.68947e+25 -2.81222 1.60957 271.741 
4.06158e-06 6.45075e-06 2.68553e+25 -3.40925 -0.70428 272.205 
5.97292e-06 6.45075e-06 2.68512e+25 -4.51019 -4.52923 272.112 
7.88425e-06 6.45075e-06 2.68773e+25 -5.46074 -7.41052 272.027 
9.79558e-06 6.45075e-06 2.68603e+25 -5.76597 -11.3848 272.39 
1.17069e-05 6.45075e-06 2.68961e+25 -5.00144 -14.1117 272.082 
1.36182e-05 6.45075e-06 2.69132e+25 -3.27498 -14.3342 272.142 
1.55296e-05 6.45075e-06 2.69074e+25 -0.920352 -9.1378 272.282 
2.38917e-07 6.92858e-06 2.68858e+25 -2.13877 3.44362 271.762 
2.15025e-06 6.92858e-06 2.68688e+25 -2.01151 1.52305 271.973 
4.06158e-06 6.92858e-06 2.68519e+25 -2.77661 -0.601812 272.225 
5.97292e-06 6.92858e-06 2.68543e+25 -3.48748 -4.06739 272.067 
7.88425e-06 6.92858e-06 2.68429e+25 -4.89928 -7.32968 272.185 
9.79558e-06 6.92858e-06 2.68626e+25 -5.34752 -11.4033 272.428 
1.17069e-05 6.92858e-06 2.68451e+25 -5.06929 -14.2978 272.567 
1.36182e-05 6.92858e-06 2.69187e+25 -3.40687 -14.9695 272.028 
1.55296e-05 6.92858e-06 2.68872e+25 -0.927314 -9.57173 272.26 
2.38917e-07 7.40642e-06 2.6844e+25 -1.39243 3.37262 271.976 
2.15025e-06 7.40642e-06 2.68592e+25 -1.24182 1.60903 272.059 
4.06158e-06 7.40642e-06 2.68598e+25 -2.05248 -0.518115 272.195 
5.97292e-06 7.40642e-06 2.68723e+25 -2.54821 -3.66513 272.005 
7.88425e-06 7.40642e-06 2.68723e+25 -3.97369 -7.18043 272.056 
9.79558e-06 7.40642e-06 2.68481e+25 -4.73897 -11.2844 272.55 
1.17069e-05 7.40642e-06 2.68733e+25 -4.80458 -14.2527 272.568 
1.36182e-05 7.40642e-06 2.68715e+25 -3.38444 -15.5861 272.447 
1.55296e-05 7.40642e-06 2.69116e+25 -0.936685 -10.1054 272.132 
2.38917e-07 7.88425e-06 2.68194e+25 -0.9147 3.30654 272.076 
2.15025e-06 7.88425e-06 2.68672e+25 -0.596474 1.87624 272.052 
4.06158e-06 7.88425e-06 2.68581e+25 -0.915115 -0.39962 272.28 
5.97292e-06 7.88425e-06 2.68272e+25 -1.61534 -3.19369 272.32 
7.88425e-06 7.88425e-06 2.68622e+25 -3.07378 -7.00381 272.283 
9.79558e-06 7.88425e-06 2.68493e+25 -4.0913 -10.8464 272.384 
1.17069e-05 7.88425e-06 2.68504e+25 -4.60597 -14.257 272.656 
1.36182e-05 7.88425e-06 2.69323e+25 -3.53846 -16.0269 272.124 
1.55296e-05 7.88425e-06 2.68902e+25 -1.15901 -10.5881 272.307 
2.38917e-07 8.36208e-06 2.68315e+25 -0.120923 3.3366 272.037 
2.15025e-06 8.36208e-06 2.6836e+25 -0.0278043 2.03575 272.124 
4.06158e-06 8.36208e-06 2.68592e+25 0.0407726 -0.173238 272.186 
5.97292e-06 8.36208e-06 2.68315e+25 -0.767574 -2.90127 272.382 
7.88425e-06 8.36208e-06 2.68507e+25 -2.19074 -6.62489 272.249 
9.79558e-06 8.36208e-06 2.68629e+25 -3.43041 -10.3637 272.281 
1.17069e-05 8.36208e-06 2.68918e+25 -4.265 -14.2966 272.261 
1.36182e-05 8.36208e-06 2.69043e+25 -3.76493 -16.4757 272.343 
1.55296e-05 8.36208e-06 2.68999e+25 -1.26937 -11.1987 272.343 
2.38917e-07 8.83992e-06 2.68576e+25 0.901927 3.2892 271.874 
2.15025e-06 8.83992e-06 2.68597e+25 0.965794 1.94364 271.984 
4.06158e-06 8.83992e-06 2.68381e+25 1.06193 -0.0184455 272.19 
5.97292e-06 8.83992e-06 2.68322e+25 0.179539 -2.81148 272.322 
7.88425e-06 8.83992e-06 2.68832e+25 -1.14938 -6.17057 272.104 
9.79558e-06 8.83992e-06 2.68711e+25 -2.68338 -10.1938 272.23 
1.17069e-05 8.83992e-06 2.68957e+25 -3.82232 -14.281 272.314 
1.36182e-05 8.83992e-06 2.68836e+25 -3.75077 -16.8889 272.52 
1.55296e-05 8.83992e-06 2.69212e+25 -1.60522 -11.8742 272.316 
2.38917e-07 9.31775e-06 2.69011e+25 1.69377 3.22748 271.502 
2.15025e-06 9.31775e-06 2.68727e+25 1.53478 1.81818 271.943 
4.06158e-06 9.31775e-06 2.6846e+25 1.77659 -0.0763562 272.248 
5.97292e-06 9.31775e-06 2.68426e+25 1.05576 -2.59207 272.208 
7.88425e-06 9.31775e-06 2.68649e+25 -0.138001 -5.80034 272.221 
9.79558e-06 9.31775e-06 2.68757e+25 -1.91259 -9.87147 272.237 
1.17069e-05 9.31775e-06 2.69067e+25 -3.19644 -13.9286 272.129 
1.36182e-05 9.31775e-06 2.68838e+25 -3.7709 -17.0755 272.529 
1.55296e-05 9.31775e-06 2.69561e+25 -1.76789 -12.4566 272.123 
2.38917e-07 9.79558e-06 2.68805e+25 2.45079 3.09603 271.762 
2.15025e-06 9.79558e-06 2.68576e+25 2.98296 1.79187 271.968 
4.06158e-06 9.79558e-06 2.68514e+25 2.91684 -0.10559 272.244 
5.97292e-06 9.79558e-06 2.6835e+25 2.18891 -2.2611 272.276 
7.88425e-06 9.79558e-06 2.68783e+25 1.22031 -5.45831 272.114 
9.79558e-06 9.79558e-06 2.68798e+25 -0.669178 -9.42808 272.284 
1.17069e-05 9.79558e-06 2.69187e+25 -2.59534 -13.5225 272.318 
1.36182e-05 9.79558e-06 2.68913e+25 -3.29008 -17.2289 272.555 
1.55296e-05 9.79558e-06 2.69267e+25 -1.51198 -13.1349 272.484 
2.38917e-07 1.02734e-05 2.68624e+25 3.31227 3.00916 271.775 
2.15025e-06 1.02734e-05 2.68896e+25 4.18865 1.63366 271.835 
4.06158e-06 1.02734e-05 2.68208e+25 4.1724 -0.0646715 272.295 
5.97292e-06 1.02734e-05 2.6842e+25 3.30858 -1.90327 272.264 
7.88425e-06 1.02734e-05 2.68663e+25 2.32544 -5.13742 272.143 
9.79558e-06 1.02734e-05 2.68633e+25 0.681874 -8.93942 272.294 
1.17069e-05 1.02734e-05 2.69002e+25 -1.71943 -13.0644 272.332 
1.36182e-05 1.02734e-05 2.69045e+25 -2.8452 -17.3098 272.622 
1.55296e-05 1.02734e-05 2.69142e+25 -1.10679 -13.8219 272.524 
2.38917e-07 1.07512e-05 2.68712e+25 4.51762 3.01125 271.787 
2.15025e-06 1.07512e-05 2.68784e+25 5.09897 1.38319 271.791 
4.06158e-06 1.07512e-05 2.68366e+25 5.48803 0.0989513 272.264 
5.97292e-06 1.07512e-05 2.6832e+25 4.75136 -1.63921 272.466 
7.88425e-06 1.07512e-05 2.68988e+25 3.55242 -4.74447 271.899 
9.79558e-06 1.07512e-05 2.68642e+25 1.74098 -8.45876 272.443 
1.17069e-05 1.07512e-05 2.69247e+25 -0.976273 -12.5462 272.279 
1.36182e-05 1.07512e-05 2.69109e+25 -2.62971 -17.3025 272.547 
1.55296e-05 1.07512e-05 2.69333e+25 -1.28519 -14.4214 272.606 
2.38917e-07 1.12291e-05 2.68791e+25 5.51292 2.80044 271.723 
2.15025e-06 1.12291e-05 2.68781e+25 6.37229 1.2728 271.906 
4.06158e-06 1.12291e-05 2.68613e+25 6.68029 0.164476 272.145 
5.97292e-06 1.12291e-05 2.68295e+25 6.3315 -1.52074 272.308 
7.88425e-06 1.12291e-05 2.68725e+25 5.01593 -4.27351 271.969 
9.79558e-06 1.12291e-05 2.68646e+25 2.96167 -7.62665 272.502 
1.17069e-05 1.12291e-05 2.69082e+25 -0.115954 -11.9865 272.27 
1.36182e-05 1.12291e-05 2.69372e+25 -2.16691 -16.9602 272.329 
1.55296e-05 1.12291e-05 2.69493e+25 -1.43792 -15.0233 272.441 
2.38917e-07 1.17069e-05 2.68372e+25 7.05688 2.61333 272.118 
2.15025e-06 1.17069e-05 2.68741e+25 7.73846 1.1655 271.878 
4.06158e-06 1.17069e-05 2.68587e+25 8.20775 0.336517 272.139 
5.97292e-06 1.17069e-05 2.68658e+25 7.92929 -1.39869 272.238 
7.88425e-06 1.17069e-05 2.68899e+25 6.44553 -3.78277 271.903 
9.79558e-06 1.17069e-05 2.68792e+25 4.21881 -6.85957 272.454 
1.17069e-05 1.17069e-05 2.69203e+25 0.71173 -11.387 272.279 
1.36182e-05 1.17069e-05 2.69558e+25 -1.88762 -16.6636 272.159 
1.55296e-05 1.17069e-05 2.6947e+25 -1.68234 -15.6107 272.492 
2.38917e-07 1.21847e-05 2.68587e+25 8.65414 2.32078 271.946 
2.15025e-06 1.21847e-05 2.69057e+25 9.3196 0.984677 271.714 
4.06158e-06 1.21847e-05 2.68705e+25 9.49624 0.531365 271.965 
5.97292e-06 1.21847e-05 2.68676e+25 9.17551 -1.3121 271.997 
7.88425e-06 1.21847e-05 2.68743e+25 7.98479 -3.50817 272.039 
9.79558e-06 1.21847e-05 2.68895e+25 5.57332 -6.18775 272.217 
1.17069e-05 1.21847e-05 2.69415e+25 1.90437 -10.5725 272.199 
1.36182e-05 1.21847e-05 2.69545e+25 -1.29943 -16.2319 272.197 
1.55296e-05 1.21847e-05 2.69894e+25 -1.82009 -16.2471 272.417 
2.38917e-07 1.26626e-05 2.68305e+25 10.3843 2.09245 272.068 
2.15025e-06 1.26626e-05 2.69074e+25 10.9778 0.848537 271.674 
4.06158e-06 1.26626e-05 2.68654e+25 11.2273 0.563511 272.07 
5.97292e-06 1.26626e-05 2.68796e+25 11.0038 -1.0951 272.122 
7.88425e-06 1.26626e-05 2.6864e+25 9.83659 -3.28244 272.236 
9.79558e-06 1.26626e-05 2.68986e+25 7.41829 -5.21484 272.27 
1.17069e-05 1.26626e-05 2.69414e+25 3.68257 -9.39429 272.19 
1.36182e-05 1.26626e-05 2.6989e+25 -0.629729 -15.3941 272.263 
1.55296e-05 1.26626e-05 2.70233e+25 -1.8163 -16.6137 272.431 
2.38917e-07 1.31404e-05 2.68235e+25 12.12 1.91226 272.224 
2.15025e-06 1.31404e-05 2.68816e+25 12.6835 0.774636 271.726 
4.06158e-06 1.31404e-05 2.68527e+25 13.3069 0.335213 272.166 
5.97292e-06 1.31404e-05 2.68623e+25 12.9596 -0.890413 272.333 
7.88425e-06 1.31404e-05 2.6895e+25 11.752 -2.85537 272.128 
9.79558e-06 1.31404e-05 2.69025e+25 9.52928 -4.45048 272.135 
1.17069e-05 1.31404e-05 2.69004e+25 5.7074 -8.28147 272.611 
1.36182e-05 1.31404e-05 2.69701e+25 0.42557 -14.2084 272.344 
1.55296e-05 1.31404e-05 2.70302e+25 -1.93985 -16.8631 272.497 
2.38917e-07 1.36182e-05 2.68345e+25 13.993 1.57138 272.239 
2.15025e-06 1.36182e-05 2.68696e+25 14.774 0.725158 271.942 
4.06158e-06 1.36182e-05 2.68393e+25 15.4577 0.217915 272.289 
5.97292e-06 1.36182e-05 2.68571e+25 14.8822 -0.75566 272.345 
7.88425e-06 1.36182e-05 2.69091e+25 13.94 -2.45687 271.934 
9.79558e-06 1.36182e-05 2.68913e+25 11.5695 -3.68938 272.194 
1.17069e-05 1.36182e-05 2.6906e+25 7.82203 -6.95517 272.624 
1.36182e-05 1.36182e-05 2.69798e+25 1.66801 -12.7835 272.46 
1.55296e-05 1.36182e-05 2.70465e+25 -2.12703 -17.0375 272.565 
2.38917e-07 1.40961e-05 2.68264e+25 16.0574 1.15352 272.169 
2.15025e-06 1.40961e-05 2.68662e+25 16.951 0.657808 272.134 
4.06158e-06 1.40961e-05 2.68331e+25 17.4747 0.138452 272.38 
5.97292e-06 1.40961e-05 2.68653e+25 16.8948 -0.624711 272.184 
7.88425e-06 1.40961e-05 2.6886e+25 16.1099 -1.95234 272.183 
9.79558e-06 1.40961e-05 2.69063e+25 14.0139 -2.97578 272.329 
1.17069e-05 1.40961e-05 2.68941e+25 10.0571 -5.61757 272.9 
1.36182e-05 1.40961e-05 2.69851e+25 3.61575 -10.9265 272.589 
1.55296e-05 1.40961e-05 2.70712e+25 -1.90481 -16.9645 272.427 
2.38917e-07 1.45739e-05 2.68297e+25 18.2174 0.753674 272.121 
2.15025e-06 1.45739e-05 2.68482e+25 19.3958 0.477693 272.12 
4.06158e-06 1.45739e-05 2.68322e+25 19.6637 -0.0495365 272.261 
5.97292e-06 1.45739e-05 2.68291e+25 19.3094 -0.360391 272.478 
7.88425e-06 1.45739e-05 2.68563e+25 18.5524 -1.4707 272.34 
9.79558e-06 1.45739e-05 2.69131e+25 16.3166 -2.25713 272.362 
1.17069e-05 1.45739e-05 2.69099e+25 12.4618 -4.30835 272.837 
1.36182e-05 1.45739e-05 2.6994e+25 5.95211 -8.96652 272.749 
1.55296e-05 1.45739e-05 2.70896e+25 -1.53864 -16.4756 272.59 
2.38917e-07 1.50518e-05 2.68133e+25 21.0686 0.386253 272.45 
2.15025e-06 1.50518e-05 2.68672e+25 21.7705 0.341338 272.136 
4.06158e-06 1.50518e-05 2.68459e+25 21.9994 -0.125811 272.244 
5.97292e-06 1.50518e-05 2.68231e+25 21.8481 -0.105656 272.413 
7.88425e-06 1.50518e-05 2.68804e+25 20.9986 -1.11907 272.395 
9.79558e-06 1.50518e-05 2.68856e+25 18.9721 -1.65321 272.543 
1.17069e-05 1.50518e-05 2.69253e+25 15.3773 -3.2072 272.773 
1.36182e-05 1.50518e-05 2.69762e+25 8.78506 -6.98744 272.961 
1.55296e-05 1.50518e-05 2.71274e+25 -0.557921 -15.3174 272.599 
2.38917e-07 1.55296e-05 2.67924e+25 23.9529 0.049357 272.49 
2.15025e-06 1.55296e-05 2.68394e+25 24.5771 0.230524 272.386 
4.06158e-06 1.55296e-05 2.68605e+25 24.5994 -0.0422219 272.215 
5.97292e-06 1.55296e-05 2.68388e+25 24.7204 -0.140813 272.45 
7.88425e-06 1.55296e-05 2.68758e+25 23.691 -0.790416 272.35 
9.79558e-06 1.55296e-05 2.68828e+25 21.8806 -1.03278 272.543 
1.17069e-05 1.55296e-05 2.69377e+25 18.7629 -2.23709 272.711 
1.36182e-05 1.55296e-05 2.69648e+25 12.4872 -4.82841 273.195 
1.55296e-05 1.55296e-05 2.71614e+25 1.38284 -13.1086 272.843 
2.38917e-07 1.60074e-05 2.68083e+25 26.9329 -0.124291 272.548 
2.15025e-06 1.60074e-05 2.68125e+25 27.273 0.188128 272.525 
4.06158e-06 1.60074e-05 2.6865e+25 27.3365 0.197184 272.217 
5.97292e-06 1.60074e-05 2.68712e+25 27.5417 -0.252564 272.31 
7.88425e-06 1.60074e-05 2.68646e+25 26.5925 -0.576438 272.379 
9.79558e-06 1.60074e-05 2.68704e+25 25.044 -0.588021 272.76 
1.17069e-05 1.60074e-05 2.69374e+25 22.7835 -1.28791 272.614 
1.36182e-05 1.60074e-05 2.69763e+25 17.3618 -2.8286 273.004 
1.55296e-05 1.60074e-05 2.71764e+25 5.65107 -9.76441 273.165 
2.38917e-07 1.64852e-05 2.67978e+25 30.0596 -0.150472 272.563 
2.15025e-06 1.64852e-05 2.68103e+25 30.3527 0.0695732 272.573 
4.06158e-06 1.64852e-05 2.68332e+25 30.3265 0.252973 272.434 
5.97292e-06 1.64852e-05 2.68345e+25 30.3655 -0.199269 272.424 
7.88425e-06 1.64852e-05 2.68436e+25 29.7938 -0.31106 272.566 
9.79558e-06 1.64852e-05 2.68513e+25 28.6949 -0.269098 272.736 
1.17069e-05 1.64852e-05 2.69151e+25 27.2151 -0.504687 272.684 
1.36182e-05 1.64852e-05 2.69508e+25 23.62 -1.25408 273.31 
1.55296e-05 1.64852e-05 2.71749e+25 12.8358 -5.36944 273.496 
2.38917e-07 1.69631e-05 2.67781e+25 32.9093 -0.0557861 272.793 
2.15025e-06 1.69631e-05 2.67931e+25 33.1529 -0.0753455 272.767 
4.06158e-06 1.69631e-05 2.68183e+25 32.881 0.0905011 272.717 
5.97292e-06 1.69631e-05 2.68289e+25 32.9534 -0.0387449 272.799 
7.88425e-06 1.69631e-05 2.68271e+25 32.6734 -0.0203815 272.855 
9.79558e-06 1.69631e-05 2.6844e+25 32.1867 -0.0505154 272.858 
1.17069e-05 1.69631e-05 2.69009e+25 31.5153 -0.0842598 272.866 
1.36182e-05 1.69631e-05 2.69168e+25 30.2169 -0.23239 273.397 
1.55296e-05 1.69631e-05 2.71446e+25 24.2105 -1.2396 273.481 
7.1675e-07 2.38917e-07 2.68766e+25 -7.86487 1.2976 272.025 
2.62808e-06 2.38917e-07 2.68703e+25 -8.16712 -1.20757 272.093 
4.53942e-06 2.38917e-07 2.68652e+25 -7.73674 -2.99978 272.086 
6.45075e-06 2.38917e-07 2.6872e+25 -7.09099 -4.98217 272.012 
8.36208e-06 2.38917e-07 2.68904e+25 -6.68612 -7.33855 271.965 
1.02734e-05 2.38917e-07 2.68838e+25 -5.35224 -8.57465 271.921 
1.21847e-05 2.38917e-07 2.68819e+25 -4.03079 -7.93947 272.096 
1.40961e-05 2.38917e-07 2.68792e+25 -1.89015 -6.22901 272.051 
1.60074e-05 2.38917e-07 2.68525e+25 -0.580495 -2.61895 272.302 
7.1675e-07 7.1675e-07 2.68636e+25 -7.44367 1.50436 272.104 
2.62808e-06 7.1675e-07 2.68758e+25 -7.9438 -1.23924 272.086 
4.53942e-06 7.1675e-07 2.68898e+25 -7.90029 -3.1757 272.063 
6.45075e-06 7.1675e-07 2.69115e+25 -7.00075 -5.00184 271.898 
8.36208e-06 7.1675e-07 2.68933e+25 -6.78284 -7.51342 272.051 
1.02734e-05 7.1675e-07 2.69152e+25 -5.58123 -8.82366 272.024 
1.21847e-05 7.1675e-07 2.68765e+25 -4.14095 -8.39417 272.322 
1.40961e-05 7.1675e-07 2.69139e+25 -2.10872 -6.82224 272.022 
1.60074e-05 7.1675e-07 2.68744e+25 -0.471376 -2.88218 272.343 
7.1675e-07 1.19458e-06 2.68662e+25 -7.09006 1.66138 272.125 
2.62808e-06 1.19458e-06 2.69051e+25 -7.82299 -0.987397 271.775 
4.53942e-06 1.19458e-06 2.68984e+25 -7.93176 -3.33555 272.005 
6.45075e-06 1.19458e-06 2.69101e+25 -7.14182 -5.20652 271.87 
8.36208e-06 1.19458e-06 2.69325e+25 -6.71984 -7.63556 271.864 
1.02734e-05 1.19458e-06 2.69212e+25 -5.8908 -9.06564 272.013 
1.21847e-05 1.19458e-06 2.68809e+25 -4.02803 -8.86721 272.283 
1.40961e-05 1.19458e-06 2.69097e+25 -2.0441 -7.29472 272.146 
1.60074e-05 1.19458e-06 2.68515e+25 -0.475051 -3.12546 272.654 
7.1675e-07 1.67242e-06 2.68679e+25 -6.63048 1.90457 272.142 
2.62808e-06 1.67242e-06 2.69286e+25 -7.80808 -0.739626 271.881 
4.53942e-06 1.67242e-06 2.69237e+25 -7.98187 -3.36097 271.703 
6.45075e-06 1.67242e-06 2.68968e+25 -7.40649 -5.21256 272.024 
8.36208e-06 1.67242e-06 2.69119e+25 -6.72742 -7.73461 271.995 
1.02734e-05 1.67242e-06 2.69108e+25 -6.05766 -9.41489 272.05 
1.21847e-05 1.67242e-06 2.69016e+25 -4.04993 -9.50398 272.259 
1.40961e-05 1.67242e-06 2.6865e+25 -2.18157 -7.73185 272.231 
1.60074e-05 1.67242e-06 2.68465e+25 -0.329898 -3.30121 272.809 
7.1675e-07 2.15025e-06 2.69063e+25 -6.41385 2.13457 271.859 
2.62808e-06 2.15025e-06 2.6925e+25 -7.53607 -0.664024 271.833 
4.53942e-06 2.15025e-06 2.6906e+25 -8.27019 -3.4948 271.743 
6.45075e-06 2.15025e-06 2.68733e+25 -7.72163 -5.30558 272.07 
8.36208e-06 2.15025e-06 2.69038e+25 -6.89559 -8.05731 272.052 
1.02734e-05 2.15025e-06 2.68679e+25 -6.24197 -9.68595 272.379 
1.21847e-05 2.15025e-06 2.68895e+25 -4.32208 -10.0949 272.212 
1.40961e-05 2.15025e-06 2.68971e+25 -2.30162 -8.09833 271.974 
1.60074e-05 2.15025e-06 2.68455e+25 -0.355117 -3.59197 272.777 
7.1675e-07 2.62808e-06 2.68789e+25 -6.37812 2.19946 271.881 
2.62808e-06 2.62808e-06 2.69304e+25 -7.48177 -0.547227 271.644 
4.53942e-06 2.62808e-06 2.69019e+25 -7.98075 -3.36851 271.838 
6.45075e-06 2.62808e-06 2.68808e+25 -7.91807 -5.46878 272.001 
8.36208e-06 2.62808e-06 2.69037e+25 -7.03032 -8.33555 272.052 
1.02734e-05 2.62808e-06 2.68992e+25 -6.36615 -9.87298 272.074 
1.21847e-05 2.62808e-06 2.69134e+25 -4.49375 -10.6463 272.014 
1.40961e-05 2.62808e-06 2.69089e+25 -2.2813 -8.64259 272.099 
1.60074e-05 2.62808e-06 2.68369e+25 -0.397363 -3.90906 272.63 
7.1675e-07 3.10592e-06 2.68892e+25 -6.08491 2.3927 271.931 
2.62808e-06 3.10592e-06 2.69184e+25 -7.0884 -0.225264 271.759 
4.53942e-06 3.10592e-06 2.68864e+25 -7.92223 -3.26896 271.802 
6.45075e-06 3.10592e-06 2.68948e+25 -8.01145 -5.70412 272.054 
8.36208e-06 3.10592e-06 2.69036e+25 -7.11364 -8.57085 272.083 
1.02734e-05 3.10592e-06 2.69072e+25 -6.66674 -10.3564 272.148 
1.21847e-05 3.10592e-06 2.69184e+25 -4.81925 -11.1217 271.907 
1.40961e-05 3.10592e-06 2.6902e+25 -2.46596 -9.30237 272.138 
1.60074e-05 3.10592e-06 2.68693e+25 -0.359479 -4.31436 272.64 
7.1675e-07 3.58375e-06 2.68891e+25 -5.77487 2.66118 272.058 
2.62808e-06 3.58375e-06 2.68704e+25 -6.28206 0.0675405 271.996 
4.53942e-06 3.58375e-06 2.68837e+25 -7.59788 -3.079 272.048 
6.45075e-06 3.58375e-06 2.68849e+25 -7.7619 -5.92392 272.237 
8.36208e-06 3.58375e-06 2.68967e+25 -7.22602 -8.61885 272.205 
1.02734e-05 3.58375e-06 2.69018e+25 -6.54613 -10.7154 272.135 
1.21847e-05 3.58375e-06 2.6894e+25 -4.97163 -11.5735 272.171 
1.40961e-05 3.58375e-06 2.69053e+25 -2.48378 -9.91308 272.244 
1.60074e-05 3.58375e-06 2.68573e+25 -0.48024 -4.72594 272.594 
7.1675e-07 4.06158e-06 2.68633e+25 -5.32173 2.81017 272.156 
2.62808e-06 4.06158e-06 2.68848e+25 -5.88525 0.285829 271.972 
4.53942e-06 4.06158e-06 2.68812e+25 -7.22173 -2.80096 271.988 
6.45075e-06 4.06158e-06 2.68552e+25 -7.25979 -6.1548 272.229 
8.36208e-06 4.06158e-06 2.68732e+25 -7.14993 -8.63499 272.237 
1.02734e-05 4.06158e-06 2.68908e+25 -6.54408 -11.0615 272.315 
1.21847e-05 4.06158e-06 2.68991e+25 -4.89986 -12.1647 272.083 
1.40961e-05 4.06158e-06 2.69026e+25 -2.46783 -10.4983 272.19 
1.60074e-05 4.06158e-06 2.68635e+25 -0.499345 -5.03479 272.565 
7.1675e-07 4.53942e-06 2.68658e+25 -4.73338 2.95394 272.089 
2.62808e-06 4.53942e-06 2.68785e+25 -5.40044 0.579704 271.972 
4.53942e-06 4.53942e-06 2.68919e+25 -6.59788 -2.58491 271.958 
6.45075e-06 4.53942e-06 2.68708e+25 -6.81525 -6.13693 272.196 
8.36208e-06 4.53942e-06 2.68822e+25 -7.04557 -8.55741 272.164 
1.02734e-05 4.53942e-06 2.68841e+25 -6.35732 -11.2755 272.259 
1.21847e-05 4.53942e-06 2.69315e+25 -5.21209 -12.7052 272.003 
1.40961e-05 4.53942e-06 2.69141e+25 -2.64572 -11.0809 272.016 
1.60074e-05 4.53942e-06 2.69028e+25 -0.502441 -5.37999 272.188 
7.1675e-07 5.01725e-06 2.68595e+25 -4.41138 3.11159 272.215 
2.62808e-06 5.01725e-06 2.68648e+25 -4.78148 0.793272 272.074 
4.53942e-06 5.01725e-06 2.68986e+25 -5.62583 -2.31152 271.906 
6.45075e-06 5.01725e-06 2.68614e+25 -6.396 -6.04136 272.18 
8.36208e-06 5.01725e-06 2.6882e+25 -6.87726 -8.40113 272.105 
1.02734e-05 5.01725e-06 2.68544e+25 -6.18428 -11.3675 272.54 
1.21847e-05 5.01725e-06 2.68927e+25 -5.0094 -13.1884 272.173 
1.40961e-05 5.01725e-06 2.69155e+25 -2.43996 -11.7947 272.117 
1.60074e-05 5.01725e-06 2.68902e+25 -0.609585 -5.71692 272.325 
7.1675e-07 5.49508e-06 2.68525e+25 -3.90862 3.20459 272.302 
2.62808e-06 5.49508e-06 2.68921e+25 -4.50918 0.770953 272.005 
4.53942e-06 5.49508e-06 2.68814e+25 -4.84465 -1.96313 271.965 
6.45075e-06 5.49508e-06 2.68701e+25 -6.17528 -5.74546 272.087 
8.36208e-06 5.49508e-06 2.6855e+25 -6.61346 -8.35016 272.249 
1.02734e-05 5.49508e-06 2.68601e+25 -5.93167 -11.5446 272.475 
1.21847e-05 5.49508e-06 2.68901e+25 -4.73323 -13.6377 272.188 
1.40961e-05 5.49508e-06 2.68949e+25 -2.66459 -12.4484 272.183 
1.60074e-05 5.49508e-06 2.69152e+25 -0.619828 -6.13183 272.013 
7.1675e-07 5.97292e-06 2.68444e+25 -3.33198 3.29949 272.223 
2.62808e-06 5.97292e-06 2.68676e+25 -3.58089 0.896175 271.947 
4.53942e-06 5.97292e-06 2.68781e+25 -4.25047 -1.62416 272.002 
6.45075e-06 5.97292e-06 2.68876e+25 -5.5983 -5.55183 271.937 
8.36208e-06 5.97292e-06 2.6866e+25 -5.97765 -8.29434 272.196 
1.02734e-05 5.97292e-06 2.68487e+25 -5.81651 -11.718 272.483 
1.21847e-05 5.97292e-06 2.69048e+25 -4.47272 -14.133 272.072 
1.40961e-05 5.97292e-06 2.69156e+25 -2.69796 -13.0871 272.155 
1.60074e-05 5.97292e-06 2.69034e+25 -0.692832 -6.60075 272.155 
7.1675e-07 6.45075e-06 2.68683e+25 -2.53731 3.27806 272.02 
2.62808e-06 6.45075e-06 2.68714e+25 -2.80301 1.01682 271.981 
4.53942e-06 6.45075e-06 2.68697e+25 -3.42935 -1.50972 271.974 
6.45075e-06 6.45075e-06 2.68611e+25 -4.88055 -5.32059 272.077 
8.36208e-06 6.45075e-06 2.68782e+25 -5.56049 -8.19863 272.078 
1.02734e-05 6.45075e-06 2.68565e+25 -5.63864 -12.0281 272.494 
1.21847e-05 6.45075e-06 2.68924e+25 -4.69412 -14.5893 272.095 
1.40961e-05 6.45075e-06 2.69166e+25 -2.60122 -13.7023 272.181 
1.60074e-05 6.45075e-06 2.6924e+25 -0.62454 -6.96012 272.023 
7.1675e-07 6.92858e-06 2.68778e+25 -1.95761 3.21149 271.948 
2.62808e-06 6.92858e-06 2.68414e+25 -1.99169 1.14942 272.084 
4.53942e-06 6.92858e-06 2.68688e+25 -2.89449 -1.46911 272.101 
6.45075e-06 6.92858e-06 2.6858e+25 -3.9084 -5.00722 272.116 
8.36208e-06 6.92858e-06 2.68586e+25 -5.1045 -7.95533 272.247 
1.02734e-05 6.92858e-06 2.68314e+25 -5.35969 -12.1634 272.686 
1.21847e-05 6.92858e-06 2.68693e+25 -4.9155 -14.9211 272.265 
1.40961e-05 6.92858e-06 2.6912e+25 -2.77554 -14.375 272.205 
1.60074e-05 6.92858e-06 2.69052e+25 -0.56595 -7.19036 272.374 
7.1675e-07 7.40642e-06 2.68686e+25 -1.37339 3.15362 271.947 
2.62808e-06 7.40642e-06 2.68564e+25 -1.57922 1.39335 272.092 
4.53942e-06 7.40642e-06 2.6847e+25 -2.06865 -1.32514 272.238 
6.45075e-06 7.40642e-06 2.68558e+25 -3.07227 -4.49002 272.041 
8.36208e-06 7.40642e-06 2.68803e+25 -4.05842 -7.83293 272.036 
1.02734e-05 7.40642e-06 2.68537e+25 -4.96818 -12.1272 272.526 
1.21847e-05 7.40642e-06 2.68845e+25 -4.88441 -15.0279 272.391 
1.40961e-05 7.40642e-06 2.69026e+25 -2.85019 -14.9888 272.324 
1.60074e-05 7.40642e-06 2.69027e+25 -0.506721 -7.5257 272.425 
7.1675e-07 7.88425e-06 2.6862e+25 -0.836036 3.05375 272.003 
2.62808e-06 7.88425e-06 2.68396e+25 -0.837684 1.66746 272.22 
4.53942e-06 7.88425e-06 2.68279e+25 -1.09142 -1.34823 272.343 
6.45075e-06 7.88425e-06 2.6831e+25 -2.04352 -4.04883 272.249 
8.36208e-06 7.88425e-06 2.68888e+25 -3.22131 -7.76065 271.924 
1.02734e-05 7.88425e-06 2.68874e+25 -4.40246 -11.9249 272.276 
1.21847e-05 7.88425e-06 2.68738e+25 -4.49356 -15.0779 272.518 
1.40961e-05 7.88425e-06 2.69139e+25 -3.04221 -15.456 272.222 
1.60074e-05 7.88425e-06 2.69142e+25 -0.59876 -7.99056 272.336 
7.1675e-07 8.36208e-06 2.68804e+25 -0.110602 2.88082 271.733 
2.62808e-06 8.36208e-06 2.68135e+25 0.0252678 1.64237 272.308 
4.53942e-06 8.36208e-06 2.68337e+25 -0.190391 -1.12497 272.404 
6.45075e-06 8.36208e-06 2.68627e+25 -1.03269 -3.68788 272.173 
8.36208e-06 8.36208e-06 2.68634e+25 -2.53606 -7.6514 272.104 
1.02734e-05 8.36208e-06 2.68734e+25 -3.64913 -11.8053 272.203 
1.21847e-05 8.36208e-06 2.68922e+25 -4.12541 -15.2227 272.208 
1.40961e-05 8.36208e-06 2.69225e+25 -3.20735 -16.1015 272.373 
1.60074e-05 8.36208e-06 2.6887e+25 -0.71668 -8.5251 272.441 
7.1675e-07 8.83992e-06 2.68889e+25 0.872393 2.98098 271.755 
2.62808e-06 8.83992e-06 2.68405e+25 1.02588 1.57076 272.162 
4.53942e-06 8.83992e-06 2.68514e+25 0.796513 -0.836811 272.241 
6.45075e-06 8.83992e-06 2.6842e+25 0.0107278 -3.3493 272.195 
8.36208e-06 8.83992e-06 2.68648e+25 -1.55167 -7.40155 272.217 
1.02734e-05 8.83992e-06 2.68662e+25 -3.05136 -11.3936 272.332 
1.21847e-05 8.83992e-06 2.69068e+25 -3.93385 -15.2615 272.267 
1.40961e-05 8.83992e-06 2.68871e+25 -3.44023 -16.6171 272.498 
1.60074e-05 8.83992e-06 2.68896e+25 -0.919277 -9.09341 272.523 
7.1675e-07 9.31775e-06 2.69146e+25 1.65999 3.15794 271.491 
2.62808e-06 9.31775e-06 2.68529e+25 1.68315 1.48344 272.088 
4.53942e-06 9.31775e-06 2.68378e+25 1.8646 -0.596756 272.312 
6.45075e-06 9.31775e-06 2.68443e+25 0.751659 -3.01392 272.292 
8.36208e-06 9.31775e-06 2.68533e+25 -0.538494 -6.86702 272.26 
1.02734e-05 9.31775e-06 2.68882e+25 -2.16446 -11.1257 272.154 
1.21847e-05 9.31775e-06 2.68952e+25 -3.47892 -15.0764 272.238 
1.40961e-05 9.31775e-06 2.69027e+25 -3.47535 -17.0331 272.565 
1.60074e-05 9.31775e-06 2.69025e+25 -1.09349 -9.80737 272.516 
7.1675e-07 9.79558e-06 2.68982e+25 2.6299 3.19735 271.715 
2.62808e-06 9.79558e-06 2.6857e+25 3.00904 1.36205 272.04 
4.53942e-06 9.79558e-06 2.6879e+25 2.90216 -0.612262 272.052 
6.45075e-06 9.79558e-06 2.68223e+25 1.95269 -2.82683 272.373 
8.36208e-06 9.79558e-06 2.68664e+25 0.784926 -6.43084 272.199 
1.02734e-05 9.79558e-06 2.6877e+25 -1.16085 -10.7467 272.212 
1.21847e-05 9.79558e-06 2.689e+25 -2.92773 -14.8988 272.449 
1.40961e-05 9.79558e-06 2.69054e+25 -3.10962 -17.3689 272.566 
1.60074e-05 9.79558e-06 2.69388e+25 -0.82537 -10.4981 272.335 
7.1675e-07 1.02734e-05 2.68743e+25 3.51491 2.97338 271.856 
2.62808e-06 1.02734e-05 2.6837e+25 4.28854 1.32471 272.097 
4.53942e-06 1.02734e-05 2.6859e+25 4.01282 -0.556448 272.152 
6.45075e-06 1.02734e-05 2.68254e+25 3.06793 -2.67039 272.433 
8.36208e-06 1.02734e-05 2.68773e+25 1.94045 -5.91313 272.076 
1.02734e-05 1.02734e-05 2.68635e+25 0.0944491 -10.1735 272.305 
1.21847e-05 1.02734e-05 2.68991e+25 -2.18466 -14.4954 272.407 
1.40961e-05 1.02734e-05 2.69357e+25 -2.69438 -17.5794 272.456 
1.60074e-05 1.02734e-05 2.69436e+25 -0.548059 -11.0085 272.337 
7.1675e-07 1.07512e-05 2.68986e+25 4.5902 2.639 271.777 
2.62808e-06 1.07512e-05 2.68644e+25 5.38013 1.28491 271.902 
4.53942e-06 1.07512e-05 2.68548e+25 5.33177 -0.348913 272.06 
6.45075e-06 1.07512e-05 2.68455e+25 4.60573 -2.56397 272.333 
8.36208e-06 1.07512e-05 2.68842e+25 3.1605 -5.57514 272.069 
1.02734e-05 1.07512e-05 2.68873e+25 1.02731 -9.43424 272.43 
1.21847e-05 1.07512e-05 2.69227e+25 -1.52122 -13.959 272.309 
1.40961e-05 1.07512e-05 2.69148e+25 -2.61272 -17.7545 272.445 
1.60074e-05 1.07512e-05 2.6943e+25 -0.823293 -11.4295 272.497 
7.1675e-07 1.12291e-05 2.69014e+25 5.73243 2.50627 271.724 
2.62808e-06 1.12291e-05 2.68507e+25 6.49733 1.05601 272.06 
4.53942e-06 1.12291e-05 2.68615e+25 6.53738 -0.213878 272.042 
6.45075e-06 1.12291e-05 2.68389e+25 6.14373 -2.35527 272.406 
8.36208e-06 1.12291e-05 2.68627e+25 4.61041 -5.223 272.289 
1.02734e-05 1.12291e-05 2.68842e+25 2.09207 -8.60275 272.446 
1.21847e-05 1.12291e-05 2.69117e+25 -0.693892 -13.3975 272.313 
1.40961e-05 1.12291e-05 2.6937e+25 -2.39512 -17.831 272.506 
1.60074e-05 1.12291e-05 2.69446e+25 -0.842621 -11.8785 272.573 
7.1675e-07 1.17069e-05 2.68752e+25 7.35488 2.19134 271.979 
2.62808e-06 1.17069e-05 2.68722e+25 7.98446 0.844902 271.883 
4.53942e-06 1.17069e-05 2.68617e+25 7.97822 -0.00907 272.126 
6.45075e-06 1.17069e-05 2.68846e+25 7.69652 -2.05188 272.074 
8.36208e-06 1.17069e-05 2.68847e+25 5.98453 -4.74908 272.167 
1.02734e-05 1.17069e-05 2.69034e+25 3.36414 -7.71189 272.115 
1.21847e-05 1.17069e-05 2.69134e+25 0.0472016 -12.7373 272.349 
1.40961e-05 1.17069e-05 2.6942e+25 -2.13165 -17.5857 272.486 
1.60074e-05 1.17069e-05 2.69409e+25 -1.01631 -12.523 272.59 
7.1675e-07 1.21847e-05 2.68858e+25 8.83748 1.93135 271.968 
2.62808e-06 1.21847e-05 2.68786e+25 9.45258 0.646757 271.715 
4.53942e-06 1.21847e-05 2.68554e+25 9.38092 0.0987126 272.104 
6.45075e-06 1.21847e-05 2.68569e+25 8.95222 -1.73822 272.011 
8.36208e-06 1.21847e-05 2.68931e+25 7.61631 -4.31341 272.133 
1.02734e-05 1.21847e-05 2.6911e+25 4.79749 -6.75595 272.121 
1.21847e-05 1.21847e-05 2.69187e+25 0.879338 -11.8292 272.285 
1.40961e-05 1.21847e-05 2.69813e+25 -1.89211 -17.2089 272.398 
1.60074e-05 1.21847e-05 2.69778e+25 -1.1509 -13.2271 272.502 
7.1675e-07 1.26626e-05 2.68561e+25 10.584 1.81218 272.063 
2.62808e-06 1.26626e-05 2.68681e+25 11.1377 0.610921 271.908 
4.53942e-06 1.26626e-05 2.68825e+25 11.3531 0.108147 272.003 
6.45075e-06 1.26626e-05 2.68677e+25 10.6991 -1.37581 271.989 
8.36208e-06 1.26626e-05 2.68839e+25 9.57964 -3.92178 272.169 
1.02734e-05 1.26626e-05 2.69214e+25 6.61008 -6.0659 272.201 
1.21847e-05 1.26626e-05 2.69269e+25 2.58655 -10.8604 272.376 
1.40961e-05 1.26626e-05 2.69529e+25 -1.55669 -16.662 272.644 
1.60074e-05 1.26626e-05 2.69952e+25 -1.34837 -13.9043 272.594 
7.1675e-07 1.31404e-05 2.68551e+25 12.3622 1.56904 272.104 
2.62808e-06 1.31404e-05 2.68761e+25 12.7591 0.406852 271.966 
4.53942e-06 1.31404e-05 2.68691e+25 13.3731 0.0213043 272.184 
6.45075e-06 1.31404e-05 2.68563e+25 12.7855 -1.08233 272.214 
8.36208e-06 1.31404e-05 2.68886e+25 11.318 -3.5 272.174 
1.02734e-05 1.31404e-05 2.69318e+25 8.68968 -5.1414 272.004 
1.21847e-05 1.31404e-05 2.69227e+25 4.44714 -9.66689 272.587 
1.40961e-05 1.31404e-05 2.69751e+25 -0.692124 -15.7584 272.605 
1.60074e-05 1.31404e-05 2.69998e+25 -1.46998 -14.4923 272.694 
7.1675e-07 1.36182e-05 2.68468e+25 14.3684 1.31136 272.264 
2.62808e-06 1.36182e-05 2.68714e+25 14.8862 0.259616 272.114 
4.53942e-06 1.36182e-05 2.6839e+25 15.4953 0.0292453 272.327 
6.45075e-06 1.36182e-05 2.68546e+25 14.7721 -0.924649 272.278 
8.36208e-06 1.36182e-05 2.6879e+25 13.3579 -2.9485 272.005 
1.02734e-05 1.36182e-05 2.69319e+25 10.7897 -4.22204 272.031 
1.21847e-05 1.36182e-05 2.6926e+25 6.39846 -8.3453 272.688 
1.40961e-05 1.36182e-05 2.70048e+25 0.081466 -14.5326 272.585 
1.60074e-05 1.36182e-05 2.70485e+25 -1.74528 -15.146 272.512 
7.1675e-07 1.40961e-05 2.6853e+25 16.2876 1.11405 272.185 
2.62808e-06 1.40961e-05 2.68733e+25 17.1214 0.0601341 271.957 
4.53942e-06 1.40961e-05 2.68451e+25 17.5779 0.0577573 272.321 
6.45075e-06 1.40961e-05 2.68561e+25 16.8332 -0.842316 272.311 
8.36208e-06 1.40961e-05 2.68964e+25 15.528 -2.30303 272.134 
1.02734e-05 1.40961e-05 2.69263e+25 13.2189 -3.42828 272.143 
1.21847e-05 1.40961e-05 2.69136e+25 8.63451 -6.88708 272.971 
1.40961e-05 1.40961e-05 2.6962e+25 1.72802 -12.9612 272.82 
1.60074e-05 1.40961e-05 2.70668e+25 -1.82569 -15.6946 272.486 
7.1675e-07 1.45739e-05 2.68391e+25 18.6192 0.776672 272.385 
2.62808e-06 1.45739e-05 2.68791e+25 19.4061 -0.0155169 271.925 
4.53942e-06 1.45739e-05 2.68746e+25 19.7438 -0.0284357 272.078 
6.45075e-06 1.45739e-05 2.68585e+25 19.0332 -0.787672 272.354 
8.36208e-06 1.45739e-05 2.68738e+25 18.0618 -1.79373 272.225 
1.02734e-05 1.45739e-05 2.68886e+25 15.6915 -2.71523 272.528 
1.21847e-05 1.45739e-05 2.68905e+25 11.1864 -5.42629 273.024 
1.40961e-05 1.45739e-05 2.70134e+25 3.77385 -10.8789 272.705 
1.60074e-05 1.45739e-05 2.71329e+25 -1.68489 -16.1217 272.498 
7.1675e-07 1.50518e-05 2.68446e+25 21.3342 0.447423 272.453 
2.62808e-06 1.50518e-05 2.6847e+25 21.8191 0.0170731 272.162 
4.53942e-06 1.50518e-05 2.6851e+25 21.9919 0.0702338 272.243 
6.45075e-06 1.50518e-05 2.6879e+25 21.7301 -0.648625 272.152 
8.36208e-06 1.50518e-05 2.68814e+25 20.5545 -1.27335 272.391 
1.02734e-05 1.50518e-05 2.68968e+25 18.3761 -2.04112 272.532 
1.21847e-05 1.50518e-05 2.69069e+25 14.1933 -3.95462 272.934 
1.40961e-05 1.50518e-05 2.7014e+25 6.47799 -8.4866 272.934 
1.60074e-05 1.50518e-05 2.71954e+25 -1.69064 -15.9508 272.452 
7.1675e-07 1.55296e-05 2.68424e+25 24.23 0.198104 272.326 
2.62808e-06 1.55296e-05 2.68242e+25 24.636 -0.00284677 272.422 
4.53942e-06 1.55296e-05 2.68749e+25 24.4024 0.06288 272.191 
6.45075e-06 1.55296e-05 2.68809e+25 24.6427 -0.527131 272.189 
8.36208e-06 1.55296e-05 2.68716e+25 23.3351 -0.763167 272.316 
1.02734e-05 1.55296e-05 2.68552e+25 21.1492 -1.24316 272.722 
1.21847e-05 1.55296e-05 2.69116e+25 17.6947 -2.71575 272.871 
1.40961e-05 1.55296e-05 2.70051e+25 10.2244 -6.08434 272.94 
1.60074e-05 1.55296e-05 2.72244e+25 -0.793912 -14.9797 272.72 
7.1675e-07 1.60074e-05 2.68372e+25 26.9393 0.0117823 272.514 
2.62808e-06 1.60074e-05 2.68485e+25 27.3455 -0.0836917 272.37 
4.53942e-06 1.60074e-05 2.68445e+25 27.2476 0.0645958 272.311 
6.45075e-06 1.60074e-05 2.68724e+25 27.4259 -0.178211 272.437 
8.36208e-06 1.60074e-05 2.68718e+25 26.3112 -0.362144 272.446 
1.02734e-05 1.60074e-05 2.68634e+25 24.6818 -0.652877 272.733 
1.21847e-05 1.60074e-05 2.69507e+25 21.7657 -1.59681 272.7 
1.40961e-05 1.60074e-05 2.70183e+25 15.3736 -3.76357 272.993 
1.60074e-05 1.60074e-05 2.72645e+25 1.83326 -12.5421 273.077 
7.1675e-07 1.64852e-05 2.68085e+25 30.054 -0.0110533 272.691 
2.62808e-06 1.64852e-05 2.68345e+25 30.413 -0.115067 272.467 
4.53942e-06 1.64852e-05 2.68413e+25 30.3904 0.137032 272.358 
6.45075e-06 1.64852e-05 2.68488e+25 30.2373 -0.0130731 272.582 
8.36208e-06 1.64852e-05 2.68589e+25 29.4745 -0.0381514 272.621 
1.02734e-05 1.64852e-05 2.68668e+25 28.4732 -0.347771 272.846 
1.21847e-05 1.64852e-05 2.69285e+25 26.4355 -0.48722 272.727 
1.40961e-05 1.64852e-05 2.70152e+25 21.9937 -1.67786 273.12 
1.60074e-05 1.64852e-05 2.72934e+25 7.69425 -8.03051 273.571 
7.1675e-07 1.69631e-05 2.67969e+25 32.8706 0.0302969 272.815 
2.62808e-06 1.69631e-05 2.6794e+25 33.0342 -0.0128146 272.724 
4.53942e-06 1.69631e-05 2.68226e+25 32.9902 0.023172 272.632 
6.45075e-06 1.69631e-05 2.68618e+25 32.8408 -0.0149863 272.773 
8.36208e-06 1.69631e-05 2.6824e+25 32.6755 0.0193735 273.003 
1.02734e-05 1.69631e-05 2.68689e+25 31.9553 -0.148787 272.895 
1.21847e-05 1.69631e-05 2.69467e+25 31.3025 -0.0430064 272.824 
1.40961e-05 1.69631e-05 2.69683e+25 29.4626 -0.315859 273.327 
1.60074e-05 1.69631e-05 2.73308e+25 20.0009 -2.43757 273.606 
1.19458e-06 2.38917e-07 2.68893e+25 -8.01561 0.444415 271.815 
3.10592e-06 2.38917e-07 2.68846e+25 -8.11938 -1.84745 272.063 
5.01725e-06 2.38917e-07 2.68794e+25 -7.54103 -3.43686 272.082 
6.92858e-06 2.38917e-07 2.69149e+25 -7.05128 -5.45856 271.804 
8.83992e-06 2.38917e-07 2.68663e+25 -6.37526 -7.81343 272.21 
1.07512e-05 2.38917e-07 2.68893e+25 -4.99975 -8.4756 271.914 
1.26626e-05 2.38917e-07 2.68648e+25 -3.64286 -7.82505 272.322 
1.45739e-05 2.38917e-07 2.68936e+25 -1.43942 -5.49346 272.066 
1.64852e-05 2.38917e-07 2.68345e+25 -0.320498 -1.40837 272.595 
1.19458e-06 7.1675e-07 2.69186e+25 -7.65581 0.67938 271.794 
3.10592e-06 7.1675e-07 2.68754e+25 -8.04178 -1.76586 272.092 
5.01725e-06 7.1675e-07 2.68984e+25 -7.69874 -3.63514 272.012 
6.92858e-06 7.1675e-07 2.69344e+25 -6.89543 -5.56939 271.788 
8.83992e-06 7.1675e-07 2.69096e+25 -6.57581 -8.13178 272.189 
1.07512e-05 7.1675e-07 2.69166e+25 -5.40367 -8.78871 271.982 
1.26626e-05 7.1675e-07 2.68785e+25 -3.65205 -8.31306 272.381 
1.45739e-05 7.1675e-07 2.68944e+25 -1.6199 -5.92286 272.226 
1.64852e-05 7.1675e-07 2.68391e+25 -0.234917 -1.63179 272.756 
1.19458e-06 1.19458e-06 2.68845e+25 -7.25854 0.852187 271.979 
3.10592e-06 1.19458e-06 2.6888e+25 -8.06565 -1.63074 272.013 
5.01725e-06 1.19458e-06 2.68946e+25 -7.77403 -3.81256 272.001 
6.92858e-06 1.19458e-06 2.69224e+25 -7.0396 -5.60504 271.865 
8.83992e-06 1.19458e-06 2.69103e+25 -6.53837 -8.32727 272.022 
1.07512e-05 1.19458e-06 2.69108e+25 -5.52434 -9.13761 272.019 
1.26626e-05 1.19458e-06 2.6891e+25 -3.53303 -8.81425 272.376 
1.45739e-05 1.19458e-06 2.68949e+25 -1.56953 -6.45745 272.141 
1.64852e-05 1.19458e-06 2.68335e+25 -0.290831 -1.77811 272.884 
1.19458e-06 1.67242e-06 2.68865e+25 -6.94153 1.1352 272.029 
3.10592e-06 1.67242e-06 2.69229e+25 -7.84259 -1.52161 271.851 
5.01725e-06 1.67242e-06 2.69019e+25 -7.99325 -3.88163 271.95 
6.92858e-06 1.67242e-06 2.68868e+25 -7.46693 -5.71184 272.128 
8.83992e-06 1.67242e-06 2.6891e+25 -6.56313 -8.54181 272.045 
1.07512e-05 1.67242e-06 2.68956e+25 -5.74942 -9.49884 272.163 
1.26626e-05 1.67242e-06 2.69065e+25 -3.44622 -9.33177 272.261 
1.45739e-05 1.67242e-06 2.68685e+25 -1.74558 -6.88381 272.26 
1.64852e-05 1.67242e-06 2.68433e+25 -0.0578448 -2.06463 272.773 
1.19458e-06 2.15025e-06 2.68969e+25 -6.63628 1.43833 272.089 
3.10592e-06 2.15025e-06 2.68935e+25 -7.76209 -1.37089 271.868 
5.01725e-06 2.15025e-06 2.68954e+25 -8.17833 -3.9105 271.954 
6.92858e-06 2.15025e-06 2.6877e+25 -7.52303 -5.89096 272.242 
8.83992e-06 2.15025e-06 2.6913e+25 -6.60965 -8.669 272.136 
1.07512e-05 2.15025e-06 2.69038e+25 -5.87926 -9.87845 272.004 
1.26626e-05 2.15025e-06 2.69066e+25 -3.7466 -9.87814 272.185 
1.45739e-05 2.15025e-06 2.69059e+25 -1.78375 -7.44971 272.084 
1.64852e-05 2.15025e-06 2.68369e+25 -0.138052 -2.22155 272.686 
1.19458e-06 2.62808e-06 2.68925e+25 -6.52159 1.76448 271.857 
3.10592e-06 2.62808e-06 2.69002e+25 -7.62819 -1.12131 271.838 
5.01725e-06 2.62808e-06 2.69029e+25 -8.09267 -3.97074 272.053 
6.92858e-06 2.62808e-06 2.68671e+25 -7.71215 -6.06816 272.123 
8.83992e-06 2.62808e-06 2.69107e+25 -6.769 -8.84001 272.129 
1.07512e-05 2.62808e-06 2.69119e+25 -6.01639 -10.3187 272.045 
1.26626e-05 2.62808e-06 2.69149e+25 -3.97566 -10.4918 272.047 
1.45739e-05 2.62808e-06 2.69122e+25 -1.76204 -7.88653 272.154 
1.64852e-05 2.62808e-06 2.68428e+25 -0.0924999 -2.39526 272.623 
1.19458e-06 3.10592e-06 2.68756e+25 -6.33578 1.96838 271.949 
3.10592e-06 3.10592e-06 2.68981e+25 -7.36831 -1.06078 271.852 
5.01725e-06 3.10592e-06 2.69067e+25 -8.05128 -3.90654 271.843 
6.92858e-06 3.10592e-06 2.68878e+25 -7.74649 -6.28923 272.006 
8.83992e-06 3.10592e-06 2.68718e+25 -6.9964 -9.02329 272.296 
1.07512e-05 3.10592e-06 2.68943e+25 -6.27994 -10.6853 272.214 
1.26626e-05 3.10592e-06 2.6928e+25 -4.33513 -10.9682 272.012 
1.45739e-05 3.10592e-06 2.68893e+25 -1.83987 -8.40611 272.149 
1.64852e-05 3.10592e-06 2.68496e+25 -0.109424 -2.55924 272.69 
1.19458e-06 3.58375e-06 2.68785e+25 -5.90042 2.07497 271.961 
3.10592e-06 3.58375e-06 2.68944e+25 -6.58092 -0.727127 271.825 
5.01725e-06 3.58375e-06 2.69067e+25 -7.81188 -3.75393 271.834 
6.92858e-06 3.58375e-06 2.68681e+25 -7.51929 -6.47745 272.181 
8.83992e-06 3.58375e-06 2.68707e+25 -7.21337 -9.14022 272.446 
1.07512e-05 3.58375e-06 2.68867e+25 -6.18206 -11.0775 272.172 
1.26626e-05 3.58375e-06 2.6898e+25 -4.39599 -11.5917 272.213 
1.45739e-05 3.58375e-06 2.69065e+25 -1.92801 -8.99015 272.047 
1.64852e-05 3.58375e-06 2.68454e+25 -0.158246 -2.72528 272.936 
1.19458e-06 4.06158e-06 2.68638e+25 -5.43934 2.11273 272.018 
3.10592e-06 4.06158e-06 2.69081e+25 -6.20806 -0.288951 271.74 
5.01725e-06 4.06158e-06 2.68978e+25 -7.35067 -3.60911 271.904 
6.92858e-06 4.06158e-06 2.6846e+25 -7.20294 -6.65117 272.29 
8.83992e-06 4.06158e-06 2.68844e+25 -7.24356 -9.06363 272.263 
1.07512e-05 4.06158e-06 2.69095e+25 -6.24586 -11.3831 272.101 
1.26626e-05 4.06158e-06 2.69092e+25 -4.35439 -12.1668 272.058 
1.45739e-05 4.06158e-06 2.69044e+25 -1.88829 -9.53591 272.112 
1.64852e-05 4.06158e-06 2.68535e+25 -0.201628 -3.06816 272.859 
1.19458e-06 4.53942e-06 2.68399e+25 -5.04422 2.37297 272.221 
3.10592e-06 4.53942e-06 2.6886e+25 -5.56225 -0.0967424 272.054 
5.01725e-06 4.53942e-06 2.68566e+25 -6.68082 -3.62036 272.071 
6.92858e-06 4.53942e-06 2.68648e+25 -6.91325 -6.60997 272.266 
8.83992e-06 4.53942e-06 2.68559e+25 -7.10945 -9.05766 272.214 
1.07512e-05 4.53942e-06 2.69092e+25 -6.17256 -11.6627 272.084 
1.26626e-05 4.53942e-06 2.69328e+25 -4.65795 -12.6616 271.98 
1.45739e-05 4.53942e-06 2.68982e+25 -1.96186 -10.1995 272.195 
1.64852e-05 4.53942e-06 2.68356e+25 -0.170192 -3.2936 272.69 
1.19458e-06 5.01725e-06 2.6865e+25 -4.44256 2.59929 272.18 
3.10592e-06 5.01725e-06 2.68859e+25 -4.98344 0.0624097 272.021 
5.01725e-06 5.01725e-06 2.69138e+25 -5.95333 -3.42902 271.844 
6.92858e-06 5.01725e-06 2.68648e+25 -6.60704 -6.48913 272.281 
8.83992e-06 5.01725e-06 2.68654e+25 -6.90411 -9.12451 272.404 
1.07512e-05 5.01725e-06 2.68757e+25 -6.0943 -11.8625 272.185 
1.26626e-05 5.01725e-06 2.68973e+25 -4.46308 -13.2947 271.965 
1.45739e-05 5.01725e-06 2.68979e+25 -1.84296 -10.7824 272.301 
1.64852e-05 5.01725e-06 2.68696e+25 -0.27274 -3.50319 272.532 
1.19458e-06 5.49508e-06 2.68763e+25 -4.04047 2.66423 272.108 
3.10592e-06 5.49508e-06 2.68869e+25 -4.52125 0.289641 271.914 
5.01725e-06 5.49508e-06 2.68807e+25 -5.27508 -3.03697 272.102 
6.92858e-06 5.49508e-06 2.68775e+25 -6.32926 -6.34272 272.109 
8.83992e-06 5.49508e-06 2.68387e+25 -6.65424 -9.19204 272.442 
1.07512e-05 5.49508e-06 2.68754e+25 -5.74401 -12.0113 272.338 
1.26626e-05 5.49508e-06 2.69195e+25 -4.28315 -13.7868 272.117 
1.45739e-05 5.49508e-06 2.69125e+25 -2.06582 -11.3044 272.198 
1.64852e-05 5.49508e-06 2.68733e+25 -0.278038 -3.73881 272.345 
1.19458e-06 5.97292e-06 2.68427e+25 -3.35794 2.66788 272.226 
3.10592e-06 5.97292e-06 2.68755e+25 -3.70376 0.324628 271.956 
5.01725e-06 5.97292e-06 2.68759e+25 -4.46721 -2.68539 271.959 
6.92858e-06 5.97292e-06 2.68954e+25 -5.81116 -6.22252 272.098 
8.83992e-06 5.97292e-06 2.68783e+25 -6.01249 -9.17041 272.134 
1.07512e-05 5.97292e-06 2.68906e+25 -5.54346 -12.2414 272.293 
1.26626e-05 5.97292e-06 2.68987e+25 -4.04918 -14.1537 272.106 
1.45739e-05 5.97292e-06 2.693e+25 -2.08512 -11.7974 271.992 
1.64852e-05 5.97292e-06 2.68815e+25 -0.261182 -4.06269 272.39 
1.19458e-06 6.45075e-06 2.68553e+25 -2.6514 2.83573 272.123 
3.10592e-06 6.45075e-06 2.68591e+25 -2.95706 0.487392 272.128 
5.01725e-06 6.45075e-06 2.68721e+25 -3.62225 -2.43896 271.953 
6.92858e-06 6.45075e-06 2.68563e+25 -5.07792 -6.04129 272.076 
8.83992e-06 6.45075e-06 2.68697e+25 -5.68273 -9.09888 272.123 
1.07512e-05 6.45075e-06 2.68642e+25 -5.47592 -12.4357 272.38 
1.26626e-05 6.45075e-06 2.69216e+25 -4.27983 -14.5636 271.949 
1.45739e-05 6.45075e-06 2.6927e+25 -2.03579 -12.3426 272.078 
1.64852e-05 6.45075e-06 2.68916e+25 -0.303086 -4.49735 272.471 
1.19458e-06 6.92858e-06 2.68692e+25 -1.92754 2.93741 272.092 
3.10592e-06 6.92858e-06 2.68448e+25 -2.32133 0.716762 272.091 
5.01725e-06 6.92858e-06 2.68775e+25 -3.00485 -2.21762 272.086 
6.92858e-06 6.92858e-06 2.68717e+25 -4.34907 -5.72467 272.058 
8.83992e-06 6.92858e-06 2.68609e+25 -5.16981 -9.13363 272.307 
1.07512e-05 6.92858e-06 2.68481e+25 -5.17851 -12.5924 272.395 
1.26626e-05 6.92858e-06 2.69301e+25 -4.50108 -15.0749 272.023 
1.45739e-05 6.92858e-06 2.68999e+25 -2.01778 -12.9494 272.315 
1.64852e-05 6.92858e-06 2.68722e+25 -0.251157 -4.80352 272.554 
1.19458e-06 7.40642e-06 2.68787e+25 -1.22497 2.87284 271.909 
3.10592e-06 7.40642e-06 2.68435e+25 -1.81581 1.04465 272.133 
5.01725e-06 7.40642e-06 2.6859e+25 -2.05569 -2.18386 272.113 
6.92858e-06 7.40642e-06 2.68777e+25 -3.51793 -5.2684 272.023 
8.83992e-06 7.40642e-06 2.68655e+25 -4.17548 -9.01784 272.296 
1.07512e-05 7.40642e-06 2.686e+25 -5.03106 -12.7691 272.584 
1.26626e-05 7.40642e-06 2.69211e+25 -4.62078 -15.634 272.016 
1.45739e-05 7.40642e-06 2.68902e+25 -2.36682 -13.6137 272.354 
1.64852e-05 7.40642e-06 2.68785e+25 -0.282439 -4.95094 272.524 
1.19458e-06 7.88425e-06 2.68747e+25 -0.670257 2.6812 271.963 
3.10592e-06 7.88425e-06 2.68471e+25 -0.838922 1.03734 272.199 
5.01725e-06 7.88425e-06 2.68601e+25 -1.26514 -2.08545 272.114 
6.92858e-06 7.88425e-06 2.68305e+25 -2.3412 -4.94581 272.287 
8.83992e-06 7.88425e-06 2.68998e+25 -3.34351 -8.84431 271.999 
1.07512e-05 7.88425e-06 2.68841e+25 -4.50546 -12.7479 272.23 
1.26626e-05 7.88425e-06 2.68916e+25 -4.29431 -16.0805 272.469 
1.45739e-05 7.88425e-06 2.69182e+25 -2.27605 -14.3969 272.201 
1.64852e-05 7.88425e-06 2.68915e+25 -0.193156 -5.19656 272.467 
1.19458e-06 8.36208e-06 2.68893e+25 0.0483885 2.53418 271.767 
3.10592e-06 8.36208e-06 2.68641e+25 0.112566 0.987666 272.063 
5.01725e-06 8.36208e-06 2.68445e+25 -0.375717 -1.83019 272.287 
6.92858e-06 8.36208e-06 2.68402e+25 -1.38754 -4.64845 272.28 
8.83992e-06 8.36208e-06 2.68624e+25 -2.68124 -8.58804 272.163 
1.07512e-05 8.36208e-06 2.68927e+25 -3.94399 -12.5615 272.074 
1.26626e-05 8.36208e-06 2.68971e+25 -4.12972 -16.1886 272.241 
1.45739e-05 8.36208e-06 2.69138e+25 -2.62473 -15.0992 272.285 
1.64852e-05 8.36208e-06 2.68539e+25 -0.175819 -5.5645 272.683 
1.19458e-06 8.83992e-06 2.68657e+25 0.73893 2.52113 271.953 
3.10592e-06 8.83992e-06 2.68555e+25 1.09941 0.917115 272.032 
5.01725e-06 8.83992e-06 2.68516e+25 0.489187 -1.57792 272.29 
6.92858e-06 8.83992e-06 2.68343e+25 -0.427178 -4.2588 272.282 
8.83992e-06 8.83992e-06 2.68782e+25 -2.07925 -8.1829 272.163 
1.07512e-05 8.83992e-06 2.68802e+25 -3.29696 -12.3938 272.321 
1.26626e-05 8.83992e-06 2.68999e+25 -3.99703 -16.0693 272.186 
1.45739e-05 8.83992e-06 2.69031e+25 -2.81889 -15.7664 272.407 
1.64852e-05 8.83992e-06 2.68945e+25 -0.361978 -5.95427 272.503 
1.19458e-06 9.31775e-06 2.68886e+25 1.49632 2.49877 271.827 
3.10592e-06 9.31775e-06 2.68474e+25 1.72937 0.92852 272.105 
5.01725e-06 9.31775e-06 2.68682e+25 1.67817 -1.31996 272.237 
6.92858e-06 9.31775e-06 2.68237e+25 0.545735 -3.957 272.417 
8.83992e-06 9.31775e-06 2.68506e+25 -1.09944 -7.70215 272.261 
1.07512e-05 9.31775e-06 2.6888e+25 -2.51814 -12.0635 272.315 
1.26626e-05 9.31775e-06 2.69074e+25 -3.63741 -16.0228 272.354 
1.45739e-05 9.31775e-06 2.69071e+25 -3.04334 -16.3481 272.407 
1.64852e-05 9.31775e-06 2.6869e+25 -0.522933 -6.44892 272.685 
1.19458e-06 9.79558e-06 2.68968e+25 2.64889 2.57693 271.645 
3.10592e-06 9.79558e-06 2.68431e+25 3.05315 0.933529 272.211 
5.01725e-06 9.79558e-06 2.68779e+25 2.68063 -0.990247 272.012 
6.92858e-06 9.79558e-06 2.68414e+25 1.72126 -3.78948 272.219 
8.83992e-06 9.79558e-06 2.68651e+25 0.286551 -7.07833 272.305 
1.07512e-05 9.79558e-06 2.6912e+25 -1.59435 -11.7506 272.131 
1.26626e-05 9.79558e-06 2.68948e+25 -3.18556 -15.8823 272.49 
1.45739e-05 9.79558e-06 2.68946e+25 -2.85308 -16.8068 272.604 
1.64852e-05 9.79558e-06 2.69135e+25 -0.394948 -6.76735 272.503 
1.19458e-06 1.02734e-05 2.68837e+25 3.80416 2.46993 271.83 
3.10592e-06 1.02734e-05 2.68514e+25 4.23701 1.07769 272.022 
5.01725e-06 1.02734e-05 2.68549e+25 3.97674 -0.792539 272.098 
6.92858e-06 1.02734e-05 2.68547e+25 2.96761 -3.60236 272.29 
8.83992e-06 1.02734e-05 2.68469e+25 1.53857 -6.69159 272.282 
1.07512e-05 1.02734e-05 2.68829e+25 -0.581207 -11.1377 272.256 
1.26626e-05 1.02734e-05 2.69001e+25 -2.61227 -15.5889 272.486 
1.45739e-05 1.02734e-05 2.69224e+25 -2.37226 -17.1737 272.492 
1.64852e-05 1.02734e-05 2.69086e+25 -0.158097 -7.07087 272.648 
1.19458e-06 1.07512e-05 2.69035e+25 4.89039 2.27132 271.645 
3.10592e-06 1.07512e-05 2.68801e+25 5.42801 1.01721 271.943 
5.01725e-06 1.07512e-05 2.68513e+25 5.14391 -0.67835 272.037 
6.92858e-06 1.07512e-05 2.68491e+25 4.37869 -3.32146 272.267 
8.83992e-06 1.07512e-05 2.68522e+25 2.81665 -6.24531 272.299 
1.07512e-05 1.07512e-05 2.68985e+25 0.257084 -10.4723 272.364 
1.26626e-05 1.07512e-05 2.68923e+25 -1.99582 -15.2401 272.335 
1.45739e-05 1.07512e-05 2.69305e+25 -2.33381 -17.6302 272.443 
1.64852e-05 1.07512e-05 2.69253e+25 -0.439133 -7.37705 272.495 
1.19458e-06 1.12291e-05 2.68949e+25 6.00461 1.91805 271.728 
3.10592e-06 1.12291e-05 2.68572e+25 6.78037 0.854337 271.979 
5.01725e-06 1.12291e-05 2.68597e+25 6.41833 -0.556187 272.114 
6.92858e-06 1.12291e-05 2.68598e+25 5.80158 -2.95573 272.273 
8.83992e-06 1.12291e-05 2.68586e+25 4.18794 -5.87259 272.391 
1.07512e-05 1.12291e-05 2.68947e+25 1.28561 -9.73558 272.365 
1.26626e-05 1.12291e-05 2.69267e+25 -1.2344 -14.7759 272.415 
1.45739e-05 1.12291e-05 2.69411e+25 -2.36685 -17.888 272.498 
1.64852e-05 1.12291e-05 2.69297e+25 -0.290434 -7.78094 272.775 
1.19458e-06 1.17069e-05 2.68761e+25 7.54186 1.73548 271.84 
3.10592e-06 1.17069e-05 2.68743e+25 8.14754 0.700697 271.965 
5.01725e-06 1.17069e-05 2.68844e+25 7.91492 -0.504341 272.027 
6.92858e-06 1.17069e-05 2.68961e+25 7.29556 -2.5304 272.019 
8.83992e-06 1.17069e-05 2.68759e+25 5.48943 -5.33785 272.45 
1.07512e-05 1.17069e-05 2.69153e+25 2.34784 -8.83186 272.187 
1.26626e-05 1.17069e-05 2.69233e+25 -0.790865 -14.0969 272.354 
1.45739e-05 1.17069e-05 2.69554e+25 -2.33674 -17.9464 272.509 
1.64852e-05 1.17069e-05 2.69102e+25 -0.443247 -8.29784 272.984 
1.19458e-06 1.21847e-05 2.68746e+25 8.9604 1.71882 271.967 
3.10592e-06 1.21847e-05 2.68577e+25 9.56811 0.525656 271.982 
5.01725e-06 1.21847e-05 2.68528e+25 9.33988 -0.471692 272.125 
6.92858e-06 1.21847e-05 2.68865e+25 8.64419 -2.20097 271.99 
8.83992e-06 1.21847e-05 2.68658e+25 7.12904 -4.81721 272.361 
1.07512e-05 1.21847e-05 2.69336e+25 3.93495 -7.81519 272.108 
1.26626e-05 1.21847e-05 2.6903e+25 -0.00951918 -13.2359 272.45 
1.45739e-05 1.21847e-05 2.69631e+25 -2.16036 -17.8641 272.43 
1.64852e-05 1.21847e-05 2.69375e+25 -0.418399 -8.811 272.797 
1.19458e-06 1.26626e-05 2.6882e+25 10.7641 1.55986 271.935 
3.10592e-06 1.26626e-05 2.6869e+25 11.1785 0.476436 272.162 
5.01725e-06 1.26626e-05 2.68667e+25 11.3918 -0.546319 272.044 
6.92858e-06 1.26626e-05 2.6876e+25 10.4163 -1.93488 272.059 
8.83992e-06 1.26626e-05 2.68886e+25 9.06957 -4.1821 272.192 
1.07512e-05 1.26626e-05 2.69319e+25 5.76391 -6.88734 272.146 
1.26626e-05 1.26626e-05 2.69324e+25 1.47874 -12.3096 272.518 
1.45739e-05 1.26626e-05 2.69794e+25 -1.96838 -17.6455 272.556 
1.64852e-05 1.26626e-05 2.70029e+25 -0.771247 -9.34916 272.46 
1.19458e-06 1.31404e-05 2.68601e+25 12.5856 1.38638 272.063 
3.10592e-06 1.31404e-05 2.68618e+25 13.0117 0.428134 272.138 
5.01725e-06 1.31404e-05 2.68468e+25 13.3417 -0.454483 272.266 
6.92858e-06 1.31404e-05 2.68542e+25 12.5213 -1.62343 272.229 
8.83992e-06 1.31404e-05 2.68936e+25 10.7792 -3.5952 272.205 
1.07512e-05 1.31404e-05 2.69382e+25 7.68891 -6.00674 272.13 
1.26626e-05 1.31404e-05 2.69107e+25 3.15679 -11.0947 272.824 
1.45739e-05 1.31404e-05 2.69771e+25 -1.6001 -17.2748 272.683 
1.64852e-05 1.31404e-05 2.70018e+25 -0.725845 -10.0371 272.645 
1.19458e-06 1.36182e-05 2.68633e+25 14.5418 1.31456 272.106 
3.10592e-06 1.36182e-05 2.68635e+25 15.0708 0.146245 272.14 
5.01725e-06 1.36182e-05 2.68502e+25 15.3921 -0.274461 272.399 
6.92858e-06 1.36182e-05 2.68426e+25 14.5525 -1.28411 272.307 
8.83992e-06 1.36182e-05 2.68776e+25 12.8481 -3.04519 272.243 
1.07512e-05 1.36182e-05 2.69359e+25 9.96481 -5.1575 272.111 
1.26626e-05 1.36182e-05 2.69049e+25 4.93564 -9.63388 272.984 
1.45739e-05 1.36182e-05 2.70006e+25 -1.1512 -16.444 272.682 
1.64852e-05 1.36182e-05 2.69982e+25 -0.965064 -10.8609 272.775 
1.19458e-06 1.40961e-05 2.68469e+25 16.6076 0.991911 272.231 
3.10592e-06 1.40961e-05 2.68867e+25 17.2117 0.0739535 271.877 
5.01725e-06 1.40961e-05 2.6861e+25 17.4596 -0.0717158 272.299 
6.92858e-06 1.40961e-05 2.68584e+25 16.6998 -1.03629 272.351 
8.83992e-06 1.40961e-05 2.68869e+25 15.0428 -2.64715 272.205 
1.07512e-05 1.40961e-05 2.69181e+25 12.4263 -4.2377 272.278 
1.26626e-05 1.40961e-05 2.69115e+25 7.09225 -8.09541 272.856 
1.45739e-05 1.40961e-05 2.70158e+25 0.107167 -15.1829 272.781 
1.64852e-05 1.40961e-05 2.70858e+25 -0.987275 -11.8232 272.548 
1.19458e-06 1.45739e-05 2.68121e+25 18.9973 0.678159 272.383 
3.10592e-06 1.45739e-05 2.68623e+25 19.4985 0.0390014 272.07 
5.01725e-06 1.45739e-05 2.68436e+25 19.7188 0.121289 272.281 
6.92858e-06 1.45739e-05 2.68624e+25 19.0309 -0.934111 272.173 
8.83992e-06 1.45739e-05 2.69078e+25 17.447 -2.10044 272.265 
1.07512e-05 1.45739e-05 2.68986e+25 14.7869 -3.23056 272.523 
1.26626e-05 1.45739e-05 2.68988e+25 9.65046 -6.57121 272.939 
1.45739e-05 1.45739e-05 2.70374e+25 1.54896 -13.363 272.618 
1.64852e-05 1.45739e-05 2.71323e+25 -1.16539 -12.5778 272.694 
1.19458e-06 1.50518e-05 2.68241e+25 21.6012 0.467185 272.415 
3.10592e-06 1.50518e-05 2.68723e+25 21.857 -0.0934625 272.146 
5.01725e-06 1.50518e-05 2.68252e+25 21.94 0.116121 272.383 
6.92858e-06 1.50518e-05 2.68852e+25 21.5549 -0.850341 272.024 
8.83992e-06 1.50518e-05 2.68591e+25 20.1404 -1.50053 272.508 
1.07512e-05 1.50518e-05 2.68852e+25 17.4191 -2.1295 272.603 
1.26626e-05 1.50518e-05 2.69318e+25 12.5933 -4.946 273.064 
1.45739e-05 1.50518e-05 2.70767e+25 4.01389 -11.035 272.617 
1.64852e-05 1.50518e-05 2.72192e+25 -1.50127 -13.3276 272.45 
1.19458e-06 1.55296e-05 2.68222e+25 24.4316 0.306557 272.456 
3.10592e-06 1.55296e-05 2.68465e+25 24.6481 -0.129988 272.311 
5.01725e-06 1.55296e-05 2.6847e+25 24.5026 0.128372 272.31 
6.92858e-06 1.55296e-05 2.68951e+25 24.2914 -0.58042 272.154 
8.83992e-06 1.55296e-05 2.6887e+25 22.7881 -1.10271 272.393 
1.07512e-05 1.55296e-05 2.68894e+25 20.468 -1.29492 272.705 
1.26626e-05 1.55296e-05 2.69558e+25 16.3519 -3.25027 272.807 
1.45739e-05 1.55296e-05 2.7043e+25 7.47852 -8.28097 272.96 
1.64852e-05 1.55296e-05 2.72854e+25 -1.41458 -13.8934 272.75 
1.19458e-06 1.60074e-05 2.6826e+25 27.0952 0.149478 272.524 
3.10592e-06 1.60074e-05 2.6859e+25 27.4798 -0.225602 272.171 
5.01725e-06 1.60074e-05 2.68317e+25 27.352 0.0348084 272.591 
6.92858e-06 1.60074e-05 2.68523e+25 27.2022 -0.336661 272.489 
8.83992e-06 1.60074e-05 2.68763e+25 25.9337 -0.681317 272.488 
1.07512e-05 1.60074e-05 2.68805e+25 24.1758 -0.676541 272.81 
1.26626e-05 1.60074e-05 2.69455e+25 20.4754 -1.69508 272.833 
1.45739e-05 1.60074e-05 2.704e+25 12.7282 -5.19374 273.141 
1.64852e-05 1.60074e-05 2.73581e+25 -0.615918 -13.4568 272.976 
1.19458e-06 1.64852e-05 2.67928e+25 30.0778 0.0947161 272.744 
3.10592e-06 1.64852e-05 2.683e+25 30.2867 -0.24728 272.395 
5.01725e-06 1.64852e-05 2.68322e+25 30.3591 -0.0757687 272.622 
6.92858e-06 1.64852e-05 2.68197e+25 30.0907 -0.0772721 272.723 
8.83992e-06 1.64852e-05 2.68634e+25 29.166 -0.335123 272.656 
1.07512e-05 1.64852e-05 2.68655e+25 28.1116 -0.119642 272.964 
1.26626e-05 1.64852e-05 2.6931e+25 25.6138 -0.655205 272.946 
1.45739e-05 1.64852e-05 2.70325e+25 19.8881 -2.44536 273.362 
1.64852e-05 1.64852e-05 2.74696e+25 2.33977 -10.6485 273.49 
1.19458e-06 1.69631e-05 2.67993e+25 32.8503 -0.0177253 272.936 
3.10592e-06 1.69631e-05 2.68034e+25 32.8976 -0.0932545 272.557 
5.01725e-06 1.69631e-05 2.68061e+25 33.1048 -0.0102414 272.83 
6.92858e-06 1.69631e-05 2.68299e+25 32.9389 0.0538412 272.689 
8.83992e-06 1.69631e-05 2.68572e+25 32.5722 -0.141385 272.869 
1.07512e-05 1.69631e-05 2.68557e+25 31.8624 0.0816282 272.936 
1.26626e-05 1.69631e-05 2.69347e+25 31.1008 -0.106902 272.917 
1.45739e-05 1.69631e-05 2.70209e+25 28.338 -0.570449 273.277 
1.64852e-05 1.69631e-05 2.76639e+25 13.2845 -3.61889 273.99 
