ITEM: TIMESTEP
290000
ITEM: NUMBER OF CELLS
5184
ITEM: BOX BOUNDS ss ss pp
-1.7202e-05 1.7202e-05
-1.7202e-05 1.7202e-05
-0.5 0.5
ITEM: CELLS xc yc f_1[1] f_1[2] f_1[3] f_1[4] 
-1.69631e-05 -1.69631e-05 2.68179e+25 0.0362864 -0.0467879 272.98 
-1.50517e-05 -1.69631e-05 2.68322e+25 0.018413 0.0140071 272.878 
-1.31404e-05 -1.69631e-05 2.68348e+25 -0.0597534 0.0453984 272.814 
-1.12291e-05 -1.69631e-05 2.68533e+25 -0.181987 0.0627243 272.673 
-9.31775e-06 -1.69631e-05 2.68513e+25 -0.117884 -0.0264785 272.729 
-7.40642e-06 -1.69631e-05 2.68437e+25 -0.0339224 -0.0178678 272.814 
-5.49508e-06 -1.69631e-05 2.6829e+25 -0.231217 0.0390067 272.967 
-3.58375e-06 -1.69631e-05 2.68472e+25 -0.0407005 -0.000455931 272.972 
-1.67242e-06 -1.69631e-05 2.68373e+25 -0.166314 0.0115387 272.838 
-1.69631e-05 -1.64852e-05 2.68433e+25 0.0124913 -0.0614093 272.826 
-1.50517e-05 -1.64852e-05 2.68841e+25 -0.0437589 0.00174114 272.434 
-1.31404e-05 -1.64852e-05 2.68663e+25 -0.101396 0.0841537 272.455 
-1.12291e-05 -1.64852e-05 2.68688e+25 -0.0601907 -0.0031521 272.464 
-9.31775e-06 -1.64852e-05 2.68704e+25 -0.238209 -0.0667082 272.586 
-7.40642e-06 -1.64852e-05 2.68853e+25 -0.126637 -0.0775257 272.336 
-5.49508e-06 -1.64852e-05 2.6856e+25 -0.294143 0.0993433 272.487 
-3.58375e-06 -1.64852e-05 2.68684e+25 -0.221106 0.0929457 272.562 
-1.67242e-06 -1.64852e-05 2.68573e+25 -0.262682 0.0300617 272.738 
-1.69631e-05 -1.60074e-05 2.6857e+25 -0.0175566 -0.0577152 272.762 
-1.50517e-05 -1.60074e-05 2.6888e+25 -0.0464652 0.148994 272.414 
-1.31404e-05 -1.60074e-05 2.69062e+25 -0.184278 0.147873 272.263 
-1.12291e-05 -1.60074e-05 2.68923e+25 -0.0325897 -0.0857736 272.337 
-9.31775e-06 -1.60074e-05 2.6885e+25 -0.298313 -0.0912602 272.384 
-7.40642e-06 -1.60074e-05 2.69107e+25 -0.377122 -0.0655642 272.103 
-5.49508e-06 -1.60074e-05 2.69023e+25 -0.555748 0.0469629 272.204 
-3.58375e-06 -1.60074e-05 2.68856e+25 -0.427881 0.0153349 272.441 
-1.67242e-06 -1.60074e-05 2.68478e+25 -0.486681 -0.00764345 272.75 
-1.69631e-05 -1.55296e-05 2.68429e+25 -0.0445833 -0.00219311 272.785 
-1.50517e-05 -1.55296e-05 2.69212e+25 -0.132448 0.265041 272.16 
-1.31404e-05 -1.55296e-05 2.69092e+25 -0.244323 0.126872 272.178 
-1.12291e-05 -1.55296e-05 2.69004e+25 -0.223419 -0.0292578 272.274 
-9.31775e-06 -1.55296e-05 2.69087e+25 -0.356479 -0.041636 272.181 
-7.40642e-06 -1.55296e-05 2.69005e+25 -0.490041 -0.0648541 272.226 
-5.49508e-06 -1.55296e-05 2.68937e+25 -0.811266 0.0577711 272.247 
-3.58375e-06 -1.55296e-05 2.69029e+25 -0.653999 -0.0590097 272.243 
-1.67242e-06 -1.55296e-05 2.68705e+25 -0.648835 0.139591 272.555 
-1.69631e-05 -1.50517e-05 2.68591e+25 -0.0307196 0.0576931 272.766 
-1.50517e-05 -1.50517e-05 2.69239e+25 -0.0298438 0.295771 272.027 
-1.31404e-05 -1.50517e-05 2.691e+25 -0.0137066 0.143312 272.163 
-1.12291e-05 -1.50517e-05 2.68935e+25 -0.450168 -0.112484 272.247 
-9.31775e-06 -1.50517e-05 2.69082e+25 -0.38588 -0.0110938 272.108 
-7.40642e-06 -1.50517e-05 2.69125e+25 -0.71752 0.130315 272.072 
-5.49508e-06 -1.50517e-05 2.68983e+25 -0.797793 0.169608 272.203 
-3.58375e-06 -1.50517e-05 2.69108e+25 -0.80146 -0.126208 272.04 
-1.67242e-06 -1.50517e-05 2.68818e+25 -1.03382 0.311037 272.453 
-1.69631e-05 -1.45739e-05 2.68651e+25 0.0439178 0.0692362 272.73 
-1.50517e-05 -1.45739e-05 2.69373e+25 0.14859 0.197801 271.894 
-1.31404e-05 -1.45739e-05 2.69127e+25 -0.0760567 0.210853 272.052 
-1.12291e-05 -1.45739e-05 2.6876e+25 -0.384787 -0.114879 272.395 
-9.31775e-06 -1.45739e-05 2.69218e+25 -0.627487 0.18358 272.028 
-7.40642e-06 -1.45739e-05 2.69143e+25 -1.04698 0.10927 272.052 
-5.49508e-06 -1.45739e-05 2.69131e+25 -1.16484 0.305437 272.131 
-3.58375e-06 -1.45739e-05 2.69289e+25 -1.14532 -0.181826 271.918 
-1.67242e-06 -1.45739e-05 2.68847e+25 -1.31603 0.40064 272.437 
-1.69631e-05 -1.40961e-05 2.68527e+25 0.0126643 0.0421508 272.798 
-1.50517e-05 -1.40961e-05 2.69144e+25 0.00790984 0.126473 272.129 
-1.31404e-05 -1.40961e-05 2.69229e+25 -0.243859 0.345922 271.989 
-1.12291e-05 -1.40961e-05 2.68963e+25 -0.459027 -0.0107347 272.22 
-9.31775e-06 -1.40961e-05 2.69154e+25 -0.723339 0.458528 271.88 
-7.40642e-06 -1.40961e-05 2.6922e+25 -1.29565 0.041221 272.031 
-5.49508e-06 -1.40961e-05 2.69089e+25 -1.20036 0.401158 272.085 
-3.58375e-06 -1.40961e-05 2.69045e+25 -1.61671 -0.193537 272.15 
-1.67242e-06 -1.40961e-05 2.69015e+25 -1.49225 0.31067 272.322 
-1.69631e-05 -1.36182e-05 2.68467e+25 0.0740788 -0.0513274 272.664 
-1.50517e-05 -1.36182e-05 2.69067e+25 -0.095512 0.0954425 272.223 
-1.31404e-05 -1.36182e-05 2.69241e+25 -0.160811 0.368841 272.009 
-1.12291e-05 -1.36182e-05 2.69247e+25 -0.449064 0.0487016 271.899 
-9.31775e-06 -1.36182e-05 2.6927e+25 -0.957913 0.50446 271.843 
-7.40642e-06 -1.36182e-05 2.69525e+25 -1.54408 0.0462579 271.799 
-5.49508e-06 -1.36182e-05 2.69337e+25 -1.34828 0.313846 271.982 
-3.58375e-06 -1.36182e-05 2.69014e+25 -1.89497 -0.0986637 272.193 
-1.67242e-06 -1.36182e-05 2.69154e+25 -1.82933 0.244271 272.147 
-1.69631e-05 -1.31404e-05 2.68506e+25 -0.008128 -0.119619 272.615 
-1.50517e-05 -1.31404e-05 2.69208e+25 -0.201909 0.238323 271.935 
-1.31404e-05 -1.31404e-05 2.69234e+25 -0.254081 0.431487 271.935 
-1.12291e-05 -1.31404e-05 2.69225e+25 -0.649492 0.107987 271.9 
-9.31775e-06 -1.31404e-05 2.69634e+25 -1.34386 0.497007 271.752 
-7.40642e-06 -1.31404e-05 2.69507e+25 -1.69268 0.135902 271.808 
-5.49508e-06 -1.31404e-05 2.69193e+25 -1.59122 0.131696 271.902 
-3.58375e-06 -1.31404e-05 2.69192e+25 -1.95439 -0.00124695 272.096 
-1.67242e-06 -1.31404e-05 2.69374e+25 -2.07372 0.33834 271.922 
-1.69631e-05 -1.26626e-05 2.68427e+25 -0.0316223 -0.0901526 272.716 
-1.50517e-05 -1.26626e-05 2.69279e+25 -0.103973 0.289732 271.851 
-1.31404e-05 -1.26626e-05 2.69211e+25 -0.478667 0.565132 271.991 
-1.12291e-05 -1.26626e-05 2.69247e+25 -0.763242 0.393503 271.996 
-9.31775e-06 -1.26626e-05 2.69552e+25 -1.42408 0.637292 271.672 
-7.40642e-06 -1.26626e-05 2.69377e+25 -1.77461 0.253673 271.854 
-5.49508e-06 -1.26626e-05 2.69021e+25 -1.99711 0.0601174 272.132 
-3.58375e-06 -1.26626e-05 2.69134e+25 -2.21782 0.130651 271.958 
-1.67242e-06 -1.26626e-05 2.69293e+25 -2.35539 0.329505 271.963 
-1.69631e-05 -1.21847e-05 2.68622e+25 -0.00268514 -0.0140596 272.783 
-1.50517e-05 -1.21847e-05 2.69519e+25 -0.177803 0.270593 271.652 
-1.31404e-05 -1.21847e-05 2.69073e+25 -0.616573 0.606814 272.054 
-1.12291e-05 -1.21847e-05 2.69317e+25 -1.04331 0.618267 271.876 
-9.31775e-06 -1.21847e-05 2.69586e+25 -1.59288 0.751133 271.65 
-7.40642e-06 -1.21847e-05 2.69373e+25 -1.96473 0.497798 271.902 
-5.49508e-06 -1.21847e-05 2.69218e+25 -2.24719 0.0898961 272.082 
-3.58375e-06 -1.21847e-05 2.69441e+25 -2.32894 0.184546 271.975 
-1.67242e-06 -1.21847e-05 2.69287e+25 -2.42993 0.257974 271.823 
-1.69631e-05 -1.17069e-05 2.68494e+25 -0.0216279 -0.0053202 272.832 
-1.50517e-05 -1.17069e-05 2.69387e+25 -0.200325 0.480034 271.781 
-1.31404e-05 -1.17069e-05 2.69256e+25 -0.630359 0.67187 271.993 
-1.12291e-05 -1.17069e-05 2.69184e+25 -1.12201 0.781811 272.066 
-9.31775e-06 -1.17069e-05 2.69587e+25 -1.4874 0.886739 271.524 
-7.40642e-06 -1.17069e-05 2.69197e+25 -2.05944 0.589977 271.91 
-5.49508e-06 -1.17069e-05 2.69097e+25 -2.40036 0.157408 272.05 
-3.58375e-06 -1.17069e-05 2.69266e+25 -2.6857 0.240286 271.982 
-1.67242e-06 -1.17069e-05 2.69235e+25 -2.54245 0.26936 272.009 
-1.69631e-05 -1.12291e-05 2.68468e+25 -0.00722142 0.0746548 272.748 
-1.50517e-05 -1.12291e-05 2.6928e+25 -0.16989 0.538338 272.006 
-1.31404e-05 -1.12291e-05 2.69404e+25 -0.608487 0.662976 271.904 
-1.12291e-05 -1.12291e-05 2.6918e+25 -1.13705 0.810645 271.934 
-9.31775e-06 -1.12291e-05 2.69533e+25 -1.51859 0.98955 271.649 
-7.40642e-06 -1.12291e-05 2.69434e+25 -2.06024 0.648983 271.917 
-5.49508e-06 -1.12291e-05 2.69317e+25 -2.53682 0.384932 271.862 
-3.58375e-06 -1.12291e-05 2.69119e+25 -2.99405 0.218972 272.134 
-1.67242e-06 -1.12291e-05 2.69086e+25 -2.85159 0.247613 272.108 
-1.69631e-05 -1.07512e-05 2.6856e+25 0.059246 -0.00164645 272.664 
-1.50517e-05 -1.07512e-05 2.69269e+25 -0.279577 0.606161 271.959 
-1.31404e-05 -1.07512e-05 2.69266e+25 -0.507906 0.734772 271.86 
-1.12291e-05 -1.07512e-05 2.69289e+25 -1.09327 0.896285 271.927 
-9.31775e-06 -1.07512e-05 2.69446e+25 -1.68123 1.14376 271.766 
-7.40642e-06 -1.07512e-05 2.69241e+25 -2.18756 0.662862 271.918 
-5.49508e-06 -1.07512e-05 2.69438e+25 -2.70923 0.627269 271.721 
-3.58375e-06 -1.07512e-05 2.69122e+25 -3.16303 0.302864 272.16 
-1.67242e-06 -1.07512e-05 2.68813e+25 -3.33876 0.268085 272.298 
-1.69631e-05 -1.02734e-05 2.68438e+25 -0.0790956 0.0132108 272.77 
-1.50517e-05 -1.02734e-05 2.69227e+25 -0.0825694 0.598824 271.978 
-1.31404e-05 -1.02734e-05 2.692e+25 -0.690927 0.814605 272.016 
-1.12291e-05 -1.02734e-05 2.69148e+25 -1.10038 1.06307 272.092 
-9.31775e-06 -1.02734e-05 2.69495e+25 -1.77228 1.32464 271.741 
-7.40642e-06 -1.02734e-05 2.69198e+25 -2.16049 0.754754 271.959 
-5.49508e-06 -1.02734e-05 2.69415e+25 -2.85555 0.736601 271.737 
-3.58375e-06 -1.02734e-05 2.69318e+25 -3.09995 0.471101 271.843 
-1.67242e-06 -1.02734e-05 2.68757e+25 -3.89219 0.392592 272.315 
-1.69631e-05 -9.79558e-06 2.68569e+25 0.015158 0.0968483 272.687 
-1.50517e-05 -9.79558e-06 2.6929e+25 -0.120211 0.742078 271.966 
-1.31404e-05 -9.79558e-06 2.69429e+25 -0.726831 1.04332 271.896 
-1.12291e-05 -9.79558e-06 2.69417e+25 -1.1668 1.12457 271.893 
-9.31775e-06 -9.79558e-06 2.69317e+25 -1.81853 1.58092 271.928 
-7.40642e-06 -9.79558e-06 2.69241e+25 -2.21876 0.962176 271.913 
-5.49508e-06 -9.79558e-06 2.69545e+25 -3.22933 0.893275 271.624 
-3.58375e-06 -9.79558e-06 2.69302e+25 -3.41722 0.650938 271.929 
-1.67242e-06 -9.79558e-06 2.68994e+25 -4.14461 0.512615 272.218 
-1.69631e-05 -9.31775e-06 2.68612e+25 -0.0345882 0.111811 272.705 
-1.50517e-05 -9.31775e-06 2.69238e+25 -0.00866716 0.804461 271.985 
-1.31404e-05 -9.31775e-06 2.69476e+25 -0.536685 1.25017 271.834 
-1.12291e-05 -9.31775e-06 2.69552e+25 -1.06091 1.16496 271.671 
-9.31775e-06 -9.31775e-06 2.6953e+25 -1.8828 1.71146 271.773 
-7.40642e-06 -9.31775e-06 2.69192e+25 -2.42678 1.1459 272.028 
-5.49508e-06 -9.31775e-06 2.69592e+25 -3.38295 1.1219 271.605 
-3.58375e-06 -9.31775e-06 2.69391e+25 -3.82357 0.820572 271.846 
-1.67242e-06 -9.31775e-06 2.68954e+25 -4.45447 0.440419 272.157 
-1.69631e-05 -8.83992e-06 2.68449e+25 -0.0393867 0.169026 272.806 
-1.50517e-05 -8.83992e-06 2.69305e+25 0.00637374 0.799349 271.967 
-1.31404e-05 -8.83992e-06 2.69464e+25 -0.409326 1.43016 271.673 
-1.12291e-05 -8.83992e-06 2.69451e+25 -1.22447 1.47825 271.765 
-9.31775e-06 -8.83992e-06 2.69515e+25 -1.83976 1.81052 271.843 
-7.40642e-06 -8.83992e-06 2.69211e+25 -2.62577 1.4276 271.909 
-5.49508e-06 -8.83992e-06 2.69727e+25 -3.32959 1.28288 271.498 
-3.58375e-06 -8.83992e-06 2.69553e+25 -4.10261 0.979993 271.759 
-1.67242e-06 -8.83992e-06 2.68921e+25 -4.70184 0.451325 272.327 
-1.69631e-05 -8.36208e-06 2.68559e+25 0.029644 0.181817 272.795 
-1.50517e-05 -8.36208e-06 2.69333e+25 -0.165835 0.732488 271.975 
-1.31404e-05 -8.36208e-06 2.69539e+25 -0.650287 1.57548 271.759 
-1.12291e-05 -8.36208e-06 2.69355e+25 -1.37653 1.67716 271.953 
-9.31775e-06 -8.36208e-06 2.69478e+25 -1.56233 1.94252 271.806 
-7.40642e-06 -8.36208e-06 2.69272e+25 -2.52417 1.75867 271.883 
-5.49508e-06 -8.36208e-06 2.69556e+25 -3.3189 1.36109 271.577 
-3.58375e-06 -8.36208e-06 2.69293e+25 -4.32654 1.09353 272.002 
-1.67242e-06 -8.36208e-06 2.69036e+25 -4.91797 0.526881 272.173 
-1.69631e-05 -7.88425e-06 2.6854e+25 0.0237677 0.130687 272.732 
-1.50517e-05 -7.88425e-06 2.6914e+25 -0.164463 0.840415 271.969 
-1.31404e-05 -7.88425e-06 2.69462e+25 -0.68881 1.77986 271.743 
-1.12291e-05 -7.88425e-06 2.69286e+25 -1.25921 1.75759 271.897 
-9.31775e-06 -7.88425e-06 2.69351e+25 -1.72111 2.09624 271.914 
-7.40642e-06 -7.88425e-06 2.69432e+25 -2.58667 2.01487 271.805 
-5.49508e-06 -7.88425e-06 2.69449e+25 -3.56831 1.5278 271.659 
-3.58375e-06 -7.88425e-06 2.6929e+25 -4.34093 1.30569 271.949 
-1.67242e-06 -7.88425e-06 2.69193e+25 -4.99166 0.666825 272.176 
-1.69631e-05 -7.40642e-06 2.6866e+25 0.0563905 0.0888576 272.701 
-1.50517e-05 -7.40642e-06 2.69477e+25 -0.224245 1.06071 271.767 
-1.31404e-05 -7.40642e-06 2.69379e+25 -0.727451 1.82178 271.742 
-1.12291e-05 -7.40642e-06 2.69239e+25 -1.2605 1.83217 271.935 
-9.31775e-06 -7.40642e-06 2.69544e+25 -1.84225 2.32155 271.6 
-7.40642e-06 -7.40642e-06 2.69659e+25 -2.7648 2.38762 271.703 
-5.49508e-06 -7.40642e-06 2.694e+25 -3.62042 1.69138 271.755 
-3.58375e-06 -7.40642e-06 2.69376e+25 -4.55922 1.5655 271.848 
-1.67242e-06 -7.40642e-06 2.69019e+25 -4.97599 0.810727 272.118 
-1.69631e-05 -6.92858e-06 2.6852e+25 0.027102 0.0107485 272.723 
-1.50517e-05 -6.92858e-06 2.69284e+25 -0.248923 1.36193 271.915 
-1.31404e-05 -6.92858e-06 2.69461e+25 -0.694761 1.8727 271.707 
-1.12291e-05 -6.92858e-06 2.69263e+25 -1.2926 1.99329 271.92 
-9.31775e-06 -6.92858e-06 2.69623e+25 -2.11272 2.42473 271.613 
-7.40642e-06 -6.92858e-06 2.69365e+25 -2.90893 2.65561 271.905 
-5.49508e-06 -6.92858e-06 2.69495e+25 -3.74574 1.86267 271.78 
-3.58375e-06 -6.92858e-06 2.69219e+25 -4.63134 1.7889 271.943 
-1.67242e-06 -6.92858e-06 2.6909e+25 -5.08584 0.909405 272.027 
-1.69631e-05 -6.45075e-06 2.68578e+25 -0.0153663 0.0302039 272.746 
-1.50517e-05 -6.45075e-06 2.69366e+25 -0.228572 1.39444 271.857 
-1.31404e-05 -6.45075e-06 2.69523e+25 -0.699051 1.92748 271.683 
-1.12291e-05 -6.45075e-06 2.69172e+25 -1.39416 2.23577 271.797 
-9.31775e-06 -6.45075e-06 2.69537e+25 -2.31089 2.53314 271.648 
-7.40642e-06 -6.45075e-06 2.69286e+25 -2.99359 2.85015 271.817 
-5.49508e-06 -6.45075e-06 2.69507e+25 -3.95136 2.08232 271.737 
-3.58375e-06 -6.45075e-06 2.69291e+25 -4.7588 1.92238 271.868 
-1.67242e-06 -6.45075e-06 2.68989e+25 -5.46584 0.978571 272.076 
-1.69631e-05 -5.97292e-06 2.68826e+25 0.0166998 0.0491078 272.649 
-1.50517e-05 -5.97292e-06 2.69417e+25 -0.245286 1.49876 271.837 
-1.31404e-05 -5.97292e-06 2.69466e+25 -0.81536 2.0058 271.748 
-1.12291e-05 -5.97292e-06 2.69336e+25 -1.61022 2.48871 271.775 
-9.31775e-06 -5.97292e-06 2.69578e+25 -2.48063 2.79062 271.597 
-7.40642e-06 -5.97292e-06 2.6942e+25 -3.30527 3.00133 271.656 
-5.49508e-06 -5.97292e-06 2.69364e+25 -4.29813 2.31455 271.806 
-3.58375e-06 -5.97292e-06 2.69412e+25 -4.86897 2.10428 271.919 
-1.67242e-06 -5.97292e-06 2.69162e+25 -5.53617 1.15061 271.953 
-1.69631e-05 -5.49508e-06 2.68533e+25 0.00160721 0.0751008 272.813 
-1.50517e-05 -5.49508e-06 2.69162e+25 -0.409111 1.65566 272.036 
-1.31404e-05 -5.49508e-06 2.6911e+25 -0.967954 2.23974 272.017 
-1.12291e-05 -5.49508e-06 2.69295e+25 -1.97373 2.65481 271.924 
-9.31775e-06 -5.49508e-06 2.69522e+25 -2.73685 3.03336 271.624 
-7.40642e-06 -5.49508e-06 2.69696e+25 -3.78194 3.21846 271.449 
-5.49508e-06 -5.49508e-06 2.69382e+25 -4.60993 2.52954 271.871 
-3.58375e-06 -5.49508e-06 2.69268e+25 -5.25895 2.25542 271.939 
-1.67242e-06 -5.49508e-06 2.69062e+25 -5.66486 1.29211 272.123 
-1.69631e-05 -5.01725e-06 2.68553e+25 -0.0068781 0.0466582 272.838 
-1.50517e-05 -5.01725e-06 2.69325e+25 -0.706192 1.78203 271.964 
-1.31404e-05 -5.01725e-06 2.69104e+25 -1.21687 2.54787 271.962 
-1.12291e-05 -5.01725e-06 2.69352e+25 -1.95923 2.87529 271.864 
-9.31775e-06 -5.01725e-06 2.69575e+25 -2.79491 3.31303 271.671 
-7.40642e-06 -5.01725e-06 2.69555e+25 -3.89969 3.40124 271.559 
-5.49508e-06 -5.01725e-06 2.69055e+25 -4.72867 2.71081 272.053 
-3.58375e-06 -5.01725e-06 2.6902e+25 -5.51989 2.41524 271.901 
-1.67242e-06 -5.01725e-06 2.69074e+25 -5.8816 1.4882 272.036 
-1.69631e-05 -4.53942e-06 2.68495e+25 -0.0203545 0.108785 272.797 
-1.50517e-05 -4.53942e-06 2.69395e+25 -0.657818 1.75934 271.996 
-1.31404e-05 -4.53942e-06 2.691e+25 -1.09107 2.70442 271.981 
-1.12291e-05 -4.53942e-06 2.69257e+25 -2.04366 3.21313 271.892 
-9.31775e-06 -4.53942e-06 2.6944e+25 -2.97149 3.55309 271.704 
-7.40642e-06 -4.53942e-06 2.69428e+25 -4.08747 3.58118 271.87 
-5.49508e-06 -4.53942e-06 2.69248e+25 -4.84067 2.87464 271.937 
-3.58375e-06 -4.53942e-06 2.69342e+25 -5.55221 2.5965 271.772 
-1.67242e-06 -4.53942e-06 2.6905e+25 -5.99596 1.57546 271.992 
-1.69631e-05 -4.06158e-06 2.68416e+25 -0.0220059 0.166058 272.762 
-1.50517e-05 -4.06158e-06 2.69375e+25 -0.596335 1.95049 271.977 
-1.31404e-05 -4.06158e-06 2.69293e+25 -1.1686 2.91089 271.97 
-1.12291e-05 -4.06158e-06 2.69455e+25 -2.06335 3.54592 271.743 
-9.31775e-06 -4.06158e-06 2.69571e+25 -3.0471 3.77323 271.55 
-7.40642e-06 -4.06158e-06 2.69144e+25 -4.04285 3.78568 271.925 
-5.49508e-06 -4.06158e-06 2.69022e+25 -4.73864 3.19671 272.105 
-3.58375e-06 -4.06158e-06 2.69398e+25 -5.55014 2.69209 271.786 
-1.67242e-06 -4.06158e-06 2.69155e+25 -6.08064 1.60149 271.823 
-1.69631e-05 -3.58375e-06 2.68537e+25 -0.073272 0.281663 272.719 
-1.50517e-05 -3.58375e-06 2.69151e+25 -0.496532 2.16287 272.056 
-1.31404e-05 -3.58375e-06 2.69318e+25 -0.876045 3.14991 271.94 
-1.12291e-05 -3.58375e-06 2.69375e+25 -2.01425 3.88403 271.745 
-9.31775e-06 -3.58375e-06 2.69636e+25 -3.12704 4.04994 271.543 
-7.40642e-06 -3.58375e-06 2.69235e+25 -4.04543 3.8825 271.874 
-5.49508e-06 -3.58375e-06 2.69007e+25 -5.05855 3.42787 272.127 
-3.58375e-06 -3.58375e-06 2.69451e+25 -5.71626 2.78372 271.636 
-1.67242e-06 -3.58375e-06 2.69234e+25 -6.37983 1.80336 271.89 
-1.69631e-05 -3.10592e-06 2.68433e+25 -0.0450193 0.425015 272.836 
-1.50517e-05 -3.10592e-06 2.69129e+25 -0.448556 2.31641 272.03 
-1.31404e-05 -3.10592e-06 2.69082e+25 -1.11852 3.37699 272.12 
-1.12291e-05 -3.10592e-06 2.69257e+25 -1.96996 4.09208 271.813 
-9.31775e-06 -3.10592e-06 2.69557e+25 -2.99811 4.29158 271.631 
-7.40642e-06 -3.10592e-06 2.6936e+25 -4.01333 4.20925 271.841 
-5.49508e-06 -3.10592e-06 2.69316e+25 -5.15645 3.61409 271.818 
-3.58375e-06 -3.10592e-06 2.6931e+25 -5.81208 2.97141 271.773 
-1.67242e-06 -3.10592e-06 2.69182e+25 -6.53017 1.9489 271.935 
-1.69631e-05 -2.62808e-06 2.6858e+25 0.0607622 0.430861 272.708 
-1.50517e-05 -2.62808e-06 2.69067e+25 -0.406598 2.47773 272.105 
-1.31404e-05 -2.62808e-06 2.68853e+25 -1.3304 3.65639 272.304 
-1.12291e-05 -2.62808e-06 2.69344e+25 -1.80237 4.19579 271.767 
-9.31775e-06 -2.62808e-06 2.69325e+25 -2.9114 4.65054 271.806 
-7.40642e-06 -2.62808e-06 2.69343e+25 -4.13087 4.47334 271.822 
-5.49508e-06 -2.62808e-06 2.69171e+25 -5.11414 3.8761 271.861 
-3.58375e-06 -2.62808e-06 2.69274e+25 -5.81762 3.10004 271.838 
-1.67242e-06 -2.62808e-06 2.69165e+25 -6.64116 2.01691 271.872 
-1.69631e-05 -2.15025e-06 2.68555e+25 0.0386115 0.383202 272.805 
-1.50517e-05 -2.15025e-06 2.68993e+25 -0.375372 2.56347 272.152 
-1.31404e-05 -2.15025e-06 2.68995e+25 -1.24031 3.79882 272.14 
-1.12291e-05 -2.15025e-06 2.69348e+25 -1.89391 4.24201 271.756 
-9.31775e-06 -2.15025e-06 2.69493e+25 -2.87135 4.96849 271.629 
-7.40642e-06 -2.15025e-06 2.69312e+25 -4.09535 4.67677 271.849 
-5.49508e-06 -2.15025e-06 2.69172e+25 -4.93817 4.04888 271.863 
-3.58375e-06 -2.15025e-06 2.69205e+25 -5.79776 3.31325 271.84 
-1.67242e-06 -2.15025e-06 2.69303e+25 -6.44374 2.0143 271.691 
-1.69631e-05 -1.67242e-06 2.68538e+25 -0.036026 0.364688 272.827 
-1.50517e-05 -1.67242e-06 2.69037e+25 -0.120626 2.62719 272.189 
-1.31404e-05 -1.67242e-06 2.69264e+25 -1.16179 3.95186 272.048 
-1.12291e-05 -1.67242e-06 2.69479e+25 -1.98222 4.44249 271.579 
-9.31775e-06 -1.67242e-06 2.6947e+25 -2.92302 5.08586 271.572 
-7.40642e-06 -1.67242e-06 2.69252e+25 -3.97913 4.83134 271.872 
-5.49508e-06 -1.67242e-06 2.69256e+25 -4.76662 4.21792 271.854 
-3.58375e-06 -1.67242e-06 2.68948e+25 -5.75965 3.61749 272.029 
-1.67242e-06 -1.67242e-06 2.69282e+25 -6.37787 2.22249 271.755 
-1.69631e-05 -1.19458e-06 2.68309e+25 -0.00913115 0.388624 272.877 
-1.50517e-05 -1.19458e-06 2.69047e+25 -0.160093 2.76646 272.2 
-1.31404e-05 -1.19458e-06 2.69144e+25 -0.997506 4.01443 272.026 
-1.12291e-05 -1.19458e-06 2.69452e+25 -1.90912 4.88152 271.625 
-9.31775e-06 -1.19458e-06 2.69533e+25 -2.94616 5.25191 271.61 
-7.40642e-06 -1.19458e-06 2.69446e+25 -3.68848 5.16943 271.654 
-5.49508e-06 -1.19458e-06 2.69096e+25 -4.74664 4.33705 271.867 
-3.58375e-06 -1.19458e-06 2.69011e+25 -5.73409 3.84437 271.992 
-1.67242e-06 -1.19458e-06 2.69036e+25 -6.53528 2.50185 271.985 
-1.69631e-05 -7.1675e-07 2.68423e+25 -0.0483572 0.471317 272.808 
-1.50517e-05 -7.1675e-07 2.69114e+25 -0.18155 2.98699 272.14 
-1.31404e-05 -7.1675e-07 2.69151e+25 -0.92207 4.16949 272.016 
-1.12291e-05 -7.1675e-07 2.69123e+25 -1.83209 5.25273 271.892 
-9.31775e-06 -7.1675e-07 2.69461e+25 -2.84078 5.4689 271.566 
-7.40642e-06 -7.1675e-07 2.69276e+25 -3.69037 5.49132 271.693 
-5.49508e-06 -7.1675e-07 2.69176e+25 -4.85044 4.6264 271.901 
-3.58375e-06 -7.1675e-07 2.69054e+25 -5.85701 4.0672 271.898 
-1.67242e-06 -7.1675e-07 2.6919e+25 -6.72378 2.80328 271.922 
-1.69631e-05 -2.38917e-07 2.68155e+25 0.0330071 0.520248 272.781 
-1.50517e-05 -2.38917e-07 2.6892e+25 -0.284982 3.09327 272.078 
-1.31404e-05 -2.38917e-07 2.68974e+25 -0.732322 4.41581 271.973 
-1.12291e-05 -2.38917e-07 2.68852e+25 -1.88911 5.44221 271.963 
-9.31775e-06 -2.38917e-07 2.6899e+25 -2.9805 5.70942 271.786 
-7.40642e-06 -2.38917e-07 2.69253e+25 -3.899 5.82246 271.751 
-5.49508e-06 -2.38917e-07 2.69136e+25 -4.86924 4.97048 271.805 
-3.58375e-06 -2.38917e-07 2.68982e+25 -5.81897 4.24162 271.896 
-1.67242e-06 -2.38917e-07 2.6868e+25 -6.71424 3.00657 272.096 
-1.64852e-05 -1.69631e-05 2.68505e+25 0.0161345 0.0320449 272.905 
-1.45739e-05 -1.69631e-05 2.68373e+25 0.0397824 0.0184613 272.725 
-1.26626e-05 -1.69631e-05 2.68509e+25 -0.109518 -0.00278717 272.838 
-1.07512e-05 -1.69631e-05 2.68552e+25 -0.233349 -0.00841899 272.721 
-8.83992e-06 -1.69631e-05 2.6847e+25 -0.0845397 0.00928407 272.828 
-6.92858e-06 -1.69631e-05 2.68535e+25 0.0294617 -0.0237881 272.755 
-5.01725e-06 -1.69631e-05 2.68393e+25 -0.232911 -0.0286572 272.849 
-3.10592e-06 -1.69631e-05 2.68286e+25 -0.100642 0.033894 272.898 
-1.19458e-06 -1.69631e-05 2.6852e+25 -0.129925 0.0270794 272.887 
-1.64852e-05 -1.64852e-05 2.68847e+25 0.0494521 0.0150862 272.606 
-1.45739e-05 -1.64852e-05 2.68661e+25 -0.108009 -0.00349142 272.534 
-1.26626e-05 -1.64852e-05 2.68692e+25 -0.197814 0.0654593 272.565 
-1.07512e-05 -1.64852e-05 2.6889e+25 0.00940523 -0.0309839 272.424 
-8.83992e-06 -1.64852e-05 2.68822e+25 -0.196312 -0.0423334 272.496 
-6.92858e-06 -1.64852e-05 2.68772e+25 -0.143457 -0.0257029 272.41 
-5.01725e-06 -1.64852e-05 2.68709e+25 -0.366898 -0.0614741 272.566 
-3.10592e-06 -1.64852e-05 2.68629e+25 -0.247089 0.017739 272.642 
-1.19458e-06 -1.64852e-05 2.68569e+25 -0.260678 0.00405938 272.679 
-1.64852e-05 -1.60074e-05 2.68969e+25 0.0418111 -0.0924917 272.379 
-1.45739e-05 -1.60074e-05 2.6903e+25 -0.138262 0.00953942 272.21 
-1.26626e-05 -1.60074e-05 2.68922e+25 -0.167535 0.116802 272.345 
-1.07512e-05 -1.60074e-05 2.68866e+25 -0.0945124 0.0406111 272.409 
-8.83992e-06 -1.60074e-05 2.69044e+25 -0.221362 -0.0793612 272.238 
-6.92858e-06 -1.60074e-05 2.6904e+25 -0.394139 0.0537751 272.168 
-5.01725e-06 -1.60074e-05 2.68995e+25 -0.533709 0.0332444 272.289 
-3.10592e-06 -1.60074e-05 2.68933e+25 -0.370572 0.0686268 272.338 
-1.19458e-06 -1.60074e-05 2.6859e+25 -0.530049 0.0457497 272.621 
-1.64852e-05 -1.55296e-05 2.68915e+25 -0.128792 -0.0839076 272.388 
-1.45739e-05 -1.55296e-05 2.69151e+25 -0.205375 0.0167409 272.076 
-1.26626e-05 -1.55296e-05 2.68901e+25 -0.235297 0.138904 272.26 
-1.07512e-05 -1.55296e-05 2.69005e+25 -0.19319 0.0827946 272.224 
-8.83992e-06 -1.55296e-05 2.69046e+25 -0.388445 -0.140317 272.193 
-6.92858e-06 -1.55296e-05 2.69225e+25 -0.607016 0.135087 271.978 
-5.01725e-06 -1.55296e-05 2.68999e+25 -0.838391 0.0850339 272.225 
-3.10592e-06 -1.55296e-05 2.68948e+25 -0.594132 0.0415119 272.168 
-1.19458e-06 -1.55296e-05 2.68604e+25 -0.897462 0.184682 272.692 
-1.64852e-05 -1.50517e-05 2.68977e+25 -0.0686765 -0.0674139 272.375 
-1.45739e-05 -1.50517e-05 2.69276e+25 0.0154718 0.034101 271.886 
-1.26626e-05 -1.50517e-05 2.6897e+25 -0.148879 0.226974 272.282 
-1.07512e-05 -1.50517e-05 2.69054e+25 -0.34132 0.0276781 272.132 
-8.83992e-06 -1.50517e-05 2.69206e+25 -0.563812 -0.0601131 272.057 
-6.92858e-06 -1.50517e-05 2.69245e+25 -0.775804 0.0950176 272.048 
-5.01725e-06 -1.50517e-05 2.68947e+25 -0.87327 0.0642336 272.246 
-3.10592e-06 -1.50517e-05 2.68939e+25 -0.762507 0.0188511 272.259 
-1.19458e-06 -1.50517e-05 2.68713e+25 -1.11881 0.276538 272.439 
-1.64852e-05 -1.45739e-05 2.68895e+25 0.00570192 0.00792099 272.359 
-1.45739e-05 -1.45739e-05 2.69143e+25 0.147064 0.0390232 272.031 
-1.26626e-05 -1.45739e-05 2.68887e+25 -0.15888 0.347381 272.266 
-1.07512e-05 -1.45739e-05 2.6902e+25 -0.451925 -0.0400383 272.202 
-8.83992e-06 -1.45739e-05 2.69349e+25 -0.929792 0.22248 271.97 
-6.92858e-06 -1.45739e-05 2.69016e+25 -1.00913 0.106009 272.034 
-5.01725e-06 -1.45739e-05 2.68977e+25 -1.20185 0.058821 272.104 
-3.10592e-06 -1.45739e-05 2.68891e+25 -1.11925 0.0135554 272.269 
-1.19458e-06 -1.45739e-05 2.68909e+25 -1.32263 0.273658 272.348 
-1.64852e-05 -1.40961e-05 2.69082e+25 0.076322 0.0182831 272.325 
-1.45739e-05 -1.40961e-05 2.69272e+25 0.116377 0.0750447 271.977 
-1.26626e-05 -1.40961e-05 2.69036e+25 -0.240226 0.327435 272.207 
-1.07512e-05 -1.40961e-05 2.68977e+25 -0.564519 -0.00595902 272.137 
-8.83992e-06 -1.40961e-05 2.69294e+25 -0.897647 0.426234 271.94 
-6.92858e-06 -1.40961e-05 2.69226e+25 -1.25033 0.10196 272.039 
-5.01725e-06 -1.40961e-05 2.69174e+25 -1.22408 0.0194337 272.005 
-3.10592e-06 -1.40961e-05 2.68923e+25 -1.60195 0.0205847 272.225 
-1.19458e-06 -1.40961e-05 2.69178e+25 -1.40754 0.292623 272.126 
-1.64852e-05 -1.36182e-05 2.68948e+25 0.129825 -0.00661123 272.423 
-1.45739e-05 -1.36182e-05 2.69144e+25 -0.215544 0.107417 272.021 
-1.26626e-05 -1.36182e-05 2.69116e+25 -0.314327 0.458747 272.084 
-1.07512e-05 -1.36182e-05 2.69266e+25 -0.55758 0.200705 272.021 
-8.83992e-06 -1.36182e-05 2.69375e+25 -1.0391 0.601991 271.896 
-6.92858e-06 -1.36182e-05 2.69208e+25 -1.6359 0.179772 271.954 
-5.01725e-06 -1.36182e-05 2.69211e+25 -1.31265 0.0686383 271.971 
-3.10592e-06 -1.36182e-05 2.68944e+25 -1.88501 -0.0683002 272.225 
-1.19458e-06 -1.36182e-05 2.69107e+25 -1.75277 0.187441 272.128 
-1.64852e-05 -1.31404e-05 2.68817e+25 0.0868303 -0.0511704 272.343 
-1.45739e-05 -1.31404e-05 2.69343e+25 -0.230857 0.0787416 271.868 
-1.26626e-05 -1.31404e-05 2.69139e+25 -0.313626 0.565909 271.981 
-1.07512e-05 -1.31404e-05 2.69273e+25 -0.762755 0.325954 271.956 
-8.83992e-06 -1.31404e-05 2.69198e+25 -1.40842 0.703541 271.952 
-6.92858e-06 -1.31404e-05 2.69494e+25 -1.71098 0.175209 271.715 
-5.01725e-06 -1.31404e-05 2.69389e+25 -1.56637 0.208692 271.848 
-3.10592e-06 -1.31404e-05 2.6906e+25 -2.13464 0.00256411 272.114 
-1.19458e-06 -1.31404e-05 2.69183e+25 -2.12988 0.0934839 272.105 
-1.64852e-05 -1.26626e-05 2.69165e+25 -0.0762027 -0.118858 272.222 
-1.45739e-05 -1.26626e-05 2.69441e+25 -0.164052 0.163426 271.775 
-1.26626e-05 -1.26626e-05 2.69236e+25 -0.517379 0.536253 271.978 
-1.07512e-05 -1.26626e-05 2.69426e+25 -1.03802 0.490581 271.905 
-8.83992e-06 -1.26626e-05 2.69435e+25 -1.44868 0.681397 271.823 
-6.92858e-06 -1.26626e-05 2.69234e+25 -1.96694 0.273531 271.907 
-5.01725e-06 -1.26626e-05 2.6907e+25 -1.96645 0.197374 272.088 
-3.10592e-06 -1.26626e-05 2.69158e+25 -2.24378 0.0192617 272.036 
-1.19458e-06 -1.26626e-05 2.69242e+25 -2.26211 0.0432809 272.027 
-1.64852e-05 -1.21847e-05 2.68918e+25 -0.0822731 -0.0981666 272.372 
-1.45739e-05 -1.21847e-05 2.69539e+25 -0.234871 0.279015 271.733 
-1.26626e-05 -1.21847e-05 2.69134e+25 -0.629492 0.570964 271.966 
-1.07512e-05 -1.21847e-05 2.69333e+25 -1.21507 0.650871 271.963 
-8.83992e-06 -1.21847e-05 2.69172e+25 -1.76089 0.718033 271.867 
-6.92858e-06 -1.21847e-05 2.69162e+25 -2.1082 0.444924 271.916 
-5.01725e-06 -1.21847e-05 2.69074e+25 -2.24053 0.204907 272.154 
-3.10592e-06 -1.21847e-05 2.69186e+25 -2.40378 0.0683554 271.984 
-1.19458e-06 -1.21847e-05 2.69242e+25 -2.42907 0.0490733 271.938 
-1.64852e-05 -1.17069e-05 2.68762e+25 -0.123564 0.081427 272.448 
-1.45739e-05 -1.17069e-05 2.6946e+25 -0.387215 0.318534 271.753 
-1.26626e-05 -1.17069e-05 2.69188e+25 -0.709191 0.696302 272.032 
-1.07512e-05 -1.17069e-05 2.69253e+25 -1.26772 0.770444 271.988 
-8.83992e-06 -1.17069e-05 2.6951e+25 -1.64646 0.853083 271.747 
-6.92858e-06 -1.17069e-05 2.69175e+25 -1.99739 0.414344 271.99 
-5.01725e-06 -1.17069e-05 2.69267e+25 -2.56963 0.298885 271.976 
-3.10592e-06 -1.17069e-05 2.69338e+25 -2.67397 0.131051 271.907 
-1.19458e-06 -1.17069e-05 2.6908e+25 -2.57343 0.0590613 272.12 
-1.64852e-05 -1.12291e-05 2.68846e+25 -0.0525814 0.109226 272.482 
-1.45739e-05 -1.12291e-05 2.69214e+25 -0.314231 0.53356 271.939 
-1.26626e-05 -1.12291e-05 2.69386e+25 -0.630634 0.758651 271.88 
-1.07512e-05 -1.12291e-05 2.69402e+25 -1.15046 0.896404 271.889 
-8.83992e-06 -1.12291e-05 2.69516e+25 -1.65334 1.03885 271.762 
-6.92858e-06 -1.12291e-05 2.69232e+25 -2.07825 0.365822 272.015 
-5.01725e-06 -1.12291e-05 2.69333e+25 -2.78593 0.470956 271.803 
-3.10592e-06 -1.12291e-05 2.69157e+25 -2.96283 0.0777213 272.053 
-1.19458e-06 -1.12291e-05 2.6902e+25 -2.93938 0.166437 272.152 
-1.64852e-05 -1.07512e-05 2.68678e+25 0.123539 0.175078 272.435 
-1.45739e-05 -1.07512e-05 2.69306e+25 -0.303793 0.642839 272.003 
-1.26626e-05 -1.07512e-05 2.69229e+25 -0.656781 0.870057 271.929 
-1.07512e-05 -1.07512e-05 2.69302e+25 -1.27985 1.01469 271.946 
-8.83992e-06 -1.07512e-05 2.69494e+25 -1.8137 1.19502 271.761 
-6.92858e-06 -1.07512e-05 2.69338e+25 -2.27347 0.483317 271.858 
-5.01725e-06 -1.07512e-05 2.69466e+25 -2.80205 0.57169 271.684 
-3.10592e-06 -1.07512e-05 2.69101e+25 -3.22229 0.122177 272.182 
-1.19458e-06 -1.07512e-05 2.689e+25 -3.47863 0.363426 272.181 
-1.64852e-05 -1.02734e-05 2.68736e+25 -0.123595 0.179867 272.445 
-1.45739e-05 -1.02734e-05 2.69168e+25 -0.192783 0.814064 272.083 
-1.26626e-05 -1.02734e-05 2.69302e+25 -0.886242 1.13313 271.906 
-1.07512e-05 -1.02734e-05 2.69137e+25 -1.31452 1.24089 271.979 
-8.83992e-06 -1.02734e-05 2.69506e+25 -1.938 1.29916 271.81 
-6.92858e-06 -1.02734e-05 2.69254e+25 -2.36399 0.650495 271.823 
-5.01725e-06 -1.02734e-05 2.6945e+25 -3.02411 0.682607 271.73 
-3.10592e-06 -1.02734e-05 2.69262e+25 -3.33098 0.257256 271.94 
-1.19458e-06 -1.02734e-05 2.69027e+25 -3.89273 0.368853 272.274 
-1.64852e-05 -9.79558e-06 2.6885e+25 -0.00041893 0.136983 272.387 
-1.45739e-05 -9.79558e-06 2.6934e+25 -0.169534 0.936387 271.895 
-1.26626e-05 -9.79558e-06 2.69306e+25 -0.856735 1.21064 271.812 
-1.07512e-05 -9.79558e-06 2.69148e+25 -1.14778 1.43533 271.951 
-8.83992e-06 -9.79558e-06 2.69418e+25 -1.94259 1.3297 271.87 
-6.92858e-06 -9.79558e-06 2.69177e+25 -2.54395 0.887108 271.899 
-5.01725e-06 -9.79558e-06 2.69554e+25 -3.26449 0.727843 271.64 
-3.10592e-06 -9.79558e-06 2.69167e+25 -3.65258 0.501396 271.965 
-1.19458e-06 -9.79558e-06 2.69058e+25 -4.22357 0.366 272.166 
-1.64852e-05 -9.31775e-06 2.68587e+25 -0.0667288 0.168335 272.607 
-1.45739e-05 -9.31775e-06 2.69325e+25 -0.057982 0.901862 271.855 
-1.26626e-05 -9.31775e-06 2.69378e+25 -0.729372 1.34453 271.866 
-1.07512e-05 -9.31775e-06 2.69352e+25 -1.21754 1.565 271.848 
-8.83992e-06 -9.31775e-06 2.69234e+25 -1.96354 1.44633 271.852 
-6.92858e-06 -9.31775e-06 2.6923e+25 -2.62147 1.24965 271.943 
-5.01725e-06 -9.31775e-06 2.69599e+25 -3.56142 0.755109 271.542 
-3.10592e-06 -9.31775e-06 2.69361e+25 -4.03023 0.743265 271.886 
-1.19458e-06 -9.31775e-06 2.69003e+25 -4.36365 0.374299 272.164 
-1.64852e-05 -8.83992e-06 2.68606e+25 -0.0737816 0.156156 272.611 
-1.45739e-05 -8.83992e-06 2.6941e+25 -0.0592876 1.00589 271.929 
-1.26626e-05 -8.83992e-06 2.6944e+25 -0.540201 1.45065 271.673 
-1.07512e-05 -8.83992e-06 2.69321e+25 -1.42998 1.64007 271.838 
-8.83992e-06 -8.83992e-06 2.69497e+25 -1.90561 1.53177 271.75 
-6.92858e-06 -8.83992e-06 2.69129e+25 -2.8808 1.40661 272.005 
-5.01725e-06 -8.83992e-06 2.69684e+25 -3.4375 0.831898 271.475 
-3.10592e-06 -8.83992e-06 2.69227e+25 -4.2097 0.893286 271.946 
-1.19458e-06 -8.83992e-06 2.69118e+25 -4.65476 0.322092 272.263 
-1.64852e-05 -8.36208e-06 2.68657e+25 0.000692055 0.246039 272.511 
-1.45739e-05 -8.36208e-06 2.69414e+25 -0.178322 1.15359 271.982 
-1.26626e-05 -8.36208e-06 2.6952e+25 -0.818084 1.54254 271.649 
-1.07512e-05 -8.36208e-06 2.69328e+25 -1.43244 1.69655 271.891 
-8.83992e-06 -8.36208e-06 2.69374e+25 -1.81484 1.7414 271.823 
-6.92858e-06 -8.36208e-06 2.69138e+25 -2.75861 1.59065 272.04 
-5.01725e-06 -8.36208e-06 2.69429e+25 -3.57476 1.07151 271.701 
-3.10592e-06 -8.36208e-06 2.69207e+25 -4.48682 1.02738 272.024 
-1.19458e-06 -8.36208e-06 2.68958e+25 -4.93895 0.217951 272.276 
-1.64852e-05 -7.88425e-06 2.68953e+25 0.0153041 0.357617 272.447 
-1.45739e-05 -7.88425e-06 2.69246e+25 -0.308315 1.19322 271.947 
-1.26626e-05 -7.88425e-06 2.69316e+25 -0.88035 1.70288 271.648 
-1.07512e-05 -7.88425e-06 2.69204e+25 -1.3277 1.73735 271.958 
-8.83992e-06 -7.88425e-06 2.69432e+25 -1.95501 1.98999 271.899 
-6.92858e-06 -7.88425e-06 2.69251e+25 -2.88744 1.82826 271.904 
-5.01725e-06 -7.88425e-06 2.69319e+25 -3.68501 1.31332 271.83 
-3.10592e-06 -7.88425e-06 2.69155e+25 -4.53146 1.21044 272.056 
-1.19458e-06 -7.88425e-06 2.69122e+25 -5.13162 0.210822 272.189 
-1.64852e-05 -7.40642e-06 2.68947e+25 0.143414 0.313572 272.379 
-1.45739e-05 -7.40642e-06 2.69161e+25 -0.515978 1.36507 271.96 
-1.26626e-05 -7.40642e-06 2.69409e+25 -0.779359 1.9273 271.768 
-1.07512e-05 -7.40642e-06 2.69215e+25 -1.40362 1.95874 271.886 
-8.83992e-06 -7.40642e-06 2.69671e+25 -1.98902 2.19391 271.734 
-6.92858e-06 -7.40642e-06 2.69073e+25 -3.01948 2.1024 271.971 
-5.01725e-06 -7.40642e-06 2.69408e+25 -3.78686 1.48542 271.87 
-3.10592e-06 -7.40642e-06 2.69121e+25 -4.75697 1.26324 272.104 
-1.19458e-06 -7.40642e-06 2.69116e+25 -5.06087 0.328422 272.086 
-1.64852e-05 -6.92858e-06 2.68975e+25 0.0156964 0.29696 272.321 
-1.45739e-05 -6.92858e-06 2.69241e+25 -0.438263 1.60227 271.88 
-1.26626e-05 -6.92858e-06 2.69395e+25 -0.830492 2.02759 271.756 
-1.07512e-05 -6.92858e-06 2.69345e+25 -1.56428 2.16856 271.882 
-8.83992e-06 -6.92858e-06 2.69619e+25 -2.18975 2.26632 271.468 
-6.92858e-06 -6.92858e-06 2.69204e+25 -3.22384 2.37636 271.95 
-5.01725e-06 -6.92858e-06 2.69324e+25 -3.98129 1.66492 271.926 
-3.10592e-06 -6.92858e-06 2.69315e+25 -4.81619 1.33689 271.937 
-1.19458e-06 -6.92858e-06 2.69256e+25 -5.18218 0.501366 272.046 
-1.64852e-05 -6.45075e-06 2.69021e+25 -0.00641177 0.201091 272.29 
-1.45739e-05 -6.45075e-06 2.69143e+25 -0.295165 1.77793 271.985 
-1.26626e-05 -6.45075e-06 2.69653e+25 -0.757955 2.14942 271.668 
-1.07512e-05 -6.45075e-06 2.69413e+25 -1.65384 2.49325 271.796 
-8.83992e-06 -6.45075e-06 2.69546e+25 -2.50079 2.47416 271.632 
-6.92858e-06 -6.45075e-06 2.69334e+25 -3.20716 2.63382 271.946 
-5.01725e-06 -6.45075e-06 2.6949e+25 -4.15009 1.89582 271.773 
-3.10592e-06 -6.45075e-06 2.69202e+25 -4.90322 1.57437 271.941 
-1.19458e-06 -6.45075e-06 2.69067e+25 -5.53734 0.628111 272.063 
-1.64852e-05 -5.97292e-06 2.69027e+25 -0.0611148 0.254388 272.335 
-1.45739e-05 -5.97292e-06 2.6922e+25 -0.383638 1.85321 271.97 
-1.26626e-05 -5.97292e-06 2.69345e+25 -0.988928 2.34071 271.866 
-1.07512e-05 -5.97292e-06 2.69455e+25 -1.8662 2.77647 271.734 
-8.83992e-06 -5.97292e-06 2.69597e+25 -2.75571 2.7709 271.573 
-6.92858e-06 -5.97292e-06 2.69389e+25 -3.57214 2.95124 271.696 
-5.01725e-06 -5.97292e-06 2.69404e+25 -4.4412 2.08096 271.752 
-3.10592e-06 -5.97292e-06 2.69105e+25 -5.05332 1.78115 271.985 
-1.19458e-06 -5.97292e-06 2.69198e+25 -5.76158 0.72782 272.092 
-1.64852e-05 -5.49508e-06 2.68712e+25 -0.0532687 0.338725 272.603 
-1.45739e-05 -5.49508e-06 2.69077e+25 -0.507641 2.01647 272.038 
-1.26626e-05 -5.49508e-06 2.69327e+25 -1.30178 2.57143 271.854 
-1.07512e-05 -5.49508e-06 2.69632e+25 -2.07871 2.96168 271.604 
-8.83992e-06 -5.49508e-06 2.696e+25 -2.9832 2.96664 271.488 
-6.92858e-06 -5.49508e-06 2.69387e+25 -3.89975 3.12665 271.616 
-5.01725e-06 -5.49508e-06 2.69668e+25 -4.78492 2.17047 271.524 
-3.10592e-06 -5.49508e-06 2.69389e+25 -5.41233 1.93821 271.858 
-1.19458e-06 -5.49508e-06 2.68935e+25 -5.84565 0.945394 272.18 
-1.64852e-05 -5.01725e-06 2.68742e+25 -0.0493945 0.508054 272.323 
-1.45739e-05 -5.01725e-06 2.6909e+25 -0.726384 1.99436 272.028 
-1.26626e-05 -5.01725e-06 2.69324e+25 -1.37864 2.79759 271.95 
-1.07512e-05 -5.01725e-06 2.69663e+25 -2.25183 3.0814 271.607 
-8.83992e-06 -5.01725e-06 2.69597e+25 -3.07378 3.26692 271.548 
-6.92858e-06 -5.01725e-06 2.69358e+25 -4.11924 3.27996 271.67 
-5.01725e-06 -5.01725e-06 2.69404e+25 -4.93719 2.38833 271.745 
-3.10592e-06 -5.01725e-06 2.69315e+25 -5.65883 2.02652 271.907 
-1.19458e-06 -5.01725e-06 2.69023e+25 -6.07559 1.13172 272.172 
-1.64852e-05 -4.53942e-06 2.68797e+25 -0.13849 0.59527 272.283 
-1.45739e-05 -4.53942e-06 2.69052e+25 -0.644625 2.03846 272.107 
-1.26626e-05 -4.53942e-06 2.69195e+25 -1.19172 2.86545 271.942 
-1.07512e-05 -4.53942e-06 2.69533e+25 -2.28203 3.31366 271.648 
-8.83992e-06 -4.53942e-06 2.69339e+25 -3.20353 3.53013 271.704 
-6.92858e-06 -4.53942e-06 2.68977e+25 -4.23978 3.50188 272.028 
-5.01725e-06 -4.53942e-06 2.69263e+25 -5.03935 2.66344 271.951 
-3.10592e-06 -4.53942e-06 2.69246e+25 -5.69777 2.19006 271.926 
-1.19458e-06 -4.53942e-06 2.68975e+25 -6.06728 1.31072 272.075 
-1.64852e-05 -4.06158e-06 2.6869e+25 -0.131568 0.766808 272.418 
-1.45739e-05 -4.06158e-06 2.692e+25 -0.772069 2.04393 272.092 
-1.26626e-05 -4.06158e-06 2.69202e+25 -1.32096 3.0038 272.025 
-1.07512e-05 -4.06158e-06 2.69547e+25 -2.33032 3.50219 271.593 
-8.83992e-06 -4.06158e-06 2.69586e+25 -3.447 3.84233 271.666 
-6.92858e-06 -4.06158e-06 2.68998e+25 -4.20926 3.62783 272.164 
-5.01725e-06 -4.06158e-06 2.68973e+25 -5.03793 2.808 271.991 
-3.10592e-06 -4.06158e-06 2.6928e+25 -5.6221 2.32749 271.854 
-1.19458e-06 -4.06158e-06 2.69168e+25 -6.18434 1.47746 271.984 
-1.64852e-05 -3.58375e-06 2.68791e+25 -0.23719 0.871302 272.484 
-1.45739e-05 -3.58375e-06 2.6908e+25 -0.595506 2.10286 272.096 
-1.26626e-05 -3.58375e-06 2.69171e+25 -1.25053 3.27924 271.935 
-1.07512e-05 -3.58375e-06 2.69284e+25 -2.30232 3.75194 271.792 
-8.83992e-06 -3.58375e-06 2.69326e+25 -3.36045 4.24982 271.659 
-6.92858e-06 -3.58375e-06 2.68863e+25 -4.24322 3.88132 272.094 
-5.01725e-06 -3.58375e-06 2.68978e+25 -5.26888 3.06934 272.146 
-3.10592e-06 -3.58375e-06 2.69326e+25 -5.89158 2.47109 271.706 
-1.19458e-06 -3.58375e-06 2.69006e+25 -6.56263 1.5072 272.096 
-1.64852e-05 -3.10592e-06 2.68647e+25 -0.149731 1.0107 272.567 
-1.45739e-05 -3.10592e-06 2.69085e+25 -0.645246 2.28768 272.092 
-1.26626e-05 -3.10592e-06 2.69352e+25 -1.42455 3.64022 271.871 
-1.07512e-05 -3.10592e-06 2.69477e+25 -2.0958 3.94048 271.688 
-8.83992e-06 -3.10592e-06 2.69488e+25 -3.30553 4.55606 271.677 
-6.92858e-06 -3.10592e-06 2.69213e+25 -4.33585 4.11922 271.848 
-5.01725e-06 -3.10592e-06 2.69126e+25 -5.44175 3.30627 272.012 
-3.10592e-06 -3.10592e-06 2.69275e+25 -5.98169 2.68227 271.87 
-1.19458e-06 -3.10592e-06 2.69073e+25 -6.65876 1.62602 272.033 
-1.64852e-05 -2.62808e-06 2.68774e+25 0.00128335 1.12529 272.433 
-1.45739e-05 -2.62808e-06 2.69243e+25 -0.599155 2.49868 272.054 
-1.26626e-05 -2.62808e-06 2.69183e+25 -1.552 3.90099 272.086 
-1.07512e-05 -2.62808e-06 2.69244e+25 -2.07393 4.19936 271.771 
-8.83992e-06 -2.62808e-06 2.69388e+25 -3.19343 4.76042 271.738 
-6.92858e-06 -2.62808e-06 2.69229e+25 -4.3649 4.43658 271.922 
-5.01725e-06 -2.62808e-06 2.69243e+25 -5.33559 3.53393 271.786 
-3.10592e-06 -2.62808e-06 2.69155e+25 -6.03565 2.94432 271.877 
-1.19458e-06 -2.62808e-06 2.6927e+25 -6.60202 1.67091 271.847 
-1.64852e-05 -2.15025e-06 2.68769e+25 0.0411009 1.26244 272.49 
-1.45739e-05 -2.15025e-06 2.69143e+25 -0.574373 2.80377 272.087 
-1.26626e-05 -2.15025e-06 2.69127e+25 -1.38191 4.06376 272.041 
-1.07512e-05 -2.15025e-06 2.694e+25 -2.13038 4.60892 271.684 
-8.83992e-06 -2.15025e-06 2.69563e+25 -3.09352 4.97707 271.556 
-6.92858e-06 -2.15025e-06 2.69272e+25 -4.2403 4.647 271.95 
-5.01725e-06 -2.15025e-06 2.69376e+25 -5.11183 3.7414 271.838 
-3.10592e-06 -2.15025e-06 2.69181e+25 -6.04977 3.16866 271.951 
-1.19458e-06 -2.15025e-06 2.69158e+25 -6.5612 1.78538 271.808 
-1.64852e-05 -1.67242e-06 2.68761e+25 -0.0194333 1.22824 272.573 
-1.45739e-05 -1.67242e-06 2.69165e+25 -0.381041 3.14339 272.026 
-1.26626e-05 -1.67242e-06 2.69213e+25 -1.26275 4.17975 271.967 
-1.07512e-05 -1.67242e-06 2.6937e+25 -2.27083 4.91094 271.673 
-8.83992e-06 -1.67242e-06 2.69607e+25 -3.1584 5.28201 271.562 
-6.92858e-06 -1.67242e-06 2.69109e+25 -4.23622 4.86023 271.832 
-5.01725e-06 -1.67242e-06 2.69242e+25 -4.96994 4.01049 271.858 
-3.10592e-06 -1.67242e-06 2.69161e+25 -5.9111 3.26335 271.988 
-1.19458e-06 -1.67242e-06 2.69312e+25 -6.67501 1.97972 271.758 
-1.64852e-05 -1.19458e-06 2.68641e+25 -0.0114123 1.16745 272.615 
-1.45739e-05 -1.19458e-06 2.69125e+25 -0.40164 3.46065 272.086 
-1.26626e-05 -1.19458e-06 2.69223e+25 -1.10528 4.35239 271.991 
-1.07512e-05 -1.19458e-06 2.69443e+25 -2.26394 5.1285 271.67 
-8.83992e-06 -1.19458e-06 2.69598e+25 -3.06743 5.51018 271.665 
-6.92858e-06 -1.19458e-06 2.69479e+25 -4.03116 5.11189 271.665 
-5.01725e-06 -1.19458e-06 2.69164e+25 -4.93256 4.25902 271.883 
-3.10592e-06 -1.19458e-06 2.69147e+25 -5.86149 3.3615 271.885 
-1.19458e-06 -1.19458e-06 2.69e+25 -6.8004 2.21212 272.033 
-1.64852e-05 -7.1675e-07 2.68606e+25 -0.0491874 1.10561 272.635 
-1.45739e-05 -7.1675e-07 2.68911e+25 -0.272907 3.60565 272.188 
-1.26626e-05 -7.1675e-07 2.69314e+25 -1.1238 4.46759 271.98 
-1.07512e-05 -7.1675e-07 2.69353e+25 -2.10154 5.33121 271.679 
-8.83992e-06 -7.1675e-07 2.6939e+25 -3.03469 5.63231 271.726 
-6.92858e-06 -7.1675e-07 2.69188e+25 -4.06473 5.50815 271.671 
-5.01725e-06 -7.1675e-07 2.69123e+25 -5.08691 4.38738 271.935 
-3.10592e-06 -7.1675e-07 2.69279e+25 -6.09883 3.47764 271.829 
-1.19458e-06 -7.1675e-07 2.68942e+25 -6.87236 2.34655 272.022 
-1.64852e-05 -2.38917e-07 2.68401e+25 -0.0372521 1.09485 272.617 
-1.45739e-05 -2.38917e-07 2.68805e+25 -0.239316 3.56921 272.223 
-1.26626e-05 -2.38917e-07 2.68904e+25 -0.998746 4.70727 272.061 
-1.07512e-05 -2.38917e-07 2.6918e+25 -2.10301 5.63675 271.738 
-8.83992e-06 -2.38917e-07 2.69108e+25 -3.17285 5.85377 271.767 
-6.92858e-06 -2.38917e-07 2.69049e+25 -4.08014 5.80428 271.7 
-5.01725e-06 -2.38917e-07 2.69084e+25 -5.1766 4.66649 271.785 
-3.10592e-06 -2.38917e-07 2.69026e+25 -6.11073 3.8054 271.818 
-1.19458e-06 -2.38917e-07 2.687e+25 -6.88025 2.48366 272.077 
-1.60074e-05 -1.69631e-05 2.68448e+25 0.0137326 0.000781344 272.86 
-1.40961e-05 -1.69631e-05 2.68589e+25 -5.59293e-05 0.0148324 272.66 
-1.21847e-05 -1.69631e-05 2.68374e+25 -0.110616 -0.0273868 272.798 
-1.02734e-05 -1.69631e-05 2.68421e+25 -0.127919 -0.0591012 272.8 
-8.36208e-06 -1.69631e-05 2.68549e+25 -0.0711335 0.0218402 272.769 
-6.45075e-06 -1.69631e-05 2.68673e+25 0.0141954 0.013046 272.658 
-4.53942e-06 -1.69631e-05 2.6847e+25 -0.117146 -0.0782045 272.837 
-2.62808e-06 -1.69631e-05 2.68269e+25 -0.110797 -0.0029762 272.935 
-7.1675e-07 -1.69631e-05 2.68462e+25 -0.18221 -0.0148344 272.802 
-1.60074e-05 -1.64852e-05 2.68832e+25 0.0593113 0.00725808 272.396 
-1.40961e-05 -1.64852e-05 2.68803e+25 -0.0618957 0.0690123 272.443 
-1.21847e-05 -1.64852e-05 2.68639e+25 -0.272111 0.00344615 272.55 
-1.02734e-05 -1.64852e-05 2.68653e+25 -0.142597 -0.0285516 272.678 
-8.36208e-06 -1.64852e-05 2.68838e+25 -0.168802 -0.0114942 272.424 
-6.45075e-06 -1.64852e-05 2.68852e+25 -0.20203 0.135534 272.432 
-4.53942e-06 -1.64852e-05 2.68752e+25 -0.352209 -0.175949 272.37 
-2.62808e-06 -1.64852e-05 2.68501e+25 -0.293869 0.0586558 272.638 
-7.1675e-07 -1.64852e-05 2.68666e+25 -0.240695 -0.0157197 272.515 
-1.60074e-05 -1.60074e-05 2.69279e+25 0.138302 0.0300072 272.152 
-1.40961e-05 -1.60074e-05 2.6891e+25 -0.153285 0.0449347 272.326 
-1.21847e-05 -1.60074e-05 2.68974e+25 -0.159258 0.00549343 272.25 
-1.02734e-05 -1.60074e-05 2.68647e+25 -0.164605 0.175076 272.609 
-8.36208e-06 -1.60074e-05 2.69016e+25 -0.209717 -0.0283432 272.277 
-6.45075e-06 -1.60074e-05 2.68994e+25 -0.492782 0.16379 272.199 
-4.53942e-06 -1.60074e-05 2.68983e+25 -0.587588 -0.239296 272.272 
-2.62808e-06 -1.60074e-05 2.68752e+25 -0.444393 0.090131 272.483 
-7.1675e-07 -1.60074e-05 2.68714e+25 -0.628566 0.0269612 272.565 
-1.60074e-05 -1.55296e-05 2.69214e+25 -0.0835086 -0.132626 272.037 
-1.40961e-05 -1.55296e-05 2.69263e+25 -0.192503 -0.0129703 272.058 
-1.21847e-05 -1.55296e-05 2.68869e+25 -0.275781 -0.0244576 272.34 
-1.02734e-05 -1.55296e-05 2.68666e+25 -0.198177 0.146564 272.529 
-8.36208e-06 -1.55296e-05 2.6906e+25 -0.382944 -0.026028 272.157 
-6.45075e-06 -1.55296e-05 2.69172e+25 -0.582019 0.262792 272.011 
-4.53942e-06 -1.55296e-05 2.69119e+25 -0.819649 -0.269944 272.179 
-2.62808e-06 -1.55296e-05 2.68859e+25 -0.545419 0.116423 272.294 
-7.1675e-07 -1.55296e-05 2.68687e+25 -0.984854 0.110815 272.477 
-1.60074e-05 -1.50517e-05 2.69222e+25 -0.190951 -0.0807014 272.116 
-1.40961e-05 -1.50517e-05 2.69193e+25 0.0223337 0.00578941 272.155 
-1.21847e-05 -1.50517e-05 2.68877e+25 -0.216428 0.00451075 272.336 
-1.02734e-05 -1.50517e-05 2.6893e+25 -0.276687 0.23434 272.308 
-8.36208e-06 -1.50517e-05 2.6923e+25 -0.724079 0.0483212 272.015 
-6.45075e-06 -1.50517e-05 2.69196e+25 -0.853643 0.284729 272.072 
-4.53942e-06 -1.50517e-05 2.69132e+25 -0.933049 -0.226855 272.099 
-2.62808e-06 -1.50517e-05 2.69078e+25 -0.760118 0.0846543 272.271 
-7.1675e-07 -1.50517e-05 2.68971e+25 -1.14013 0.184877 272.318 
-1.60074e-05 -1.45739e-05 2.6926e+25 -0.00458098 -0.112215 271.999 
-1.40961e-05 -1.45739e-05 2.69056e+25 0.0844018 0.0474253 272.141 
-1.21847e-05 -1.45739e-05 2.68794e+25 -0.215958 0.0602354 272.515 
-1.02734e-05 -1.45739e-05 2.6914e+25 -0.467519 0.22605 272.092 
-8.36208e-06 -1.45739e-05 2.69144e+25 -1.08023 0.122798 272.038 
-6.45075e-06 -1.45739e-05 2.69055e+25 -0.919892 0.279318 272.016 
-4.53942e-06 -1.45739e-05 2.68942e+25 -1.10707 -0.263511 272.194 
-2.62808e-06 -1.45739e-05 2.69013e+25 -1.18425 0.178096 272.174 
-7.1675e-07 -1.45739e-05 2.68751e+25 -1.28652 0.212044 272.383 
-1.60074e-05 -1.40961e-05 2.69141e+25 0.0419651 -0.0599907 272.172 
-1.40961e-05 -1.40961e-05 2.69176e+25 0.0031761 0.115983 272.12 
-1.21847e-05 -1.40961e-05 2.69111e+25 -0.29671 0.181979 272.315 
-1.02734e-05 -1.40961e-05 2.69189e+25 -0.576391 0.212954 272 
-8.36208e-06 -1.40961e-05 2.6903e+25 -1.07565 0.230305 272.013 
-6.45075e-06 -1.40961e-05 2.69339e+25 -1.26249 0.194853 271.942 
-4.53942e-06 -1.40961e-05 2.69249e+25 -1.31268 -0.141415 271.995 
-2.62808e-06 -1.40961e-05 2.68868e+25 -1.5612 0.18904 272.318 
-7.1675e-07 -1.40961e-05 2.69026e+25 -1.38267 0.159253 272.12 
-1.60074e-05 -1.36182e-05 2.69025e+25 0.115613 0.0441599 272.238 
-1.40961e-05 -1.36182e-05 2.69092e+25 -0.190115 0.206501 272.057 
-1.21847e-05 -1.36182e-05 2.69234e+25 -0.439161 0.267741 272 
-1.02734e-05 -1.36182e-05 2.69241e+25 -0.83321 0.297045 272.024 
-8.36208e-06 -1.36182e-05 2.69247e+25 -1.25655 0.487201 271.867 
-6.45075e-06 -1.36182e-05 2.69214e+25 -1.6297 0.13914 271.972 
-4.53942e-06 -1.36182e-05 2.69268e+25 -1.50064 0.0237552 272.044 
-2.62808e-06 -1.36182e-05 2.68889e+25 -1.87138 0.17449 272.387 
-7.1675e-07 -1.36182e-05 2.68927e+25 -1.6717 0.166963 272.101 
-1.60074e-05 -1.31404e-05 2.68878e+25 0.0345117 0.131157 272.193 
-1.40961e-05 -1.31404e-05 2.69289e+25 -0.200686 0.139766 271.88 
-1.21847e-05 -1.31404e-05 2.69305e+25 -0.342582 0.333292 271.845 
-1.02734e-05 -1.31404e-05 2.69423e+25 -0.918288 0.566679 271.863 
-8.36208e-06 -1.31404e-05 2.69413e+25 -1.46187 0.652497 271.824 
-6.45075e-06 -1.31404e-05 2.69192e+25 -1.79274 0.221155 271.891 
-4.53942e-06 -1.31404e-05 2.6955e+25 -1.6473 0.165718 271.768 
-2.62808e-06 -1.31404e-05 2.69172e+25 -2.05558 0.0922543 272.201 
-7.1675e-07 -1.31404e-05 2.68991e+25 -2.0412 0.0857565 272.244 
-1.60074e-05 -1.26626e-05 2.69319e+25 -0.0137702 0.196723 271.909 
-1.40961e-05 -1.26626e-05 2.69338e+25 -0.265811 0.158703 271.891 
-1.21847e-05 -1.26626e-05 2.69308e+25 -0.527698 0.30995 271.865 
-1.02734e-05 -1.26626e-05 2.69366e+25 -1.20391 0.72745 271.835 
-8.36208e-06 -1.26626e-05 2.69214e+25 -1.48408 0.71587 271.947 
-6.45075e-06 -1.26626e-05 2.69264e+25 -2.09099 0.31551 271.875 
-4.53942e-06 -1.26626e-05 2.6915e+25 -2.05922 0.310784 271.939 
-2.62808e-06 -1.26626e-05 2.69012e+25 -2.30957 0.0957981 272.184 
-7.1675e-07 -1.26626e-05 2.69218e+25 -2.19156 0.0396776 271.979 
-1.60074e-05 -1.21847e-05 2.69178e+25 -0.183813 0.204872 272.083 
-1.40961e-05 -1.21847e-05 2.69317e+25 -0.354859 0.31218 271.927 
-1.21847e-05 -1.21847e-05 2.69312e+25 -0.756202 0.427218 271.915 
-1.02734e-05 -1.21847e-05 2.69448e+25 -1.28549 0.875072 271.712 
-8.36208e-06 -1.21847e-05 2.6921e+25 -1.79027 0.79398 271.863 
-6.45075e-06 -1.21847e-05 2.69267e+25 -2.15765 0.330231 271.981 
-4.53942e-06 -1.21847e-05 2.6909e+25 -2.27381 0.351298 272.086 
-2.62808e-06 -1.21847e-05 2.69046e+25 -2.43906 0.149921 272.097 
-7.1675e-07 -1.21847e-05 2.69188e+25 -2.52162 0.0353715 271.964 
-1.60074e-05 -1.17069e-05 2.69256e+25 -0.122761 0.138561 272.024 
-1.40961e-05 -1.17069e-05 2.69302e+25 -0.501404 0.424473 271.89 
-1.21847e-05 -1.17069e-05 2.69066e+25 -0.867721 0.594493 272.096 
-1.02734e-05 -1.17069e-05 2.69417e+25 -1.39178 0.925394 271.773 
-8.36208e-06 -1.17069e-05 2.69305e+25 -1.76911 0.830822 271.87 
-6.45075e-06 -1.17069e-05 2.69248e+25 -2.01707 0.430141 272.005 
-4.53942e-06 -1.17069e-05 2.69203e+25 -2.56415 0.361667 272.063 
-2.62808e-06 -1.17069e-05 2.69221e+25 -2.65673 0.114015 272.043 
-7.1675e-07 -1.17069e-05 2.69209e+25 -2.65799 0.15724 272.065 
-1.60074e-05 -1.12291e-05 2.69039e+25 -0.111477 0.15653 272.158 
-1.40961e-05 -1.12291e-05 2.69343e+25 -0.465876 0.554676 271.877 
-1.21847e-05 -1.12291e-05 2.68919e+25 -0.794914 0.803058 272.184 
-1.02734e-05 -1.12291e-05 2.69377e+25 -1.20908 1.00333 271.909 
-8.36208e-06 -1.12291e-05 2.69269e+25 -1.87903 0.992682 271.922 
-6.45075e-06 -1.12291e-05 2.69251e+25 -2.17289 0.534926 272.013 
-4.53942e-06 -1.12291e-05 2.6936e+25 -2.88998 0.381592 271.849 
-2.62808e-06 -1.12291e-05 2.69194e+25 -3.00728 0.133097 272.133 
-7.1675e-07 -1.12291e-05 2.69278e+25 -3.04489 0.252678 272.12 
-1.60074e-05 -1.07512e-05 2.69022e+25 0.035266 0.233661 272.319 
-1.40961e-05 -1.07512e-05 2.69193e+25 -0.432129 0.635013 272.077 
-1.21847e-05 -1.07512e-05 2.69213e+25 -0.830811 0.990238 272.041 
-1.02734e-05 -1.07512e-05 2.69379e+25 -1.43863 1.15434 271.834 
-8.36208e-06 -1.07512e-05 2.69084e+25 -1.94728 1.1715 271.987 
-6.45075e-06 -1.07512e-05 2.69259e+25 -2.32105 0.52984 272.005 
-4.53942e-06 -1.07512e-05 2.69353e+25 -2.89365 0.472691 271.839 
-2.62808e-06 -1.07512e-05 2.69033e+25 -3.28868 0.122406 272.172 
-7.1675e-07 -1.07512e-05 2.69019e+25 -3.492 0.241237 272.05 
-1.60074e-05 -1.02734e-05 2.68929e+25 -0.189959 0.345963 272.312 
-1.40961e-05 -1.02734e-05 2.69246e+25 -0.404187 0.778351 272.02 
-1.21847e-05 -1.02734e-05 2.69286e+25 -0.987366 1.02798 271.949 
-1.02734e-05 -1.02734e-05 2.69285e+25 -1.54239 1.26444 271.893 
-8.36208e-06 -1.02734e-05 2.69372e+25 -2.0214 1.27611 271.836 
-6.45075e-06 -1.02734e-05 2.69361e+25 -2.60296 0.702346 271.845 
-4.53942e-06 -1.02734e-05 2.69542e+25 -3.0291 0.494454 271.659 
-2.62808e-06 -1.02734e-05 2.6903e+25 -3.558 0.25788 272.197 
-7.1675e-07 -1.02734e-05 2.69024e+25 -3.94623 0.311943 272.181 
-1.60074e-05 -9.79558e-06 2.69005e+25 -0.0291947 0.429173 272.19 
-1.40961e-05 -9.79558e-06 2.69192e+25 -0.230829 0.901915 271.963 
-1.21847e-05 -9.79558e-06 2.69323e+25 -0.998571 1.17399 271.825 
-1.02734e-05 -9.79558e-06 2.69402e+25 -1.34981 1.48982 272.025 
-8.36208e-06 -9.79558e-06 2.69202e+25 -2.03499 1.41267 271.806 
-6.45075e-06 -9.79558e-06 2.69325e+25 -2.84753 0.95193 271.845 
-4.53942e-06 -9.79558e-06 2.69459e+25 -3.34111 0.518065 271.607 
-2.62808e-06 -9.79558e-06 2.69036e+25 -3.88053 0.505419 272.124 
-7.1675e-07 -9.79558e-06 2.68914e+25 -4.16529 0.251822 272.177 
-1.60074e-05 -9.31775e-06 2.68807e+25 -0.0216442 0.427232 272.434 
-1.40961e-05 -9.31775e-06 2.69317e+25 -0.19549 1.10826 271.746 
-1.21847e-05 -9.31775e-06 2.69632e+25 -0.797057 1.28929 271.658 
-1.02734e-05 -9.31775e-06 2.69325e+25 -1.4225 1.75663 271.908 
-8.36208e-06 -9.31775e-06 2.69551e+25 -2.04177 1.47736 271.847 
-6.45075e-06 -9.31775e-06 2.69326e+25 -2.81238 1.10442 271.817 
-4.53942e-06 -9.31775e-06 2.69522e+25 -3.61403 0.577379 271.631 
-2.62808e-06 -9.31775e-06 2.69145e+25 -4.1655 0.687542 272.124 
-7.1675e-07 -9.31775e-06 2.69138e+25 -4.33036 0.192506 272.162 
-1.60074e-05 -8.83992e-06 2.68643e+25 -0.0675436 0.35007 272.5 
-1.40961e-05 -8.83992e-06 2.69338e+25 -0.192148 1.27355 271.801 
-1.21847e-05 -8.83992e-06 2.69542e+25 -0.664471 1.42061 271.644 
-1.02734e-05 -8.83992e-06 2.69334e+25 -1.4829 1.92045 271.966 
-8.36208e-06 -8.83992e-06 2.6922e+25 -2.0484 1.61715 271.96 
-6.45075e-06 -8.83992e-06 2.6937e+25 -3.01874 1.26189 271.832 
-4.53942e-06 -8.83992e-06 2.69541e+25 -3.60661 0.739872 271.748 
-2.62808e-06 -8.83992e-06 2.692e+25 -4.45928 0.882481 272.155 
-7.1675e-07 -8.83992e-06 2.69051e+25 -4.6276 0.12441 272.26 
-1.60074e-05 -8.36208e-06 2.68832e+25 -0.113383 0.383637 272.39 
-1.40961e-05 -8.36208e-06 2.69208e+25 -0.333298 1.38751 272.038 
-1.21847e-05 -8.36208e-06 2.69339e+25 -0.936241 1.66077 271.837 
-1.02734e-05 -8.36208e-06 2.69386e+25 -1.46312 1.98163 271.803 
-8.36208e-06 -8.36208e-06 2.69301e+25 -2.02378 1.76681 271.881 
-6.45075e-06 -8.36208e-06 2.69353e+25 -3.03429 1.50628 271.837 
-4.53942e-06 -8.36208e-06 2.69413e+25 -3.79909 0.980434 271.768 
-2.62808e-06 -8.36208e-06 2.69124e+25 -4.59987 1.03994 272.061 
-7.1675e-07 -8.36208e-06 2.6897e+25 -4.87743 0.117013 272.264 
-1.60074e-05 -7.88425e-06 2.6894e+25 0.0298431 0.356529 272.218 
-1.40961e-05 -7.88425e-06 2.69227e+25 -0.351749 1.54117 271.938 
-1.21847e-05 -7.88425e-06 2.69218e+25 -1.04194 1.76116 271.813 
-1.02734e-05 -7.88425e-06 2.69407e+25 -1.47167 2.09878 271.837 
-8.36208e-06 -7.88425e-06 2.69365e+25 -2.07631 1.91803 271.845 
-6.45075e-06 -7.88425e-06 2.69288e+25 -3.19559 1.84798 271.919 
-4.53942e-06 -7.88425e-06 2.69326e+25 -3.92775 1.19133 271.885 
-2.62808e-06 -7.88425e-06 2.69338e+25 -4.63044 1.12451 272.01 
-7.1675e-07 -7.88425e-06 2.69117e+25 -5.1231 0.142929 272.043 
-1.60074e-05 -7.40642e-06 2.6907e+25 0.0619446 0.40443 272.095 
-1.40961e-05 -7.40642e-06 2.69209e+25 -0.718949 1.64245 271.944 
-1.21847e-05 -7.40642e-06 2.69253e+25 -0.978833 1.86342 271.906 
-1.02734e-05 -7.40642e-06 2.69308e+25 -1.56415 2.16033 271.847 
-8.36208e-06 -7.40642e-06 2.69548e+25 -2.18065 2.06248 271.646 
-6.45075e-06 -7.40642e-06 2.69369e+25 -3.23531 2.05054 271.792 
-4.53942e-06 -7.40642e-06 2.69168e+25 -3.96773 1.45009 271.945 
-2.62808e-06 -7.40642e-06 2.69269e+25 -4.76604 1.20274 272.047 
-7.1675e-07 -7.40642e-06 2.69157e+25 -5.28453 0.179408 271.98 
-1.60074e-05 -6.92858e-06 2.69158e+25 0.039316 0.487204 272.083 
-1.40961e-05 -6.92858e-06 2.69412e+25 -0.600126 1.75142 271.824 
-1.21847e-05 -6.92858e-06 2.69272e+25 -0.937186 2.08335 271.87 
-1.02734e-05 -6.92858e-06 2.69312e+25 -1.80148 2.34439 271.853 
-8.36208e-06 -6.92858e-06 2.69499e+25 -2.40605 2.40626 271.634 
-6.45075e-06 -6.92858e-06 2.6924e+25 -3.45785 2.2354 271.913 
-4.53942e-06 -6.92858e-06 2.6928e+25 -4.22586 1.68722 271.775 
-2.62808e-06 -6.92858e-06 2.69066e+25 -4.96754 1.33197 272.041 
-7.1675e-07 -6.92858e-06 2.68978e+25 -5.34723 0.330045 272.172 
-1.60074e-05 -6.45075e-06 2.69303e+25 -0.0414718 0.6534 271.966 
-1.40961e-05 -6.45075e-06 2.69181e+25 -0.382477 1.8716 271.938 
-1.21847e-05 -6.45075e-06 2.69424e+25 -0.972914 2.31515 271.753 
-1.02734e-05 -6.45075e-06 2.69346e+25 -1.93048 2.47603 271.727 
-8.36208e-06 -6.45075e-06 2.69692e+25 -2.75354 2.64779 271.539 
-6.45075e-06 -6.45075e-06 2.69301e+25 -3.48724 2.42127 271.91 
-4.53942e-06 -6.45075e-06 2.69364e+25 -4.42771 1.96087 271.797 
-2.62808e-06 -6.45075e-06 2.69251e+25 -5.12856 1.47505 271.95 
-7.1675e-07 -6.45075e-06 2.69059e+25 -5.55231 0.395662 272.197 
-1.60074e-05 -5.97292e-06 2.69187e+25 -0.117433 0.659263 272.063 
-1.40961e-05 -5.97292e-06 2.6932e+25 -0.547233 2.05208 271.925 
-1.21847e-05 -5.97292e-06 2.69285e+25 -1.24067 2.50441 271.791 
-1.02734e-05 -5.97292e-06 2.69549e+25 -2.12635 2.71122 271.615 
-8.36208e-06 -5.97292e-06 2.69506e+25 -2.97316 2.75434 271.543 
-6.45075e-06 -5.97292e-06 2.69317e+25 -3.82106 2.66926 271.806 
-4.53942e-06 -5.97292e-06 2.69272e+25 -4.57788 2.12427 271.901 
-2.62808e-06 -5.97292e-06 2.68987e+25 -5.26802 1.64258 271.985 
-7.1675e-07 -5.97292e-06 2.69026e+25 -5.81767 0.431528 272.151 
-1.60074e-05 -5.49508e-06 2.68983e+25 -0.201673 0.728535 272.273 
-1.40961e-05 -5.49508e-06 2.6922e+25 -0.59911 2.12946 272.046 
-1.21847e-05 -5.49508e-06 2.6937e+25 -1.51809 2.74287 271.853 
-1.02734e-05 -5.49508e-06 2.69662e+25 -2.16615 2.90802 271.507 
-8.36208e-06 -5.49508e-06 2.69864e+25 -3.20292 3.00699 271.336 
-6.45075e-06 -5.49508e-06 2.69312e+25 -4.09298 2.90624 271.724 
-4.53942e-06 -5.49508e-06 2.6959e+25 -4.85321 2.25063 271.547 
-2.62808e-06 -5.49508e-06 2.69083e+25 -5.504 1.78024 272.052 
-7.1675e-07 -5.49508e-06 2.69014e+25 -6.07087 0.515036 272.224 
-1.60074e-05 -5.01725e-06 2.68956e+25 -0.231043 0.89263 272.185 
-1.40961e-05 -5.01725e-06 2.69185e+25 -0.743404 2.16546 272.077 
-1.21847e-05 -5.01725e-06 2.69176e+25 -1.46278 2.91949 271.948 
-1.02734e-05 -5.01725e-06 2.69755e+25 -2.47843 3.11873 271.404 
-8.36208e-06 -5.01725e-06 2.69612e+25 -3.44473 3.31086 271.518 
-6.45075e-06 -5.01725e-06 2.69331e+25 -4.29441 3.11919 271.748 
-4.53942e-06 -5.01725e-06 2.69479e+25 -5.18184 2.41926 271.792 
-2.62808e-06 -5.01725e-06 2.69037e+25 -5.71414 1.82095 272.028 
-7.1675e-07 -5.01725e-06 2.69155e+25 -6.28408 0.706817 272.083 
-1.60074e-05 -4.53942e-06 2.6927e+25 -0.230118 1.09549 272.05 
-1.40961e-05 -4.53942e-06 2.69126e+25 -0.703988 2.31991 272.092 
-1.21847e-05 -4.53942e-06 2.6929e+25 -1.35466 3.09156 271.899 
-1.02734e-05 -4.53942e-06 2.69679e+25 -2.53729 3.38922 271.434 
-8.36208e-06 -4.53942e-06 2.6946e+25 -3.49852 3.70841 271.752 
-6.45075e-06 -4.53942e-06 2.69151e+25 -4.43827 3.32124 272.006 
-4.53942e-06 -4.53942e-06 2.69306e+25 -5.29244 2.6538 271.775 
-2.62808e-06 -4.53942e-06 2.69088e+25 -5.87391 1.86081 272.002 
-7.1675e-07 -4.53942e-06 2.6915e+25 -6.25416 0.909532 272.017 
-1.60074e-05 -4.06158e-06 2.68995e+25 -0.322849 1.26957 272.177 
-1.40961e-05 -4.06158e-06 2.69117e+25 -0.79507 2.4379 272.096 
-1.21847e-05 -4.06158e-06 2.69235e+25 -1.5355 3.32167 271.929 
-1.02734e-05 -4.06158e-06 2.69585e+25 -2.59915 3.7265 271.609 
-8.36208e-06 -4.06158e-06 2.69601e+25 -3.73498 3.97444 271.623 
-6.45075e-06 -4.06158e-06 2.68922e+25 -4.38312 3.48751 272.161 
-4.53942e-06 -4.06158e-06 2.69332e+25 -5.20349 2.93839 271.828 
-2.62808e-06 -4.06158e-06 2.69266e+25 -5.81359 2.01325 271.94 
-7.1675e-07 -4.06158e-06 2.69036e+25 -6.2936 1.09923 272.151 
-1.60074e-05 -3.58375e-06 2.68957e+25 -0.340259 1.39189 272.205 
-1.40961e-05 -3.58375e-06 2.68967e+25 -0.708415 2.44326 272.104 
-1.21847e-05 -3.58375e-06 2.69131e+25 -1.50351 3.57096 271.888 
-1.02734e-05 -3.58375e-06 2.69374e+25 -2.46596 3.92502 271.776 
-8.36208e-06 -3.58375e-06 2.69539e+25 -3.65776 4.17169 271.529 
-6.45075e-06 -3.58375e-06 2.691e+25 -4.51291 3.72126 272.017 
-4.53942e-06 -3.58375e-06 2.69385e+25 -5.41055 3.06244 271.851 
-2.62808e-06 -3.58375e-06 2.69345e+25 -6.02492 2.19986 271.857 
-7.1675e-07 -3.58375e-06 2.69055e+25 -6.51214 1.14783 272.126 
-1.60074e-05 -3.10592e-06 2.68965e+25 -0.250612 1.43503 272.162 
-1.40961e-05 -3.10592e-06 2.69094e+25 -0.814286 2.55676 272.088 
-1.21847e-05 -3.10592e-06 2.69163e+25 -1.69643 3.77481 271.899 
-1.02734e-05 -3.10592e-06 2.69258e+25 -2.29937 4.16485 271.8 
-8.36208e-06 -3.10592e-06 2.69561e+25 -3.53659 4.40519 271.612 
-6.45075e-06 -3.10592e-06 2.69305e+25 -4.66915 4.02783 271.896 
-4.53942e-06 -3.10592e-06 2.69251e+25 -5.65342 3.15229 271.979 
-2.62808e-06 -3.10592e-06 2.69265e+25 -6.21464 2.3442 271.855 
-7.1675e-07 -3.10592e-06 2.68881e+25 -6.66005 1.09988 272.218 
-1.60074e-05 -2.62808e-06 2.68938e+25 -0.164079 1.5526 272.199 
-1.40961e-05 -2.62808e-06 2.6904e+25 -0.934124 2.76674 272.091 
-1.21847e-05 -2.62808e-06 2.69158e+25 -1.68929 3.89738 271.993 
-1.02734e-05 -2.62808e-06 2.69402e+25 -2.39091 4.38046 271.865 
-8.36208e-06 -2.62808e-06 2.69351e+25 -3.38098 4.58533 271.724 
-6.45075e-06 -2.62808e-06 2.69261e+25 -4.59126 4.29695 271.955 
-4.53942e-06 -2.62808e-06 2.69236e+25 -5.5229 3.32646 271.989 
-2.62808e-06 -2.62808e-06 2.69281e+25 -6.35118 2.60234 271.833 
-7.1675e-07 -2.62808e-06 2.6897e+25 -6.81489 1.20209 272.078 
-1.60074e-05 -2.15025e-06 2.68788e+25 -0.164863 1.75154 272.388 
-1.40961e-05 -2.15025e-06 2.68884e+25 -0.885638 3.10813 272.235 
-1.21847e-05 -2.15025e-06 2.69238e+25 -1.55712 4.06598 271.963 
-1.02734e-05 -2.15025e-06 2.69447e+25 -2.45131 4.59589 271.783 
-8.36208e-06 -2.15025e-06 2.69535e+25 -3.44389 4.90897 271.601 
-6.45075e-06 -2.15025e-06 2.69207e+25 -4.52252 4.57813 272.033 
-4.53942e-06 -2.15025e-06 2.69217e+25 -5.39446 3.55434 271.998 
-2.62808e-06 -2.15025e-06 2.69258e+25 -6.15991 2.81038 271.787 
-7.1675e-07 -2.15025e-06 2.69155e+25 -6.72004 1.43456 271.915 
-1.60074e-05 -1.67242e-06 2.6871e+25 0.0855181 1.90363 272.368 
-1.40961e-05 -1.67242e-06 2.69057e+25 -0.672445 3.33613 272.127 
-1.21847e-05 -1.67242e-06 2.6923e+25 -1.45534 4.31454 271.918 
-1.02734e-05 -1.67242e-06 2.69367e+25 -2.52891 4.8976 271.848 
-8.36208e-06 -1.67242e-06 2.69479e+25 -3.45827 5.33305 271.691 
-6.45075e-06 -1.67242e-06 2.69013e+25 -4.4014 4.82247 271.968 
-4.53942e-06 -1.67242e-06 2.69091e+25 -5.17959 3.75695 271.991 
-2.62808e-06 -1.67242e-06 2.69306e+25 -6.07165 2.96629 271.75 
-7.1675e-07 -1.67242e-06 2.69035e+25 -6.87392 1.62352 271.935 
-1.60074e-05 -1.19458e-06 2.68727e+25 0.098309 1.83989 272.408 
-1.40961e-05 -1.19458e-06 2.6902e+25 -0.649057 3.61244 272.169 
-1.21847e-05 -1.19458e-06 2.69206e+25 -1.24325 4.4958 271.885 
-1.02734e-05 -1.19458e-06 2.69522e+25 -2.48492 5.19276 271.518 
-8.36208e-06 -1.19458e-06 2.69533e+25 -3.26556 5.49772 271.596 
-6.45075e-06 -1.19458e-06 2.69302e+25 -4.3674 5.03041 271.818 
-4.53942e-06 -1.19458e-06 2.69115e+25 -5.20911 3.99959 271.983 
-2.62808e-06 -1.19458e-06 2.69327e+25 -5.91251 3.11629 271.656 
-7.1675e-07 -1.19458e-06 2.69066e+25 -7.03147 1.86517 271.999 
-1.60074e-05 -7.1675e-07 2.68759e+25 -0.0457227 1.7702 272.354 
-1.40961e-05 -7.1675e-07 2.68797e+25 -0.366469 3.83717 272.244 
-1.21847e-05 -7.1675e-07 2.69182e+25 -1.3161 4.71621 272.009 
-1.02734e-05 -7.1675e-07 2.69558e+25 -2.34234 5.51078 271.646 
-8.36208e-06 -7.1675e-07 2.69254e+25 -3.2027 5.7082 271.679 
-6.45075e-06 -7.1675e-07 2.6925e+25 -4.33221 5.24878 271.774 
-4.53942e-06 -7.1675e-07 2.69049e+25 -5.31213 4.2945 271.934 
-2.62808e-06 -7.1675e-07 2.69655e+25 -6.25843 3.22252 271.572 
-7.1675e-07 -7.1675e-07 2.69118e+25 -6.96228 2.12844 271.876 
-1.60074e-05 -2.38917e-07 2.68366e+25 -0.0874025 1.84801 272.479 
-1.40961e-05 -2.38917e-07 2.68671e+25 -0.312218 4.02822 272.186 
-1.21847e-05 -2.38917e-07 2.68944e+25 -1.29965 4.98777 272.03 
-1.02734e-05 -2.38917e-07 2.69197e+25 -2.38736 5.72135 271.706 
-8.36208e-06 -2.38917e-07 2.69151e+25 -3.41831 5.93764 271.75 
-6.45075e-06 -2.38917e-07 2.68867e+25 -4.28972 5.45182 271.833 
-4.53942e-06 -2.38917e-07 2.69225e+25 -5.42194 4.52602 271.719 
-2.62808e-06 -2.38917e-07 2.69031e+25 -6.43307 3.47017 271.766 
-7.1675e-07 -2.38917e-07 2.68793e+25 -6.99213 2.20826 272.03 
-1.55296e-05 -1.69631e-05 2.6841e+25 0.0148643 -0.0289174 272.807 
-1.36182e-05 -1.69631e-05 2.68442e+25 -0.020389 0.0226237 272.774 
-1.17069e-05 -1.69631e-05 2.68564e+25 -0.119883 0.0433261 272.696 
-9.79558e-06 -1.69631e-05 2.68523e+25 -0.123779 -0.00603944 272.77 
-7.88425e-06 -1.69631e-05 2.68369e+25 -0.0643529 -0.00424475 272.791 
-5.97292e-06 -1.69631e-05 2.685e+25 -0.109229 0.0834742 272.726 
-4.06158e-06 -1.69631e-05 2.68545e+25 -0.0473308 0.0152865 272.842 
-2.15025e-06 -1.69631e-05 2.68326e+25 -0.125422 0.0134102 272.859 
-2.38917e-07 -1.69631e-05 2.68218e+25 -0.117053 -0.0614551 272.753 
-1.55296e-05 -1.64852e-05 2.6879e+25 0.00945294 0.0177055 272.482 
-1.36182e-05 -1.64852e-05 2.68929e+25 -0.0769536 0.0140354 272.441 
-1.17069e-05 -1.64852e-05 2.68791e+25 -0.207918 0.00897431 272.43 
-9.79558e-06 -1.64852e-05 2.68699e+25 -0.220121 0.0739894 272.557 
-7.88425e-06 -1.64852e-05 2.68688e+25 -0.150005 -0.0369721 272.557 
-5.97292e-06 -1.64852e-05 2.68739e+25 -0.294067 0.168699 272.508 
-4.06158e-06 -1.64852e-05 2.68784e+25 -0.277997 -0.077672 272.465 
-2.15025e-06 -1.64852e-05 2.68563e+25 -0.300437 -0.0236487 272.733 
-2.38917e-07 -1.64852e-05 2.68488e+25 -0.311987 0.0019857 272.416 
-1.55296e-05 -1.60074e-05 2.68915e+25 0.0774345 0.120618 272.287 
-1.36182e-05 -1.60074e-05 2.68868e+25 -0.134153 -0.00266253 272.314 
-1.17069e-05 -1.60074e-05 2.68867e+25 -0.0858864 -0.117014 272.329 
-9.79558e-06 -1.60074e-05 2.68757e+25 -0.276093 0.0989493 272.504 
-7.88425e-06 -1.60074e-05 2.68969e+25 -0.301925 0.0464143 272.27 
-5.97292e-06 -1.60074e-05 2.68907e+25 -0.490124 0.245277 272.27 
-4.06158e-06 -1.60074e-05 2.68996e+25 -0.470494 -0.151183 272.324 
-2.15025e-06 -1.60074e-05 2.68679e+25 -0.471487 0.0117383 272.563 
-2.38917e-07 -1.60074e-05 2.68477e+25 -0.714605 0.115267 272.472 
-1.55296e-05 -1.55296e-05 2.68946e+25 -0.0083865 0.225069 272.224 
-1.36182e-05 -1.55296e-05 2.68927e+25 -0.192315 0.0891527 272.167 
-1.17069e-05 -1.55296e-05 2.68884e+25 -0.241839 -0.246584 272.317 
-9.79558e-06 -1.55296e-05 2.68868e+25 -0.307325 0.1923 272.335 
-7.88425e-06 -1.55296e-05 2.69087e+25 -0.408327 0.168844 272.087 
-5.97292e-06 -1.55296e-05 2.69122e+25 -0.739995 0.313929 272.143 
-4.06158e-06 -1.55296e-05 2.69088e+25 -0.782015 -0.244247 272.149 
-2.15025e-06 -1.55296e-05 2.68839e+25 -0.549418 -0.00966433 272.333 
-2.38917e-07 -1.55296e-05 2.68691e+25 -0.965634 0.0824216 272.24 
-1.55296e-05 -1.50517e-05 2.6921e+25 -0.12223 0.157117 272.025 
-1.36182e-05 -1.50517e-05 2.69054e+25 -0.0204071 0.129361 272.159 
-1.17069e-05 -1.50517e-05 2.68938e+25 -0.381268 -0.132808 272.281 
-9.79558e-06 -1.50517e-05 2.69157e+25 -0.328369 0.30743 272.092 
-7.88425e-06 -1.50517e-05 2.69163e+25 -0.74753 0.126013 272.04 
-5.97292e-06 -1.50517e-05 2.68934e+25 -0.778794 0.342435 272.259 
-4.06158e-06 -1.50517e-05 2.69303e+25 -0.887459 -0.385091 271.973 
-2.15025e-06 -1.50517e-05 2.68992e+25 -0.877076 0.1084 272.315 
-2.38917e-07 -1.50517e-05 2.689e+25 -1.15066 0.0197187 272.144 
-1.55296e-05 -1.45739e-05 2.69064e+25 0.0713291 0.11747 272.07 
-1.36182e-05 -1.45739e-05 2.68874e+25 0.0551057 0.158157 272.23 
-1.17069e-05 -1.45739e-05 2.68828e+25 -0.317821 0.0536663 272.409 
-9.79558e-06 -1.45739e-05 2.69529e+25 -0.414379 0.316656 271.887 
-7.88425e-06 -1.45739e-05 2.69081e+25 -1.08847 0.0655959 272.108 
-5.97292e-06 -1.45739e-05 2.69062e+25 -0.96631 0.349655 272.083 
-4.06158e-06 -1.45739e-05 2.69144e+25 -1.13991 -0.388344 272.103 
-2.15025e-06 -1.45739e-05 2.68918e+25 -1.29265 0.266304 272.379 
-2.38917e-07 -1.45739e-05 2.68698e+25 -1.35767 0.0132971 272.295 
-1.55296e-05 -1.40961e-05 2.69091e+25 -0.076649 0.0171869 272.178 
-1.36182e-05 -1.40961e-05 2.6911e+25 -0.145686 0.259461 272.126 
-1.17069e-05 -1.40961e-05 2.69053e+25 -0.385746 0.0995935 272.212 
-9.79558e-06 -1.40961e-05 2.69271e+25 -0.661349 0.393655 271.884 
-7.88425e-06 -1.40961e-05 2.69239e+25 -1.2377 0.10618 271.815 
-5.97292e-06 -1.40961e-05 2.69152e+25 -1.24589 0.4928 272.096 
-4.06158e-06 -1.40961e-05 2.69237e+25 -1.48838 -0.304278 272.052 
-2.15025e-06 -1.40961e-05 2.68833e+25 -1.50846 0.30767 272.349 
-2.38917e-07 -1.40961e-05 2.6877e+25 -1.39504 0.174296 272.217 
-1.55296e-05 -1.36182e-05 2.69238e+25 0.00691972 0.0868812 272.022 
-1.36182e-05 -1.36182e-05 2.69281e+25 -0.155355 0.337019 271.919 
-1.17069e-05 -1.36182e-05 2.69219e+25 -0.476022 0.11259 272.008 
-9.79558e-06 -1.36182e-05 2.69206e+25 -0.964855 0.433366 271.966 
-7.88425e-06 -1.36182e-05 2.69685e+25 -1.46273 0.27564 271.717 
-5.97292e-06 -1.36182e-05 2.69166e+25 -1.45995 0.355103 271.985 
-4.06158e-06 -1.36182e-05 2.69149e+25 -1.7265 -0.0839719 272.074 
-2.15025e-06 -1.36182e-05 2.68795e+25 -1.84765 0.279385 272.41 
-2.38917e-07 -1.36182e-05 2.6877e+25 -1.67116 0.210075 272.201 
-1.55296e-05 -1.31404e-05 2.69276e+25 -0.062572 0.20034 271.993 
-1.36182e-05 -1.31404e-05 2.69287e+25 -0.18125 0.333402 271.968 
-1.17069e-05 -1.31404e-05 2.69412e+25 -0.420413 0.219212 271.876 
-9.79558e-06 -1.31404e-05 2.69356e+25 -1.14878 0.591613 271.858 
-7.88425e-06 -1.31404e-05 2.69612e+25 -1.58337 0.394383 271.74 
-5.97292e-06 -1.31404e-05 2.69287e+25 -1.85655 0.191961 271.935 
-4.06158e-06 -1.31404e-05 2.69152e+25 -1.81791 0.119606 272.138 
-2.15025e-06 -1.31404e-05 2.69017e+25 -2.02259 0.239927 272.208 
-2.38917e-07 -1.31404e-05 2.6883e+25 -1.91158 0.180887 272.228 
-1.55296e-05 -1.26626e-05 2.69255e+25 -0.106281 0.32028 271.993 
-1.36182e-05 -1.26626e-05 2.69292e+25 -0.350866 0.382744 271.879 
-1.17069e-05 -1.26626e-05 2.69245e+25 -0.557788 0.386482 271.894 
-9.79558e-06 -1.26626e-05 2.69451e+25 -1.30931 0.770502 271.672 
-7.88425e-06 -1.26626e-05 2.69457e+25 -1.56178 0.54126 271.805 
-5.97292e-06 -1.26626e-05 2.69241e+25 -2.0058 0.032361 272.048 
-4.06158e-06 -1.26626e-05 2.68952e+25 -2.06885 0.256776 272.125 
-2.15025e-06 -1.26626e-05 2.69142e+25 -2.39594 0.281321 272.114 
-2.38917e-07 -1.26626e-05 2.68934e+25 -2.15712 0.0452017 272.143 
-1.55296e-05 -1.21847e-05 2.69323e+25 -0.153436 0.308096 271.887 
-1.36182e-05 -1.21847e-05 2.69247e+25 -0.563522 0.516697 271.904 
-1.17069e-05 -1.21847e-05 2.69279e+25 -0.934551 0.468251 271.922 
-9.79558e-06 -1.21847e-05 2.69449e+25 -1.45241 0.90123 271.686 
-7.88425e-06 -1.21847e-05 2.69342e+25 -1.82025 0.629691 271.83 
-5.97292e-06 -1.21847e-05 2.69006e+25 -2.23258 -0.0141945 272.064 
-4.06158e-06 -1.21847e-05 2.69239e+25 -2.35997 0.289455 271.991 
-2.15025e-06 -1.21847e-05 2.69283e+25 -2.40049 0.304894 272.06 
-2.38917e-07 -1.21847e-05 2.68929e+25 -2.49249 0.0201206 272.07 
-1.55296e-05 -1.17069e-05 2.69068e+25 -0.0864389 0.335173 272.05 
-1.36182e-05 -1.17069e-05 2.69191e+25 -0.524583 0.61889 271.933 
-1.17069e-05 -1.17069e-05 2.69127e+25 -0.973523 0.572161 272.056 
-9.79558e-06 -1.17069e-05 2.69633e+25 -1.46376 1.00293 271.634 
-7.88425e-06 -1.17069e-05 2.69169e+25 -1.92595 0.748626 271.95 
-5.97292e-06 -1.17069e-05 2.69118e+25 -2.22149 0.13827 272.158 
-4.06158e-06 -1.17069e-05 2.69212e+25 -2.57745 0.315476 271.984 
-2.15025e-06 -1.17069e-05 2.69145e+25 -2.59437 0.256027 272.027 
-2.38917e-07 -1.17069e-05 2.69035e+25 -2.77205 0.0277389 272.008 
-1.55296e-05 -1.12291e-05 2.68986e+25 -0.155532 0.343552 272.075 
-1.36182e-05 -1.12291e-05 2.69351e+25 -0.604731 0.681666 271.972 
-1.17069e-05 -1.12291e-05 2.69111e+25 -1.0501 0.771494 272.114 
-9.79558e-06 -1.12291e-05 2.69606e+25 -1.37646 1.12252 271.685 
-7.88425e-06 -1.12291e-05 2.69149e+25 -2.02775 0.898277 272.059 
-5.97292e-06 -1.12291e-05 2.69343e+25 -2.22414 0.339955 271.916 
-4.06158e-06 -1.12291e-05 2.69192e+25 -2.9899 0.410533 272.03 
-2.15025e-06 -1.12291e-05 2.68992e+25 -2.9594 0.140537 272.15 
-2.38917e-07 -1.12291e-05 2.69091e+25 -3.08631 0.0963761 271.892 
-1.55296e-05 -1.07512e-05 2.69086e+25 -0.151007 0.511045 272.207 
-1.36182e-05 -1.07512e-05 2.6923e+25 -0.466868 0.738634 272 
-1.17069e-05 -1.07512e-05 2.6912e+25 -0.916192 0.938269 272.032 
-9.79558e-06 -1.07512e-05 2.69455e+25 -1.52339 1.28251 271.722 
-7.88425e-06 -1.07512e-05 2.6922e+25 -2.08306 1.02315 272.026 
-5.97292e-06 -1.07512e-05 2.69431e+25 -2.51874 0.597881 271.852 
-4.06158e-06 -1.07512e-05 2.69362e+25 -2.96129 0.491351 271.898 
-2.15025e-06 -1.07512e-05 2.6892e+25 -3.29167 0.0781899 272.32 
-2.38917e-07 -1.07512e-05 2.69114e+25 -3.55161 0.213286 271.946 
-1.55296e-05 -1.02734e-05 2.69199e+25 -0.0846866 0.529575 272.052 
-1.36182e-05 -1.02734e-05 2.69108e+25 -0.564873 0.822445 272.054 
-1.17069e-05 -1.02734e-05 2.69256e+25 -1.04158 1.02187 272.091 
-9.79558e-06 -1.02734e-05 2.69434e+25 -1.64704 1.34462 271.819 
-7.88425e-06 -1.02734e-05 2.69244e+25 -2.10537 1.08563 271.972 
-5.97292e-06 -1.02734e-05 2.69484e+25 -2.74266 0.777274 271.718 
-4.06158e-06 -1.02734e-05 2.69368e+25 -3.02288 0.574303 271.722 
-2.15025e-06 -1.02734e-05 2.68844e+25 -3.76955 0.161104 272.296 
-2.38917e-07 -1.02734e-05 2.68739e+25 -3.95146 0.211538 272.2 
-1.55296e-05 -9.79558e-06 2.69265e+25 -0.0743202 0.455395 271.903 
-1.36182e-05 -9.79558e-06 2.69196e+25 -0.420874 1.0346 272.066 
-1.17069e-05 -9.79558e-06 2.69359e+25 -1.11131 1.02154 271.85 
-9.79558e-06 -9.79558e-06 2.69276e+25 -1.60239 1.45811 271.96 
-7.88425e-06 -9.79558e-06 2.69394e+25 -2.1205 1.12208 271.92 
-5.97292e-06 -9.79558e-06 2.6949e+25 -3.01413 0.898252 271.833 
-4.06158e-06 -9.79558e-06 2.69403e+25 -3.31937 0.57643 271.784 
-2.15025e-06 -9.79558e-06 2.6875e+25 -4.05566 0.31666 272.276 
-2.38917e-07 -9.79558e-06 2.68688e+25 -4.02757 0.135438 272.137 
-1.55296e-05 -9.31775e-06 2.68907e+25 -0.0454138 0.482588 272.173 
-1.36182e-05 -9.31775e-06 2.69195e+25 -0.389989 1.22253 271.986 
-1.17069e-05 -9.31775e-06 2.69495e+25 -0.898886 1.15476 271.675 
-9.79558e-06 -9.31775e-06 2.69197e+25 -1.66217 1.69947 271.924 
-7.88425e-06 -9.31775e-06 2.69503e+25 -2.18619 1.24089 271.837 
-5.97292e-06 -9.31775e-06 2.69689e+25 -3.08721 1.17587 271.577 
-4.06158e-06 -9.31775e-06 2.69167e+25 -3.69877 0.578331 271.908 
-2.15025e-06 -9.31775e-06 2.68915e+25 -4.41204 0.482387 272.253 
-2.38917e-07 -9.31775e-06 2.6866e+25 -4.34067 0.0977828 272.252 
-1.55296e-05 -8.83992e-06 2.68817e+25 -0.0175024 0.444951 272.195 
-1.36182e-05 -8.83992e-06 2.69206e+25 -0.283529 1.36625 271.874 
-1.17069e-05 -8.83992e-06 2.69551e+25 -0.925237 1.35609 271.744 
-9.79558e-06 -8.83992e-06 2.69265e+25 -1.6562 1.97514 271.92 
-7.88425e-06 -8.83992e-06 2.69193e+25 -2.28969 1.55742 271.981 
-5.97292e-06 -8.83992e-06 2.69526e+25 -3.18986 1.47721 271.681 
-4.06158e-06 -8.83992e-06 2.69322e+25 -3.89767 0.75509 271.908 
-2.15025e-06 -8.83992e-06 2.69143e+25 -4.5781 0.653264 272.012 
-2.38917e-07 -8.83992e-06 2.68811e+25 -4.55162 0.104329 272.228 
-1.55296e-05 -8.36208e-06 2.68987e+25 -0.133421 0.452298 272.154 
-1.36182e-05 -8.36208e-06 2.69365e+25 -0.485709 1.48992 271.988 
-1.17069e-05 -8.36208e-06 2.69488e+25 -1.16735 1.63787 271.809 
-9.79558e-06 -8.36208e-06 2.69222e+25 -1.48913 2.09006 271.946 
-7.88425e-06 -8.36208e-06 2.69139e+25 -2.25601 1.8074 271.84 
-5.97292e-06 -8.36208e-06 2.69509e+25 -3.26288 1.61849 271.836 
-4.06158e-06 -8.36208e-06 2.69323e+25 -4.07228 1.11566 271.893 
-2.15025e-06 -8.36208e-06 2.69056e+25 -4.74247 0.814796 272.108 
-2.38917e-07 -8.36208e-06 2.68808e+25 -4.89644 0.0882534 272.138 
-1.55296e-05 -7.88425e-06 2.68957e+25 -0.0460343 0.556569 272.144 
-1.36182e-05 -7.88425e-06 2.69365e+25 -0.527505 1.67516 271.838 
-1.17069e-05 -7.88425e-06 2.69451e+25 -1.17776 1.81331 271.793 
-9.79558e-06 -7.88425e-06 2.69341e+25 -1.58356 2.13878 271.883 
-7.88425e-06 -7.88425e-06 2.69518e+25 -2.27925 2.09796 271.693 
-5.97292e-06 -7.88425e-06 2.69537e+25 -3.38264 1.69654 271.703 
-4.06158e-06 -7.88425e-06 2.69133e+25 -4.15056 1.33231 271.933 
-2.15025e-06 -7.88425e-06 2.691e+25 -4.80505 1.04745 272.088 
-2.38917e-07 -7.88425e-06 2.69041e+25 -5.09299 0.0437502 271.895 
-1.55296e-05 -7.40642e-06 2.69044e+25 0.01815 0.706927 272.08 
-1.36182e-05 -7.40642e-06 2.69574e+25 -0.750326 1.76871 271.793 
-1.17069e-05 -7.40642e-06 2.69209e+25 -1.09993 1.96162 271.982 
-9.79558e-06 -7.40642e-06 2.69306e+25 -1.66645 2.27154 271.879 
-7.88425e-06 -7.40642e-06 2.69536e+25 -2.47268 2.36529 271.628 
-5.97292e-06 -7.40642e-06 2.69431e+25 -3.42491 1.89973 271.733 
-4.06158e-06 -7.40642e-06 2.69154e+25 -4.29631 1.58131 272.006 
-2.15025e-06 -7.40642e-06 2.69041e+25 -4.84184 1.19961 272.114 
-2.38917e-07 -7.40642e-06 2.68747e+25 -5.35622 0.0609944 272.118 
-1.55296e-05 -6.92858e-06 2.69301e+25 -0.144493 0.771065 271.891 
-1.36182e-05 -6.92858e-06 2.69448e+25 -0.687552 1.73116 271.776 
-1.17069e-05 -6.92858e-06 2.6922e+25 -1.17788 2.10317 271.853 
-9.79558e-06 -6.92858e-06 2.69273e+25 -1.94771 2.39404 271.764 
-7.88425e-06 -6.92858e-06 2.69407e+25 -2.67646 2.60136 271.75 
-5.97292e-06 -6.92858e-06 2.69346e+25 -3.58603 2.0465 271.841 
-4.06158e-06 -6.92858e-06 2.69159e+25 -4.43959 1.89489 271.922 
-2.15025e-06 -6.92858e-06 2.69077e+25 -5.03296 1.2447 271.99 
-2.38917e-07 -6.92858e-06 2.68755e+25 -5.4874 0.177675 272.052 
-1.55296e-05 -6.45075e-06 2.69441e+25 -0.151067 0.913382 271.823 
-1.36182e-05 -6.45075e-06 2.69323e+25 -0.565544 1.85535 271.829 
-1.17069e-05 -6.45075e-06 2.69568e+25 -1.15867 2.24546 271.716 
-9.79558e-06 -6.45075e-06 2.69423e+25 -2.175 2.64493 271.699 
-7.88425e-06 -6.45075e-06 2.69465e+25 -2.91245 2.78394 271.724 
-5.97292e-06 -6.45075e-06 2.69393e+25 -3.63723 2.25168 271.736 
-4.06158e-06 -6.45075e-06 2.69224e+25 -4.58556 2.049 271.85 
-2.15025e-06 -6.45075e-06 2.69123e+25 -5.29211 1.34123 272.066 
-2.38917e-07 -6.45075e-06 2.68931e+25 -5.63718 0.299297 272.019 
-1.55296e-05 -5.97292e-06 2.69155e+25 -0.134383 1.03126 272.06 
-1.36182e-05 -5.97292e-06 2.69308e+25 -0.714221 1.99054 271.793 
-1.17069e-05 -5.97292e-06 2.69496e+25 -1.41099 2.45507 271.757 
-9.79558e-06 -5.97292e-06 2.69424e+25 -2.31237 2.7856 271.737 
-7.88425e-06 -5.97292e-06 2.69522e+25 -3.14235 2.89867 271.645 
-5.97292e-06 -5.97292e-06 2.6933e+25 -4.10379 2.47203 271.763 
-4.06158e-06 -5.97292e-06 2.69408e+25 -4.75146 2.18372 271.815 
-2.15025e-06 -5.97292e-06 2.69017e+25 -5.38394 1.47659 272.004 
-2.38917e-07 -5.97292e-06 2.68841e+25 -5.83215 0.328477 272.159 
-1.55296e-05 -5.49508e-06 2.69108e+25 -0.309044 1.05439 272.119 
-1.36182e-05 -5.49508e-06 2.69174e+25 -0.659207 2.19888 272.033 
-1.17069e-05 -5.49508e-06 2.69316e+25 -1.75788 2.63152 271.847 
-9.79558e-06 -5.49508e-06 2.69591e+25 -2.42734 3.0111 271.519 
-7.88425e-06 -5.49508e-06 2.69834e+25 -3.47401 3.15776 271.477 
-5.97292e-06 -5.49508e-06 2.69341e+25 -4.3281 2.75621 271.821 
-4.06158e-06 -5.49508e-06 2.69372e+25 -5.04014 2.39175 271.764 
-2.15025e-06 -5.49508e-06 2.69191e+25 -5.52656 1.58398 272.025 
-2.38917e-07 -5.49508e-06 2.68791e+25 -6.12264 0.305557 272.159 
-1.55296e-05 -5.01725e-06 2.69181e+25 -0.513676 1.27795 272.015 
-1.36182e-05 -5.01725e-06 2.69167e+25 -0.965342 2.44244 271.999 
-1.17069e-05 -5.01725e-06 2.69351e+25 -1.65774 2.91639 271.881 
-9.79558e-06 -5.01725e-06 2.6968e+25 -2.61423 3.2284 271.471 
-7.88425e-06 -5.01725e-06 2.69586e+25 -3.75294 3.40993 271.515 
-5.97292e-06 -5.01725e-06 2.69215e+25 -4.52422 3.02625 271.9 
-4.06158e-06 -5.01725e-06 2.69308e+25 -5.37446 2.58661 271.848 
-2.15025e-06 -5.01725e-06 2.69069e+25 -5.77272 1.64399 271.987 
-2.38917e-07 -5.01725e-06 2.68755e+25 -6.42783 0.371632 272.217 
-1.55296e-05 -4.53942e-06 2.69125e+25 -0.467238 1.60455 272.052 
-1.36182e-05 -4.53942e-06 2.69019e+25 -0.928962 2.69297 272.192 
-1.17069e-05 -4.53942e-06 2.69177e+25 -1.69709 3.22646 271.857 
-9.79558e-06 -4.53942e-06 2.69492e+25 -2.80576 3.32916 271.697 
-7.88425e-06 -4.53942e-06 2.69328e+25 -3.81648 3.65263 271.797 
-5.97292e-06 -4.53942e-06 2.69239e+25 -4.63645 3.21995 271.931 
-4.06158e-06 -4.53942e-06 2.69423e+25 -5.47404 2.67078 271.726 
-2.15025e-06 -4.53942e-06 2.69019e+25 -5.98048 1.70533 271.997 
-2.38917e-07 -4.53942e-06 2.68835e+25 -6.39065 0.441831 272.125 
-1.55296e-05 -4.06158e-06 2.69206e+25 -0.424481 1.75997 272.009 
-1.36182e-05 -4.06158e-06 2.69136e+25 -0.870039 2.84773 272.086 
-1.17069e-05 -4.06158e-06 2.69353e+25 -1.78992 3.53017 271.872 
-9.79558e-06 -4.06158e-06 2.69497e+25 -2.83427 3.51179 271.593 
-7.88425e-06 -4.06158e-06 2.69316e+25 -3.91923 3.84306 271.793 
-5.97292e-06 -4.06158e-06 2.68989e+25 -4.51368 3.37944 272.094 
-4.06158e-06 -4.06158e-06 2.69356e+25 -5.4164 2.77222 271.726 
-2.15025e-06 -4.06158e-06 2.69363e+25 -5.93439 1.83083 271.793 
-2.38917e-07 -4.06158e-06 2.68961e+25 -6.48707 0.605468 272.03 
-1.55296e-05 -3.58375e-06 2.69139e+25 -0.396285 1.83069 272.029 
-1.36182e-05 -3.58375e-06 2.69039e+25 -0.754126 3.03784 272.052 
-1.17069e-05 -3.58375e-06 2.69236e+25 -1.6958 3.76793 271.872 
-9.79558e-06 -3.58375e-06 2.69377e+25 -2.78653 3.80198 271.736 
-7.88425e-06 -3.58375e-06 2.69441e+25 -3.87834 4.02346 271.711 
-5.97292e-06 -3.58375e-06 2.69186e+25 -4.8272 3.62103 271.945 
-4.06158e-06 -3.58375e-06 2.69296e+25 -5.5271 2.96246 271.778 
-2.15025e-06 -3.58375e-06 2.69302e+25 -6.20041 1.92503 271.791 
-2.38917e-07 -3.58375e-06 2.68777e+25 -6.56385 0.736599 272.024 
-1.55296e-05 -3.10592e-06 2.69025e+25 -0.277499 1.85291 272.143 
-1.36182e-05 -3.10592e-06 2.69125e+25 -0.921885 3.11539 272.059 
-1.17069e-05 -3.10592e-06 2.69163e+25 -1.88827 3.95037 271.871 
-9.79558e-06 -3.10592e-06 2.69094e+25 -2.64062 4.26263 271.903 
-7.88425e-06 -3.10592e-06 2.69519e+25 -3.69484 4.17832 271.644 
-5.97292e-06 -3.10592e-06 2.69196e+25 -4.91147 3.87623 271.827 
-4.06158e-06 -3.10592e-06 2.69187e+25 -5.72215 3.09141 272.005 
-2.15025e-06 -3.10592e-06 2.69321e+25 -6.41611 2.14184 271.74 
-2.38917e-07 -3.10592e-06 2.68863e+25 -6.78545 0.90432 272.084 
-1.55296e-05 -2.62808e-06 2.6908e+25 -0.331242 2.01106 272.147 
-1.36182e-05 -2.62808e-06 2.6893e+25 -1.20146 3.26873 272.279 
-1.17069e-05 -2.62808e-06 2.69408e+25 -1.7404 4.05052 271.765 
-9.79558e-06 -2.62808e-06 2.69302e+25 -2.5771 4.58922 271.79 
-7.88425e-06 -2.62808e-06 2.69313e+25 -3.76496 4.54515 271.803 
-5.97292e-06 -2.62808e-06 2.6917e+25 -4.87086 4.15717 271.949 
-4.06158e-06 -2.62808e-06 2.6914e+25 -5.69779 3.17495 271.897 
-2.15025e-06 -2.62808e-06 2.69206e+25 -6.5435 2.28295 271.85 
-2.38917e-07 -2.62808e-06 2.68772e+25 -6.9149 1.01839 272.089 
-1.55296e-05 -2.15025e-06 2.69049e+25 -0.291254 2.09875 272.213 
-1.36182e-05 -2.15025e-06 2.6883e+25 -1.11488 3.40926 272.283 
-1.17069e-05 -2.15025e-06 2.69327e+25 -1.84619 4.14708 271.829 
-9.79558e-06 -2.15025e-06 2.69287e+25 -2.68596 4.80649 271.822 
-7.88425e-06 -2.15025e-06 2.6949e+25 -3.82629 4.99144 271.807 
-5.97292e-06 -2.15025e-06 2.68865e+25 -4.74209 4.35074 272.012 
-4.06158e-06 -2.15025e-06 2.69294e+25 -5.61634 3.31349 271.851 
-2.15025e-06 -2.15025e-06 2.69214e+25 -6.32006 2.43179 271.8 
-2.38917e-07 -2.15025e-06 2.68835e+25 -6.9008 1.18239 271.948 
-1.55296e-05 -1.67242e-06 2.68805e+25 -0.0392211 2.22257 272.337 
-1.36182e-05 -1.67242e-06 2.69064e+25 -0.928903 3.64969 272.059 
-1.17069e-05 -1.67242e-06 2.69494e+25 -1.64916 4.37234 271.673 
-9.79558e-06 -1.67242e-06 2.69378e+25 -2.81255 5.00361 271.769 
-7.88425e-06 -1.67242e-06 2.6933e+25 -3.72906 5.25891 271.828 
-5.97292e-06 -1.67242e-06 2.68911e+25 -4.63531 4.57647 272.161 
-4.06158e-06 -1.67242e-06 2.69038e+25 -5.42398 3.59952 271.936 
-2.15025e-06 -1.67242e-06 2.69131e+25 -6.2368 2.55605 271.804 
-2.38917e-07 -1.67242e-06 2.6897e+25 -7.09184 1.36722 271.987 
-1.55296e-05 -1.19458e-06 2.68786e+25 0.0219064 2.4227 272.336 
-1.36182e-05 -1.19458e-06 2.68951e+25 -0.887875 3.86787 272.106 
-1.17069e-05 -1.19458e-06 2.69439e+25 -1.53407 4.6391 271.772 
-9.79558e-06 -1.19458e-06 2.69522e+25 -2.70694 5.15506 271.591 
-7.88425e-06 -1.19458e-06 2.69468e+25 -3.40202 5.52225 271.555 
-5.97292e-06 -1.19458e-06 2.69195e+25 -4.5603 4.77908 271.966 
-4.06158e-06 -1.19458e-06 2.69142e+25 -5.47643 3.8406 271.993 
-2.15025e-06 -1.19458e-06 2.69458e+25 -6.10285 2.80853 271.781 
-2.38917e-07 -1.19458e-06 2.68849e+25 -7.26617 1.51434 271.944 
-1.55296e-05 -7.1675e-07 2.68978e+25 -0.0271738 2.52456 272.175 
-1.36182e-05 -7.1675e-07 2.68973e+25 -0.662411 4.14291 272.158 
-1.17069e-05 -7.1675e-07 2.69159e+25 -1.5348 4.98819 272.009 
-9.79558e-06 -7.1675e-07 2.69591e+25 -2.62831 5.36942 271.57 
-7.88425e-06 -7.1675e-07 2.69501e+25 -3.38515 5.67667 271.728 
-5.97292e-06 -7.1675e-07 2.69316e+25 -4.55244 5.00046 271.738 
-4.06158e-06 -7.1675e-07 2.69192e+25 -5.60029 4.18238 271.918 
-2.15025e-06 -7.1675e-07 2.69273e+25 -6.52331 3.14604 271.732 
-2.38917e-07 -7.1675e-07 2.68731e+25 -7.17884 1.66889 271.921 
-1.55296e-05 -2.38917e-07 2.68856e+25 -0.180758 2.60519 272.254 
-1.36182e-05 -2.38917e-07 2.68951e+25 -0.452927 4.45405 272.006 
-1.17069e-05 -2.38917e-07 2.68879e+25 -1.67962 5.32107 272.065 
-9.79558e-06 -2.38917e-07 2.69146e+25 -2.63919 5.70647 271.8 
-7.88425e-06 -2.38917e-07 2.69185e+25 -3.68121 5.93283 271.754 
-5.97292e-06 -2.38917e-07 2.69169e+25 -4.51847 5.28484 271.692 
-4.06158e-06 -2.38917e-07 2.69031e+25 -5.67556 4.44725 271.831 
-2.15025e-06 -2.38917e-07 2.68832e+25 -6.54912 3.28658 271.908 
-2.38917e-07 -2.38917e-07 2.68536e+25 -7.06543 1.85268 272.044 
-1.64852e-05 2.38917e-07 2.68427e+25 -0.086756 1.25063 272.479 
-1.45739e-05 2.38917e-07 2.68641e+25 -0.397284 3.63071 272.217 
-1.26626e-05 2.38917e-07 2.69068e+25 -1.07935 5.00106 271.942 
-1.07512e-05 2.38917e-07 2.69239e+25 -2.39618 5.9387 271.766 
-8.83992e-06 2.38917e-07 2.68935e+25 -3.33199 6.09096 271.845 
-6.92858e-06 2.38917e-07 2.69329e+25 -3.94208 5.90813 271.657 
-5.01725e-06 2.38917e-07 2.68997e+25 -5.13771 4.98935 271.839 
-3.10592e-06 2.38917e-07 2.68846e+25 -6.00244 4.12411 271.971 
-1.19458e-06 2.38917e-07 2.68829e+25 -6.94017 2.67001 271.987 
-1.64852e-05 7.1675e-07 2.68593e+25 -0.05653 1.33027 272.465 
-1.45739e-05 7.1675e-07 2.69079e+25 -0.471395 3.73311 271.965 
-1.26626e-05 7.1675e-07 2.69017e+25 -1.18941 5.43861 271.929 
-1.07512e-05 7.1675e-07 2.69441e+25 -2.66873 6.22912 271.715 
-8.83992e-06 7.1675e-07 2.69378e+25 -3.23561 6.32051 271.784 
-6.92858e-06 7.1675e-07 2.69266e+25 -3.91641 6.06688 271.731 
-5.01725e-06 7.1675e-07 2.69366e+25 -4.86128 5.27277 271.69 
-3.10592e-06 7.1675e-07 2.69028e+25 -5.78892 4.40476 271.974 
-1.19458e-06 7.1675e-07 2.68897e+25 -6.76759 2.91667 272.122 
-1.64852e-05 1.19458e-06 2.68841e+25 -0.096707 1.4486 272.295 
-1.45739e-05 1.19458e-06 2.69204e+25 -0.438784 3.82019 271.956 
-1.26626e-05 1.19458e-06 2.69294e+25 -1.36436 5.84283 271.824 
-1.07512e-05 1.19458e-06 2.69289e+25 -2.5857 6.47345 271.713 
-8.83992e-06 1.19458e-06 2.69344e+25 -3.20405 6.44635 271.727 
-6.92858e-06 1.19458e-06 2.69183e+25 -3.83663 6.25747 271.752 
-5.01725e-06 1.19458e-06 2.69129e+25 -4.63807 5.59125 271.797 
-3.10592e-06 1.19458e-06 2.68823e+25 -5.68467 4.64275 272.051 
-1.19458e-06 1.19458e-06 2.68773e+25 -6.6452 3.10339 272.274 
-1.64852e-05 1.67242e-06 2.68588e+25 0.0405013 1.49154 272.537 
-1.45739e-05 1.67242e-06 2.68974e+25 -0.495641 3.97464 272.178 
-1.26626e-05 1.67242e-06 2.69252e+25 -1.36972 6.13941 271.747 
-1.07512e-05 1.67242e-06 2.69312e+25 -2.36329 6.74401 271.81 
-8.83992e-06 1.67242e-06 2.69231e+25 -3.26679 6.52611 271.77 
-6.92858e-06 1.67242e-06 2.69204e+25 -3.86343 6.3153 271.862 
-5.01725e-06 1.67242e-06 2.69195e+25 -4.38579 5.81945 271.746 
-3.10592e-06 1.67242e-06 2.68736e+25 -5.48575 4.78095 272.272 
-1.19458e-06 1.67242e-06 2.68786e+25 -6.3361 3.29811 272.172 
-1.64852e-05 2.15025e-06 2.68527e+25 0.111637 1.39713 272.466 
-1.45739e-05 2.15025e-06 2.68842e+25 -0.447307 4.1742 272.217 
-1.26626e-05 2.15025e-06 2.69579e+25 -1.42255 6.33417 271.493 
-1.07512e-05 2.15025e-06 2.69175e+25 -2.19252 6.95258 271.874 
-8.83992e-06 2.15025e-06 2.69118e+25 -3.19751 6.65799 271.844 
-6.92858e-06 2.15025e-06 2.69375e+25 -3.87717 6.47568 271.617 
-5.01725e-06 2.15025e-06 2.69222e+25 -4.39544 5.96907 271.717 
-3.10592e-06 2.15025e-06 2.68831e+25 -5.36019 4.94182 272.141 
-1.19458e-06 2.15025e-06 2.68731e+25 -6.07086 3.53192 272.231 
-1.64852e-05 2.62808e-06 2.68408e+25 0.0170413 1.30167 272.553 
-1.45739e-05 2.62808e-06 2.69033e+25 -0.400194 4.53698 272.02 
-1.26626e-05 2.62808e-06 2.69531e+25 -1.34465 6.4139 271.463 
-1.07512e-05 2.62808e-06 2.69103e+25 -2.13315 7.14178 271.89 
-8.83992e-06 2.62808e-06 2.69049e+25 -3.20765 6.81683 271.853 
-6.92858e-06 2.62808e-06 2.69271e+25 -3.92716 6.79085 271.76 
-5.01725e-06 2.62808e-06 2.69185e+25 -4.53253 6.06327 271.87 
-3.10592e-06 2.62808e-06 2.68694e+25 -5.10936 5.21174 272.22 
-1.19458e-06 2.62808e-06 2.68519e+25 -5.66372 3.79251 272.437 
-1.64852e-05 3.10592e-06 2.68469e+25 -0.0580935 1.36731 272.61 
-1.45739e-05 3.10592e-06 2.68935e+25 -0.416968 4.83724 272.063 
-1.26626e-05 3.10592e-06 2.69363e+25 -1.25758 6.65956 271.56 
-1.07512e-05 3.10592e-06 2.69298e+25 -2.1258 7.27421 271.682 
-8.83992e-06 3.10592e-06 2.69363e+25 -2.78962 7.02765 271.658 
-6.92858e-06 3.10592e-06 2.69123e+25 -3.7098 7.03176 271.871 
-5.01725e-06 3.10592e-06 2.68996e+25 -4.4573 6.27133 271.926 
-3.10592e-06 3.10592e-06 2.68719e+25 -4.84737 5.36243 272.218 
-1.19458e-06 3.10592e-06 2.68503e+25 -5.38163 3.9307 272.264 
-1.64852e-05 3.58375e-06 2.68578e+25 -0.050631 1.36353 272.466 
-1.45739e-05 3.58375e-06 2.69241e+25 -0.260857 4.9639 271.928 
-1.26626e-05 3.58375e-06 2.69289e+25 -1.04563 6.88302 271.671 
-1.07512e-05 3.58375e-06 2.69381e+25 -1.76974 7.55022 271.739 
-8.83992e-06 3.58375e-06 2.69223e+25 -2.69448 7.31223 271.814 
-6.92858e-06 3.58375e-06 2.68832e+25 -3.60761 7.15204 272.003 
-5.01725e-06 3.58375e-06 2.689e+25 -4.27904 6.42803 271.941 
-3.10592e-06 3.58375e-06 2.68655e+25 -4.65983 5.47544 272.314 
-1.19458e-06 3.58375e-06 2.68498e+25 -5.13724 4.10169 272.3 
-1.64852e-05 4.06158e-06 2.68675e+25 0.0088197 1.41814 272.377 
-1.45739e-05 4.06158e-06 2.6911e+25 -0.2719 4.9922 271.901 
-1.26626e-05 4.06158e-06 2.69125e+25 -1.06246 7.05291 271.814 
-1.07512e-05 4.06158e-06 2.69476e+25 -1.4358 7.74192 271.631 
-8.83992e-06 4.06158e-06 2.69196e+25 -2.6426 7.57448 271.804 
-6.92858e-06 4.06158e-06 2.68957e+25 -3.36943 7.31392 272.118 
-5.01725e-06 4.06158e-06 2.68877e+25 -3.9329 6.54699 271.965 
-3.10592e-06 4.06158e-06 2.68641e+25 -4.27059 5.60153 272.264 
-1.19458e-06 4.06158e-06 2.68565e+25 -4.79259 4.2135 272.385 
-1.64852e-05 4.53942e-06 2.68513e+25 -0.0080674 1.54076 272.487 
-1.45739e-05 4.53942e-06 2.69022e+25 -0.488301 5.10816 272.023 
-1.26626e-05 4.53942e-06 2.69069e+25 -0.887269 7.23025 271.866 
-1.07512e-05 4.53942e-06 2.69498e+25 -1.39184 7.87165 271.7 
-8.83992e-06 4.53942e-06 2.69243e+25 -2.24984 7.91735 271.735 
-6.92858e-06 4.53942e-06 2.68905e+25 -3.07988 7.5004 272.017 
-5.01725e-06 4.53942e-06 2.68723e+25 -3.52156 6.67 272.154 
-3.10592e-06 4.53942e-06 2.6865e+25 -3.89735 5.80821 272.206 
-1.19458e-06 4.53942e-06 2.68582e+25 -4.34867 4.20366 272.376 
-1.64852e-05 5.01725e-06 2.68695e+25 -0.098481 1.63493 272.398 
-1.45739e-05 5.01725e-06 2.69183e+25 -0.583864 5.26643 271.891 
-1.26626e-05 5.01725e-06 2.68918e+25 -0.724404 7.32097 271.968 
-1.07512e-05 5.01725e-06 2.69161e+25 -1.41338 7.93382 271.676 
-8.83992e-06 5.01725e-06 2.69277e+25 -1.97716 8.20158 271.605 
-6.92858e-06 5.01725e-06 2.68934e+25 -2.82351 7.53109 272.009 
-5.01725e-06 5.01725e-06 2.6892e+25 -3.17428 6.79056 272.021 
-3.10592e-06 5.01725e-06 2.68798e+25 -3.63682 5.86783 272.22 
-1.19458e-06 5.01725e-06 2.68799e+25 -4.18822 4.34954 272.02 
-1.64852e-05 5.49508e-06 2.68648e+25 -0.139708 1.63503 272.435 
-1.45739e-05 5.49508e-06 2.68892e+25 -0.726366 5.37946 271.984 
-1.26626e-05 5.49508e-06 2.69256e+25 -0.714521 7.39427 271.715 
-1.07512e-05 5.49508e-06 2.69269e+25 -1.56064 8.05204 271.598 
-8.83992e-06 5.49508e-06 2.6923e+25 -1.9147 8.28807 271.671 
-6.92858e-06 5.49508e-06 2.69301e+25 -2.61781 7.67077 271.759 
-5.01725e-06 5.49508e-06 2.69016e+25 -3.01966 6.87013 271.848 
-3.10592e-06 5.49508e-06 2.68613e+25 -3.25078 5.88443 272.163 
-1.19458e-06 5.49508e-06 2.68819e+25 -3.81223 4.49871 271.859 
-1.64852e-05 5.97292e-06 2.68721e+25 -0.122925 1.72039 272.259 
-1.45739e-05 5.97292e-06 2.68917e+25 -0.59031 5.44067 271.996 
-1.26626e-05 5.97292e-06 2.6914e+25 -0.962642 7.43009 271.815 
-1.07512e-05 5.97292e-06 2.69388e+25 -1.57428 8.15785 271.569 
-8.83992e-06 5.97292e-06 2.69266e+25 -1.97498 8.43318 271.574 
-6.92858e-06 5.97292e-06 2.69241e+25 -2.4703 7.78946 271.603 
-5.01725e-06 5.97292e-06 2.6886e+25 -2.73237 6.98659 271.95 
-3.10592e-06 5.97292e-06 2.6883e+25 -2.90805 5.99967 272.03 
-1.19458e-06 5.97292e-06 2.68771e+25 -3.38902 4.59002 271.964 
-1.64852e-05 6.45075e-06 2.6869e+25 -0.0496319 1.78145 272.276 
-1.45739e-05 6.45075e-06 2.68847e+25 -0.534552 5.64901 271.999 
-1.26626e-05 6.45075e-06 2.69192e+25 -1.07756 7.41789 271.755 
-1.07512e-05 6.45075e-06 2.69344e+25 -1.34361 8.37679 271.589 
-8.83992e-06 6.45075e-06 2.69193e+25 -1.99115 8.59515 271.772 
-6.92858e-06 6.45075e-06 2.69058e+25 -2.22309 7.85436 271.857 
-5.01725e-06 6.45075e-06 2.68818e+25 -2.44426 7.07656 271.954 
-3.10592e-06 6.45075e-06 2.68884e+25 -2.58817 6.22122 272.019 
-1.19458e-06 6.45075e-06 2.69127e+25 -2.80447 4.67774 271.684 
-1.64852e-05 6.92858e-06 2.68459e+25 0.106944 1.79173 272.528 
-1.45739e-05 6.92858e-06 2.68872e+25 -0.48873 5.94513 272.002 
-1.26626e-05 6.92858e-06 2.69152e+25 -1.18104 7.49959 271.695 
-1.07512e-05 6.92858e-06 2.6919e+25 -1.3187 8.55361 271.681 
-8.83992e-06 6.92858e-06 2.68912e+25 -1.70282 8.59915 271.915 
-6.92858e-06 6.92858e-06 2.69045e+25 -1.99648 7.88157 271.723 
-5.01725e-06 6.92858e-06 2.68811e+25 -1.94858 7.08226 271.949 
-3.10592e-06 6.92858e-06 2.69033e+25 -2.08259 6.2508 271.938 
-1.19458e-06 6.92858e-06 2.68864e+25 -2.33814 4.69608 271.935 
-1.64852e-05 7.40642e-06 2.68621e+25 -0.0853523 1.86784 272.478 
-1.45739e-05 7.40642e-06 2.691e+25 -0.479579 6.11292 272.014 
-1.26626e-05 7.40642e-06 2.69002e+25 -1.09242 7.64931 271.913 
-1.07512e-05 7.40642e-06 2.69261e+25 -1.22801 8.6013 271.709 
-8.83992e-06 7.40642e-06 2.68819e+25 -1.58428 8.6375 271.944 
-6.92858e-06 7.40642e-06 2.69306e+25 -1.71142 7.84325 271.718 
-5.01725e-06 7.40642e-06 2.68787e+25 -1.56463 7.06719 272.016 
-3.10592e-06 7.40642e-06 2.68977e+25 -1.67144 6.09816 271.868 
-1.19458e-06 7.40642e-06 2.6912e+25 -1.74232 4.74091 271.69 
-1.64852e-05 7.88425e-06 2.68273e+25 -0.0435356 1.8843 272.581 
-1.45739e-05 7.88425e-06 2.68961e+25 -0.483559 6.13861 271.91 
-1.26626e-05 7.88425e-06 2.69071e+25 -1.24881 7.78561 271.919 
-1.07512e-05 7.88425e-06 2.69058e+25 -1.36189 8.60612 271.783 
-8.83992e-06 7.88425e-06 2.68779e+25 -1.52758 8.71782 272.092 
-6.92858e-06 7.88425e-06 2.69011e+25 -1.3664 7.87361 271.878 
-5.01725e-06 7.88425e-06 2.68774e+25 -1.20632 7.01966 272.061 
-3.10592e-06 7.88425e-06 2.68817e+25 -1.27768 6.08551 272.059 
-1.19458e-06 7.88425e-06 2.6897e+25 -0.88074 4.83873 271.794 
-1.64852e-05 8.36208e-06 2.68655e+25 0.0130075 1.91871 272.297 
-1.45739e-05 8.36208e-06 2.68896e+25 -0.484612 6.20265 271.971 
-1.26626e-05 8.36208e-06 2.68914e+25 -1.50686 8.03454 271.969 
-1.07512e-05 8.36208e-06 2.69026e+25 -1.54271 8.63087 271.823 
-8.83992e-06 8.36208e-06 2.68954e+25 -1.49091 8.70704 271.955 
-6.92858e-06 8.36208e-06 2.68997e+25 -1.00984 7.87117 271.877 
-5.01725e-06 8.36208e-06 2.68739e+25 -0.966815 6.95738 272.121 
-3.10592e-06 8.36208e-06 2.68745e+25 -0.729676 6.06241 271.992 
-1.19458e-06 8.36208e-06 2.68977e+25 -0.131304 4.73741 271.755 
-1.64852e-05 8.83992e-06 2.68301e+25 -0.0435188 2.04163 272.501 
-1.45739e-05 8.83992e-06 2.68932e+25 -0.580138 6.33217 272.046 
-1.26626e-05 8.83992e-06 2.68799e+25 -1.52734 8.33315 271.874 
-1.07512e-05 8.83992e-06 2.69043e+25 -1.89424 8.55229 271.873 
-8.83992e-06 8.83992e-06 2.68963e+25 -1.74359 8.65954 271.905 
-6.92858e-06 8.83992e-06 2.68657e+25 -0.833456 7.74584 272.215 
-5.01725e-06 8.83992e-06 2.6871e+25 -0.55423 6.72131 272.143 
-3.10592e-06 8.83992e-06 2.68684e+25 0.114695 6.00311 272.098 
-1.19458e-06 8.83992e-06 2.68957e+25 0.630918 4.55005 271.747 
-1.64852e-05 9.31775e-06 2.68071e+25 -0.167626 2.20729 272.688 
-1.45739e-05 9.31775e-06 2.6868e+25 -0.790666 6.58373 272.054 
-1.26626e-05 9.31775e-06 2.68735e+25 -1.83105 8.56401 271.922 
-1.07512e-05 9.31775e-06 2.69064e+25 -2.10643 8.62224 271.8 
-8.83992e-06 9.31775e-06 2.6906e+25 -1.58397 8.47879 271.933 
-6.92858e-06 9.31775e-06 2.68557e+25 -0.805541 7.51688 272.276 
-5.01725e-06 9.31775e-06 2.68903e+25 -0.0727089 6.48648 271.95 
-3.10592e-06 9.31775e-06 2.6871e+25 0.721334 5.9026 272.043 
-1.19458e-06 9.31775e-06 2.68814e+25 1.34261 4.42539 271.957 
-1.64852e-05 9.79558e-06 2.68048e+25 -0.205068 2.30797 272.666 
-1.45739e-05 9.79558e-06 2.6883e+25 -1.00075 6.80297 272.001 
-1.26626e-05 9.79558e-06 2.69113e+25 -1.98122 8.66854 271.777 
-1.07512e-05 9.79558e-06 2.69081e+25 -2.41221 8.65222 271.765 
-8.83992e-06 9.79558e-06 2.69033e+25 -1.58001 8.24712 271.922 
-6.92858e-06 9.79558e-06 2.68891e+25 -0.857914 7.49006 272.126 
-5.01725e-06 9.79558e-06 2.68869e+25 0.463704 6.21174 271.994 
-3.10592e-06 9.79558e-06 2.68839e+25 1.56662 5.70204 271.994 
-1.19458e-06 9.79558e-06 2.68523e+25 2.08904 4.33951 272.111 
-1.64852e-05 1.02734e-05 2.68143e+25 -0.274027 2.48752 272.618 
-1.45739e-05 1.02734e-05 2.68806e+25 -1.33564 7.10676 271.979 
-1.26626e-05 1.02734e-05 2.68866e+25 -2.06406 8.72962 271.846 
-1.07512e-05 1.02734e-05 2.68996e+25 -2.26892 8.50174 271.867 
-8.83992e-06 1.02734e-05 2.68995e+25 -1.43258 7.98937 271.975 
-6.92858e-06 1.02734e-05 2.687e+25 -0.584306 7.32168 272.181 
-5.01725e-06 1.02734e-05 2.69027e+25 0.846926 5.89499 271.951 
-3.10592e-06 1.02734e-05 2.68723e+25 2.10972 5.46263 272.026 
-1.19458e-06 1.02734e-05 2.68617e+25 3.18218 4.20409 272.103 
-1.64852e-05 1.07512e-05 2.68181e+25 -0.122319 2.65154 272.583 
-1.45739e-05 1.07512e-05 2.68738e+25 -1.44894 7.43732 271.956 
-1.26626e-05 1.07512e-05 2.69013e+25 -2.26324 8.7225 271.803 
-1.07512e-05 1.07512e-05 2.69125e+25 -1.99161 8.35507 271.799 
-8.83992e-06 1.07512e-05 2.68859e+25 -1.27885 7.65701 272.036 
-6.92858e-06 1.07512e-05 2.68691e+25 -0.115392 6.88947 272.229 
-5.01725e-06 1.07512e-05 2.68979e+25 1.41263 5.52793 271.896 
-3.10592e-06 1.07512e-05 2.68635e+25 2.89695 5.14993 272.149 
-1.19458e-06 1.07512e-05 2.68574e+25 4.17533 3.91745 272.091 
-1.64852e-05 1.12291e-05 2.68141e+25 -0.130282 2.89724 272.521 
-1.45739e-05 1.12291e-05 2.68667e+25 -1.6765 7.82664 272.014 
-1.26626e-05 1.12291e-05 2.68976e+25 -2.23441 8.77113 271.707 
-1.07512e-05 1.12291e-05 2.69241e+25 -2.01412 8.11746 271.735 
-8.83992e-06 1.12291e-05 2.68892e+25 -0.872376 7.38227 271.989 
-6.92858e-06 1.12291e-05 2.6885e+25 0.678602 6.45059 272.153 
-5.01725e-06 1.12291e-05 2.68754e+25 2.0919 5.15452 272.008 
-3.10592e-06 1.12291e-05 2.68918e+25 3.49429 4.74619 272.012 
-1.19458e-06 1.12291e-05 2.68875e+25 5.2228 3.66486 271.894 
-1.64852e-05 1.17069e-05 2.683e+25 -0.222264 3.18741 272.394 
-1.45739e-05 1.17069e-05 2.68689e+25 -1.80681 8.20488 271.971 
-1.26626e-05 1.17069e-05 2.68785e+25 -2.38438 8.83938 271.923 
-1.07512e-05 1.17069e-05 2.69167e+25 -1.98966 7.92171 271.758 
-8.83992e-06 1.17069e-05 2.68768e+25 -0.402597 7.04642 272.084 
-6.92858e-06 1.17069e-05 2.68775e+25 1.54585 6.05825 272.204 
-5.01725e-06 1.17069e-05 2.68561e+25 2.98092 4.81342 272.183 
-3.10592e-06 1.17069e-05 2.68786e+25 4.62265 4.29245 271.983 
-1.19458e-06 1.17069e-05 2.689e+25 6.46185 3.43378 271.799 
-1.64852e-05 1.21847e-05 2.68132e+25 -0.294973 3.47689 272.513 
-1.45739e-05 1.21847e-05 2.68622e+25 -2.03262 8.46257 271.955 
-1.26626e-05 1.21847e-05 2.68728e+25 -2.54508 8.85025 271.962 
-1.07512e-05 1.21847e-05 2.69139e+25 -1.60754 7.67166 271.736 
-8.83992e-06 1.21847e-05 2.68932e+25 0.155655 6.64655 272.138 
-6.92858e-06 1.21847e-05 2.6861e+25 2.21299 5.5868 272.22 
-5.01725e-06 1.21847e-05 2.68606e+25 3.89209 4.53671 272.101 
-3.10592e-06 1.21847e-05 2.68847e+25 5.7949 3.76076 271.973 
-1.19458e-06 1.21847e-05 2.68786e+25 7.66524 3.12558 271.917 
-1.64852e-05 1.26626e-05 2.68163e+25 -0.459049 3.89389 272.453 
-1.45739e-05 1.26626e-05 2.68364e+25 -2.4006 8.71761 272.082 
-1.26626e-05 1.26626e-05 2.68845e+25 -2.5994 8.67109 271.979 
-1.07512e-05 1.26626e-05 2.68898e+25 -1.19182 7.42215 271.957 
-8.83992e-06 1.26626e-05 2.68788e+25 0.999275 6.00222 272.122 
-6.92858e-06 1.26626e-05 2.68637e+25 3.15918 5.0198 272.241 
-5.01725e-06 1.26626e-05 2.68538e+25 5.34372 4.24735 272.261 
-3.10592e-06 1.26626e-05 2.68839e+25 7.30101 3.1996 272.031 
-1.19458e-06 1.26626e-05 2.68879e+25 9.18483 2.73724 271.932 
-1.64852e-05 1.31404e-05 2.68077e+25 -0.640239 4.41755 272.507 
-1.45739e-05 1.31404e-05 2.68393e+25 -3.12354 8.93039 272.125 
-1.26626e-05 1.31404e-05 2.68875e+25 -2.54845 8.3788 271.902 
-1.07512e-05 1.31404e-05 2.69113e+25 -0.425543 6.81029 271.874 
-8.83992e-06 1.31404e-05 2.68728e+25 2.21961 5.40111 272.175 
-6.92858e-06 1.31404e-05 2.68654e+25 4.66189 4.48777 272.33 
-5.01725e-06 1.31404e-05 2.68627e+25 6.93316 3.69656 272.264 
-3.10592e-06 1.31404e-05 2.68822e+25 9.18988 2.72699 272.083 
-1.19458e-06 1.31404e-05 2.68657e+25 10.8771 2.25838 272.083 
-1.64852e-05 1.36182e-05 2.6798e+25 -0.786685 5.17544 272.476 
-1.45739e-05 1.36182e-05 2.683e+25 -3.38663 9.20964 272.139 
-1.26626e-05 1.36182e-05 2.68687e+25 -2.10045 7.8812 272.072 
-1.07512e-05 1.36182e-05 2.68723e+25 0.738442 6.03717 272.056 
-8.83992e-06 1.36182e-05 2.68814e+25 3.84991 4.71761 272.143 
-6.92858e-06 1.36182e-05 2.68759e+25 6.52434 3.93313 272.222 
-5.01725e-06 1.36182e-05 2.68654e+25 9.03577 3.05203 272.296 
-3.10592e-06 1.36182e-05 2.68663e+25 11.2221 2.12921 272.103 
-1.19458e-06 1.36182e-05 2.68636e+25 12.5777 1.82022 272.197 
-1.64852e-05 1.40961e-05 2.67636e+25 -0.848847 6.02146 272.548 
-1.45739e-05 1.40961e-05 2.68227e+25 -3.3083 9.34926 272.143 
-1.26626e-05 1.40961e-05 2.68779e+25 -1.10271 7.21985 271.931 
-1.07512e-05 1.40961e-05 2.68669e+25 2.47497 5.1287 272.147 
-8.83992e-06 1.40961e-05 2.68939e+25 5.58245 4.01333 272.096 
-6.92858e-06 1.40961e-05 2.68673e+25 8.75097 3.18417 272.231 
-5.01725e-06 1.40961e-05 2.68553e+25 11.4424 2.40806 272.363 
-3.10592e-06 1.40961e-05 2.68726e+25 13.3454 1.79592 272.096 
-1.19458e-06 1.40961e-05 2.68557e+25 14.5973 1.38693 272.236 
-1.64852e-05 1.45739e-05 2.67351e+25 -1.35563 7.05674 272.594 
-1.45739e-05 1.45739e-05 2.68169e+25 -2.90425 9.09855 272.105 
-1.26626e-05 1.45739e-05 2.6878e+25 0.571104 6.23627 271.929 
-1.07512e-05 1.45739e-05 2.68688e+25 4.77584 4.15264 272.272 
-8.83992e-06 1.45739e-05 2.68914e+25 8.13496 3.11249 272.116 
-6.92858e-06 1.45739e-05 2.6866e+25 11.4431 2.39428 272.353 
-5.01725e-06 1.45739e-05 2.68588e+25 14.0262 1.78723 272.291 
-3.10592e-06 1.45739e-05 2.68679e+25 15.806 1.41481 272.142 
-1.19458e-06 1.45739e-05 2.68485e+25 17.2443 1.09051 272.338 
-1.64852e-05 1.50518e-05 2.66993e+25 -1.82035 8.31967 272.728 
-1.45739e-05 1.50518e-05 2.67857e+25 -1.90242 8.41426 272.284 
-1.26626e-05 1.50518e-05 2.68476e+25 3.24436 4.99767 272.198 
-1.07512e-05 1.50518e-05 2.685e+25 7.93111 3.25113 272.446 
-8.83992e-06 1.50518e-05 2.68736e+25 11.5114 2.19276 272.339 
-6.92858e-06 1.50518e-05 2.68466e+25 14.4418 1.73977 272.35 
-5.01725e-06 1.50518e-05 2.68459e+25 16.803 1.30346 272.427 
-3.10592e-06 1.50518e-05 2.68468e+25 18.8126 1.14585 272.33 
-1.19458e-06 1.50518e-05 2.68559e+25 20.0473 0.721784 272.355 
-1.64852e-05 1.55296e-05 2.66705e+25 -2.16977 9.75711 272.574 
-1.45739e-05 1.55296e-05 2.67689e+25 0.773127 7.03089 272.391 
-1.26626e-05 1.55296e-05 2.68155e+25 7.44764 3.64663 272.484 
-1.07512e-05 1.55296e-05 2.68228e+25 12.1923 2.25286 272.685 
-8.83992e-06 1.55296e-05 2.68645e+25 15.743 1.43272 272.311 
-6.92858e-06 1.55296e-05 2.68649e+25 18.4814 1.1782 272.511 
-5.01725e-06 1.55296e-05 2.68457e+25 20.3858 0.810989 272.592 
-3.10592e-06 1.55296e-05 2.68398e+25 21.9632 0.769779 272.525 
-1.19458e-06 1.55296e-05 2.68398e+25 23.2079 0.486188 272.522 
-1.64852e-05 1.60074e-05 2.66055e+25 -1.86666 10.6215 272.532 
-1.45739e-05 1.60074e-05 2.67649e+25 6.04718 5.05946 272.538 
-1.26626e-05 1.60074e-05 2.68138e+25 13.2366 2.22815 272.642 
-1.07512e-05 1.60074e-05 2.68196e+25 17.6445 1.2752 272.663 
-8.83992e-06 1.60074e-05 2.68752e+25 20.5842 0.726692 272.392 
-6.92858e-06 1.60074e-05 2.68219e+25 22.7904 0.691689 272.78 
-5.01725e-06 1.60074e-05 2.68278e+25 24.4483 0.392864 272.649 
-3.10592e-06 1.60074e-05 2.6839e+25 25.5143 0.417683 272.551 
-1.19458e-06 1.60074e-05 2.68349e+25 26.4814 0.230441 272.549 
-1.64852e-05 1.64852e-05 2.6454e+25 0.893904 9.35197 272.894 
-1.45739e-05 1.64852e-05 2.6744e+25 14.5774 2.51249 272.823 
-1.26626e-05 1.64852e-05 2.68046e+25 20.7606 0.933869 272.754 
-1.07512e-05 1.64852e-05 2.68304e+25 24.006 0.496891 272.782 
-8.83992e-06 1.64852e-05 2.68545e+25 26.1648 0.182839 272.771 
-6.92858e-06 1.64852e-05 2.68345e+25 27.535 0.32276 272.921 
-5.01725e-06 1.64852e-05 2.68217e+25 28.517 0.122162 272.755 
-3.10592e-06 1.64852e-05 2.68384e+25 29.0703 0.213787 272.557 
-1.19458e-06 1.64852e-05 2.68233e+25 29.8151 0.124918 272.672 
-1.64852e-05 1.69631e-05 2.62304e+25 12.4128 3.53262 273.544 
-1.45739e-05 1.69631e-05 2.67475e+25 25.9351 0.587584 273.066 
-1.26626e-05 1.69631e-05 2.6815e+25 29.0985 0.152737 272.942 
-1.07512e-05 1.69631e-05 2.68272e+25 30.5875 0.0830436 272.947 
-8.83992e-06 1.69631e-05 2.68391e+25 31.3588 0.0192209 272.852 
-6.92858e-06 1.69631e-05 2.68094e+25 31.8427 0.0631732 273.105 
-5.01725e-06 1.69631e-05 2.68223e+25 32.1655 -0.00976196 272.84 
-3.10592e-06 1.69631e-05 2.68176e+25 32.5607 0.0586095 272.779 
-1.19458e-06 1.69631e-05 2.68099e+25 32.7839 0.0477418 272.858 
-1.69631e-05 2.38917e-07 2.68214e+25 -0.0273077 0.469739 272.742 
-1.50517e-05 2.38917e-07 2.68675e+25 -0.309421 3.10622 272.153 
-1.31404e-05 2.38917e-07 2.68852e+25 -0.727757 4.71962 271.966 
-1.12291e-05 2.38917e-07 2.68955e+25 -2.10911 5.63041 271.983 
-9.31775e-06 2.38917e-07 2.69028e+25 -3.10058 5.94645 271.779 
-7.40642e-06 2.38917e-07 2.69119e+25 -3.84573 5.93911 271.73 
-5.49508e-06 2.38917e-07 2.68952e+25 -4.78123 5.30566 271.792 
-3.58375e-06 2.38917e-07 2.68964e+25 -5.76267 4.43779 271.804 
-1.67242e-06 2.38917e-07 2.68619e+25 -6.7172 3.17434 272.108 
-1.69631e-05 7.1675e-07 2.68534e+25 -0.0287269 0.519575 272.721 
-1.50517e-05 7.1675e-07 2.68999e+25 -0.413829 3.14403 272.115 
-1.31404e-05 7.1675e-07 2.69035e+25 -0.787743 5.0039 271.975 
-1.12291e-05 7.1675e-07 2.69264e+25 -2.34906 5.95795 271.892 
-9.31775e-06 7.1675e-07 2.69168e+25 -3.05139 6.07865 271.881 
-7.40642e-06 7.1675e-07 2.69299e+25 -3.71628 6.02334 271.694 
-5.49508e-06 7.1675e-07 2.69078e+25 -4.6116 5.5927 271.842 
-3.58375e-06 7.1675e-07 2.69025e+25 -5.62242 4.57917 271.944 
-1.67242e-06 7.1675e-07 2.68785e+25 -6.69312 3.25167 272.197 
-1.69631e-05 1.19458e-06 2.68532e+25 0.02913 0.561562 272.697 
-1.50517e-05 1.19458e-06 2.68903e+25 -0.357644 3.20463 272.178 
-1.31404e-05 1.19458e-06 2.69104e+25 -1.01133 5.34696 272.01 
-1.12291e-05 1.19458e-06 2.69289e+25 -2.26376 6.37318 271.846 
-9.31775e-06 1.19458e-06 2.69199e+25 -3.15909 6.17154 271.885 
-7.40642e-06 1.19458e-06 2.69064e+25 -3.65541 6.24217 271.893 
-5.49508e-06 1.19458e-06 2.69181e+25 -4.38801 5.79684 271.681 
-3.58375e-06 1.19458e-06 2.69045e+25 -5.48767 4.74887 271.992 
-1.67242e-06 1.19458e-06 2.68809e+25 -6.38435 3.40258 272.161 
-1.69631e-05 1.67242e-06 2.68397e+25 0.015458 0.559257 272.722 
-1.50517e-05 1.67242e-06 2.68789e+25 -0.222736 3.33813 272.151 
-1.31404e-05 1.67242e-06 2.68961e+25 -1.18826 5.62037 271.974 
-1.12291e-05 1.67242e-06 2.69213e+25 -2.09005 6.71065 271.799 
-9.31775e-06 1.67242e-06 2.69201e+25 -3.13328 6.30002 271.868 
-7.40642e-06 1.67242e-06 2.69226e+25 -3.65872 6.51216 271.746 
-5.49508e-06 1.67242e-06 2.69342e+25 -4.18972 6.04884 271.729 
-3.58375e-06 1.67242e-06 2.68952e+25 -5.30974 4.95885 272.075 
-1.67242e-06 1.67242e-06 2.68665e+25 -6.12694 3.69645 272.184 
-1.69631e-05 2.15025e-06 2.68318e+25 0.0313561 0.518027 272.818 
-1.50517e-05 2.15025e-06 2.68987e+25 -0.119278 3.72543 272.147 
-1.31404e-05 2.15025e-06 2.69477e+25 -1.33005 5.80082 271.672 
-1.12291e-05 2.15025e-06 2.69364e+25 -2.01291 6.92122 271.67 
-9.31775e-06 2.15025e-06 2.69052e+25 -2.98179 6.49831 271.94 
-7.40642e-06 2.15025e-06 2.69249e+25 -3.68312 6.71172 271.764 
-5.49508e-06 2.15025e-06 2.69207e+25 -4.29583 6.19674 271.743 
-3.58375e-06 2.15025e-06 2.68838e+25 -5.03684 5.25992 272.088 
-1.67242e-06 2.15025e-06 2.68726e+25 -5.78408 3.92731 272.229 
-1.69631e-05 2.62808e-06 2.68369e+25 -0.00912312 0.505178 272.763 
-1.50517e-05 2.62808e-06 2.69043e+25 -0.262476 3.81327 272.062 
-1.31404e-05 2.62808e-06 2.69611e+25 -1.19527 5.94853 271.488 
-1.12291e-05 2.62808e-06 2.69536e+25 -1.91547 7.10289 271.667 
-9.31775e-06 2.62808e-06 2.6918e+25 -2.97441 6.78663 271.87 
-7.40642e-06 2.62808e-06 2.69315e+25 -3.59243 6.91613 271.65 
-5.49508e-06 2.62808e-06 2.69194e+25 -4.35749 6.35849 271.901 
-3.58375e-06 2.62808e-06 2.68794e+25 -4.88564 5.48539 272.217 
-1.67242e-06 2.62808e-06 2.68661e+25 -5.45927 4.14372 272.221 
-1.69631e-05 3.10592e-06 2.68112e+25 -0.0459607 0.504719 272.996 
-1.50517e-05 3.10592e-06 2.68907e+25 -0.153735 3.99186 272.181 
-1.31404e-05 3.10592e-06 2.69533e+25 -0.973488 6.12482 271.54 
-1.12291e-05 3.10592e-06 2.69446e+25 -2.00684 7.30588 271.62 
-9.31775e-06 3.10592e-06 2.69161e+25 -2.61952 7.02424 271.809 
-7.40642e-06 3.10592e-06 2.69389e+25 -3.59141 7.16405 271.71 
-5.49508e-06 3.10592e-06 2.69066e+25 -4.28227 6.47555 271.913 
-3.58375e-06 3.10592e-06 2.68804e+25 -4.76908 5.62526 272.143 
-1.67242e-06 3.10592e-06 2.68659e+25 -5.29505 4.35013 272.285 
-1.69631e-05 3.58375e-06 2.6829e+25 0.0185281 0.547429 272.84 
-1.50517e-05 3.58375e-06 2.69022e+25 -0.149052 4.17436 272.109 
-1.31404e-05 3.58375e-06 2.69405e+25 -0.855939 6.33334 271.601 
-1.12291e-05 3.58375e-06 2.69178e+25 -1.48508 7.41944 271.701 
-9.31775e-06 3.58375e-06 2.69354e+25 -2.35882 7.22185 271.768 
-7.40642e-06 3.58375e-06 2.69178e+25 -3.4216 7.29416 271.858 
-5.49508e-06 3.58375e-06 2.69081e+25 -4.161 6.56957 271.892 
-3.58375e-06 3.58375e-06 2.68634e+25 -4.54639 5.70811 272.21 
-1.67242e-06 3.58375e-06 2.68604e+25 -4.99359 4.4258 272.275 
-1.69631e-05 4.06158e-06 2.68421e+25 0.0313737 0.553506 272.621 
-1.50517e-05 4.06158e-06 2.68964e+25 -0.241025 4.23655 272.018 
-1.31404e-05 4.06158e-06 2.69349e+25 -0.885561 6.59892 271.724 
-1.12291e-05 4.06158e-06 2.69238e+25 -1.3483 7.57285 271.763 
-9.31775e-06 4.06158e-06 2.69221e+25 -2.32548 7.62287 271.822 
-7.40642e-06 4.06158e-06 2.68973e+25 -3.21692 7.47896 272.015 
-5.49508e-06 4.06158e-06 2.68985e+25 -3.74512 6.7444 272.044 
-3.58375e-06 4.06158e-06 2.6867e+25 -4.14173 5.797 272.279 
-1.67242e-06 4.06158e-06 2.68692e+25 -4.74867 4.50695 272.105 
-1.69631e-05 4.53942e-06 2.68226e+25 0.00509956 0.502079 272.929 
-1.50517e-05 4.53942e-06 2.68869e+25 -0.347886 4.33449 272.06 
-1.31404e-05 4.53942e-06 2.69218e+25 -0.782816 6.69803 271.75 
-1.12291e-05 4.53942e-06 2.69278e+25 -1.20023 7.70567 271.661 
-9.31775e-06 4.53942e-06 2.69362e+25 -1.81239 8.00932 271.675 
-7.40642e-06 4.53942e-06 2.69021e+25 -2.9828 7.57005 272.002 
-5.49508e-06 4.53942e-06 2.68963e+25 -3.43374 6.86469 271.94 
-3.58375e-06 4.53942e-06 2.68717e+25 -3.7912 5.89553 272.21 
-1.67242e-06 4.53942e-06 2.68727e+25 -4.2511 4.64653 272.121 
-1.69631e-05 5.01725e-06 2.68105e+25 -0.0255179 0.523977 272.899 
-1.50517e-05 5.01725e-06 2.68779e+25 -0.438426 4.43433 272.136 
-1.31404e-05 5.01725e-06 2.69238e+25 -0.661388 6.78761 271.851 
-1.12291e-05 5.01725e-06 2.69387e+25 -1.35156 7.90617 271.694 
-9.31775e-06 5.01725e-06 2.69151e+25 -1.88915 8.26691 271.841 
-7.40642e-06 5.01725e-06 2.69131e+25 -2.75598 7.69477 271.855 
-5.49508e-06 5.01725e-06 2.68883e+25 -3.0577 6.95851 271.906 
-3.58375e-06 5.01725e-06 2.68634e+25 -3.57353 6.002 272.148 
-1.67242e-06 5.01725e-06 2.6871e+25 -3.97319 4.79379 272.044 
-1.69631e-05 5.49508e-06 2.6847e+25 -0.0412453 0.617851 272.699 
-1.50517e-05 5.49508e-06 2.68905e+25 -0.54489 4.61079 272.06 
-1.31404e-05 5.49508e-06 2.69153e+25 -0.727801 6.73191 271.801 
-1.12291e-05 5.49508e-06 2.69278e+25 -1.42853 8.0378 271.69 
-9.31775e-06 5.49508e-06 2.69122e+25 -1.8181 8.39273 271.755 
-7.40642e-06 5.49508e-06 2.69224e+25 -2.45361 7.74332 271.778 
-5.49508e-06 5.49508e-06 2.68988e+25 -2.93277 7.08738 271.849 
-3.58375e-06 5.49508e-06 2.68821e+25 -3.17234 6.06421 272.046 
-1.67242e-06 5.49508e-06 2.68738e+25 -3.65606 4.98634 272.005 
-1.69631e-05 5.97292e-06 2.68525e+25 -0.0309693 0.724333 272.543 
-1.50517e-05 5.97292e-06 2.68881e+25 -0.411006 4.90172 272.118 
-1.31404e-05 5.97292e-06 2.69248e+25 -0.831409 6.78556 271.783 
-1.12291e-05 5.97292e-06 2.69314e+25 -1.38601 8.27703 271.652 
-9.31775e-06 5.97292e-06 2.69318e+25 -1.81972 8.50663 271.635 
-7.40642e-06 5.97292e-06 2.69244e+25 -2.31155 7.91639 271.663 
-5.49508e-06 5.97292e-06 2.68813e+25 -2.60012 7.16684 271.925 
-3.58375e-06 5.97292e-06 2.68901e+25 -2.78337 6.15842 272.011 
-1.67242e-06 5.97292e-06 2.68932e+25 -3.35232 5.13405 271.842 
-1.69631e-05 6.45075e-06 2.6822e+25 -0.0037311 0.773163 272.784 
-1.50517e-05 6.45075e-06 2.68802e+25 -0.311078 5.10186 272.195 
-1.31404e-05 6.45075e-06 2.69139e+25 -1.09463 6.91347 271.882 
-1.12291e-05 6.45075e-06 2.69377e+25 -1.16657 8.44033 271.557 
-9.31775e-06 6.45075e-06 2.69358e+25 -1.94036 8.59283 271.704 
-7.40642e-06 6.45075e-06 2.69143e+25 -2.15627 8.10459 271.742 
-5.49508e-06 6.45075e-06 2.68885e+25 -2.43024 7.20094 271.985 
-3.58375e-06 6.45075e-06 2.68922e+25 -2.44481 6.18804 272.002 
-1.67242e-06 6.45075e-06 2.69166e+25 -2.73638 5.09733 271.707 
-1.69631e-05 6.92858e-06 2.68358e+25 0.023917 0.717213 272.737 
-1.50517e-05 6.92858e-06 2.68826e+25 -0.317746 5.20115 272.16 
-1.31404e-05 6.92858e-06 2.68948e+25 -1.02458 7.05369 271.942 
-1.12291e-05 6.92858e-06 2.69247e+25 -1.17225 8.53715 271.57 
-9.31775e-06 6.92858e-06 2.69052e+25 -1.69653 8.61729 271.737 
-7.40642e-06 6.92858e-06 2.69203e+25 -1.96495 8.16071 271.699 
-5.49508e-06 6.92858e-06 2.68722e+25 -1.96838 7.22971 272.07 
-3.58375e-06 6.92858e-06 2.68813e+25 -2.05734 6.29276 271.878 
-1.67242e-06 6.92858e-06 2.69065e+25 -2.32245 5.22712 271.607 
-1.69631e-05 7.40642e-06 2.6829e+25 0.0151788 0.695209 272.749 
-1.50517e-05 7.40642e-06 2.68918e+25 -0.385421 5.33136 272.184 
-1.31404e-05 7.40642e-06 2.69046e+25 -0.979949 7.15488 271.943 
-1.12291e-05 7.40642e-06 2.69396e+25 -1.3043 8.49828 271.522 
-9.31775e-06 7.40642e-06 2.69067e+25 -1.58321 8.61404 271.845 
-7.40642e-06 7.40642e-06 2.69294e+25 -1.65139 8.28629 271.623 
-5.49508e-06 7.40642e-06 2.69008e+25 -1.6107 7.2003 271.851 
-3.58375e-06 7.40642e-06 2.68813e+25 -1.79643 6.35092 271.929 
-1.67242e-06 7.40642e-06 2.69285e+25 -1.55109 5.35284 271.579 
-1.69631e-05 7.88425e-06 2.68083e+25 -0.00885512 0.740357 272.822 
-1.50517e-05 7.88425e-06 2.68744e+25 -0.43149 5.43299 272.142 
-1.31404e-05 7.88425e-06 2.69004e+25 -1.01138 7.38302 271.936 
-1.12291e-05 7.88425e-06 2.69242e+25 -1.35292 8.47646 271.639 
-9.31775e-06 7.88425e-06 2.68964e+25 -1.37272 8.71348 271.942 
-7.40642e-06 7.88425e-06 2.69183e+25 -1.34645 8.33493 271.725 
-5.49508e-06 7.88425e-06 2.68658e+25 -1.33988 7.10303 272.093 
-3.58375e-06 7.88425e-06 2.68737e+25 -1.23025 6.32244 272.069 
-1.67242e-06 7.88425e-06 2.69089e+25 -0.977848 5.37409 271.727 
-1.69631e-05 8.36208e-06 2.68205e+25 -0.00833286 0.75063 272.74 
-1.50517e-05 8.36208e-06 2.68807e+25 -0.414077 5.55571 272.006 
-1.31404e-05 8.36208e-06 2.68953e+25 -1.18696 7.71474 272.008 
-1.12291e-05 8.36208e-06 2.69002e+25 -1.58608 8.48794 271.789 
-9.31775e-06 8.36208e-06 2.6884e+25 -1.55198 8.76058 271.956 
-7.40642e-06 8.36208e-06 2.69097e+25 -1.18002 8.20532 271.799 
-5.49508e-06 8.36208e-06 2.68531e+25 -1.04086 6.93734 272.159 
-3.58375e-06 8.36208e-06 2.68764e+25 -0.690781 6.45388 272.034 
-1.67242e-06 8.36208e-06 2.69058e+25 -0.345867 5.18699 271.719 
-1.69631e-05 8.83992e-06 2.68199e+25 0.0298219 0.720576 272.746 
-1.50517e-05 8.83992e-06 2.68644e+25 -0.410414 5.63238 272.169 
-1.31404e-05 8.83992e-06 2.68904e+25 -1.28974 7.97573 272.056 
-1.12291e-05 8.83992e-06 2.68956e+25 -1.89385 8.44893 271.942 
-9.31775e-06 8.83992e-06 2.68995e+25 -1.71133 8.73153 271.897 
-7.40642e-06 8.83992e-06 2.68853e+25 -1.06751 7.90934 271.978 
-5.49508e-06 8.83992e-06 2.6843e+25 -0.680264 6.93509 272.308 
-3.58375e-06 8.83992e-06 2.68841e+25 0.0246383 6.41054 272.011 
-1.67242e-06 8.83992e-06 2.69068e+25 0.482581 5.00434 271.729 
-1.69631e-05 9.31775e-06 2.68037e+25 -0.0398727 0.741737 272.717 
-1.50517e-05 9.31775e-06 2.68575e+25 -0.55883 5.77218 272.118 
-1.31404e-05 9.31775e-06 2.68844e+25 -1.62682 8.20029 271.954 
-1.12291e-05 9.31775e-06 2.69116e+25 -2.06853 8.33699 271.683 
-9.31775e-06 9.31775e-06 2.68787e+25 -1.87096 8.64995 272.017 
-7.40642e-06 9.31775e-06 2.68918e+25 -1.07103 7.61292 271.981 
-5.49508e-06 9.31775e-06 2.68738e+25 -0.239353 6.91552 272.089 
-3.58375e-06 9.31775e-06 2.68823e+25 0.513558 6.22173 271.981 
-1.67242e-06 9.31775e-06 2.68861e+25 1.18459 4.85227 271.945 
-1.69631e-05 9.79558e-06 2.68133e+25 -0.0742012 0.873341 272.838 
-1.50517e-05 9.79558e-06 2.68808e+25 -0.730596 6.00597 272.057 
-1.31404e-05 9.79558e-06 2.68867e+25 -1.82785 8.4428 271.932 
-1.12291e-05 9.79558e-06 2.69114e+25 -2.4216 8.38029 271.673 
-9.31775e-06 9.79558e-06 2.68741e+25 -1.71527 8.43024 272.022 
-7.40642e-06 9.79558e-06 2.68911e+25 -0.809606 7.47008 272.091 
-5.49508e-06 9.79558e-06 2.68898e+25 0.0963869 6.60688 272.145 
-3.58375e-06 9.79558e-06 2.68926e+25 1.2534 5.89307 271.944 
-1.67242e-06 9.79558e-06 2.68935e+25 1.97968 4.65005 271.901 
-1.69631e-05 1.02734e-05 2.67891e+25 -0.0630158 1.05922 272.881 
-1.50517e-05 1.02734e-05 2.68565e+25 -1.05159 6.28909 272.115 
-1.31404e-05 1.02734e-05 2.68977e+25 -2.08049 8.54279 271.871 
-1.12291e-05 1.02734e-05 2.68898e+25 -2.32261 8.48573 271.803 
-9.31775e-06 1.02734e-05 2.68884e+25 -1.69829 8.27669 272.01 
-7.40642e-06 1.02734e-05 2.6868e+25 -0.903137 7.41143 272.193 
-5.49508e-06 1.02734e-05 2.68839e+25 0.509005 6.15779 272.059 
-3.58375e-06 1.02734e-05 2.68894e+25 1.82916 5.57639 271.998 
-1.67242e-06 1.02734e-05 2.68662e+25 2.90934 4.4549 272.099 
-1.69631e-05 1.07512e-05 2.68177e+25 -0.0271884 1.17736 272.716 
-1.50517e-05 1.07512e-05 2.68727e+25 -1.08227 6.59587 271.954 
-1.31404e-05 1.07512e-05 2.69088e+25 -2.14641 8.70746 271.809 
-1.12291e-05 1.07512e-05 2.68921e+25 -2.12811 8.4558 271.829 
-9.31775e-06 1.07512e-05 2.68993e+25 -1.56653 8.08151 271.852 
-7.40642e-06 1.07512e-05 2.6848e+25 -0.458564 7.21222 272.337 
-5.49508e-06 1.07512e-05 2.68867e+25 1.02761 5.83445 272.026 
-3.58375e-06 1.07512e-05 2.68886e+25 2.45902 5.29532 272.011 
-1.67242e-06 1.07512e-05 2.6888e+25 3.88618 4.17045 271.942 
-1.69631e-05 1.12291e-05 2.68037e+25 -0.00612556 1.18756 272.747 
-1.50517e-05 1.12291e-05 2.68816e+25 -1.29087 6.964 271.963 
-1.31404e-05 1.12291e-05 2.6879e+25 -2.13923 8.85077 272.022 
-1.12291e-05 1.12291e-05 2.69094e+25 -2.12447 8.38297 271.805 
-9.31775e-06 1.12291e-05 2.69044e+25 -1.18861 7.71873 271.862 
-7.40642e-06 1.12291e-05 2.68692e+25 0.28221 6.85212 272.211 
-5.49508e-06 1.12291e-05 2.68816e+25 1.81453 5.52875 272.005 
-3.58375e-06 1.12291e-05 2.68893e+25 3.15114 4.86406 272.043 
-1.67242e-06 1.12291e-05 2.68919e+25 4.9128 3.87121 271.772 
-1.69631e-05 1.17069e-05 2.68002e+25 -0.0287451 1.24012 272.794 
-1.50517e-05 1.17069e-05 2.68689e+25 -1.44507 7.35055 272.07 
-1.31404e-05 1.17069e-05 2.68467e+25 -2.30511 8.94652 272.227 
-1.12291e-05 1.17069e-05 2.69088e+25 -2.16098 8.30884 271.711 
-9.31775e-06 1.17069e-05 2.68752e+25 -0.815553 7.33127 272.061 
-7.40642e-06 1.17069e-05 2.68782e+25 1.03119 6.42211 272.235 
-5.49508e-06 1.17069e-05 2.68775e+25 2.67247 5.31112 272.107 
-3.58375e-06 1.17069e-05 2.68841e+25 4.11842 4.40957 271.999 
-1.67242e-06 1.17069e-05 2.68999e+25 6.07418 3.42645 271.84 
-1.69631e-05 1.21847e-05 2.67951e+25 -0.03875 1.35543 272.852 
-1.50517e-05 1.21847e-05 2.68665e+25 -1.67082 7.86068 272.021 
-1.31404e-05 1.21847e-05 2.68489e+25 -2.63965 9.02175 272.276 
-1.12291e-05 1.21847e-05 2.68834e+25 -1.90641 8.07139 271.801 
-9.31775e-06 1.21847e-05 2.69042e+25 -0.387833 6.7992 271.826 
-7.40642e-06 1.21847e-05 2.68684e+25 1.67381 5.82741 272.221 
-5.49508e-06 1.21847e-05 2.68728e+25 3.53851 4.89698 272.193 
-3.58375e-06 1.21847e-05 2.68793e+25 5.25466 3.92689 272.124 
-1.67242e-06 1.21847e-05 2.68958e+25 7.30675 2.97466 271.921 
-1.69631e-05 1.26626e-05 2.6801e+25 -0.105637 1.51342 272.69 
-1.50517e-05 1.26626e-05 2.68389e+25 -2.13355 8.24848 272.141 
-1.31404e-05 1.26626e-05 2.68696e+25 -2.68603 8.9843 272.047 
-1.12291e-05 1.26626e-05 2.6876e+25 -1.51151 7.69844 271.836 
-9.31775e-06 1.26626e-05 2.68882e+25 0.399153 6.3039 272.061 
-7.40642e-06 1.26626e-05 2.68651e+25 2.60573 5.30901 272.271 
-5.49508e-06 1.26626e-05 2.68691e+25 4.88983 4.37911 272.298 
-3.58375e-06 1.26626e-05 2.68858e+25 6.77462 3.41098 272.112 
-1.67242e-06 1.26626e-05 2.68782e+25 8.72442 2.52928 271.982 
-1.69631e-05 1.31404e-05 2.67876e+25 -0.13055 1.84012 272.66 
-1.50517e-05 1.31404e-05 2.6833e+25 -2.63062 8.78607 272.054 
-1.31404e-05 1.31404e-05 2.68635e+25 -2.93571 8.80873 271.957 
-1.12291e-05 1.31404e-05 2.68898e+25 -1.07862 7.26923 272.017 
-9.31775e-06 1.31404e-05 2.68995e+25 1.57463 5.7212 272.075 
-7.40642e-06 1.31404e-05 2.68451e+25 4.14939 4.77952 272.312 
-5.49508e-06 1.31404e-05 2.68727e+25 6.33712 3.81164 272.309 
-3.58375e-06 1.31404e-05 2.68839e+25 8.62169 2.7856 272.016 
-1.67242e-06 1.31404e-05 2.68834e+25 10.5369 2.18863 272.008 
-1.69631e-05 1.36182e-05 2.67902e+25 -0.178022 2.18716 272.642 
-1.50517e-05 1.36182e-05 2.68344e+25 -3.11935 9.29352 272.017 
-1.31404e-05 1.36182e-05 2.68665e+25 -2.66054 8.3446 271.997 
-1.12291e-05 1.36182e-05 2.6872e+25 -0.0379592 6.56504 272.186 
-9.31775e-06 1.36182e-05 2.68948e+25 3.09346 5.00425 271.992 
-7.40642e-06 1.36182e-05 2.68762e+25 5.90621 4.20822 272.151 
-5.49508e-06 1.36182e-05 2.68789e+25 8.33442 3.14217 272.256 
-3.58375e-06 1.36182e-05 2.68807e+25 10.7514 2.28963 272.192 
-1.67242e-06 1.36182e-05 2.68643e+25 12.1 1.77578 272.191 
-1.69631e-05 1.40961e-05 2.67258e+25 -0.174586 2.61683 272.897 
-1.50517e-05 1.40961e-05 2.68048e+25 -3.16154 9.61298 272.212 
-1.31404e-05 1.40961e-05 2.68891e+25 -1.90349 7.68983 271.758 
-1.12291e-05 1.40961e-05 2.6844e+25 1.3907 5.65231 272.291 
-9.31775e-06 1.40961e-05 2.68831e+25 4.87381 4.21209 272.08 
-7.40642e-06 1.40961e-05 2.68887e+25 7.98443 3.54844 272.079 
-5.49508e-06 1.40961e-05 2.68718e+25 10.8391 2.52271 272.346 
-3.58375e-06 1.40961e-05 2.68555e+25 13.021 1.93289 272.217 
-1.67242e-06 1.40961e-05 2.68569e+25 14.3183 1.54964 272.341 
-1.69631e-05 1.45739e-05 2.67148e+25 -0.335433 3.21897 272.844 
-1.50517e-05 1.45739e-05 2.67944e+25 -3.15982 9.73789 272.325 
-1.31404e-05 1.45739e-05 2.6867e+25 -0.536184 6.77667 271.899 
-1.12291e-05 1.45739e-05 2.68621e+25 3.77828 4.54677 272.249 
-9.31775e-06 1.45739e-05 2.6878e+25 7.25948 3.51112 272.063 
-7.40642e-06 1.45739e-05 2.68841e+25 10.7318 2.82931 272.235 
-5.49508e-06 1.45739e-05 2.6864e+25 13.4285 1.93277 272.336 
-3.58375e-06 1.45739e-05 2.68463e+25 15.546 1.62848 272.293 
-1.67242e-06 1.45739e-05 2.68392e+25 16.8921 1.22348 272.402 
-1.69631e-05 1.50518e-05 2.66879e+25 -0.448943 4.14531 272.888 
-1.50517e-05 1.50518e-05 2.67621e+25 -2.76397 9.42329 272.412 
-1.31404e-05 1.50518e-05 2.68672e+25 1.93096 5.64203 271.968 
-1.12291e-05 1.50518e-05 2.68507e+25 6.98823 3.53538 272.315 
-9.31775e-06 1.50518e-05 2.68751e+25 10.6508 2.70443 272.215 
-7.40642e-06 1.50518e-05 2.68566e+25 13.8016 2.13105 272.468 
-5.49508e-06 1.50518e-05 2.68326e+25 16.3031 1.30277 272.582 
-3.58375e-06 1.50518e-05 2.68441e+25 18.3609 1.21794 272.372 
-1.67242e-06 1.50518e-05 2.6859e+25 19.7701 0.936843 272.41 
-1.69631e-05 1.55296e-05 2.66189e+25 -0.688877 5.44618 272.78 
-1.50517e-05 1.55296e-05 2.67439e+25 -0.860665 8.32721 272.521 
-1.31404e-05 1.55296e-05 2.68331e+25 5.88461 4.10438 272.329 
-1.12291e-05 1.55296e-05 2.68146e+25 11.223 2.57996 272.78 
-9.31775e-06 1.55296e-05 2.6884e+25 14.8879 1.72845 272.266 
-7.40642e-06 1.55296e-05 2.68491e+25 17.8729 1.4367 272.542 
-5.49508e-06 1.55296e-05 2.68432e+25 19.9783 0.873467 272.551 
-3.58375e-06 1.55296e-05 2.68466e+25 21.5626 0.759848 272.487 
-1.67242e-06 1.55296e-05 2.68447e+25 22.9044 0.661077 272.553 
-1.69631e-05 1.60074e-05 2.65047e+25 -0.811705 7.06264 272.871 
-1.50517e-05 1.60074e-05 2.67388e+25 3.60785 6.23547 272.711 
-1.31404e-05 1.60074e-05 2.68197e+25 11.7722 2.43446 272.534 
-1.12291e-05 1.60074e-05 2.68108e+25 16.6362 1.57105 272.856 
-9.31775e-06 1.60074e-05 2.68566e+25 19.9338 0.957404 272.462 
-7.40642e-06 1.60074e-05 2.68298e+25 22.2442 0.803116 272.652 
-5.49508e-06 1.60074e-05 2.68293e+25 24.0321 0.466988 272.683 
-3.58375e-06 1.60074e-05 2.68458e+25 25.306 0.419937 272.52 
-1.67242e-06 1.60074e-05 2.68424e+25 26.267 0.37239 272.622 
-1.69631e-05 1.64852e-05 2.62611e+25 -0.355517 8.50186 272.937 
-1.50517e-05 1.64852e-05 2.67159e+25 11.8237 3.46883 272.904 
-1.31404e-05 1.64852e-05 2.68061e+25 19.627 1.06425 272.658 
-1.12291e-05 1.64852e-05 2.68217e+25 23.3012 0.615092 272.841 
-9.31775e-06 1.64852e-05 2.68519e+25 25.7467 0.378955 272.525 
-7.40642e-06 1.64852e-05 2.68202e+25 27.1783 0.27224 272.846 
-5.49508e-06 1.64852e-05 2.68122e+25 28.2987 0.147868 272.889 
-3.58375e-06 1.64852e-05 2.68435e+25 28.842 0.235589 272.65 
-1.67242e-06 1.64852e-05 2.68367e+25 29.6925 0.18547 272.586 
-1.69631e-05 1.69631e-05 2.55331e+25 4.00565 6.19645 273.11 
-1.50517e-05 1.69631e-05 2.67244e+25 24.3608 0.838567 273.093 
-1.31404e-05 1.69631e-05 2.67994e+25 28.6515 0.232278 273.049 
-1.12291e-05 1.69631e-05 2.68096e+25 30.3758 0.100395 273.057 
-9.31775e-06 1.69631e-05 2.68401e+25 31.2893 0.0544429 272.842 
-7.40642e-06 1.69631e-05 2.68218e+25 31.762 0.0152126 272.946 
-5.49508e-06 1.69631e-05 2.68018e+25 32.1954 0.0197509 273.06 
-3.58375e-06 1.69631e-05 2.68091e+25 32.4207 0.0471679 272.942 
-1.67242e-06 1.69631e-05 2.68271e+25 32.6337 0.00322078 272.765 
-1.60074e-05 2.38917e-07 2.68477e+25 -0.237726 1.91712 272.331 
-1.40961e-05 2.38917e-07 2.68733e+25 -0.555918 4.13481 272.142 
-1.21847e-05 2.38917e-07 2.68786e+25 -1.4497 5.29049 272.23 
-1.02734e-05 2.38917e-07 2.69181e+25 -2.73857 6.03608 271.678 
-8.36208e-06 2.38917e-07 2.69127e+25 -3.58569 6.16334 271.817 
-6.45075e-06 2.38917e-07 2.68909e+25 -4.21062 5.70859 271.953 
-4.53942e-06 2.38917e-07 2.68962e+25 -5.4457 4.75846 271.793 
-2.62808e-06 2.38917e-07 2.68766e+25 -6.34929 3.69141 272.024 
-7.1675e-07 2.38917e-07 2.68868e+25 -7.16963 2.27354 272.112 
-1.60074e-05 7.1675e-07 2.68751e+25 -0.181821 2.06463 272.415 
-1.40961e-05 7.1675e-07 2.68936e+25 -0.547427 4.27201 272.131 
-1.21847e-05 7.1675e-07 2.69045e+25 -1.60399 5.6971 272.005 
-1.02734e-05 7.1675e-07 2.69284e+25 -2.90579 6.22492 271.61 
-8.36208e-06 7.1675e-07 2.6927e+25 -3.4803 6.40552 271.758 
-6.45075e-06 7.1675e-07 2.69325e+25 -4.10769 6.02209 271.758 
-4.53942e-06 7.1675e-07 2.69014e+25 -5.17214 5.04833 271.917 
-2.62808e-06 7.1675e-07 2.68882e+25 -6.1424 4.10631 272.092 
-7.1675e-07 7.1675e-07 2.69093e+25 -7.0258 2.50073 272.037 
-1.60074e-05 1.19458e-06 2.68925e+25 -0.222625 2.26564 272.25 
-1.40961e-05 1.19458e-06 2.68877e+25 -0.53078 4.35495 272.177 
-1.21847e-05 1.19458e-06 2.69381e+25 -1.73015 6.04651 271.732 
-1.02734e-05 1.19458e-06 2.69477e+25 -2.78781 6.48695 271.664 
-8.36208e-06 1.19458e-06 2.69369e+25 -3.28399 6.56029 271.763 
-6.45075e-06 1.19458e-06 2.69333e+25 -3.9514 6.17914 271.704 
-4.53942e-06 1.19458e-06 2.69089e+25 -4.93182 5.41121 271.933 
-2.62808e-06 1.19458e-06 2.69086e+25 -5.87084 4.41832 272.014 
-7.1675e-07 1.19458e-06 2.69047e+25 -6.78941 2.7197 272.018 
-1.60074e-05 1.67242e-06 2.68822e+25 0.0719767 2.32039 272.305 
-1.40961e-05 1.67242e-06 2.6906e+25 -0.699198 4.48574 272.056 
-1.21847e-05 1.67242e-06 2.69361e+25 -1.64238 6.36516 271.731 
-1.02734e-05 1.67242e-06 2.69193e+25 -2.57612 6.68584 271.843 
-8.36208e-06 1.67242e-06 2.69294e+25 -3.28725 6.62837 271.617 
-6.45075e-06 1.67242e-06 2.69272e+25 -3.89116 6.31817 271.706 
-4.53942e-06 1.67242e-06 2.69093e+25 -4.60641 5.65482 271.849 
-2.62808e-06 1.67242e-06 2.68903e+25 -5.61082 4.60607 272.055 
-7.1675e-07 1.67242e-06 2.68891e+25 -6.53183 2.87222 272.052 
-1.60074e-05 2.15025e-06 2.68748e+25 0.253364 2.27693 272.399 
-1.40961e-05 2.15025e-06 2.69032e+25 -0.691024 4.76566 272.062 
-1.21847e-05 2.15025e-06 2.69568e+25 -1.55563 6.53112 271.485 
-1.02734e-05 2.15025e-06 2.69055e+25 -2.39703 6.89632 271.909 
-8.36208e-06 2.15025e-06 2.69266e+25 -3.34558 6.72192 271.805 
-6.45075e-06 2.15025e-06 2.69479e+25 -4.12056 6.44012 271.591 
-4.53942e-06 2.15025e-06 2.6916e+25 -4.53691 5.9049 271.786 
-2.62808e-06 2.15025e-06 2.68855e+25 -5.51167 4.76359 272.1 
-7.1675e-07 2.15025e-06 2.68788e+25 -6.26839 3.08434 272.101 
-1.60074e-05 2.62808e-06 2.68859e+25 -0.0149649 2.28627 272.283 
-1.40961e-05 2.62808e-06 2.69127e+25 -0.80889 5.08267 271.97 
-1.21847e-05 2.62808e-06 2.69715e+25 -1.51332 6.72708 271.399 
-1.02734e-05 2.62808e-06 2.6917e+25 -2.34011 7.19463 271.822 
-8.36208e-06 2.62808e-06 2.6925e+25 -3.27554 6.80726 271.791 
-6.45075e-06 2.62808e-06 2.69322e+25 -4.11101 6.55963 271.648 
-4.53942e-06 2.62808e-06 2.69072e+25 -4.61429 6.04073 271.862 
-2.62808e-06 2.62808e-06 2.68753e+25 -5.23669 4.88061 272.268 
-7.1675e-07 2.62808e-06 2.68766e+25 -5.91516 3.30716 272.214 
-1.60074e-05 3.10592e-06 2.68945e+25 -0.0938329 2.31421 272.124 
-1.40961e-05 3.10592e-06 2.69283e+25 -0.63334 5.37533 271.804 
-1.21847e-05 3.10592e-06 2.69465e+25 -1.4448 6.89271 271.625 
-1.02734e-05 3.10592e-06 2.69157e+25 -2.30947 7.3796 271.835 
-8.36208e-06 3.10592e-06 2.69246e+25 -3.12662 6.98029 271.749 
-6.45075e-06 3.10592e-06 2.6919e+25 -3.93016 6.67123 271.819 
-4.53942e-06 3.10592e-06 2.68935e+25 -4.68141 6.15944 271.994 
-2.62808e-06 3.10592e-06 2.68709e+25 -4.97769 4.93215 272.231 
-7.1675e-07 3.10592e-06 2.68673e+25 -5.6087 3.65932 272.239 
-1.60074e-05 3.58375e-06 2.68915e+25 -0.102341 2.39494 272.097 
-1.40961e-05 3.58375e-06 2.692e+25 -0.341729 5.52939 271.807 
-1.21847e-05 3.58375e-06 2.69283e+25 -1.2668 7.16893 271.675 
-1.02734e-05 3.58375e-06 2.69329e+25 -2.00897 7.54591 271.727 
-8.36208e-06 3.58375e-06 2.69274e+25 -2.96294 7.31082 271.805 
-6.45075e-06 3.58375e-06 2.68902e+25 -3.76809 6.9828 271.974 
-4.53942e-06 3.58375e-06 2.68807e+25 -4.35287 6.3332 272.03 
-2.62808e-06 3.58375e-06 2.68601e+25 -4.76805 5.10584 272.205 
-7.1675e-07 3.58375e-06 2.68617e+25 -5.2411 3.84402 272.27 
-1.60074e-05 4.06158e-06 2.69031e+25 -0.0806043 2.52491 271.94 
-1.40961e-05 4.06158e-06 2.69274e+25 -0.432632 5.76747 271.71 
-1.21847e-05 4.06158e-06 2.69349e+25 -1.28095 7.3452 271.603 
-1.02734e-05 4.06158e-06 2.6927e+25 -1.58228 7.74995 271.679 
-8.36208e-06 4.06158e-06 2.69285e+25 -2.87322 7.53607 271.768 
-6.45075e-06 4.06158e-06 2.68934e+25 -3.53887 7.13773 271.999 
-4.53942e-06 4.06158e-06 2.68743e+25 -3.99001 6.34951 272.251 
-2.62808e-06 4.06158e-06 2.68867e+25 -4.41874 5.24127 272.098 
-7.1675e-07 4.06158e-06 2.68584e+25 -4.83377 3.91199 272.397 
-1.60074e-05 4.53942e-06 2.68924e+25 -0.176126 2.5885 272.14 
-1.40961e-05 4.53942e-06 2.69094e+25 -0.628725 5.96251 271.81 
-1.21847e-05 4.53942e-06 2.69295e+25 -1.00913 7.47299 271.691 
-1.02734e-05 4.53942e-06 2.6934e+25 -1.49798 7.88768 271.667 
-8.36208e-06 4.53942e-06 2.69456e+25 -2.62723 7.77717 271.564 
-6.45075e-06 4.53942e-06 2.68987e+25 -3.23403 7.28573 271.946 
-4.53942e-06 4.53942e-06 2.68647e+25 -3.57391 6.37509 272.299 
-2.62808e-06 4.53942e-06 2.6884e+25 -4.04438 5.37279 272.066 
-7.1675e-07 4.53942e-06 2.68553e+25 -4.48635 4.03357 272.347 
-1.60074e-05 5.01725e-06 2.69051e+25 -0.116987 2.66969 272.07 
-1.40961e-05 5.01725e-06 2.69086e+25 -0.643823 5.95205 271.837 
-1.21847e-05 5.01725e-06 2.69187e+25 -0.865927 7.59951 271.87 
-1.02734e-05 5.01725e-06 2.6924e+25 -1.57609 8.0343 271.636 
-8.36208e-06 5.01725e-06 2.69047e+25 -2.21743 8.14277 271.769 
-6.45075e-06 5.01725e-06 2.68889e+25 -2.89634 7.37834 271.975 
-4.53942e-06 5.01725e-06 2.68941e+25 -3.35769 6.48579 272.064 
-2.62808e-06 5.01725e-06 2.68902e+25 -3.70349 5.53161 272.014 
-7.1675e-07 5.01725e-06 2.6862e+25 -4.27964 4.14431 272.157 
-1.60074e-05 5.49508e-06 2.68927e+25 -0.191197 2.78761 272.079 
-1.40961e-05 5.49508e-06 2.68906e+25 -0.750114 5.97039 271.903 
-1.21847e-05 5.49508e-06 2.69212e+25 -0.908914 7.83032 271.735 
-1.02734e-05 5.49508e-06 2.69288e+25 -1.64062 8.19351 271.693 
-8.36208e-06 5.49508e-06 2.69237e+25 -2.05746 8.41853 271.686 
-6.45075e-06 5.49508e-06 2.69098e+25 -2.74699 7.47284 271.909 
-4.53942e-06 5.49508e-06 2.68959e+25 -3.12673 6.66418 271.905 
-2.62808e-06 5.49508e-06 2.68963e+25 -3.31589 5.60483 271.975 
-7.1675e-07 5.49508e-06 2.68662e+25 -3.88579 4.21553 271.966 
-1.60074e-05 5.97292e-06 2.68937e+25 -0.198968 2.80658 272.134 
-1.40961e-05 5.97292e-06 2.68948e+25 -0.722989 6.05404 271.974 
-1.21847e-05 5.97292e-06 2.69129e+25 -0.968276 8.04116 271.784 
-1.02734e-05 5.97292e-06 2.69288e+25 -1.60997 8.17415 271.663 
-8.36208e-06 5.97292e-06 2.69266e+25 -2.09043 8.56819 271.67 
-6.45075e-06 5.97292e-06 2.69063e+25 -2.49965 7.55319 271.802 
-4.53942e-06 5.97292e-06 2.69022e+25 -2.81 6.68977 271.914 
-2.62808e-06 5.97292e-06 2.68986e+25 -3.09479 5.75807 271.889 
-7.1675e-07 5.97292e-06 2.68639e+25 -3.49567 4.25527 272.125 
-1.60074e-05 6.45075e-06 2.68782e+25 -0.0821435 2.83622 272.163 
-1.40961e-05 6.45075e-06 2.68931e+25 -0.78738 6.15974 271.901 
-1.21847e-05 6.45075e-06 2.69108e+25 -1.1174 8.10009 271.894 
-1.02734e-05 6.45075e-06 2.6933e+25 -1.63437 8.25744 271.611 
-8.36208e-06 6.45075e-06 2.69402e+25 -1.99154 8.51372 271.625 
-6.45075e-06 6.45075e-06 2.69196e+25 -2.24105 7.53911 271.813 
-4.53942e-06 6.45075e-06 2.68991e+25 -2.4083 6.68364 271.898 
-2.62808e-06 6.45075e-06 2.68913e+25 -2.72455 5.85092 271.945 
-7.1675e-07 6.45075e-06 2.68803e+25 -2.8158 4.26019 271.981 
-1.60074e-05 6.92858e-06 2.68559e+25 -0.0458344 2.98875 272.335 
-1.40961e-05 6.92858e-06 2.69159e+25 -0.711128 6.35161 271.819 
-1.21847e-05 6.92858e-06 2.69104e+25 -1.17578 8.03029 271.814 
-1.02734e-05 6.92858e-06 2.69097e+25 -1.43467 8.5597 271.639 
-8.36208e-06 6.92858e-06 2.6911e+25 -1.74099 8.60605 271.719 
-6.45075e-06 6.92858e-06 2.68861e+25 -1.9885 7.54762 271.918 
-4.53942e-06 6.92858e-06 2.69089e+25 -1.98511 6.68704 271.87 
-2.62808e-06 6.92858e-06 2.68915e+25 -2.07698 5.99415 271.864 
-7.1675e-07 6.92858e-06 2.6887e+25 -2.41907 4.3064 271.881 
-1.60074e-05 7.40642e-06 2.6871e+25 -0.129593 3.13398 272.24 
-1.40961e-05 7.40642e-06 2.69006e+25 -0.594544 6.53383 271.944 
-1.21847e-05 7.40642e-06 2.6903e+25 -1.28431 8.09374 271.784 
-1.02734e-05 7.40642e-06 2.69187e+25 -1.30465 8.73273 271.791 
-8.36208e-06 7.40642e-06 2.68997e+25 -1.6701 8.66553 271.749 
-6.45075e-06 7.40642e-06 2.69095e+25 -1.67126 7.58162 271.699 
-4.53942e-06 7.40642e-06 2.68863e+25 -1.61621 6.78574 272.108 
-2.62808e-06 7.40642e-06 2.68804e+25 -1.53762 6.01374 271.991 
-7.1675e-07 7.40642e-06 2.68912e+25 -1.72669 4.34486 271.838 
-1.60074e-05 7.88425e-06 2.68488e+25 -0.0900897 3.20413 272.4 
-1.40961e-05 7.88425e-06 2.68965e+25 -0.555562 6.72237 271.884 
-1.21847e-05 7.88425e-06 2.69201e+25 -1.2802 8.19896 271.694 
-1.02734e-05 7.88425e-06 2.69081e+25 -1.36429 8.76113 271.84 
-8.36208e-06 7.88425e-06 2.68949e+25 -1.52475 8.67166 271.884 
-6.45075e-06 7.88425e-06 2.69076e+25 -1.40294 7.54245 271.843 
-4.53942e-06 7.88425e-06 2.68681e+25 -1.1751 6.80355 272.212 
-2.62808e-06 7.88425e-06 2.68812e+25 -1.23125 5.85604 272.006 
-7.1675e-07 7.88425e-06 2.68836e+25 -0.945918 4.2888 271.869 
-1.60074e-05 8.36208e-06 2.68536e+25 -0.130815 3.33851 272.245 
-1.40961e-05 8.36208e-06 2.68862e+25 -0.581051 6.87506 271.941 
-1.21847e-05 8.36208e-06 2.69133e+25 -1.68845 8.12745 271.697 
-1.02734e-05 8.36208e-06 2.69047e+25 -1.51779 8.73298 271.9 
-8.36208e-06 8.36208e-06 2.68826e+25 -1.44915 8.64577 271.978 
-6.45075e-06 8.36208e-06 2.68806e+25 -0.988679 7.57563 272.044 
-4.53942e-06 8.36208e-06 2.68769e+25 -0.745017 6.61929 272.121 
-2.62808e-06 8.36208e-06 2.68673e+25 -0.650654 5.69451 271.892 
-7.1675e-07 8.36208e-06 2.68873e+25 -0.0503716 4.33508 272.005 
-1.60074e-05 8.83992e-06 2.6854e+25 -0.212224 3.49796 272.325 
-1.40961e-05 8.83992e-06 2.68754e+25 -0.726762 6.98165 272.007 
-1.21847e-05 8.83992e-06 2.68973e+25 -1.82162 8.29838 271.808 
-1.02734e-05 8.83992e-06 2.68974e+25 -1.82231 8.73373 271.906 
-8.36208e-06 8.83992e-06 2.68818e+25 -1.52285 8.51331 271.992 
-6.45075e-06 8.83992e-06 2.68599e+25 -0.738004 7.62819 272.261 
-4.53942e-06 8.83992e-06 2.68781e+25 -0.299637 6.41754 272.112 
-2.62808e-06 8.83992e-06 2.68773e+25 0.172744 5.61985 271.949 
-7.1675e-07 8.83992e-06 2.68771e+25 0.742246 4.29029 272.054 
-1.60074e-05 9.31775e-06 2.68635e+25 -0.335353 3.6539 272.359 
-1.40961e-05 9.31775e-06 2.68684e+25 -1.05947 7.25585 272.041 
-1.21847e-05 9.31775e-06 2.69047e+25 -2.03701 8.57553 271.788 
-1.02734e-05 9.31775e-06 2.68973e+25 -2.13833 8.69127 271.993 
-8.36208e-06 9.31775e-06 2.68961e+25 -1.52434 8.36188 271.991 
-6.45075e-06 9.31775e-06 2.68676e+25 -0.650299 7.51407 272.184 
-4.53942e-06 9.31775e-06 2.68988e+25 0.192 6.18045 271.878 
-2.62808e-06 9.31775e-06 2.68734e+25 0.877389 5.52556 271.956 
-7.1675e-07 9.31775e-06 2.68729e+25 1.44829 4.17672 272.08 
-1.60074e-05 9.79558e-06 2.68566e+25 -0.351143 3.79785 272.335 
-1.40961e-05 9.79558e-06 2.68602e+25 -1.31357 7.60092 272.098 
-1.21847e-05 9.79558e-06 2.69164e+25 -2.01483 8.69571 271.727 
-1.02734e-05 9.79558e-06 2.68985e+25 -2.28818 8.5644 271.793 
-8.36208e-06 9.79558e-06 2.6893e+25 -1.26083 8.23496 271.893 
-6.45075e-06 9.79558e-06 2.68799e+25 -0.696299 7.23772 272.029 
-4.53942e-06 9.79558e-06 2.68931e+25 0.705087 5.95105 271.996 
-2.62808e-06 9.79558e-06 2.68546e+25 1.73777 5.38477 272.097 
-7.1675e-07 9.79558e-06 2.68639e+25 2.20265 4.06586 272.021 
-1.60074e-05 1.02734e-05 2.6844e+25 -0.38732 3.89562 272.346 
-1.40961e-05 1.02734e-05 2.68754e+25 -1.70021 7.93778 272.055 
-1.21847e-05 1.02734e-05 2.69222e+25 -2.12761 8.78333 271.666 
-1.02734e-05 1.02734e-05 2.68823e+25 -2.06918 8.28278 271.964 
-8.36208e-06 1.02734e-05 2.6885e+25 -1.10217 7.88065 272.074 
-6.45075e-06 1.02734e-05 2.68916e+25 -0.246064 6.96671 271.959 
-4.53942e-06 1.02734e-05 2.68919e+25 1.12013 5.72451 271.929 
-2.62808e-06 1.02734e-05 2.68599e+25 2.34467 5.18345 272.082 
-7.1675e-07 1.02734e-05 2.68744e+25 3.43851 3.83702 272.014 
-1.60074e-05 1.07512e-05 2.68347e+25 -0.457274 4.16076 272.32 
-1.40961e-05 1.07512e-05 2.68806e+25 -1.7096 8.24084 271.929 
-1.21847e-05 1.07512e-05 2.69074e+25 -2.20895 8.77141 271.757 
-1.02734e-05 1.07512e-05 2.69092e+25 -1.85013 8.1292 271.779 
-8.36208e-06 1.07512e-05 2.68842e+25 -1.00829 7.62348 272.11 
-6.45075e-06 1.07512e-05 2.68955e+25 0.323422 6.5792 271.963 
-4.53942e-06 1.07512e-05 2.6895e+25 1.79145 5.401 271.931 
-2.62808e-06 1.07512e-05 2.68721e+25 3.24599 4.89219 271.976 
-7.1675e-07 1.07512e-05 2.68642e+25 4.39316 3.6484 272.127 
-1.60074e-05 1.12291e-05 2.68605e+25 -0.419003 4.57596 272.181 
-1.40961e-05 1.12291e-05 2.6856e+25 -1.94576 8.3924 272.083 
-1.21847e-05 1.12291e-05 2.69058e+25 -2.24524 8.71033 271.768 
-1.02734e-05 1.12291e-05 2.69232e+25 -1.79527 7.99912 271.691 
-8.36208e-06 1.12291e-05 2.68828e+25 -0.53598 7.28504 272.1 
-6.45075e-06 1.12291e-05 2.68928e+25 1.08269 6.17996 272.048 
-4.53942e-06 1.12291e-05 2.68841e+25 2.42335 5.07218 271.953 
-2.62808e-06 1.12291e-05 2.68731e+25 3.94678 4.47748 271.992 
-7.1675e-07 1.12291e-05 2.68586e+25 5.43383 3.46795 272.067 
-1.60074e-05 1.17069e-05 2.68415e+25 -0.582236 4.91414 272.269 
-1.40961e-05 1.17069e-05 2.68517e+25 -2.09775 8.56477 272.16 
-1.21847e-05 1.17069e-05 2.6891e+25 -2.37667 8.69717 271.842 
-1.02734e-05 1.17069e-05 2.68994e+25 -1.62746 7.68592 271.888 
-8.36208e-06 1.17069e-05 2.68702e+25 0.0327369 6.83532 272.061 
-6.45075e-06 1.17069e-05 2.68777e+25 1.93217 5.73198 272.152 
-4.53942e-06 1.17069e-05 2.68866e+25 3.31389 4.79518 271.904 
-2.62808e-06 1.17069e-05 2.68909e+25 5.1656 3.97489 271.929 
-7.1675e-07 1.17069e-05 2.68875e+25 6.68303 3.2597 271.944 
-1.60074e-05 1.21847e-05 2.68289e+25 -0.699142 5.37971 272.338 
-1.40961e-05 1.21847e-05 2.6861e+25 -2.25714 8.77101 272.044 
-1.21847e-05 1.21847e-05 2.68837e+25 -2.44529 8.54186 271.885 
-1.02734e-05 1.21847e-05 2.69059e+25 -1.29706 7.31306 271.885 
-8.36208e-06 1.21847e-05 2.68944e+25 0.588615 6.34984 272.101 
-6.45075e-06 1.21847e-05 2.68758e+25 2.70468 5.27583 272.136 
-4.53942e-06 1.21847e-05 2.68994e+25 4.22762 4.37525 271.921 
-2.62808e-06 1.21847e-05 2.68945e+25 6.34413 3.43495 271.999 
-7.1675e-07 1.21847e-05 2.68708e+25 7.98638 3.04283 271.993 
-1.60074e-05 1.26626e-05 2.68232e+25 -1.04372 5.92251 272.285 
-1.40961e-05 1.26626e-05 2.68513e+25 -2.55543 8.95836 272.114 
-1.21847e-05 1.26626e-05 2.68892e+25 -2.28779 8.31911 271.903 
-1.02734e-05 1.26626e-05 2.68738e+25 -0.678641 6.79996 272.013 
-8.36208e-06 1.26626e-05 2.68419e+25 1.58284 5.94586 272.304 
-6.45075e-06 1.26626e-05 2.68696e+25 3.74278 4.80801 272.182 
-4.53942e-06 1.26626e-05 2.68743e+25 5.73072 3.95594 272.127 
-2.62808e-06 1.26626e-05 2.68739e+25 7.86781 2.88204 272.065 
-7.1675e-07 1.26626e-05 2.68524e+25 9.71544 2.57707 272.14 
-1.60074e-05 1.31404e-05 2.68306e+25 -1.27525 6.6011 272.274 
-1.40961e-05 1.31404e-05 2.68636e+25 -3.40039 9.14868 271.949 
-1.21847e-05 1.31404e-05 2.68747e+25 -2.13091 7.91646 271.975 
-1.02734e-05 1.31404e-05 2.68764e+25 0.305549 6.18973 272.019 
-8.36208e-06 1.31404e-05 2.68491e+25 2.93271 5.25494 272.401 
-6.45075e-06 1.31404e-05 2.68695e+25 5.16318 4.21209 272.237 
-4.53942e-06 1.31404e-05 2.68473e+25 7.51195 3.51572 272.351 
-2.62808e-06 1.31404e-05 2.68877e+25 9.58518 2.41408 272.038 
-7.1675e-07 1.31404e-05 2.68701e+25 11.3238 2.12549 272.122 
-1.60074e-05 1.36182e-05 2.68048e+25 -1.70676 7.32714 272.356 
-1.40961e-05 1.36182e-05 2.6864e+25 -3.36966 9.1491 271.892 
-1.21847e-05 1.36182e-05 2.68487e+25 -1.54826 7.42154 272.307 
-1.02734e-05 1.36182e-05 2.68677e+25 1.53085 5.47439 272.107 
-8.36208e-06 1.36182e-05 2.68663e+25 4.53228 4.56694 272.383 
-6.45075e-06 1.36182e-05 2.68567e+25 7.14204 3.68353 272.305 
-4.53942e-06 1.36182e-05 2.68624e+25 9.70372 2.94354 272.314 
-2.62808e-06 1.36182e-05 2.68772e+25 11.5831 2.15972 271.969 
-7.1675e-07 1.36182e-05 2.68595e+25 13.0469 1.70258 272.218 
-1.60074e-05 1.40961e-05 2.6787e+25 -1.85229 8.30116 272.263 
-1.40961e-05 1.40961e-05 2.68509e+25 -3.13483 8.92008 271.894 
-1.21847e-05 1.40961e-05 2.68616e+25 -0.289363 6.73837 272.162 
-1.02734e-05 1.40961e-05 2.68593e+25 3.29581 4.7522 272.27 
-8.36208e-06 1.40961e-05 2.68928e+25 6.43164 3.7674 272.197 
-6.45075e-06 1.40961e-05 2.68657e+25 9.53892 3.04429 272.353 
-4.53942e-06 1.40961e-05 2.6857e+25 12.0895 2.24514 272.383 
-2.62808e-06 1.40961e-05 2.68837e+25 13.7868 1.72405 272.087 
-7.1675e-07 1.40961e-05 2.68491e+25 14.9747 1.29839 272.335 
-1.60074e-05 1.45739e-05 2.6756e+25 -2.36415 9.30582 272.23 
-1.40961e-05 1.45739e-05 2.68279e+25 -2.28389 8.43946 272.104 
-1.21847e-05 1.45739e-05 2.68677e+25 1.68372 5.81655 272.082 
-1.02734e-05 1.45739e-05 2.68648e+25 5.65114 3.96587 272.28 
-8.36208e-06 1.45739e-05 2.68873e+25 9.03751 2.88373 272.149 
-6.45075e-06 1.45739e-05 2.68781e+25 12.1431 2.34485 272.241 
-4.53942e-06 1.45739e-05 2.68533e+25 14.6451 1.64236 272.312 
-2.62808e-06 1.45739e-05 2.68555e+25 16.1685 1.31653 272.283 
-7.1675e-07 1.45739e-05 2.68503e+25 17.5517 0.936792 272.311 
-1.60074e-05 1.50518e-05 2.67168e+25 -2.93417 10.1624 272.45 
-1.40961e-05 1.50518e-05 2.68163e+25 -0.691356 7.36636 272.171 
-1.21847e-05 1.50518e-05 2.68486e+25 4.55746 4.5794 272.338 
-1.02734e-05 1.50518e-05 2.68755e+25 8.87274 3.11241 272.289 
-8.36208e-06 1.50518e-05 2.68585e+25 12.3396 2.06694 272.347 
-6.45075e-06 1.50518e-05 2.68658e+25 15.0858 1.69874 272.296 
-4.53942e-06 1.50518e-05 2.68419e+25 17.2952 1.06475 272.444 
-2.62808e-06 1.50518e-05 2.68608e+25 19.0926 0.944463 272.395 
-7.1675e-07 1.50518e-05 2.68624e+25 20.3404 0.628435 272.253 
-1.60074e-05 1.55296e-05 2.67052e+25 -2.8779 10.5788 272.465 
-1.40961e-05 1.55296e-05 2.68124e+25 2.49799 5.81819 272.308 
-1.21847e-05 1.55296e-05 2.68157e+25 8.85667 3.20981 272.701 
-1.02734e-05 1.55296e-05 2.68573e+25 13.1474 2.18489 272.406 
-8.36208e-06 1.55296e-05 2.68608e+25 16.53 1.21974 272.423 
-6.45075e-06 1.55296e-05 2.68447e+25 18.9376 1.09828 272.479 
-4.53942e-06 1.55296e-05 2.68456e+25 20.7996 0.642444 272.491 
-2.62808e-06 1.55296e-05 2.68256e+25 22.3513 0.614815 272.582 
-7.1675e-07 1.55296e-05 2.68416e+25 23.4871 0.277636 272.412 
-1.60074e-05 1.60074e-05 2.6634e+25 -0.99757 9.86897 272.815 
-1.40961e-05 1.60074e-05 2.67873e+25 8.24718 3.877 272.45 
-1.21847e-05 1.60074e-05 2.68103e+25 14.4736 1.95971 272.744 
-1.02734e-05 1.60074e-05 2.68491e+25 18.5339 1.27672 272.565 
-8.36208e-06 1.60074e-05 2.68506e+25 21.1728 0.626121 272.562 
-6.45075e-06 1.60074e-05 2.68115e+25 23.2756 0.66942 272.89 
-4.53942e-06 1.60074e-05 2.68285e+25 24.743 0.305954 272.806 
-2.62808e-06 1.60074e-05 2.68336e+25 25.7806 0.337859 272.546 
-7.1675e-07 1.60074e-05 2.68507e+25 26.5619 0.160609 272.442 
-1.60074e-05 1.64852e-05 2.6551e+25 4.78172 7.00244 273.196 
-1.40961e-05 1.64852e-05 2.68023e+25 16.6504 1.93493 272.571 
-1.21847e-05 1.64852e-05 2.68012e+25 21.7579 0.916616 272.97 
-1.02734e-05 1.64852e-05 2.68276e+25 24.6106 0.49065 272.823 
-8.36208e-06 1.64852e-05 2.68361e+25 26.4508 0.2353 272.665 
-6.45075e-06 1.64852e-05 2.68118e+25 27.8741 0.286974 273.039 
-4.53942e-06 1.64852e-05 2.68283e+25 28.6493 0.139946 272.792 
-2.62808e-06 1.64852e-05 2.68374e+25 29.2342 0.0798263 272.546 
-7.1675e-07 1.64852e-05 2.68271e+25 29.9067 0.113869 272.594 
-1.60074e-05 1.69631e-05 2.65109e+25 18.2782 2.17874 273.466 
-1.40961e-05 1.69631e-05 2.6792e+25 27.105 0.466742 272.832 
-1.21847e-05 1.69631e-05 2.67996e+25 29.6066 0.213051 273.05 
-1.02734e-05 1.69631e-05 2.68122e+25 30.8231 0.074149 273.017 
-8.36208e-06 1.69631e-05 2.68226e+25 31.4856 0.0555153 272.922 
-6.45075e-06 1.69631e-05 2.68268e+25 31.9935 0.0733928 273.031 
-4.53942e-06 1.69631e-05 2.68039e+25 32.2863 0.0722259 272.926 
-2.62808e-06 1.69631e-05 2.6813e+25 32.6497 -0.0168758 272.739 
-7.1675e-07 1.69631e-05 2.68059e+25 32.8524 0.0509671 272.854 
-1.55296e-05 2.38917e-07 2.68652e+25 -0.341576 2.63676 272.22 
-1.36182e-05 2.38917e-07 2.68766e+25 -0.622701 4.50209 272.069 
-1.17069e-05 2.38917e-07 2.68638e+25 -1.7892 5.64067 272.139 
-9.79558e-06 2.38917e-07 2.69142e+25 -2.96406 5.85407 271.726 
-7.88425e-06 2.38917e-07 2.69145e+25 -3.80415 6.10633 271.825 
-5.97292e-06 2.38917e-07 2.69037e+25 -4.459 5.52614 271.797 
-4.06158e-06 2.38917e-07 2.69075e+25 -5.59943 4.57531 271.757 
-2.15025e-06 2.38917e-07 2.68722e+25 -6.6168 3.4025 272.095 
-2.38917e-07 2.38917e-07 2.68559e+25 -7.26739 1.96918 272.146 
-1.55296e-05 7.1675e-07 2.69016e+25 -0.339554 2.69772 272.208 
-1.36182e-05 7.1675e-07 2.69007e+25 -0.569197 4.48985 272.159 
-1.17069e-05 7.1675e-07 2.69063e+25 -1.99013 6.02526 271.99 
-9.79558e-06 7.1675e-07 2.69026e+25 -3.01105 6.01816 271.861 
-7.88425e-06 7.1675e-07 2.69266e+25 -3.6236 6.20536 271.789 
-5.97292e-06 7.1675e-07 2.69267e+25 -4.36872 5.7763 271.796 
-4.06158e-06 7.1675e-07 2.69012e+25 -5.46811 4.74696 271.949 
-2.15025e-06 7.1675e-07 2.68986e+25 -6.47364 3.66701 272.117 
-2.38917e-07 7.1675e-07 2.6858e+25 -7.25263 2.11842 272.054 
-1.55296e-05 1.19458e-06 2.69136e+25 -0.344023 2.74195 272.015 
-1.36182e-05 1.19458e-06 2.69063e+25 -0.755815 4.65783 272.129 
-1.17069e-05 1.19458e-06 2.69219e+25 -1.96777 6.2583 271.851 
-9.79558e-06 1.19458e-06 2.69206e+25 -3.02087 6.08356 271.78 
-7.88425e-06 1.19458e-06 2.69347e+25 -3.40508 6.3533 271.766 
-5.97292e-06 1.19458e-06 2.69405e+25 -4.1474 6.06459 271.665 
-4.06158e-06 1.19458e-06 2.68951e+25 -5.24627 4.95463 272.034 
-2.15025e-06 1.19458e-06 2.68976e+25 -6.13663 3.92968 272.059 
-2.38917e-07 1.19458e-06 2.6875e+25 -6.89262 2.27917 271.976 
-1.55296e-05 1.67242e-06 2.6902e+25 0.0358808 2.88226 272.067 
-1.36182e-05 1.67242e-06 2.69078e+25 -0.894585 4.95893 272.011 
-1.17069e-05 1.67242e-06 2.68921e+25 -1.82019 6.45225 271.972 
-9.79558e-06 1.67242e-06 2.69022e+25 -2.87862 6.37194 271.936 
-7.88425e-06 1.67242e-06 2.69267e+25 -3.44524 6.53439 271.769 
-5.97292e-06 1.67242e-06 2.69327e+25 -4.02172 6.2171 271.682 
-4.06158e-06 1.67242e-06 2.69046e+25 -4.97744 5.37089 272.012 
-2.15025e-06 1.67242e-06 2.68892e+25 -5.87127 4.2132 272.028 
-2.38917e-07 1.67242e-06 2.68651e+25 -6.68691 2.39202 271.965 
-1.55296e-05 2.15025e-06 2.68836e+25 0.149617 3.09379 272.187 
-1.36182e-05 2.15025e-06 2.68898e+25 -1.06054 5.2365 272.028 
-1.17069e-05 2.15025e-06 2.69379e+25 -1.795 6.66619 271.594 
-9.79558e-06 2.15025e-06 2.69129e+25 -2.70056 6.70061 271.879 
-7.88425e-06 2.15025e-06 2.69284e+25 -3.49416 6.76493 271.821 
-5.97292e-06 2.15025e-06 2.69279e+25 -4.225 6.28167 271.694 
-4.06158e-06 2.15025e-06 2.69036e+25 -4.79159 5.67273 271.862 
-2.15025e-06 2.15025e-06 2.68697e+25 -5.62114 4.45139 272.158 
-2.38917e-07 2.15025e-06 2.68637e+25 -6.56576 2.56564 272.08 
-1.55296e-05 2.62808e-06 2.68891e+25 -0.186033 3.3094 272.183 
-1.36182e-05 2.62808e-06 2.69282e+25 -1.02905 5.50713 271.806 
-1.17069e-05 2.62808e-06 2.69609e+25 -1.75045 6.9141 271.439 
-9.79558e-06 2.62808e-06 2.69181e+25 -2.62874 7.04967 271.905 
-7.88425e-06 2.62808e-06 2.69338e+25 -3.41493 6.9126 271.756 
-5.97292e-06 2.62808e-06 2.69162e+25 -4.17962 6.37519 271.821 
-4.06158e-06 2.62808e-06 2.68986e+25 -4.69436 5.89326 271.969 
-2.15025e-06 2.62808e-06 2.68684e+25 -5.30726 4.50742 272.353 
-2.38917e-07 2.62808e-06 2.68542e+25 -6.15139 2.86424 272.146 
-1.55296e-05 3.10592e-06 2.6893e+25 -0.0647171 3.31441 272.176 
-1.36182e-05 3.10592e-06 2.69456e+25 -0.78551 5.63597 271.801 
-1.17069e-05 3.10592e-06 2.69502e+25 -1.71781 7.21882 271.554 
-9.79558e-06 3.10592e-06 2.69174e+25 -2.44753 7.29804 271.862 
-7.88425e-06 3.10592e-06 2.69328e+25 -3.3627 7.08506 271.738 
-5.97292e-06 3.10592e-06 2.69113e+25 -4.15387 6.58856 271.806 
-4.06158e-06 3.10592e-06 2.69091e+25 -4.78121 5.93714 271.992 
-2.15025e-06 3.10592e-06 2.68751e+25 -5.08664 4.59928 272.229 
-2.38917e-07 3.10592e-06 2.68344e+25 -5.92015 3.0901 272.214 
-1.55296e-05 3.58375e-06 2.6904e+25 -0.142904 3.25267 272.133 
-1.36182e-05 3.58375e-06 2.6937e+25 -0.597956 5.8926 271.705 
-1.17069e-05 3.58375e-06 2.69307e+25 -1.43154 7.40834 271.648 
-9.79558e-06 3.58375e-06 2.69307e+25 -2.13229 7.40241 271.707 
-7.88425e-06 3.58375e-06 2.6924e+25 -3.24876 7.36012 271.773 
-5.97292e-06 3.58375e-06 2.68996e+25 -3.98628 6.78487 271.783 
-4.06158e-06 3.58375e-06 2.68799e+25 -4.40929 5.95591 272.162 
-2.15025e-06 3.58375e-06 2.68671e+25 -4.92896 4.75274 272.162 
-2.38917e-07 3.58375e-06 2.68262e+25 -5.45914 3.40038 272.276 
-1.55296e-05 4.06158e-06 2.6903e+25 -0.175958 3.2645 271.97 
-1.36182e-05 4.06158e-06 2.69326e+25 -0.670841 6.13781 271.715 
-1.17069e-05 4.06158e-06 2.69441e+25 -1.29067 7.41078 271.695 
-9.79558e-06 4.06158e-06 2.69266e+25 -1.88163 7.67948 271.74 
-7.88425e-06 4.06158e-06 2.69088e+25 -3.06746 7.56255 271.895 
-5.97292e-06 4.06158e-06 2.68972e+25 -3.6447 6.90568 272.05 
-4.06158e-06 4.06158e-06 2.68754e+25 -4.02103 6.01636 272.157 
-2.15025e-06 4.06158e-06 2.68862e+25 -4.59025 4.92885 272.055 
-2.38917e-07 4.06158e-06 2.68304e+25 -4.94768 3.69743 272.249 
-1.55296e-05 4.53942e-06 2.68873e+25 -0.229099 3.34185 272.047 
-1.36182e-05 4.53942e-06 2.69178e+25 -0.761775 6.3288 271.817 
-1.17069e-05 4.53942e-06 2.69242e+25 -1.10332 7.40649 271.716 
-9.79558e-06 4.53942e-06 2.69119e+25 -1.60555 7.94371 271.735 
-7.88425e-06 4.53942e-06 2.69095e+25 -2.85606 7.72282 271.849 
-5.97292e-06 4.53942e-06 2.68958e+25 -3.30798 6.99267 271.959 
-4.06158e-06 4.53942e-06 2.68493e+25 -3.67489 6.1626 272.234 
-2.15025e-06 4.53942e-06 2.68745e+25 -4.18219 5.01892 272.052 
-2.38917e-07 4.53942e-06 2.68327e+25 -4.64437 3.84761 272.348 
-1.55296e-05 5.01725e-06 2.6887e+25 -0.325259 3.53285 272.077 
-1.36182e-05 5.01725e-06 2.69011e+25 -0.600145 6.37463 271.882 
-1.17069e-05 5.01725e-06 2.69209e+25 -1.03811 7.59368 271.802 
-9.79558e-06 5.01725e-06 2.69231e+25 -1.69481 8.07354 271.755 
-7.88425e-06 5.01725e-06 2.69138e+25 -2.57128 7.95316 271.952 
-5.97292e-06 5.01725e-06 2.68871e+25 -2.98798 7.09738 271.942 
-4.06158e-06 5.01725e-06 2.68717e+25 -3.51807 6.26089 272.169 
-2.15025e-06 5.01725e-06 2.68739e+25 -3.81224 5.12009 272.053 
-2.38917e-07 5.01725e-06 2.68534e+25 -4.32433 3.95979 272.173 
-1.55296e-05 5.49508e-06 2.68949e+25 -0.276755 3.71155 272.075 
-1.36182e-05 5.49508e-06 2.69261e+25 -0.792099 6.36446 271.773 
-1.17069e-05 5.49508e-06 2.69118e+25 -1.21865 7.91391 271.726 
-9.79558e-06 5.49508e-06 2.69117e+25 -1.71344 8.16331 271.735 
-7.88425e-06 5.49508e-06 2.69135e+25 -2.30738 8.27175 271.749 
-5.97292e-06 5.49508e-06 2.69171e+25 -2.85261 7.11739 271.898 
-4.06158e-06 5.49508e-06 2.68831e+25 -3.11251 6.30332 271.999 
-2.15025e-06 5.49508e-06 2.68783e+25 -3.45578 5.28032 271.977 
-2.38917e-07 5.49508e-06 2.68566e+25 -3.93276 3.97452 272.108 
-1.55296e-05 5.97292e-06 2.68665e+25 -0.284296 3.86324 272.192 
-1.36182e-05 5.97292e-06 2.69156e+25 -0.719519 6.37319 271.778 
-1.17069e-05 5.97292e-06 2.69063e+25 -1.1607 8.20038 271.815 
-9.79558e-06 5.97292e-06 2.69165e+25 -1.69567 8.2522 271.674 
-7.88425e-06 5.97292e-06 2.69286e+25 -2.14211 8.41264 271.645 
-5.97292e-06 5.97292e-06 2.68964e+25 -2.54634 7.20378 271.856 
-4.06158e-06 5.97292e-06 2.68999e+25 -2.77646 6.25714 271.904 
-2.15025e-06 5.97292e-06 2.68887e+25 -3.24214 5.45098 271.925 
-2.38917e-07 5.97292e-06 2.68319e+25 -3.45042 3.93225 272.118 
-1.55296e-05 6.45075e-06 2.6864e+25 -0.116078 3.94881 272.182 
-1.36182e-05 6.45075e-06 2.69134e+25 -0.902168 6.47787 271.796 
-1.17069e-05 6.45075e-06 2.6923e+25 -1.09792 8.2903 271.734 
-9.79558e-06 6.45075e-06 2.69333e+25 -1.79396 8.42604 271.68 
-7.88425e-06 6.45075e-06 2.69296e+25 -2.08013 8.49858 271.676 
-5.97292e-06 6.45075e-06 2.68992e+25 -2.34256 7.3623 271.979 
-4.06158e-06 6.45075e-06 2.68817e+25 -2.40591 6.27057 272.028 
-2.15025e-06 6.45075e-06 2.68979e+25 -2.74863 5.53339 271.822 
-2.38917e-07 6.45075e-06 2.68665e+25 -2.85191 3.95488 271.932 
-1.55296e-05 6.92858e-06 2.68535e+25 -0.220899 4.13028 272.361 
-1.36182e-05 6.92858e-06 2.69143e+25 -0.9197 6.61183 271.832 
-1.17069e-05 6.92858e-06 2.69243e+25 -1.15394 8.29094 271.634 
-9.79558e-06 6.92858e-06 2.69319e+25 -1.68469 8.61119 271.611 
-7.88425e-06 6.92858e-06 2.69193e+25 -1.81448 8.60282 271.633 
-5.97292e-06 6.92858e-06 2.6877e+25 -1.93362 7.41211 272.033 
-4.06158e-06 6.92858e-06 2.69013e+25 -2.04394 6.26012 271.849 
-2.15025e-06 6.92858e-06 2.692e+25 -2.16593 5.52779 271.73 
-2.38917e-07 6.92858e-06 2.6855e+25 -2.38473 3.91262 271.838 
-1.55296e-05 7.40642e-06 2.68695e+25 -0.248517 4.23229 272.266 
-1.36182e-05 7.40642e-06 2.68984e+25 -0.812181 6.77775 271.901 
-1.17069e-05 7.40642e-06 2.69302e+25 -1.37728 8.31262 271.657 
-9.79558e-06 7.40642e-06 2.69041e+25 -1.44405 8.75561 271.805 
-7.88425e-06 7.40642e-06 2.69185e+25 -1.62384 8.63657 271.715 
-5.97292e-06 7.40642e-06 2.6909e+25 -1.6909 7.3219 271.818 
-4.06158e-06 7.40642e-06 2.6885e+25 -1.70012 6.28722 272.057 
-2.15025e-06 7.40642e-06 2.68973e+25 -1.47663 5.56335 271.82 
-2.38917e-07 7.40642e-06 2.68645e+25 -1.71793 3.86983 271.836 
-1.55296e-05 7.88425e-06 2.68673e+25 -0.265601 4.45288 272.269 
-1.36182e-05 7.88425e-06 2.69034e+25 -0.758103 6.96737 271.872 
-1.17069e-05 7.88425e-06 2.6927e+25 -1.31797 8.30255 271.619 
-9.79558e-06 7.88425e-06 2.68948e+25 -1.37166 8.86321 271.942 
-7.88425e-06 7.88425e-06 2.69046e+25 -1.43586 8.51122 271.753 
-5.97292e-06 7.88425e-06 2.68774e+25 -1.39198 7.32289 272.061 
-4.06158e-06 7.88425e-06 2.68634e+25 -1.17179 6.43482 272.114 
-2.15025e-06 7.88425e-06 2.68897e+25 -1.10389 5.54961 271.87 
-2.38917e-07 7.88425e-06 2.68565e+25 -0.903139 3.88446 271.947 
-1.55296e-05 8.36208e-06 2.68583e+25 -0.258684 4.61017 272.276 
-1.36182e-05 8.36208e-06 2.68896e+25 -0.824168 7.26784 272.12 
-1.17069e-05 8.36208e-06 2.69108e+25 -1.59209 8.30916 271.69 
-9.79558e-06 8.36208e-06 2.69013e+25 -1.53095 8.86797 271.892 
-7.88425e-06 8.36208e-06 2.69011e+25 -1.42769 8.39427 271.829 
-5.97292e-06 8.36208e-06 2.68755e+25 -1.06787 7.41559 272.261 
-4.06158e-06 8.36208e-06 2.68713e+25 -0.59332 6.47059 272.15 
-2.15025e-06 8.36208e-06 2.68779e+25 -0.498927 5.43822 271.854 
-2.38917e-07 8.36208e-06 2.68473e+25 -0.0493784 3.86618 272.103 
-1.55296e-05 8.83992e-06 2.68623e+25 -0.331538 4.73128 272.251 
-1.36182e-05 8.83992e-06 2.68904e+25 -1.01771 7.64592 272.029 
-1.17069e-05 8.83992e-06 2.69225e+25 -2.01604 8.27663 271.751 
-9.79558e-06 8.83992e-06 2.68919e+25 -1.78648 8.85968 271.918 
-7.88425e-06 8.83992e-06 2.6891e+25 -1.32901 8.26518 271.87 
-5.97292e-06 8.83992e-06 2.6845e+25 -0.716106 7.38509 272.385 
-4.06158e-06 8.83992e-06 2.69065e+25 -0.127414 6.42852 271.844 
-2.15025e-06 8.83992e-06 2.68911e+25 0.295027 5.26743 271.808 
-2.38917e-07 8.83992e-06 2.6834e+25 0.909911 3.75033 272.123 
-1.55296e-05 9.31775e-06 2.68607e+25 -0.425587 4.80509 272.259 
-1.36182e-05 9.31775e-06 2.68961e+25 -1.34883 7.92359 272.057 
-1.17069e-05 9.31775e-06 2.68977e+25 -2.10171 8.24869 271.755 
-9.79558e-06 9.31775e-06 2.69248e+25 -1.99073 8.73418 271.749 
-7.88425e-06 9.31775e-06 2.68996e+25 -1.33437 8.02425 271.853 
-5.97292e-06 9.31775e-06 2.68681e+25 -0.420672 7.23697 272.323 
-4.06158e-06 9.31775e-06 2.69027e+25 0.321906 6.25893 271.831 
-2.15025e-06 9.31775e-06 2.68698e+25 1.00829 5.11609 271.989 
-2.38917e-07 9.31775e-06 2.68499e+25 1.60839 3.60603 272.013 
-1.55296e-05 9.79558e-06 2.68561e+25 -0.492915 4.95129 272.143 
-1.36182e-05 9.79558e-06 2.68698e+25 -1.59811 8.20924 272.035 
-1.17069e-05 9.79558e-06 2.69113e+25 -2.2133 8.3748 271.785 
-9.79558e-06 9.79558e-06 2.68905e+25 -1.98408 8.50582 271.748 
-7.88425e-06 9.79558e-06 2.69067e+25 -1.0071 7.70251 271.995 
-5.97292e-06 9.79558e-06 2.68719e+25 -0.404359 6.92331 272.148 
-4.06158e-06 9.79558e-06 2.68959e+25 0.924078 6.09658 271.888 
-2.15025e-06 9.79558e-06 2.68687e+25 1.85122 5.00009 272.047 
-2.38917e-07 9.79558e-06 2.68259e+25 2.3821 3.37635 272.028 
-1.55296e-05 1.02734e-05 2.68728e+25 -0.678001 5.26204 272.152 
-1.36182e-05 1.02734e-05 2.68712e+25 -1.95587 8.41422 272.078 
-1.17069e-05 1.02734e-05 2.6903e+25 -2.22052 8.59339 271.767 
-9.79558e-06 1.02734e-05 2.68907e+25 -1.84481 8.25659 271.959 
-7.88425e-06 1.02734e-05 2.68677e+25 -0.88768 7.56099 272.093 
-5.97292e-06 1.02734e-05 2.68726e+25 0.128051 6.46551 272.089 
-4.06158e-06 1.02734e-05 2.68968e+25 1.50611 5.77645 271.809 
-2.15025e-06 1.02734e-05 2.68691e+25 2.60013 4.80318 272.043 
-2.38917e-07 1.02734e-05 2.68404e+25 3.47057 3.3489 272.008 
-1.55296e-05 1.07512e-05 2.68713e+25 -0.831142 5.60664 272.082 
-1.36182e-05 1.07512e-05 2.68925e+25 -1.92385 8.57108 271.947 
-1.17069e-05 1.07512e-05 2.68917e+25 -2.17428 8.66981 271.825 
-9.79558e-06 1.07512e-05 2.69187e+25 -1.75733 8.08607 271.693 
-7.88425e-06 1.07512e-05 2.68441e+25 -0.725128 7.45379 272.244 
-5.97292e-06 1.07512e-05 2.6889e+25 0.722656 6.14559 272.009 
-4.06158e-06 1.07512e-05 2.68873e+25 2.12052 5.36461 271.838 
-2.15025e-06 1.07512e-05 2.68729e+25 3.62037 4.49234 272.018 
-2.38917e-07 1.07512e-05 2.68472e+25 4.5209 3.40286 271.92 
-1.55296e-05 1.12291e-05 2.68948e+25 -0.844433 5.95852 271.941 
-1.36182e-05 1.12291e-05 2.68756e+25 -2.05462 8.74266 272.107 
-1.17069e-05 1.12291e-05 2.69019e+25 -2.20817 8.61806 271.858 
-9.79558e-06 1.12291e-05 2.69082e+25 -1.57113 7.89943 271.655 
-7.88425e-06 1.12291e-05 2.68669e+25 -0.131568 7.1148 272.259 
-5.97292e-06 1.12291e-05 2.6894e+25 1.48863 5.74736 272.002 
-4.06158e-06 1.12291e-05 2.68717e+25 2.72984 5.03059 271.989 
-2.15025e-06 1.12291e-05 2.68907e+25 4.48914 4.00281 271.942 
-2.38917e-07 1.12291e-05 2.68653e+25 5.61847 3.37097 271.932 
-1.55296e-05 1.17069e-05 2.68741e+25 -0.953404 6.4175 271.957 
-1.36182e-05 1.17069e-05 2.68575e+25 -2.22877 8.86173 272.227 
-1.17069e-05 1.17069e-05 2.69111e+25 -2.26524 8.48538 271.722 
-9.79558e-06 1.17069e-05 2.69137e+25 -1.23847 7.5801 271.774 
-7.88425e-06 1.17069e-05 2.68717e+25 0.53454 6.61986 272.129 
-5.97292e-06 1.17069e-05 2.68633e+25 2.36911 5.36013 272.184 
-4.06158e-06 1.17069e-05 2.68958e+25 3.67051 4.6768 272.013 
-2.15025e-06 1.17069e-05 2.68823e+25 5.61696 3.56403 271.903 
-2.38917e-07 1.17069e-05 2.68398e+25 6.97009 3.14708 272.112 
-1.55296e-05 1.21847e-05 2.6844e+25 -1.22426 6.86553 272.149 
-1.36182e-05 1.21847e-05 2.68662e+25 -2.47056 8.97372 272.176 
-1.17069e-05 1.21847e-05 2.69052e+25 -2.20294 8.32835 271.802 
-9.79558e-06 1.21847e-05 2.68823e+25 -0.917357 7.1224 271.943 
-7.88425e-06 1.21847e-05 2.68866e+25 1.06146 6.1318 272.147 
-5.97292e-06 1.21847e-05 2.68764e+25 3.10306 5.05852 272.181 
-4.06158e-06 1.21847e-05 2.68938e+25 4.75362 4.1782 271.882 
-2.15025e-06 1.21847e-05 2.68802e+25 6.82942 3.08251 272.05 
-2.38917e-07 1.21847e-05 2.68265e+25 8.42632 2.76383 272.218 
-1.55296e-05 1.26626e-05 2.68443e+25 -1.66756 7.40424 272.206 
-1.36182e-05 1.26626e-05 2.68691e+25 -2.70869 9.1669 272.07 
-1.17069e-05 1.26626e-05 2.68973e+25 -1.91357 8.00467 271.894 
-9.79558e-06 1.26626e-05 2.68818e+25 -0.0774548 6.66277 272.006 
-7.88425e-06 1.26626e-05 2.68603e+25 2.14137 5.55299 272.34 
-5.97292e-06 1.26626e-05 2.68576e+25 4.30571 4.5364 272.306 
-4.06158e-06 1.26626e-05 2.68857e+25 6.15908 3.64948 272.082 
-2.15025e-06 1.26626e-05 2.68821e+25 8.33803 2.68674 272.035 
-2.38917e-07 1.26626e-05 2.68179e+25 10.1319 2.3588 272.291 
-1.55296e-05 1.31404e-05 2.6841e+25 -1.90478 8.01123 272.026 
-1.36182e-05 1.31404e-05 2.68829e+25 -3.25811 9.02596 271.779 
-1.17069e-05 1.31404e-05 2.68788e+25 -1.64763 7.52188 272.044 
-9.79558e-06 1.31404e-05 2.68902e+25 0.903731 6.04815 271.986 
-7.88425e-06 1.31404e-05 2.6854e+25 3.5598 5.05598 272.401 
-5.97292e-06 1.31404e-05 2.68787e+25 5.7303 4.01118 272.167 
-4.06158e-06 1.31404e-05 2.68499e+25 8.07198 3.10911 272.313 
-2.15025e-06 1.31404e-05 2.688e+25 10.012 2.14514 272.021 
-2.38917e-07 1.31404e-05 2.68211e+25 11.7413 2.01362 272.288 
-1.55296e-05 1.36182e-05 2.6834e+25 -2.55812 8.79475 272.085 
-1.36182e-05 1.36182e-05 2.68818e+25 -3.1345 8.69006 271.821 
-1.17069e-05 1.36182e-05 2.68457e+25 -0.840022 6.87266 272.244 
-9.79558e-06 1.36182e-05 2.68844e+25 2.30672 5.35358 271.971 
-7.88425e-06 1.36182e-05 2.6859e+25 5.27732 4.35424 272.411 
-5.97292e-06 1.36182e-05 2.68908e+25 7.71725 3.39265 272.185 
-4.06158e-06 1.36182e-05 2.68494e+25 10.2834 2.56012 272.412 
-2.15025e-06 1.36182e-05 2.68624e+25 11.8791 1.78965 272.172 
-2.38917e-07 1.36182e-05 2.68196e+25 13.4605 1.66281 272.314 
-1.55296e-05 1.40961e-05 2.67943e+25 -2.72007 9.53814 272.276 
-1.36182e-05 1.40961e-05 2.68803e+25 -2.59456 8.16092 271.778 
-1.17069e-05 1.40961e-05 2.68268e+25 0.45657 6.11887 272.391 
-9.79558e-06 1.40961e-05 2.68881e+25 4.0662 4.49791 272.04 
-7.88425e-06 1.40961e-05 2.68695e+25 7.29559 3.63243 272.279 
-5.97292e-06 1.40961e-05 2.68664e+25 10.2159 2.77383 272.223 
-4.06158e-06 1.40961e-05 2.68559e+25 12.7061 2.04313 272.383 
-2.15025e-06 1.40961e-05 2.68664e+25 14.1375 1.58164 272.362 
-2.38917e-07 1.40961e-05 2.68124e+25 15.4593 1.19986 272.293 
-1.55296e-05 1.45739e-05 2.67849e+25 -3.04421 10.04 272.2 
-1.36182e-05 1.45739e-05 2.68423e+25 -1.50162 7.44018 272.071 
-1.17069e-05 1.45739e-05 2.68555e+25 2.73622 5.19956 272.381 
-9.79558e-06 1.45739e-05 2.68794e+25 6.50763 3.68713 272.212 
-7.88425e-06 1.45739e-05 2.68866e+25 9.88436 2.80411 272.284 
-5.97292e-06 1.45739e-05 2.68755e+25 12.7731 2.12282 272.203 
-4.06158e-06 1.45739e-05 2.68549e+25 15.1031 1.60232 272.324 
-2.15025e-06 1.45739e-05 2.68537e+25 16.5843 1.31678 272.348 
-2.38917e-07 1.45739e-05 2.68271e+25 17.897 0.792314 272.304 
-1.55296e-05 1.50518e-05 2.67612e+25 -3.20128 10.184 272.383 
-1.36182e-05 1.50518e-05 2.6848e+25 0.6563 6.34758 272.059 
-1.17069e-05 1.50518e-05 2.68269e+25 5.92487 4.07885 272.451 
-9.79558e-06 1.50518e-05 2.68653e+25 9.734 2.79763 272.299 
-7.88425e-06 1.50518e-05 2.68618e+25 13.1173 1.98766 272.347 
-5.97292e-06 1.50518e-05 2.68598e+25 15.7278 1.45856 272.346 
-4.06158e-06 1.50518e-05 2.68725e+25 17.8285 1.0983 272.276 
-2.15025e-06 1.50518e-05 2.68447e+25 19.4596 0.933689 272.44 
-2.38917e-07 1.50518e-05 2.68459e+25 20.775 0.419888 272.234 
-1.55296e-05 1.55296e-05 2.67306e+25 -2.25594 9.55908 272.574 
-1.36182e-05 1.55296e-05 2.68326e+25 4.18269 4.9276 272.31 
-1.17069e-05 1.55296e-05 2.68105e+25 10.0958 2.79453 272.771 
-9.79558e-06 1.55296e-05 2.68595e+25 13.9887 1.9402 272.376 
-7.88425e-06 1.55296e-05 2.6856e+25 17.2119 1.34638 272.485 
-5.97292e-06 1.55296e-05 2.68459e+25 19.4708 0.919601 272.568 
-4.06158e-06 1.55296e-05 2.68435e+25 21.1901 0.605449 272.52 
-2.15025e-06 1.55296e-05 2.68453e+25 22.5888 0.616616 272.536 
-2.38917e-07 1.55296e-05 2.68142e+25 23.6715 0.228646 272.416 
-1.55296e-05 1.60074e-05 2.6682e+25 1.11713 7.84985 272.816 
-1.36182e-05 1.60074e-05 2.68045e+25 10.0796 3.17661 272.453 
-1.17069e-05 1.60074e-05 2.68126e+25 15.6254 1.67511 272.887 
-9.79558e-06 1.60074e-05 2.68443e+25 19.3253 1.18513 272.591 
-7.88425e-06 1.60074e-05 2.68352e+25 21.6921 0.705003 272.591 
-5.97292e-06 1.60074e-05 2.68402e+25 23.64 0.389239 272.627 
-4.06158e-06 1.60074e-05 2.68486e+25 25.0044 0.292574 272.571 
-2.15025e-06 1.60074e-05 2.68287e+25 26.0911 0.364022 272.656 
-2.38917e-07 1.60074e-05 2.6822e+25 26.6924 0.090659 272.425 
-1.55296e-05 1.64852e-05 2.66311e+25 8.63135 4.77084 273.171 
-1.36182e-05 1.64852e-05 2.67873e+25 18.312 1.49004 272.802 
-1.17069e-05 1.64852e-05 2.68237e+25 22.5383 0.742994 272.854 
-9.79558e-06 1.64852e-05 2.68136e+25 25.2007 0.579177 272.763 
-7.88425e-06 1.64852e-05 2.68325e+25 26.7363 0.311642 272.65 
-5.97292e-06 1.64852e-05 2.68165e+25 28.1151 0.139052 272.886 
-4.06158e-06 1.64852e-05 2.68343e+25 28.7036 0.0550221 272.825 
-2.15025e-06 1.64852e-05 2.68399e+25 29.4629 0.132688 272.587 
-2.38917e-07 1.64852e-05 2.68053e+25 29.9174 0.0529239 272.603 
-1.55296e-05 1.69631e-05 2.66601e+25 21.9476 1.34697 273.243 
-1.36182e-05 1.69631e-05 2.67957e+25 28.0179 0.267037 272.908 
-1.17069e-05 1.69631e-05 2.68109e+25 30.0418 0.187317 273.036 
-9.79558e-06 1.69631e-05 2.68196e+25 31.0954 0.112169 272.974 
-7.88425e-06 1.69631e-05 2.6826e+25 31.6149 0.0474659 272.862 
-5.97292e-06 1.69631e-05 2.68073e+25 32.1019 -0.00845984 273.08 
-4.06158e-06 1.69631e-05 2.67994e+25 32.3545 0.0246861 273.066 
-2.15025e-06 1.69631e-05 2.67968e+25 32.6195 0.0323955 272.908 
-2.38917e-07 1.69631e-05 2.68044e+25 32.9494 -0.00724087 272.758 
1.19458e-06 -1.69631e-05 2.68205e+25 -0.138106 -0.00415742 272.992 
3.10592e-06 -1.69631e-05 2.68406e+25 -0.244522 -0.0431654 272.964 
5.01725e-06 -1.69631e-05 2.68617e+25 -0.223968 0.0398923 272.808 
6.92858e-06 -1.69631e-05 2.68359e+25 -0.179317 0.00272661 272.864 
8.83992e-06 -1.69631e-05 2.68641e+25 -0.139506 -0.0195667 272.727 
1.07512e-05 -1.69631e-05 2.68531e+25 -0.110505 -0.0964167 272.719 
1.26626e-05 -1.69631e-05 2.68401e+25 -0.029442 -0.00409149 272.872 
1.45739e-05 -1.69631e-05 2.68282e+25 -0.0826194 0.0131555 272.889 
1.64852e-05 -1.69631e-05 2.68169e+25 -0.0283538 -0.0163029 272.987 
1.19458e-06 -1.64852e-05 2.68644e+25 -0.427633 0.00694777 272.623 
3.10592e-06 -1.64852e-05 2.68557e+25 -0.500946 -0.0540933 272.795 
5.01725e-06 -1.64852e-05 2.68403e+25 -0.398344 0.159189 272.767 
6.92858e-06 -1.64852e-05 2.68663e+25 -0.467749 -0.00502795 272.639 
8.83992e-06 -1.64852e-05 2.68782e+25 -0.108346 -0.0568936 272.549 
1.07512e-05 -1.64852e-05 2.69011e+25 -0.181325 -0.19554 272.319 
1.26626e-05 -1.64852e-05 2.68538e+25 -0.0628232 0.0218984 272.689 
1.45739e-05 -1.64852e-05 2.68719e+25 -0.221213 0.0132387 272.66 
1.64852e-05 -1.64852e-05 2.68439e+25 -0.00389136 -0.0344809 272.799 
1.19458e-06 -1.60074e-05 2.68915e+25 -0.713421 -0.0564851 272.245 
3.10592e-06 -1.60074e-05 2.68855e+25 -0.681747 0.0435666 272.376 
5.01725e-06 -1.60074e-05 2.68861e+25 -0.776982 0.158971 272.543 
6.92858e-06 -1.60074e-05 2.6879e+25 -0.653723 -0.123886 272.595 
8.83992e-06 -1.60074e-05 2.68666e+25 -0.316757 -0.152887 272.58 
1.07512e-05 -1.60074e-05 2.69283e+25 -0.318733 -0.106959 272.048 
1.26626e-05 -1.60074e-05 2.68814e+25 -0.246769 0.0129158 272.394 
1.45739e-05 -1.60074e-05 2.6878e+25 -0.180823 -0.021758 272.409 
1.64852e-05 -1.60074e-05 2.68718e+25 0.0440197 -0.0234237 272.641 
1.19458e-06 -1.55296e-05 2.69134e+25 -0.982859 -0.0533365 272.199 
3.10592e-06 -1.55296e-05 2.68874e+25 -0.833136 0.0927677 272.369 
5.01725e-06 -1.55296e-05 2.6898e+25 -0.985921 0.127652 272.358 
6.92858e-06 -1.55296e-05 2.68695e+25 -0.804651 -0.258455 272.676 
8.83992e-06 -1.55296e-05 2.68673e+25 -0.528176 -0.25329 272.553 
1.07512e-05 -1.55296e-05 2.69171e+25 -0.297929 -0.0439398 272.162 
1.26626e-05 -1.55296e-05 2.68863e+25 -0.359539 0.0132173 272.308 
1.45739e-05 -1.55296e-05 2.68956e+25 -0.366001 -0.142226 272.41 
1.64852e-05 -1.55296e-05 2.68985e+25 0.0318026 0.0807682 272.367 
1.19458e-06 -1.50517e-05 2.69008e+25 -1.31642 -0.0373725 272.066 
3.10592e-06 -1.50517e-05 2.69016e+25 -0.969185 0.0225484 272.247 
5.01725e-06 -1.50517e-05 2.6885e+25 -1.01174 0.0939495 272.277 
6.92858e-06 -1.50517e-05 2.68807e+25 -0.861657 -0.333981 272.481 
8.83992e-06 -1.50517e-05 2.68713e+25 -0.71951 -0.441358 272.462 
1.07512e-05 -1.50517e-05 2.68929e+25 -0.337639 0.0891936 272.336 
1.26626e-05 -1.50517e-05 2.69151e+25 -0.430618 -0.0224437 272.108 
1.45739e-05 -1.50517e-05 2.6867e+25 -0.271095 -0.150627 272.401 
1.64852e-05 -1.50517e-05 2.68892e+25 -0.0238445 0.019963 272.337 
1.19458e-06 -1.45739e-05 2.69446e+25 -1.35694 0.0758185 271.779 
3.10592e-06 -1.45739e-05 2.69038e+25 -1.25537 -0.0839965 272.178 
5.01725e-06 -1.45739e-05 2.69004e+25 -1.1476 -0.00751417 272.308 
6.92858e-06 -1.45739e-05 2.68766e+25 -1.04453 -0.290238 272.547 
8.83992e-06 -1.45739e-05 2.68634e+25 -0.868805 -0.355126 272.444 
1.07512e-05 -1.45739e-05 2.68956e+25 -0.347447 0.0236209 272.332 
1.26626e-05 -1.45739e-05 2.69024e+25 -0.107481 -0.0717109 272.099 
1.45739e-05 -1.45739e-05 2.68879e+25 -0.0445027 -0.175245 272.516 
1.64852e-05 -1.45739e-05 2.68824e+25 -0.0165051 -0.0341971 272.389 
1.19458e-06 -1.40961e-05 2.69603e+25 -1.45864 0.0574085 271.692 
3.10592e-06 -1.40961e-05 2.69215e+25 -1.52 -0.0980477 272.049 
5.01725e-06 -1.40961e-05 2.6922e+25 -1.38198 -0.0351155 272.158 
6.92858e-06 -1.40961e-05 2.6884e+25 -1.32865 -0.354822 272.52 
8.83992e-06 -1.40961e-05 2.6869e+25 -1.01909 -0.257933 272.506 
1.07512e-05 -1.40961e-05 2.69068e+25 -0.482231 -0.21157 272.255 
1.26626e-05 -1.40961e-05 2.68831e+25 -0.293814 -0.0873514 272.221 
1.45739e-05 -1.40961e-05 2.68848e+25 0.10641 -0.186791 272.4 
1.64852e-05 -1.40961e-05 2.68731e+25 -0.072748 -0.0688032 272.611 
1.19458e-06 -1.36182e-05 2.69407e+25 -1.75147 0.0569444 271.748 
3.10592e-06 -1.36182e-05 2.69421e+25 -1.92468 -0.0650764 271.988 
5.01725e-06 -1.36182e-05 2.68996e+25 -1.51761 0.0935617 272.275 
6.92858e-06 -1.36182e-05 2.68799e+25 -1.66317 -0.367808 272.46 
8.83992e-06 -1.36182e-05 2.68849e+25 -1.16245 -0.351475 272.394 
1.07512e-05 -1.36182e-05 2.68871e+25 -0.585104 -0.396017 272.41 
1.26626e-05 -1.36182e-05 2.68895e+25 -0.424351 -0.171735 272.306 
1.45739e-05 -1.36182e-05 2.6877e+25 0.302759 -0.247797 272.412 
1.64852e-05 -1.36182e-05 2.6869e+25 -0.0167373 0.0190082 272.508 
1.19458e-06 -1.31404e-05 2.6928e+25 -1.92031 0.113444 271.983 
3.10592e-06 -1.31404e-05 2.69153e+25 -1.86281 -0.141528 272.044 
5.01725e-06 -1.31404e-05 2.68921e+25 -1.78397 0.0929039 272.367 
6.92858e-06 -1.31404e-05 2.68787e+25 -1.86601 -0.271318 272.443 
8.83992e-06 -1.31404e-05 2.68939e+25 -1.15288 -0.539499 272.349 
1.07512e-05 -1.31404e-05 2.68882e+25 -0.749913 -0.425992 272.433 
1.26626e-05 -1.31404e-05 2.68953e+25 -0.437042 -0.390277 272.292 
1.45739e-05 -1.31404e-05 2.68687e+25 0.0132664 -0.238277 272.571 
1.64852e-05 -1.31404e-05 2.68794e+25 0.0122151 -0.00964601 272.518 
1.19458e-06 -1.26626e-05 2.69286e+25 -2.21569 0.133542 271.992 
3.10592e-06 -1.26626e-05 2.69128e+25 -1.94629 -0.102058 271.954 
5.01725e-06 -1.26626e-05 2.69012e+25 -1.86253 -0.117627 272.303 
6.92858e-06 -1.26626e-05 2.68943e+25 -1.76789 -0.257473 272.44 
8.83992e-06 -1.26626e-05 2.69058e+25 -1.3219 -0.845834 272.348 
1.07512e-05 -1.26626e-05 2.68949e+25 -0.706321 -0.41112 272.35 
1.26626e-05 -1.26626e-05 2.68931e+25 -0.396518 -0.564969 272.337 
1.45739e-05 -1.26626e-05 2.68635e+25 -0.263578 -0.283902 272.591 
1.64852e-05 -1.26626e-05 2.68652e+25 -0.0829613 -0.0747166 272.513 
1.19458e-06 -1.21847e-05 2.69017e+25 -2.36518 0.0490545 272.177 
3.10592e-06 -1.21847e-05 2.69271e+25 -2.24248 -0.0862282 271.975 
5.01725e-06 -1.21847e-05 2.69016e+25 -2.0695 -0.20217 272.27 
6.92858e-06 -1.21847e-05 2.69152e+25 -1.64161 -0.397246 272.197 
8.83992e-06 -1.21847e-05 2.68921e+25 -1.32563 -1.0442 272.32 
1.07512e-05 -1.21847e-05 2.68978e+25 -0.72259 -0.512341 272.277 
1.26626e-05 -1.21847e-05 2.69031e+25 -0.479873 -0.676751 272.204 
1.45739e-05 -1.21847e-05 2.68741e+25 -0.263408 -0.291521 272.528 
1.64852e-05 -1.21847e-05 2.68811e+25 -0.032673 -0.161294 272.317 
1.19458e-06 -1.17069e-05 2.6924e+25 -2.65222 -0.119939 272.024 
3.10592e-06 -1.17069e-05 2.69183e+25 -2.6196 -0.0731346 272.005 
5.01725e-06 -1.17069e-05 2.6899e+25 -2.06183 -0.322905 272.256 
6.92858e-06 -1.17069e-05 2.69083e+25 -1.66024 -0.544517 272.148 
8.83992e-06 -1.17069e-05 2.68991e+25 -1.44407 -1.13144 272.311 
1.07512e-05 -1.17069e-05 2.6889e+25 -1.17292 -0.725001 272.339 
1.26626e-05 -1.17069e-05 2.69076e+25 -0.509316 -0.799358 272.206 
1.45739e-05 -1.17069e-05 2.68891e+25 -0.242782 -0.216194 272.352 
1.64852e-05 -1.17069e-05 2.68988e+25 -0.0690832 -0.314476 272.313 
1.19458e-06 -1.12291e-05 2.69128e+25 -3.12571 -0.0425231 272.144 
3.10592e-06 -1.12291e-05 2.69135e+25 -2.88661 -0.162578 272.079 
5.01725e-06 -1.12291e-05 2.6909e+25 -2.55561 -0.45199 272.088 
6.92858e-06 -1.12291e-05 2.69138e+25 -1.76707 -0.577032 272.234 
8.83992e-06 -1.12291e-05 2.69114e+25 -1.48105 -1.13828 272.293 
1.07512e-05 -1.12291e-05 2.6907e+25 -1.37217 -0.925934 272.093 
1.26626e-05 -1.12291e-05 2.69275e+25 -0.462823 -0.972576 272.007 
1.45739e-05 -1.12291e-05 2.69112e+25 -0.286809 -0.232035 272.079 
1.64852e-05 -1.12291e-05 2.68729e+25 -0.122206 -0.35458 272.459 
1.19458e-06 -1.07512e-05 2.69303e+25 -3.54695 -0.0717387 271.997 
3.10592e-06 -1.07512e-05 2.69156e+25 -3.00705 -0.342127 272.066 
5.01725e-06 -1.07512e-05 2.69204e+25 -2.92967 -0.576928 272.166 
6.92858e-06 -1.07512e-05 2.69016e+25 -2.00065 -0.745634 272.236 
8.83992e-06 -1.07512e-05 2.69067e+25 -1.86051 -1.10817 272.249 
1.07512e-05 -1.07512e-05 2.69088e+25 -1.6895 -1.13625 271.957 
1.26626e-05 -1.07512e-05 2.69174e+25 -0.511609 -1.08207 272.029 
1.45739e-05 -1.07512e-05 2.69272e+25 0.0197004 -0.277651 272.038 
1.64852e-05 -1.07512e-05 2.68703e+25 -0.0246892 -0.367902 272.566 
1.19458e-06 -1.02734e-05 2.69123e+25 -3.70819 -0.142385 271.994 
3.10592e-06 -1.02734e-05 2.69144e+25 -3.36789 -0.460364 272.149 
5.01725e-06 -1.02734e-05 2.69069e+25 -3.19184 -0.607018 272.119 
6.92858e-06 -1.02734e-05 2.68995e+25 -2.16124 -1.08048 272.256 
8.83992e-06 -1.02734e-05 2.68744e+25 -1.8689 -1.07486 272.335 
1.07512e-05 -1.02734e-05 2.6941e+25 -1.6631 -1.26081 271.851 
1.26626e-05 -1.02734e-05 2.69125e+25 -0.454348 -1.21456 272.028 
1.45739e-05 -1.02734e-05 2.69073e+25 -0.17299 -0.466767 272.085 
1.64852e-05 -1.02734e-05 2.68741e+25 0.129748 -0.40558 272.594 
1.19458e-06 -9.79558e-06 2.69302e+25 -3.87967 -0.13362 271.998 
3.10592e-06 -9.79558e-06 2.69019e+25 -3.93543 -0.623269 272.205 
5.01725e-06 -9.79558e-06 2.69106e+25 -3.41972 -0.789672 272.211 
6.92858e-06 -9.79558e-06 2.68988e+25 -2.48816 -1.39843 272.205 
8.83992e-06 -9.79558e-06 2.68913e+25 -1.7599 -1.10381 272.284 
1.07512e-05 -9.79558e-06 2.69475e+25 -1.31693 -1.47041 271.895 
1.26626e-05 -9.79558e-06 2.69281e+25 -0.535613 -1.29858 271.997 
1.45739e-05 -9.79558e-06 2.69272e+25 -0.210561 -0.729778 271.952 
1.64852e-05 -9.79558e-06 2.68681e+25 0.15902 -0.332319 272.548 
1.19458e-06 -9.31775e-06 2.69242e+25 -4.1846 -0.064672 272.051 
3.10592e-06 -9.31775e-06 2.69098e+25 -4.35558 -0.754101 272.004 
5.01725e-06 -9.31775e-06 2.69049e+25 -3.47797 -1.02587 272.024 
6.92858e-06 -9.31775e-06 2.6906e+25 -2.76818 -1.64821 272.213 
8.83992e-06 -9.31775e-06 2.68942e+25 -2.05348 -1.38194 272.233 
1.07512e-05 -9.31775e-06 2.69258e+25 -1.25184 -1.64101 271.945 
1.26626e-05 -9.31775e-06 2.69027e+25 -0.733843 -1.49547 272.206 
1.45739e-05 -9.31775e-06 2.69349e+25 -0.0669852 -0.805905 271.945 
1.64852e-05 -9.31775e-06 2.68619e+25 0.090699 -0.266625 272.597 
1.19458e-06 -8.83992e-06 2.68938e+25 -4.67167 -0.0681378 272.198 
3.10592e-06 -8.83992e-06 2.69006e+25 -4.44239 -0.999588 272.028 
5.01725e-06 -8.83992e-06 2.69225e+25 -3.65835 -1.11771 272.089 
6.92858e-06 -8.83992e-06 2.69016e+25 -2.99586 -1.66492 272.331 
8.83992e-06 -8.83992e-06 2.69172e+25 -2.31489 -1.59864 272.094 
1.07512e-05 -8.83992e-06 2.6917e+25 -1.31872 -1.7887 272.074 
1.26626e-05 -8.83992e-06 2.69158e+25 -0.81629 -1.70758 272.086 
1.45739e-05 -8.83992e-06 2.69181e+25 -0.185128 -0.894218 272.072 
1.64852e-05 -8.83992e-06 2.68726e+25 0.124918 -0.256122 272.451 
1.19458e-06 -8.36208e-06 2.69077e+25 -5.0033 -0.0528786 272.073 
3.10592e-06 -8.36208e-06 2.6901e+25 -4.54718 -1.14561 272.127 
5.01725e-06 -8.36208e-06 2.68905e+25 -3.98764 -1.22318 272.326 
6.92858e-06 -8.36208e-06 2.6902e+25 -3.02969 -1.85143 272.186 
8.83992e-06 -8.36208e-06 2.69087e+25 -2.53871 -1.74597 272.144 
1.07512e-05 -8.36208e-06 2.6911e+25 -1.48906 -2.04059 272.076 
1.26626e-05 -8.36208e-06 2.69261e+25 -0.859187 -1.82181 272.01 
1.45739e-05 -8.36208e-06 2.69216e+25 -0.267466 -1.01474 272.08 
1.64852e-05 -8.36208e-06 2.68841e+25 -0.117089 -0.190367 272.413 
1.19458e-06 -7.88425e-06 2.69186e+25 -5.27547 -0.109047 272.046 
3.10592e-06 -7.88425e-06 2.69122e+25 -4.56154 -1.26496 271.962 
5.01725e-06 -7.88425e-06 2.69202e+25 -4.12707 -1.47992 272.117 
6.92858e-06 -7.88425e-06 2.69236e+25 -3.54863 -2.03061 272.065 
8.83992e-06 -7.88425e-06 2.68996e+25 -2.64889 -1.98985 272.113 
1.07512e-05 -7.88425e-06 2.69166e+25 -1.7212 -2.23775 272.036 
1.26626e-05 -7.88425e-06 2.69167e+25 -1.07545 -1.92153 272.056 
1.45739e-05 -7.88425e-06 2.68953e+25 -0.306482 -1.0875 272.209 
1.64852e-05 -7.88425e-06 2.68594e+25 -0.103733 -0.13612 272.572 
1.19458e-06 -7.40642e-06 2.69172e+25 -5.21468 -0.0906301 272.033 
3.10592e-06 -7.40642e-06 2.6903e+25 -4.80803 -1.45093 272.182 
5.01725e-06 -7.40642e-06 2.69015e+25 -4.22719 -1.66319 272.262 
6.92858e-06 -7.40642e-06 2.69207e+25 -3.85198 -2.27234 272.137 
8.83992e-06 -7.40642e-06 2.69235e+25 -2.9029 -2.10156 272.009 
1.07512e-05 -7.40642e-06 2.69391e+25 -1.88872 -2.46428 271.842 
1.26626e-05 -7.40642e-06 2.69316e+25 -0.989199 -1.87775 272.054 
1.45739e-05 -7.40642e-06 2.69019e+25 -0.409686 -1.27441 272.224 
1.64852e-05 -7.40642e-06 2.68444e+25 0.0423062 -0.165345 272.575 
1.19458e-06 -6.92858e-06 2.69311e+25 -5.5014 -0.21897 271.968 
3.10592e-06 -6.92858e-06 2.68971e+25 -5.29194 -1.62411 272.257 
5.01725e-06 -6.92858e-06 2.69151e+25 -4.57759 -1.89735 272.181 
6.92858e-06 -6.92858e-06 2.69073e+25 -4.04531 -2.37629 272.127 
8.83992e-06 -6.92858e-06 2.69224e+25 -3.2485 -2.29936 271.91 
1.07512e-05 -6.92858e-06 2.69334e+25 -2.04194 -2.7298 271.935 
1.26626e-05 -6.92858e-06 2.69421e+25 -1.12363 -1.97153 271.82 
1.45739e-05 -6.92858e-06 2.69074e+25 -0.410977 -1.50292 272.273 
1.64852e-05 -6.92858e-06 2.68673e+25 -0.0384635 -0.325177 272.526 
1.19458e-06 -6.45075e-06 2.69035e+25 -5.7583 -0.203056 272.026 
3.10592e-06 -6.45075e-06 2.69067e+25 -5.54903 -1.63016 272.142 
5.01725e-06 -6.45075e-06 2.69086e+25 -5.17591 -2.02728 272.106 
6.92858e-06 -6.45075e-06 2.69072e+25 -4.39516 -2.47982 272.111 
8.83992e-06 -6.45075e-06 2.6926e+25 -3.29 -2.64061 271.982 
1.07512e-05 -6.45075e-06 2.69328e+25 -2.12118 -2.93883 271.974 
1.26626e-05 -6.45075e-06 2.69134e+25 -1.44953 -2.15069 272.05 
1.45739e-05 -6.45075e-06 2.69033e+25 -0.61888 -1.67353 272.231 
1.64852e-05 -6.45075e-06 2.68443e+25 -0.0859349 -0.466183 272.662 
1.19458e-06 -5.97292e-06 2.69241e+25 -5.71194 -0.184766 272.067 
3.10592e-06 -5.97292e-06 2.69357e+25 -5.78173 -1.55377 271.957 
5.01725e-06 -5.97292e-06 2.69008e+25 -5.45343 -2.20724 272.214 
6.92858e-06 -5.97292e-06 2.69145e+25 -4.8631 -2.74848 272.043 
8.83992e-06 -5.97292e-06 2.69097e+25 -3.6921 -3.09631 272.083 
1.07512e-05 -5.97292e-06 2.69064e+25 -2.39783 -3.2053 272.118 
1.26626e-05 -5.97292e-06 2.69104e+25 -1.46907 -2.30576 272.089 
1.45739e-05 -5.97292e-06 2.6911e+25 -0.775091 -1.65831 272.253 
1.64852e-05 -5.97292e-06 2.68614e+25 -0.141705 -0.46487 272.63 
1.19458e-06 -5.49508e-06 2.68958e+25 -5.98803 -0.287047 272.215 
3.10592e-06 -5.49508e-06 2.69263e+25 -5.85925 -1.42487 271.998 
5.01725e-06 -5.49508e-06 2.68918e+25 -5.73955 -2.36994 272.262 
6.92858e-06 -5.49508e-06 2.69049e+25 -5.1064 -3.01326 272.093 
8.83992e-06 -5.49508e-06 2.6912e+25 -3.90868 -3.48633 272.052 
1.07512e-05 -5.49508e-06 2.69053e+25 -2.65944 -3.47331 272.219 
1.26626e-05 -5.49508e-06 2.69123e+25 -1.60887 -2.65283 272.258 
1.45739e-05 -5.49508e-06 2.69082e+25 -0.803794 -1.76921 272.232 
1.64852e-05 -5.49508e-06 2.68856e+25 -0.0424987 -0.534794 272.465 
1.19458e-06 -5.01725e-06 2.68729e+25 -6.32256 -0.362183 272.373 
3.10592e-06 -5.01725e-06 2.69113e+25 -6.11407 -1.39429 272.022 
5.01725e-06 -5.01725e-06 2.68646e+25 -5.71283 -2.50698 272.442 
6.92858e-06 -5.01725e-06 2.68958e+25 -5.07116 -3.17308 272.304 
8.83992e-06 -5.01725e-06 2.69188e+25 -3.98324 -3.71408 272.134 
1.07512e-05 -5.01725e-06 2.69208e+25 -2.87792 -3.73839 272.078 
1.26626e-05 -5.01725e-06 2.69199e+25 -1.64713 -3.01347 272.124 
1.45739e-05 -5.01725e-06 2.689e+25 -0.665586 -2.05177 272.276 
1.64852e-05 -5.01725e-06 2.69066e+25 -0.0828423 -0.589684 272.228 
1.19458e-06 -4.53942e-06 2.69071e+25 -6.49261 -0.490737 272.057 
3.10592e-06 -4.53942e-06 2.68997e+25 -6.33263 -1.49453 272.14 
5.01725e-06 -4.53942e-06 2.68896e+25 -6.06514 -2.56803 272.366 
6.92858e-06 -4.53942e-06 2.68713e+25 -5.21414 -3.39399 272.498 
8.83992e-06 -4.53942e-06 2.69155e+25 -4.26554 -4.01449 272.11 
1.07512e-05 -4.53942e-06 2.68841e+25 -2.96192 -3.97587 272.313 
1.26626e-05 -4.53942e-06 2.69073e+25 -1.66399 -3.3294 272.224 
1.45739e-05 -4.53942e-06 2.69033e+25 -0.500208 -2.25601 272.14 
1.64852e-05 -4.53942e-06 2.6882e+25 0.0660517 -0.620233 272.375 
1.19458e-06 -4.06158e-06 2.68822e+25 -6.66452 -0.559387 272.298 
3.10592e-06 -4.06158e-06 2.69072e+25 -6.86882 -1.49377 272.116 
5.01725e-06 -4.06158e-06 2.68853e+25 -6.52397 -2.74004 272.389 
6.92858e-06 -4.06158e-06 2.69048e+25 -5.74244 -3.63394 272.238 
8.83992e-06 -4.06158e-06 2.69041e+25 -4.62747 -4.23513 272.136 
1.07512e-05 -4.06158e-06 2.68845e+25 -2.98359 -4.33648 272.34 
1.26626e-05 -4.06158e-06 2.68814e+25 -1.75883 -3.70065 272.407 
1.45739e-05 -4.06158e-06 2.68949e+25 -0.380032 -2.51987 272.182 
1.64852e-05 -4.06158e-06 2.69036e+25 -0.0521998 -0.6594 272.364 
1.19458e-06 -3.58375e-06 2.68884e+25 -6.98567 -0.495513 272.258 
3.10592e-06 -3.58375e-06 2.68806e+25 -7.40655 -1.55371 272.138 
5.01725e-06 -3.58375e-06 2.69125e+25 -6.87425 -2.88709 272.206 
6.92858e-06 -3.58375e-06 2.69025e+25 -5.96992 -3.77557 272.095 
8.83992e-06 -3.58375e-06 2.69081e+25 -4.88093 -4.56908 272.163 
1.07512e-05 -3.58375e-06 2.68901e+25 -3.10582 -4.70835 272.284 
1.26626e-05 -3.58375e-06 2.68731e+25 -1.73701 -3.96488 272.487 
1.45739e-05 -3.58375e-06 2.68907e+25 -0.43061 -2.85242 272.248 
1.64852e-05 -3.58375e-06 2.69032e+25 -0.169706 -0.707834 272.296 
1.19458e-06 -3.10592e-06 2.68809e+25 -7.34289 -0.341827 272.275 
3.10592e-06 -3.10592e-06 2.69047e+25 -7.71701 -1.6171 272.194 
5.01725e-06 -3.10592e-06 2.6907e+25 -7.18291 -2.98023 271.998 
6.92858e-06 -3.10592e-06 2.68971e+25 -6.59707 -3.98021 272.085 
8.83992e-06 -3.10592e-06 2.69129e+25 -5.0008 -5.01237 272.055 
1.07512e-05 -3.10592e-06 2.69006e+25 -3.43378 -5.13012 272.285 
1.26626e-05 -3.10592e-06 2.68769e+25 -1.74474 -4.32788 272.412 
1.45739e-05 -3.10592e-06 2.69135e+25 -0.54008 -3.04631 272.06 
1.64852e-05 -3.10592e-06 2.688e+25 -0.124967 -0.750068 272.232 
1.19458e-06 -2.62808e-06 2.68914e+25 -7.46886 -0.24267 272.174 
3.10592e-06 -2.62808e-06 2.6887e+25 -7.77919 -1.65608 272.206 
5.01725e-06 -2.62808e-06 2.69062e+25 -7.40025 -3.11094 272.106 
6.92858e-06 -2.62808e-06 2.68942e+25 -6.98305 -4.25979 272.226 
8.83992e-06 -2.62808e-06 2.69327e+25 -5.28907 -5.5572 271.934 
1.07512e-05 -2.62808e-06 2.69015e+25 -3.78756 -5.508 272.077 
1.26626e-05 -2.62808e-06 2.68911e+25 -2.01563 -4.74956 272.248 
1.45739e-05 -2.62808e-06 2.68927e+25 -0.690295 -3.35428 272.128 
1.64852e-05 -2.62808e-06 2.68588e+25 0.00889944 -0.774725 272.478 
1.19458e-06 -2.15025e-06 2.69265e+25 -7.46972 -0.0829782 271.905 
3.10592e-06 -2.15025e-06 2.68764e+25 -7.71705 -1.69066 272.375 
5.01725e-06 -2.15025e-06 2.6897e+25 -7.61241 -3.30201 272.15 
6.92858e-06 -2.15025e-06 2.68893e+25 -7.08399 -4.46765 272.235 
8.83992e-06 -2.15025e-06 2.69206e+25 -5.71729 -6.03066 271.954 
1.07512e-05 -2.15025e-06 2.68985e+25 -4.00678 -5.86624 272.213 
1.26626e-05 -2.15025e-06 2.69018e+25 -2.04739 -5.17881 272.226 
1.45739e-05 -2.15025e-06 2.69228e+25 -0.625343 -3.71264 272.066 
1.64852e-05 -2.15025e-06 2.68694e+25 -0.00123449 -0.882943 272.437 
1.19458e-06 -1.67242e-06 2.6921e+25 -7.63598 0.0879212 271.808 
3.10592e-06 -1.67242e-06 2.68855e+25 -7.778 -1.75182 272.346 
5.01725e-06 -1.67242e-06 2.68999e+25 -7.7466 -3.26027 272.142 
6.92858e-06 -1.67242e-06 2.68882e+25 -7.22186 -4.70781 272.255 
8.83992e-06 -1.67242e-06 2.69188e+25 -5.96264 -6.4908 272.047 
1.07512e-05 -1.67242e-06 2.68964e+25 -4.30881 -6.38198 272.252 
1.26626e-05 -1.67242e-06 2.69221e+25 -2.2946 -5.71602 272.119 
1.45739e-05 -1.67242e-06 2.69104e+25 -0.665988 -4.02736 272.055 
1.64852e-05 -1.67242e-06 2.68868e+25 0.0215629 -0.884739 272.404 
1.19458e-06 -1.19458e-06 2.69219e+25 -7.69171 0.27519 271.889 
3.10592e-06 -1.19458e-06 2.68916e+25 -7.67749 -1.77322 272.123 
5.01725e-06 -1.19458e-06 2.69006e+25 -7.82364 -3.26487 272.119 
6.92858e-06 -1.19458e-06 2.68881e+25 -7.22166 -4.99679 272.216 
8.83992e-06 -1.19458e-06 2.69203e+25 -6.12885 -6.85097 271.839 
1.07512e-05 -1.19458e-06 2.69166e+25 -4.33193 -7.00996 272.007 
1.26626e-05 -1.19458e-06 2.69087e+25 -2.57 -6.23048 272.147 
1.45739e-05 -1.19458e-06 2.69017e+25 -0.895768 -4.27679 272.113 
1.64852e-05 -1.19458e-06 2.68707e+25 0.0438259 -0.906539 272.386 
1.19458e-06 -7.1675e-07 2.69182e+25 -7.56902 0.396258 271.778 
3.10592e-06 -7.1675e-07 2.68948e+25 -7.84485 -1.73565 272.143 
5.01725e-06 -7.1675e-07 2.69035e+25 -7.8346 -3.32452 272.22 
6.92858e-06 -7.1675e-07 2.69092e+25 -7.34987 -5.42454 272.137 
8.83992e-06 -7.1675e-07 2.69229e+25 -6.34273 -7.01616 271.92 
1.07512e-05 -7.1675e-07 2.69118e+25 -4.5899 -7.43167 272.034 
1.26626e-05 -7.1675e-07 2.69019e+25 -2.76453 -6.70901 272.115 
1.45739e-05 -7.1675e-07 2.69105e+25 -1.23078 -4.45198 272.107 
1.64852e-05 -7.1675e-07 2.68865e+25 -0.0935882 -1.05931 272.303 
1.19458e-06 -2.38917e-07 2.69097e+25 -7.63398 0.471826 271.746 
3.10592e-06 -2.38917e-07 2.68767e+25 -8.04434 -1.73672 272.085 
5.01725e-06 -2.38917e-07 2.6856e+25 -7.75339 -3.35127 272.221 
6.92858e-06 -2.38917e-07 2.68876e+25 -7.25391 -5.61701 272.033 
8.83992e-06 -2.38917e-07 2.6895e+25 -6.48524 -7.29092 272.078 
1.07512e-05 -2.38917e-07 2.69042e+25 -4.83401 -7.89941 271.985 
1.26626e-05 -2.38917e-07 2.6872e+25 -3.0307 -7.14609 272.079 
1.45739e-05 -2.38917e-07 2.6891e+25 -1.38278 -4.75066 272.09 
1.64852e-05 -2.38917e-07 2.68705e+25 -0.180967 -1.25204 272.279 
2.38917e-07 -1.69631e-05 2.68338e+25 -0.128082 0.0714831 272.702 
2.15025e-06 -1.69631e-05 2.68458e+25 -0.26082 0.0116797 272.956 
4.06158e-06 -1.69631e-05 2.68304e+25 -0.194915 0.0107224 272.88 
5.97292e-06 -1.69631e-05 2.68315e+25 -0.283851 -0.0616919 272.981 
7.88425e-06 -1.69631e-05 2.68374e+25 -0.221141 -0.0563813 272.893 
9.79558e-06 -1.69631e-05 2.68564e+25 -0.100977 0.01026 272.708 
1.17069e-05 -1.69631e-05 2.68622e+25 0.0795671 0.0106616 272.768 
1.36182e-05 -1.69631e-05 2.68441e+25 0.036901 0.00113584 272.914 
1.55296e-05 -1.69631e-05 2.68584e+25 -0.0393213 0.0049395 272.758 
2.38917e-07 -1.64852e-05 2.68324e+25 -0.471182 0.134107 272.567 
2.15025e-06 -1.64852e-05 2.68558e+25 -0.319091 0.020777 272.79 
4.06158e-06 -1.64852e-05 2.68549e+25 -0.425839 -0.0352049 272.746 
5.97292e-06 -1.64852e-05 2.68364e+25 -0.62791 -0.0323059 272.81 
7.88425e-06 -1.64852e-05 2.68608e+25 -0.200291 -0.102084 272.699 
9.79558e-06 -1.64852e-05 2.68916e+25 -0.194288 0.0725549 272.359 
1.17069e-05 -1.64852e-05 2.6891e+25 -0.154986 0.0440484 272.343 
1.36182e-05 -1.64852e-05 2.68583e+25 -0.188992 0.0512509 272.632 
1.55296e-05 -1.64852e-05 2.68803e+25 -0.0761081 -0.0743799 272.502 
2.38917e-07 -1.60074e-05 2.68688e+25 -0.69962 0.132824 272.375 
2.15025e-06 -1.60074e-05 2.68902e+25 -0.605985 -0.0374257 272.294 
4.06158e-06 -1.60074e-05 2.68743e+25 -0.760342 -0.0873115 272.613 
5.97292e-06 -1.60074e-05 2.6852e+25 -0.828606 -0.0578111 272.775 
7.88425e-06 -1.60074e-05 2.68728e+25 -0.510622 -0.205181 272.592 
9.79558e-06 -1.60074e-05 2.68964e+25 -0.200939 0.201883 272.258 
1.17069e-05 -1.60074e-05 2.69087e+25 -0.390719 0.0118652 272.237 
1.36182e-05 -1.60074e-05 2.6866e+25 -0.32699 0.108698 272.657 
1.55296e-05 -1.60074e-05 2.69053e+25 -0.057684 -0.231683 272.247 
2.38917e-07 -1.55296e-05 2.68914e+25 -0.944304 0.0864733 272.131 
2.15025e-06 -1.55296e-05 2.69051e+25 -0.966616 -0.0417974 272.12 
4.06158e-06 -1.55296e-05 2.68878e+25 -0.888703 -0.0811228 272.388 
5.97292e-06 -1.55296e-05 2.68884e+25 -0.821685 -0.0217361 272.532 
7.88425e-06 -1.55296e-05 2.68456e+25 -0.691907 -0.194672 272.756 
9.79558e-06 -1.55296e-05 2.68846e+25 -0.275476 0.167099 272.304 
1.17069e-05 -1.55296e-05 2.69209e+25 -0.465039 -0.0753694 272.071 
1.36182e-05 -1.55296e-05 2.68935e+25 -0.399747 0.0876054 272.358 
1.55296e-05 -1.55296e-05 2.69134e+25 -0.13111 -0.300883 272.034 
2.38917e-07 -1.50517e-05 2.68869e+25 -1.14618 0.117236 272.103 
2.15025e-06 -1.50517e-05 2.69093e+25 -1.2361 -0.0772072 272.02 
4.06158e-06 -1.50517e-05 2.69007e+25 -0.940636 -0.0371844 272.241 
5.97292e-06 -1.50517e-05 2.68957e+25 -0.890957 -0.0539325 272.323 
7.88425e-06 -1.50517e-05 2.68772e+25 -0.774145 -0.271059 272.625 
9.79558e-06 -1.50517e-05 2.6861e+25 -0.351994 0.00415784 272.427 
1.17069e-05 -1.50517e-05 2.69126e+25 -0.318006 -0.126771 272.106 
1.36182e-05 -1.50517e-05 2.69206e+25 -0.282548 0.111071 272.157 
1.55296e-05 -1.50517e-05 2.69134e+25 -0.137677 -0.429112 272.074 
2.38917e-07 -1.45739e-05 2.68995e+25 -1.38157 0.119609 272.05 
2.15025e-06 -1.45739e-05 2.69325e+25 -1.43724 -0.193875 271.842 
4.06158e-06 -1.45739e-05 2.69061e+25 -1.30742 0.0670279 272.159 
5.97292e-06 -1.45739e-05 2.69075e+25 -0.99985 -0.172851 272.214 
7.88425e-06 -1.45739e-05 2.68519e+25 -0.921813 -0.419265 272.622 
9.79558e-06 -1.45739e-05 2.68697e+25 -0.758577 -0.159415 272.47 
1.17069e-05 -1.45739e-05 2.69023e+25 -0.108397 -0.12044 272.23 
1.36182e-05 -1.45739e-05 2.69297e+25 -0.102524 0.141042 272.084 
1.55296e-05 -1.45739e-05 2.68891e+25 -0.0996198 -0.461521 272.372 
2.38917e-07 -1.40961e-05 2.68968e+25 -1.5186 0.0285533 271.984 
2.15025e-06 -1.40961e-05 2.69394e+25 -1.42096 -0.163135 271.808 
4.06158e-06 -1.40961e-05 2.69054e+25 -1.39629 -0.0126767 272.235 
5.97292e-06 -1.40961e-05 2.69075e+25 -1.54371 -0.13542 272.186 
7.88425e-06 -1.40961e-05 2.6867e+25 -1.19179 -0.4882 272.568 
9.79558e-06 -1.40961e-05 2.68953e+25 -1.02947 -0.330753 272.387 
1.17069e-05 -1.40961e-05 2.68995e+25 -0.370181 -0.0607205 272.22 
1.36182e-05 -1.40961e-05 2.68864e+25 -0.168992 -0.00962332 272.439 
1.55296e-05 -1.40961e-05 2.68948e+25 0.0712778 -0.303135 272.353 
2.38917e-07 -1.36182e-05 2.68959e+25 -1.70844 0.0822595 272.022 
2.15025e-06 -1.36182e-05 2.6946e+25 -1.85441 -0.0680418 271.77 
4.06158e-06 -1.36182e-05 2.69024e+25 -1.65634 -0.144113 272.175 
5.97292e-06 -1.36182e-05 2.6896e+25 -1.55715 -0.242705 272.226 
7.88425e-06 -1.36182e-05 2.6878e+25 -1.46415 -0.557486 272.523 
9.79558e-06 -1.36182e-05 2.6889e+25 -0.966574 -0.458684 272.395 
1.17069e-05 -1.36182e-05 2.69163e+25 -0.599461 -0.038169 272.138 
1.36182e-05 -1.36182e-05 2.68779e+25 -0.00183073 -0.255388 272.54 
1.55296e-05 -1.36182e-05 2.68726e+25 0.0778803 -0.224298 272.447 
2.38917e-07 -1.31404e-05 2.69045e+25 -1.89741 0.131494 272.006 
2.15025e-06 -1.31404e-05 2.69384e+25 -2.0022 -0.11237 271.913 
4.06158e-06 -1.31404e-05 2.69289e+25 -1.81624 -0.163242 272.074 
5.97292e-06 -1.31404e-05 2.68866e+25 -1.5009 -0.118825 272.355 
7.88425e-06 -1.31404e-05 2.68753e+25 -1.71243 -0.721598 272.446 
9.79558e-06 -1.31404e-05 2.68906e+25 -0.799742 -0.609013 272.44 
1.17069e-05 -1.31404e-05 2.69143e+25 -0.61431 -0.0685761 272.177 
1.36182e-05 -1.31404e-05 2.68744e+25 -0.0664027 -0.501328 272.511 
1.55296e-05 -1.31404e-05 2.68877e+25 0.0943907 -0.196178 272.328 
2.38917e-07 -1.26626e-05 2.68862e+25 -2.15919 0.140037 272.136 
2.15025e-06 -1.26626e-05 2.69162e+25 -1.98734 -0.235127 272.129 
4.06158e-06 -1.26626e-05 2.69111e+25 -2.04533 -0.165949 271.974 
5.97292e-06 -1.26626e-05 2.68941e+25 -1.79161 -0.110404 272.357 
7.88425e-06 -1.26626e-05 2.68912e+25 -1.67572 -0.857909 272.453 
9.79558e-06 -1.26626e-05 2.68516e+25 -0.813887 -0.791019 272.599 
1.17069e-05 -1.26626e-05 2.68982e+25 -0.597209 -0.111889 272.205 
1.36182e-05 -1.26626e-05 2.68844e+25 -0.17307 -0.441491 272.356 
1.55296e-05 -1.26626e-05 2.68813e+25 -0.130397 -0.115198 272.33 
2.38917e-07 -1.21847e-05 2.68895e+25 -2.55304 0.197891 272.154 
2.15025e-06 -1.21847e-05 2.69054e+25 -2.27984 -0.34334 272.148 
4.06158e-06 -1.21847e-05 2.69022e+25 -2.23654 -0.199395 272.129 
5.97292e-06 -1.21847e-05 2.69028e+25 -1.74254 -0.117578 272.121 
7.88425e-06 -1.21847e-05 2.68771e+25 -1.57957 -0.929449 272.32 
9.79558e-06 -1.21847e-05 2.68788e+25 -1.03255 -0.879351 272.365 
1.17069e-05 -1.21847e-05 2.69133e+25 -0.578522 -0.113517 272.13 
1.36182e-05 -1.21847e-05 2.69e+25 -0.139978 -0.516598 272.238 
1.55296e-05 -1.21847e-05 2.69065e+25 -0.296585 -0.212374 272.106 
2.38917e-07 -1.17069e-05 2.69068e+25 -2.75457 0.157494 272.02 
2.15025e-06 -1.17069e-05 2.69156e+25 -2.72527 -0.309764 272.148 
4.06158e-06 -1.17069e-05 2.69078e+25 -2.34198 -0.308661 272.215 
5.97292e-06 -1.17069e-05 2.69193e+25 -1.88599 -0.230192 272.105 
7.88425e-06 -1.17069e-05 2.69013e+25 -1.43162 -1.01609 272.294 
9.79558e-06 -1.17069e-05 2.68842e+25 -1.38006 -0.990051 272.474 
1.17069e-05 -1.17069e-05 2.69006e+25 -0.801956 -0.224092 272.174 
1.36182e-05 -1.17069e-05 2.69125e+25 -0.352999 -0.59025 272.152 
1.55296e-05 -1.17069e-05 2.68983e+25 -0.262715 -0.267945 272.182 
2.38917e-07 -1.12291e-05 2.69044e+25 -3.14727 0.135882 271.94 
2.15025e-06 -1.12291e-05 2.69008e+25 -3.0067 -0.267147 272.198 
4.06158e-06 -1.12291e-05 2.69329e+25 -2.6284 -0.350466 271.981 
5.97292e-06 -1.12291e-05 2.68981e+25 -2.1333 -0.418636 272.386 
7.88425e-06 -1.12291e-05 2.6898e+25 -1.56631 -1.11907 272.083 
9.79558e-06 -1.12291e-05 2.68653e+25 -1.59063 -1.01722 272.53 
1.17069e-05 -1.12291e-05 2.69118e+25 -0.932196 -0.410281 272.067 
1.36182e-05 -1.12291e-05 2.692e+25 -0.349315 -0.635604 272.109 
1.55296e-05 -1.12291e-05 2.69009e+25 -0.210312 -0.305902 272.123 
2.38917e-07 -1.07512e-05 2.69049e+25 -3.62 0.0932852 271.976 
2.15025e-06 -1.07512e-05 2.69131e+25 -3.34521 -0.360669 272.08 
4.06158e-06 -1.07512e-05 2.6924e+25 -2.96565 -0.430745 272.137 
5.97292e-06 -1.07512e-05 2.68934e+25 -2.57989 -0.666024 272.305 
7.88425e-06 -1.07512e-05 2.69017e+25 -1.68815 -1.1054 272.164 
9.79558e-06 -1.07512e-05 2.68885e+25 -1.93204 -1.02986 272.317 
1.17069e-05 -1.07512e-05 2.69378e+25 -0.965234 -0.711893 272.065 
1.36182e-05 -1.07512e-05 2.69094e+25 -0.307733 -0.676527 272.179 
1.55296e-05 -1.07512e-05 2.6916e+25 0.00129813 -0.270741 272.115 
2.38917e-07 -1.02734e-05 2.68792e+25 -3.87682 0.0599994 272.176 
2.15025e-06 -1.02734e-05 2.69212e+25 -3.63268 -0.444224 272.06 
4.06158e-06 -1.02734e-05 2.69111e+25 -3.26816 -0.452485 272.111 
5.97292e-06 -1.02734e-05 2.68951e+25 -2.85086 -0.858 272.187 
7.88425e-06 -1.02734e-05 2.68951e+25 -1.88984 -1.09832 272.318 
9.79558e-06 -1.02734e-05 2.69058e+25 -1.87914 -1.05627 272.24 
1.17069e-05 -1.02734e-05 2.69139e+25 -1.103 -1.1169 272.013 
1.36182e-05 -1.02734e-05 2.69216e+25 -0.421338 -0.758763 272.031 
1.55296e-05 -1.02734e-05 2.69155e+25 0.201015 -0.334265 272.058 
2.38917e-07 -9.79558e-06 2.68716e+25 -3.97863 -0.0199522 272.203 
2.15025e-06 -9.79558e-06 2.69214e+25 -4.08467 -0.499055 272.135 
4.06158e-06 -9.79558e-06 2.69141e+25 -3.70815 -0.48075 272.191 
5.97292e-06 -9.79558e-06 2.69062e+25 -3.00003 -1.11577 272.205 
7.88425e-06 -9.79558e-06 2.68935e+25 -2.02239 -1.12487 272.289 
9.79558e-06 -9.79558e-06 2.68992e+25 -1.64385 -1.14199 272.228 
1.17069e-05 -9.79558e-06 2.68989e+25 -0.936367 -1.43593 272.089 
1.36182e-05 -9.79558e-06 2.69299e+25 -0.384337 -0.714829 271.956 
1.55296e-05 -9.79558e-06 2.69196e+25 0.187865 -0.427882 272.025 
2.38917e-07 -9.31775e-06 2.68893e+25 -4.28368 -0.155811 272.169 
2.15025e-06 -9.31775e-06 2.69212e+25 -4.34581 -0.44123 272.009 
4.06158e-06 -9.31775e-06 2.69119e+25 -3.87808 -0.613989 272.115 
5.97292e-06 -9.31775e-06 2.69148e+25 -3.05009 -1.32373 272.15 
7.88425e-06 -9.31775e-06 2.68977e+25 -2.44424 -1.25201 272.278 
9.79558e-06 -9.31775e-06 2.68883e+25 -1.58283 -1.20773 272.214 
1.17069e-05 -9.31775e-06 2.69159e+25 -1.04706 -1.71084 271.993 
1.36182e-05 -9.31775e-06 2.69103e+25 -0.303589 -0.855196 272.092 
1.55296e-05 -9.31775e-06 2.69345e+25 -0.0167493 -0.53226 271.962 
2.38917e-07 -8.83992e-06 2.68813e+25 -4.68813 -0.0632902 272.127 
2.15025e-06 -8.83992e-06 2.69161e+25 -4.72311 -0.399495 272.053 
4.06158e-06 -8.83992e-06 2.69159e+25 -3.96708 -0.855574 272.033 
5.97292e-06 -8.83992e-06 2.68932e+25 -3.34819 -1.55266 272.209 
7.88425e-06 -8.83992e-06 2.69068e+25 -2.62518 -1.48757 272.169 
9.79558e-06 -8.83992e-06 2.69091e+25 -1.7728 -1.47407 272.215 
1.17069e-05 -8.83992e-06 2.69264e+25 -1.13836 -1.81358 271.934 
1.36182e-05 -8.83992e-06 2.6911e+25 -0.504814 -1.04686 272.084 
1.55296e-05 -8.83992e-06 2.69121e+25 -0.0164573 -0.677264 272.07 
2.38917e-07 -8.36208e-06 2.68854e+25 -4.92483 0.0175842 272.15 
2.15025e-06 -8.36208e-06 2.69189e+25 -4.78309 -0.541945 272.044 
4.06158e-06 -8.36208e-06 2.69091e+25 -4.32723 -1.06031 272.036 
5.97292e-06 -8.36208e-06 2.68878e+25 -3.56349 -1.88505 272.361 
7.88425e-06 -8.36208e-06 2.69005e+25 -2.79567 -1.67116 272.136 
9.79558e-06 -8.36208e-06 2.69002e+25 -2.02206 -1.73635 272.201 
1.17069e-05 -8.36208e-06 2.69106e+25 -1.03003 -1.95997 272.065 
1.36182e-05 -8.36208e-06 2.69288e+25 -0.644578 -1.19913 271.936 
1.55296e-05 -8.36208e-06 2.69088e+25 -0.0597651 -0.728278 272.144 
2.38917e-07 -7.88425e-06 2.68875e+25 -5.13034 0.0780597 271.991 
2.15025e-06 -7.88425e-06 2.69086e+25 -5.01773 -0.776343 272.089 
4.06158e-06 -7.88425e-06 2.69039e+25 -4.42049 -1.17722 272.126 
5.97292e-06 -7.88425e-06 2.6891e+25 -3.80786 -1.99734 272.243 
7.88425e-06 -7.88425e-06 2.69184e+25 -3.06116 -1.84629 272.071 
9.79558e-06 -7.88425e-06 2.69157e+25 -2.14459 -1.95495 272.034 
1.17069e-05 -7.88425e-06 2.69144e+25 -1.21992 -2.00999 272.136 
1.36182e-05 -7.88425e-06 2.69074e+25 -0.804149 -1.45938 272.11 
1.55296e-05 -7.88425e-06 2.69123e+25 -0.105239 -0.798888 272.169 
2.38917e-07 -7.40642e-06 2.68968e+25 -5.3388 0.0831252 272.016 
2.15025e-06 -7.40642e-06 2.69133e+25 -5.15514 -0.921321 272.115 
4.06158e-06 -7.40642e-06 2.68796e+25 -4.53649 -1.22915 272.232 
5.97292e-06 -7.40642e-06 2.69085e+25 -3.97988 -2.02674 272.144 
7.88425e-06 -7.40642e-06 2.69324e+25 -3.38611 -2.14462 272.01 
9.79558e-06 -7.40642e-06 2.69122e+25 -2.39143 -2.19579 272.002 
1.17069e-05 -7.40642e-06 2.69075e+25 -1.35229 -2.21815 272.102 
1.36182e-05 -7.40642e-06 2.69079e+25 -0.810402 -1.7913 272.182 
1.55296e-05 -7.40642e-06 2.69002e+25 -0.145425 -0.904944 272.237 
2.38917e-07 -6.92858e-06 2.68736e+25 -5.60128 0.0322062 272.102 
2.15025e-06 -6.92858e-06 2.68889e+25 -5.37849 -0.912454 272.166 
4.06158e-06 -6.92858e-06 2.69026e+25 -4.96476 -1.37706 272.205 
5.97292e-06 -6.92858e-06 2.69184e+25 -4.25403 -2.13598 272.099 
7.88425e-06 -6.92858e-06 2.69282e+25 -3.70714 -2.37115 272.034 
9.79558e-06 -6.92858e-06 2.68988e+25 -2.55456 -2.61399 272.176 
1.17069e-05 -6.92858e-06 2.69297e+25 -1.54142 -2.42888 272.002 
1.36182e-05 -6.92858e-06 2.69115e+25 -0.85883 -1.95541 272.073 
1.55296e-05 -6.92858e-06 2.68877e+25 -0.339024 -0.907686 272.322 
2.38917e-07 -6.45075e-06 2.68803e+25 -5.67426 0.0723333 272.164 
2.15025e-06 -6.45075e-06 2.69044e+25 -5.50847 -0.934769 272.188 
4.06158e-06 -6.45075e-06 2.69234e+25 -5.49148 -1.57661 272.081 
5.97292e-06 -6.45075e-06 2.69297e+25 -4.77527 -2.29182 271.946 
7.88425e-06 -6.45075e-06 2.69134e+25 -3.94388 -2.58156 272.136 
9.79558e-06 -6.45075e-06 2.69131e+25 -2.6748 -2.98308 272.187 
1.17069e-05 -6.45075e-06 2.69182e+25 -1.77494 -2.62385 271.908 
1.36182e-05 -6.45075e-06 2.69096e+25 -0.920303 -2.12805 272.164 
1.55296e-05 -6.45075e-06 2.68806e+25 -0.327989 -0.990233 272.367 
2.38917e-07 -5.97292e-06 2.68658e+25 -5.81345 -0.0657108 272.189 
2.15025e-06 -5.97292e-06 2.69109e+25 -5.69518 -0.999481 272.146 
4.06158e-06 -5.97292e-06 2.68922e+25 -5.7702 -1.70713 272.346 
5.97292e-06 -5.97292e-06 2.69149e+25 -5.1433 -2.4543 271.998 
7.88425e-06 -5.97292e-06 2.69077e+25 -4.23047 -2.81409 272.118 
9.79558e-06 -5.97292e-06 2.6936e+25 -2.94256 -3.29103 271.954 
1.17069e-05 -5.97292e-06 2.69249e+25 -1.94921 -2.93898 272.054 
1.36182e-05 -5.97292e-06 2.69095e+25 -1.0226 -2.30341 272.241 
1.55296e-05 -5.97292e-06 2.6892e+25 -0.437202 -1.1869 272.211 
2.38917e-07 -5.49508e-06 2.68601e+25 -6.19753 -0.00882442 272.224 
2.15025e-06 -5.49508e-06 2.69091e+25 -5.70255 -1.0758 272.125 
4.06158e-06 -5.49508e-06 2.68929e+25 -5.84416 -1.67922 272.284 
5.97292e-06 -5.49508e-06 2.68926e+25 -5.40816 -2.57881 272.141 
7.88425e-06 -5.49508e-06 2.69005e+25 -4.52875 -3.14232 272.23 
9.79558e-06 -5.49508e-06 2.69262e+25 -3.1289 -3.53979 271.974 
1.17069e-05 -5.49508e-06 2.69031e+25 -2.13764 -3.1409 272.166 
1.36182e-05 -5.49508e-06 2.69024e+25 -1.14689 -2.40375 272.281 
1.55296e-05 -5.49508e-06 2.68976e+25 -0.40909 -1.51375 272.164 
2.38917e-07 -5.01725e-06 2.68596e+25 -6.42079 -0.0388298 272.29 
2.15025e-06 -5.01725e-06 2.6891e+25 -6.18054 -1.10246 272.226 
4.06158e-06 -5.01725e-06 2.6882e+25 -6.07744 -1.74396 272.308 
5.97292e-06 -5.01725e-06 2.68983e+25 -5.52608 -2.68149 272.186 
7.88425e-06 -5.01725e-06 2.68873e+25 -4.73857 -3.4858 272.263 
9.79558e-06 -5.01725e-06 2.6923e+25 -3.42507 -3.76976 272.003 
1.17069e-05 -5.01725e-06 2.68982e+25 -2.27459 -3.44879 272.268 
1.36182e-05 -5.01725e-06 2.69038e+25 -1.07953 -2.59941 272.201 
1.55296e-05 -5.01725e-06 2.69102e+25 -0.334141 -1.62839 272.097 
2.38917e-07 -4.53942e-06 2.68786e+25 -6.56661 -0.0207325 272.236 
2.15025e-06 -4.53942e-06 2.69015e+25 -6.37663 -1.07135 272.259 
4.06158e-06 -4.53942e-06 2.68983e+25 -6.28478 -1.93269 272.119 
5.97292e-06 -4.53942e-06 2.68906e+25 -5.74383 -3.0046 272.215 
7.88425e-06 -4.53942e-06 2.6909e+25 -4.78846 -3.69719 272.004 
9.79558e-06 -4.53942e-06 2.69306e+25 -3.7064 -4.06822 272.032 
1.17069e-05 -4.53942e-06 2.68849e+25 -2.36027 -3.79243 272.286 
1.36182e-05 -4.53942e-06 2.69075e+25 -1.06652 -2.87502 272.185 
1.55296e-05 -4.53942e-06 2.69278e+25 -0.0789162 -1.79177 272.031 
2.38917e-07 -4.06158e-06 2.68734e+25 -6.64213 0.113081 272.119 
2.15025e-06 -4.06158e-06 2.68857e+25 -6.93713 -1.05532 272.331 
4.06158e-06 -4.06158e-06 2.69059e+25 -6.75725 -1.94926 272.145 
5.97292e-06 -4.06158e-06 2.691e+25 -6.25208 -3.26651 272.174 
7.88425e-06 -4.06158e-06 2.69235e+25 -5.18797 -3.94412 271.919 
9.79558e-06 -4.06158e-06 2.6911e+25 -3.86478 -4.49238 272.222 
1.17069e-05 -4.06158e-06 2.68832e+25 -2.32275 -4.1085 272.327 
1.36182e-05 -4.06158e-06 2.68946e+25 -0.977052 -3.13466 272.237 
1.55296e-05 -4.06158e-06 2.69274e+25 0.0103159 -1.87582 271.924 
2.38917e-07 -3.58375e-06 2.68724e+25 -6.66376 0.233052 272.098 
2.15025e-06 -3.58375e-06 2.68699e+25 -7.285 -0.976264 272.243 
4.06158e-06 -3.58375e-06 2.69139e+25 -7.02544 -2.14765 272.091 
5.97292e-06 -3.58375e-06 2.69169e+25 -6.54615 -3.48521 271.913 
7.88425e-06 -3.58375e-06 2.6916e+25 -5.51012 -4.25273 271.992 
9.79558e-06 -3.58375e-06 2.69294e+25 -4.06396 -5.02293 272.113 
1.17069e-05 -3.58375e-06 2.68815e+25 -2.34378 -4.37699 272.428 
1.36182e-05 -3.58375e-06 2.6896e+25 -1.10257 -3.50396 272.331 
1.55296e-05 -3.58375e-06 2.69313e+25 -0.209066 -1.87968 271.95 
2.38917e-07 -3.10592e-06 2.687e+25 -7.01079 0.380613 272.228 
2.15025e-06 -3.10592e-06 2.68848e+25 -7.61747 -0.800541 272.194 
4.06158e-06 -3.10592e-06 2.69031e+25 -7.44045 -2.33624 272.095 
5.97292e-06 -3.10592e-06 2.69116e+25 -6.74709 -3.66403 272.024 
7.88425e-06 -3.10592e-06 2.68922e+25 -6.00816 -4.64855 272.18 
9.79558e-06 -3.10592e-06 2.69093e+25 -4.26808 -5.34891 272.077 
1.17069e-05 -3.10592e-06 2.68555e+25 -2.64957 -4.80024 272.504 
1.36182e-05 -3.10592e-06 2.68874e+25 -1.02778 -3.87792 272.249 
1.55296e-05 -3.10592e-06 2.6916e+25 -0.162957 -1.94514 272.028 
2.38917e-07 -2.62808e-06 2.68833e+25 -7.17604 0.637424 272.106 
2.15025e-06 -2.62808e-06 2.68961e+25 -7.63146 -0.610361 272.132 
4.06158e-06 -2.62808e-06 2.68706e+25 -7.67008 -2.36002 272.326 
5.97292e-06 -2.62808e-06 2.68857e+25 -7.16372 -3.7166 272.204 
7.88425e-06 -2.62808e-06 2.69023e+25 -6.2659 -5.08175 272.201 
9.79558e-06 -2.62808e-06 2.69122e+25 -4.41814 -5.74467 271.978 
1.17069e-05 -2.62808e-06 2.68924e+25 -2.93158 -5.29724 272.252 
1.36182e-05 -2.62808e-06 2.68839e+25 -1.22484 -4.1576 272.293 
1.55296e-05 -2.62808e-06 2.68993e+25 -0.125443 -2.1 272.205 
2.38917e-07 -2.15025e-06 2.68789e+25 -7.15277 0.893654 272.065 
2.15025e-06 -2.15025e-06 2.69029e+25 -7.7132 -0.502193 271.931 
4.06158e-06 -2.15025e-06 2.68861e+25 -7.67772 -2.3651 272.315 
5.97292e-06 -2.15025e-06 2.68924e+25 -7.46764 -3.7999 272.186 
7.88425e-06 -2.15025e-06 2.68849e+25 -6.57166 -5.53533 272.324 
9.79558e-06 -2.15025e-06 2.69205e+25 -4.78949 -6.24704 272.057 
1.17069e-05 -2.15025e-06 2.6896e+25 -3.14251 -5.68656 272.295 
1.36182e-05 -2.15025e-06 2.68944e+25 -1.32813 -4.49621 272.283 
1.55296e-05 -2.15025e-06 2.68905e+25 -0.110836 -2.21027 272.312 
2.38917e-07 -1.67242e-06 2.68822e+25 -7.26191 1.10893 271.943 
2.15025e-06 -1.67242e-06 2.69157e+25 -7.75218 -0.494961 271.994 
4.06158e-06 -1.67242e-06 2.68918e+25 -7.66508 -2.36035 272.281 
5.97292e-06 -1.67242e-06 2.69153e+25 -7.6 -3.89936 272.065 
7.88425e-06 -1.67242e-06 2.68993e+25 -6.6494 -5.86473 272.061 
9.79558e-06 -1.67242e-06 2.69233e+25 -5.1005 -6.64968 271.907 
1.17069e-05 -1.67242e-06 2.69024e+25 -3.23058 -6.12346 272.151 
1.36182e-05 -1.67242e-06 2.68956e+25 -1.4628 -4.89966 272.089 
1.55296e-05 -1.67242e-06 2.68854e+25 -0.0597935 -2.25221 272.354 
2.38917e-07 -1.19458e-06 2.68876e+25 -7.34865 1.21901 271.894 
2.15025e-06 -1.19458e-06 2.69146e+25 -7.783 -0.584714 271.925 
4.06158e-06 -1.19458e-06 2.6888e+25 -7.84148 -2.35774 272.23 
5.97292e-06 -1.19458e-06 2.69053e+25 -7.7236 -4.02869 272.016 
7.88425e-06 -1.19458e-06 2.69119e+25 -6.56875 -6.11408 272.119 
9.79558e-06 -1.19458e-06 2.69092e+25 -5.3843 -7.08507 272.078 
1.17069e-05 -1.19458e-06 2.69012e+25 -3.38254 -6.60005 272.208 
1.36182e-05 -1.19458e-06 2.69156e+25 -1.61055 -5.31294 272.016 
1.55296e-05 -1.19458e-06 2.69056e+25 -0.384199 -2.49037 272.106 
2.38917e-07 -7.1675e-07 2.68852e+25 -7.3471 1.26993 271.96 
2.15025e-06 -7.1675e-07 2.69093e+25 -7.69034 -0.688606 271.865 
4.06158e-06 -7.1675e-07 2.68867e+25 -7.90867 -2.31191 272.194 
5.97292e-06 -7.1675e-07 2.6907e+25 -7.82974 -4.17574 272.114 
7.88425e-06 -7.1675e-07 2.69059e+25 -6.68124 -6.22549 272.112 
9.79558e-06 -7.1675e-07 2.6918e+25 -5.53458 -7.54414 272.105 
1.17069e-05 -7.1675e-07 2.69152e+25 -3.63862 -7.02386 272.134 
1.36182e-05 -7.1675e-07 2.69148e+25 -1.82193 -5.677 272.01 
1.55296e-05 -7.1675e-07 2.69125e+25 -0.736813 -2.81965 272.04 
2.38917e-07 -2.38917e-07 2.68442e+25 -7.34468 1.52637 272.035 
2.15025e-06 -2.38917e-07 2.68919e+25 -7.85794 -0.579908 271.817 
4.06158e-06 -2.38917e-07 2.68728e+25 -7.89795 -2.34355 272.146 
5.97292e-06 -2.38917e-07 2.68614e+25 -7.60436 -4.17969 272.305 
7.88425e-06 -2.38917e-07 2.68811e+25 -7.03033 -6.41424 272.091 
9.79558e-06 -2.38917e-07 2.6913e+25 -5.77095 -7.93969 271.978 
1.17069e-05 -2.38917e-07 2.68603e+25 -3.97338 -7.46176 272.274 
1.36182e-05 -2.38917e-07 2.68864e+25 -2.08006 -6.0723 271.988 
1.55296e-05 -2.38917e-07 2.69029e+25 -0.741962 -3.08831 271.985 
7.1675e-07 -1.69631e-05 2.68717e+25 -0.183445 -0.025471 272.735 
2.62808e-06 -1.69631e-05 2.68404e+25 -0.259172 -0.0129368 272.904 
4.53942e-06 -1.69631e-05 2.68268e+25 -0.170505 0.0190283 272.867 
6.45075e-06 -1.69631e-05 2.6852e+25 -0.175443 0.0232861 272.854 
8.36208e-06 -1.69631e-05 2.68462e+25 -0.137509 0.027746 272.8 
1.02734e-05 -1.69631e-05 2.68512e+25 -0.145838 0.05197 272.852 
1.21847e-05 -1.69631e-05 2.68626e+25 0.0373194 0.0493343 272.749 
1.40961e-05 -1.69631e-05 2.68578e+25 -0.0236967 0.0646861 272.77 
1.60074e-05 -1.69631e-05 2.68434e+25 -0.0345054 0.0168109 272.921 
7.1675e-07 -1.64852e-05 2.68896e+25 -0.437057 -0.0614234 272.457 
2.62808e-06 -1.64852e-05 2.68556e+25 -0.360283 0.0519676 272.759 
4.53942e-06 -1.64852e-05 2.68444e+25 -0.357163 -0.0338644 272.78 
6.45075e-06 -1.64852e-05 2.68561e+25 -0.593602 -0.150614 272.765 
8.36208e-06 -1.64852e-05 2.68706e+25 -0.152311 -0.0425715 272.564 
1.02734e-05 -1.64852e-05 2.68886e+25 -0.227576 0.0481828 272.318 
1.21847e-05 -1.64852e-05 2.6864e+25 -0.135011 0.038576 272.575 
1.40961e-05 -1.64852e-05 2.6851e+25 -0.242578 0.105776 272.755 
1.60074e-05 -1.64852e-05 2.68687e+25 0.00853243 0.00515465 272.639 
7.1675e-07 -1.60074e-05 2.69121e+25 -0.719913 -0.0231808 272.161 
2.62808e-06 -1.60074e-05 2.68759e+25 -0.603584 0.170494 272.565 
4.53942e-06 -1.60074e-05 2.68701e+25 -0.820017 0.00136844 272.525 
6.45075e-06 -1.60074e-05 2.68681e+25 -0.827206 -0.226735 272.766 
8.36208e-06 -1.60074e-05 2.68738e+25 -0.41034 -0.0903651 272.643 
1.02734e-05 -1.60074e-05 2.69039e+25 -0.286262 -0.00352589 272.105 
1.21847e-05 -1.60074e-05 2.68945e+25 -0.274563 -0.0619003 272.356 
1.40961e-05 -1.60074e-05 2.68769e+25 -0.269736 0.0534677 272.407 
1.60074e-05 -1.60074e-05 2.68984e+25 0.0391471 -0.00752293 272.316 
7.1675e-07 -1.55296e-05 2.69134e+25 -0.933542 0.0196048 272.114 
2.62808e-06 -1.55296e-05 2.68957e+25 -0.909802 0.140742 272.273 
4.53942e-06 -1.55296e-05 2.68903e+25 -0.944338 0.0241439 272.34 
6.45075e-06 -1.55296e-05 2.68884e+25 -0.805915 -0.2682 272.547 
8.36208e-06 -1.55296e-05 2.68468e+25 -0.682516 -0.232458 272.775 
1.02734e-05 -1.55296e-05 2.69013e+25 -0.218288 0.0496697 272.264 
1.21847e-05 -1.55296e-05 2.69202e+25 -0.378649 -0.1619 272.04 
1.40961e-05 -1.55296e-05 2.68935e+25 -0.409121 0.00866354 272.416 
1.60074e-05 -1.55296e-05 2.69021e+25 -0.0405135 -0.139861 272.237 
7.1675e-07 -1.50517e-05 2.69245e+25 -1.26041 0.0935093 272.083 
2.62808e-06 -1.50517e-05 2.69207e+25 -1.10855 -0.0173367 272.061 
4.53942e-06 -1.50517e-05 2.69079e+25 -0.979636 0.114127 272.119 
6.45075e-06 -1.50517e-05 2.6889e+25 -0.837265 -0.274842 272.486 
8.36208e-06 -1.50517e-05 2.68628e+25 -0.737992 -0.216961 272.579 
1.02734e-05 -1.50517e-05 2.6876e+25 -0.278006 0.0867542 272.515 
1.21847e-05 -1.50517e-05 2.69143e+25 -0.364301 -0.127933 272.087 
1.40961e-05 -1.50517e-05 2.68919e+25 -0.294454 0.00848951 272.286 
1.60074e-05 -1.50517e-05 2.69092e+25 -0.0749443 -0.22053 272.167 
7.1675e-07 -1.45739e-05 2.69328e+25 -1.29377 0.125057 271.94 
2.62808e-06 -1.45739e-05 2.69121e+25 -1.34437 -0.130227 272.047 
4.53942e-06 -1.45739e-05 2.69246e+25 -1.3013 0.0881132 272.135 
6.45075e-06 -1.45739e-05 2.6885e+25 -0.998189 -0.207064 272.413 
8.36208e-06 -1.45739e-05 2.68759e+25 -0.801096 -0.25777 272.53 
1.02734e-05 -1.45739e-05 2.68773e+25 -0.531827 -0.00845571 272.425 
1.21847e-05 -1.45739e-05 2.6912e+25 -0.197432 -0.00809254 272.137 
1.40961e-05 -1.45739e-05 2.6896e+25 -0.0705267 -0.00548492 272.345 
1.60074e-05 -1.45739e-05 2.68976e+25 -0.0846303 -0.277724 272.354 
7.1675e-07 -1.40961e-05 2.69252e+25 -1.48672 0.146243 271.933 
2.62808e-06 -1.40961e-05 2.69327e+25 -1.50224 -0.184465 271.904 
4.53942e-06 -1.40961e-05 2.69189e+25 -1.35057 0.0119304 272.007 
6.45075e-06 -1.40961e-05 2.68726e+25 -1.42614 -0.289927 272.487 
8.36208e-06 -1.40961e-05 2.68689e+25 -1.08674 -0.346204 272.609 
1.02734e-05 -1.40961e-05 2.68736e+25 -0.805279 -0.272653 272.448 
1.21847e-05 -1.40961e-05 2.6918e+25 -0.341177 -0.107154 272.126 
1.40961e-05 -1.40961e-05 2.68841e+25 0.0129166 -0.0795252 272.441 
1.60074e-05 -1.40961e-05 2.68963e+25 -0.0191523 -0.296509 272.384 
7.1675e-07 -1.36182e-05 2.69298e+25 -1.75213 0.154722 271.897 
2.62808e-06 -1.36182e-05 2.69554e+25 -1.86778 -0.124622 271.748 
4.53942e-06 -1.36182e-05 2.69218e+25 -1.47731 -0.0459796 272.114 
6.45075e-06 -1.36182e-05 2.68901e+25 -1.60073 -0.311769 272.314 
8.36208e-06 -1.36182e-05 2.68749e+25 -1.33342 -0.495865 272.463 
1.02734e-05 -1.36182e-05 2.68764e+25 -0.784782 -0.56499 272.511 
1.21847e-05 -1.36182e-05 2.69064e+25 -0.550202 -0.178434 272.268 
1.40961e-05 -1.36182e-05 2.68647e+25 0.214378 -0.244225 272.495 
1.60074e-05 -1.36182e-05 2.68808e+25 0.056856 -0.260775 272.444 
7.1675e-07 -1.31404e-05 2.69119e+25 -1.89089 0.169839 272.016 
2.62808e-06 -1.31404e-05 2.69322e+25 -1.92859 -0.14069 271.928 
4.53942e-06 -1.31404e-05 2.69192e+25 -1.90066 -0.136316 272.191 
6.45075e-06 -1.31404e-05 2.68812e+25 -1.68786 -0.210581 272.349 
8.36208e-06 -1.31404e-05 2.68892e+25 -1.4577 -0.751874 272.399 
1.02734e-05 -1.31404e-05 2.68694e+25 -0.721876 -0.663194 272.568 
1.21847e-05 -1.31404e-05 2.6903e+25 -0.588091 -0.26437 272.213 
1.40961e-05 -1.31404e-05 2.68733e+25 -0.0295497 -0.331531 272.442 
1.60074e-05 -1.31404e-05 2.68829e+25 0.0229693 -0.175417 272.366 
7.1675e-07 -1.26626e-05 2.69074e+25 -2.17267 0.200493 272.088 
2.62808e-06 -1.26626e-05 2.69202e+25 -1.92141 -0.209573 272.041 
4.53942e-06 -1.26626e-05 2.69128e+25 -1.97696 -0.126185 272.221 
6.45075e-06 -1.26626e-05 2.68874e+25 -1.79629 -0.0608772 272.283 
8.36208e-06 -1.26626e-05 2.69019e+25 -1.50232 -1.00723 272.378 
1.02734e-05 -1.26626e-05 2.68744e+25 -0.720325 -0.658585 272.538 
1.21847e-05 -1.26626e-05 2.69077e+25 -0.533875 -0.336855 272.207 
1.40961e-05 -1.26626e-05 2.68753e+25 -0.198742 -0.346023 272.487 
1.60074e-05 -1.26626e-05 2.68856e+25 -0.151392 -0.154712 272.328 
7.1675e-07 -1.21847e-05 2.68925e+25 -2.54049 0.152081 272.123 
2.62808e-06 -1.21847e-05 2.68972e+25 -2.24842 -0.162136 272.182 
4.53942e-06 -1.21847e-05 2.69021e+25 -2.11673 -0.247059 272.147 
6.45075e-06 -1.21847e-05 2.68939e+25 -1.76426 -0.054014 272.303 
8.36208e-06 -1.21847e-05 2.68827e+25 -1.46808 -1.18393 272.425 
1.02734e-05 -1.21847e-05 2.68797e+25 -0.933729 -0.800434 272.564 
1.21847e-05 -1.21847e-05 2.69165e+25 -0.468016 -0.448308 272.165 
1.40961e-05 -1.21847e-05 2.68893e+25 -0.167921 -0.157229 272.393 
1.60074e-05 -1.21847e-05 2.69035e+25 -0.175862 -0.225497 272.226 
7.1675e-07 -1.17069e-05 2.69109e+25 -2.70885 0.122282 272.017 
2.62808e-06 -1.17069e-05 2.69263e+25 -2.66009 -0.260195 271.988 
4.53942e-06 -1.17069e-05 2.69078e+25 -2.25424 -0.342361 272.126 
6.45075e-06 -1.17069e-05 2.68824e+25 -1.77183 -0.12514 272.282 
8.36208e-06 -1.17069e-05 2.68992e+25 -1.41437 -1.26024 272.333 
1.02734e-05 -1.17069e-05 2.68762e+25 -1.28436 -0.8973 272.33 
1.21847e-05 -1.17069e-05 2.69054e+25 -0.718808 -0.547317 272.105 
1.40961e-05 -1.17069e-05 2.68921e+25 -0.282765 -0.184347 272.225 
1.60074e-05 -1.17069e-05 2.69171e+25 -0.199997 -0.344617 272.293 
7.1675e-07 -1.12291e-05 2.69082e+25 -3.06897 0.0531351 272.154 
2.62808e-06 -1.12291e-05 2.68957e+25 -3.00802 -0.383005 272.16 
4.53942e-06 -1.12291e-05 2.69053e+25 -2.59073 -0.495328 272.097 
6.45075e-06 -1.12291e-05 2.68806e+25 -1.87662 -0.292731 272.364 
8.36208e-06 -1.12291e-05 2.68997e+25 -1.46468 -1.22506 272.309 
1.02734e-05 -1.12291e-05 2.68957e+25 -1.53508 -1.02208 272.271 
1.21847e-05 -1.12291e-05 2.69028e+25 -0.695697 -0.757185 272.078 
1.40961e-05 -1.12291e-05 2.68946e+25 -0.309651 -0.228246 272.268 
1.60074e-05 -1.12291e-05 2.68909e+25 -0.154662 -0.471704 272.293 
7.1675e-07 -1.07512e-05 2.69154e+25 -3.57838 0.0400505 272.057 
2.62808e-06 -1.07512e-05 2.69008e+25 -3.16677 -0.445986 272.118 
4.53942e-06 -1.07512e-05 2.69057e+25 -2.95546 -0.417904 272.134 
6.45075e-06 -1.07512e-05 2.6894e+25 -2.31303 -0.569153 272.247 
8.36208e-06 -1.07512e-05 2.68974e+25 -1.79665 -1.23374 272.287 
1.02734e-05 -1.07512e-05 2.6896e+25 -1.81803 -1.08961 272.179 
1.21847e-05 -1.07512e-05 2.69152e+25 -0.649527 -0.967713 272.09 
1.40961e-05 -1.07512e-05 2.6902e+25 -0.119593 -0.34679 272.187 
1.60074e-05 -1.07512e-05 2.68937e+25 -0.0307008 -0.490156 272.371 
7.1675e-07 -1.02734e-05 2.69161e+25 -3.83486 -0.0268497 271.974 
2.62808e-06 -1.02734e-05 2.69079e+25 -3.51426 -0.619523 272.13 
4.53942e-06 -1.02734e-05 2.68944e+25 -3.23259 -0.479569 272.253 
6.45075e-06 -1.02734e-05 2.69143e+25 -2.521 -0.914816 272.22 
8.36208e-06 -1.02734e-05 2.68881e+25 -1.88908 -1.16303 272.39 
1.02734e-05 -1.02734e-05 2.69088e+25 -1.79286 -1.27587 272.196 
1.21847e-05 -1.02734e-05 2.69221e+25 -0.710153 -1.24732 272.134 
1.40961e-05 -1.02734e-05 2.69253e+25 -0.400039 -0.535207 271.964 
1.60074e-05 -1.02734e-05 2.68844e+25 0.219168 -0.37348 272.365 
7.1675e-07 -9.79558e-06 2.6919e+25 -3.83623 -0.0794653 272.074 
2.62808e-06 -9.79558e-06 2.69028e+25 -4.05513 -0.706687 272.128 
4.53942e-06 -9.79558e-06 2.69227e+25 -3.59198 -0.542764 272.179 
6.45075e-06 -9.79558e-06 2.69363e+25 -2.80096 -1.25624 272.02 
8.36208e-06 -9.79558e-06 2.68968e+25 -1.96166 -1.26019 272.264 
1.02734e-05 -9.79558e-06 2.6907e+25 -1.52903 -1.37526 272.135 
1.21847e-05 -9.79558e-06 2.69057e+25 -0.678564 -1.59961 272.15 
1.40961e-05 -9.79558e-06 2.69242e+25 -0.32067 -0.60924 271.975 
1.60074e-05 -9.79558e-06 2.68913e+25 0.242553 -0.340251 272.338 
7.1675e-07 -9.31775e-06 2.6891e+25 -4.22591 -0.125186 272.103 
2.62808e-06 -9.31775e-06 2.69134e+25 -4.41801 -0.747486 272.152 
4.53942e-06 -9.31775e-06 2.69336e+25 -3.70974 -0.729721 272.001 
6.45075e-06 -9.31775e-06 2.69294e+25 -2.8988 -1.41405 272.06 
8.36208e-06 -9.31775e-06 2.6898e+25 -2.29006 -1.39823 272.233 
1.02734e-05 -9.31775e-06 2.69065e+25 -1.39209 -1.57101 272.181 
1.21847e-05 -9.31775e-06 2.6891e+25 -0.912013 -1.70204 272.227 
1.40961e-05 -9.31775e-06 2.69149e+25 -0.132106 -0.744202 271.887 
1.60074e-05 -9.31775e-06 2.69063e+25 0.0919643 -0.336691 272.239 
7.1675e-07 -8.83992e-06 2.69042e+25 -4.69438 -0.231268 272.119 
2.62808e-06 -8.83992e-06 2.69073e+25 -4.65243 -0.784351 272.043 
4.53942e-06 -8.83992e-06 2.69303e+25 -3.7524 -0.918094 272.045 
6.45075e-06 -8.83992e-06 2.68869e+25 -3.04568 -1.56072 272.246 
8.36208e-06 -8.83992e-06 2.69289e+25 -2.41603 -1.5755 272.09 
1.02734e-05 -8.83992e-06 2.6908e+25 -1.52508 -1.73777 272.291 
1.21847e-05 -8.83992e-06 2.69065e+25 -0.984479 -1.83017 271.985 
1.40961e-05 -8.83992e-06 2.69045e+25 -0.384351 -0.820357 272.065 
1.60074e-05 -8.83992e-06 2.69125e+25 0.0806609 -0.376793 272.116 
7.1675e-07 -8.36208e-06 2.69119e+25 -4.98906 -0.187224 272.09 
2.62808e-06 -8.36208e-06 2.6906e+25 -4.61084 -0.902339 272.167 
4.53942e-06 -8.36208e-06 2.69067e+25 -4.18311 -1.11976 272.085 
6.45075e-06 -8.36208e-06 2.68965e+25 -3.275 -1.77996 272.302 
8.36208e-06 -8.36208e-06 2.69058e+25 -2.65866 -1.69447 272.153 
1.02734e-05 -8.36208e-06 2.6917e+25 -1.77638 -2.01813 272.165 
1.21847e-05 -8.36208e-06 2.68908e+25 -0.967274 -1.92492 272.236 
1.40961e-05 -8.36208e-06 2.69127e+25 -0.421801 -1.02749 272.118 
1.60074e-05 -8.36208e-06 2.69168e+25 -0.0480981 -0.442429 272.187 
7.1675e-07 -7.88425e-06 2.69114e+25 -5.2432 -0.0688664 272.068 
2.62808e-06 -7.88425e-06 2.69126e+25 -4.77878 -1.03407 272.021 
4.53942e-06 -7.88425e-06 2.69156e+25 -4.30472 -1.25764 272.097 
6.45075e-06 -7.88425e-06 2.6914e+25 -3.68634 -2.04173 272.128 
8.36208e-06 -7.88425e-06 2.69208e+25 -2.85234 -1.82645 272.113 
1.02734e-05 -7.88425e-06 2.69102e+25 -1.88923 -2.28717 272.106 
1.21847e-05 -7.88425e-06 2.69169e+25 -1.14 -1.98549 272.122 
1.40961e-05 -7.88425e-06 2.69108e+25 -0.478459 -1.2926 272.279 
1.60074e-05 -7.88425e-06 2.6877e+25 -0.054154 -0.395151 272.32 
7.1675e-07 -7.40642e-06 2.69065e+25 -5.29443 -0.0972308 272.15 
2.62808e-06 -7.40642e-06 2.69069e+25 -5.02384 -1.32083 272.218 
4.53942e-06 -7.40642e-06 2.68952e+25 -4.45198 -1.4044 272.152 
6.45075e-06 -7.40642e-06 2.69272e+25 -4.04985 -2.0783 272.091 
8.36208e-06 -7.40642e-06 2.69083e+25 -3.09764 -2.08779 272.142 
1.02734e-05 -7.40642e-06 2.69212e+25 -2.15502 -2.54707 272.014 
1.21847e-05 -7.40642e-06 2.69242e+25 -1.1291 -2.12113 272.01 
1.40961e-05 -7.40642e-06 2.68956e+25 -0.610309 -1.45991 272.297 
1.60074e-05 -7.40642e-06 2.68885e+25 -0.0957729 -0.442008 272.305 
7.1675e-07 -6.92858e-06 2.69011e+25 -5.61857 -0.116242 272.097 
2.62808e-06 -6.92858e-06 2.6894e+25 -5.39518 -1.44052 272.175 
4.53942e-06 -6.92858e-06 2.69155e+25 -4.75086 -1.57711 272.12 
6.45075e-06 -6.92858e-06 2.69115e+25 -4.07281 -2.12855 272.136 
8.36208e-06 -6.92858e-06 2.69079e+25 -3.47956 -2.32981 272.057 
1.02734e-05 -6.92858e-06 2.69119e+25 -2.24297 -2.75237 272.193 
1.21847e-05 -6.92858e-06 2.6933e+25 -1.3048 -2.3844 271.911 
1.40961e-05 -6.92858e-06 2.68969e+25 -0.692431 -1.72047 272.298 
1.60074e-05 -6.92858e-06 2.68921e+25 -0.192521 -0.590438 272.285 
7.1675e-07 -6.45075e-06 2.69148e+25 -5.63286 -0.109603 271.999 
2.62808e-06 -6.45075e-06 2.69157e+25 -5.45474 -1.4279 272.028 
4.53942e-06 -6.45075e-06 2.69129e+25 -5.30293 -1.7545 272.111 
6.45075e-06 -6.45075e-06 2.69053e+25 -4.61914 -2.34161 272.039 
8.36208e-06 -6.45075e-06 2.69001e+25 -3.74361 -2.63473 272.111 
1.02734e-05 -6.45075e-06 2.69162e+25 -2.34638 -2.98855 272.109 
1.21847e-05 -6.45075e-06 2.69233e+25 -1.58685 -2.62122 271.938 
1.40961e-05 -6.45075e-06 2.69011e+25 -0.725712 -1.88499 272.205 
1.60074e-05 -6.45075e-06 2.68589e+25 -0.245629 -0.763699 272.608 
7.1675e-07 -5.97292e-06 2.68955e+25 -5.75222 -0.0242255 272.247 
2.62808e-06 -5.97292e-06 2.6933e+25 -5.6492 -1.37154 271.968 
4.53942e-06 -5.97292e-06 2.68885e+25 -5.66742 -1.88962 272.301 
6.45075e-06 -5.97292e-06 2.69112e+25 -5.05635 -2.45681 272.005 
8.36208e-06 -5.97292e-06 2.68833e+25 -4.03555 -2.87844 272.181 
1.02734e-05 -5.97292e-06 2.69111e+25 -2.71701 -3.23366 272.134 
1.21847e-05 -5.97292e-06 2.69203e+25 -1.69013 -2.72452 272.215 
1.40961e-05 -5.97292e-06 2.68992e+25 -0.856979 -2.08576 272.235 
1.60074e-05 -5.97292e-06 2.68633e+25 -0.14272 -0.926379 272.52 
7.1675e-07 -5.49508e-06 2.6886e+25 -6.10745 -0.15141 272.398 
2.62808e-06 -5.49508e-06 2.69093e+25 -5.77218 -1.26287 272.149 
4.53942e-06 -5.49508e-06 2.68829e+25 -5.8524 -2.01502 272.368 
6.45075e-06 -5.49508e-06 2.69065e+25 -5.25841 -2.57225 272.12 
8.36208e-06 -5.49508e-06 2.69137e+25 -4.17477 -3.10675 272.102 
1.02734e-05 -5.49508e-06 2.69101e+25 -2.92002 -3.48746 272.054 
1.21847e-05 -5.49508e-06 2.68913e+25 -1.93421 -2.99714 272.3 
1.40961e-05 -5.49508e-06 2.68944e+25 -1.04307 -2.25552 272.275 
1.60074e-05 -5.49508e-06 2.68945e+25 -0.227455 -1.07089 272.28 
7.1675e-07 -5.01725e-06 2.68805e+25 -6.39606 -0.255936 272.441 
2.62808e-06 -5.01725e-06 2.6905e+25 -6.19668 -1.24045 272.106 
4.53942e-06 -5.01725e-06 2.68752e+25 -5.88817 -2.13849 272.377 
6.45075e-06 -5.01725e-06 2.68953e+25 -5.30544 -2.81048 272.211 
8.36208e-06 -5.01725e-06 2.69226e+25 -4.34213 -3.56278 272.078 
1.02734e-05 -5.01725e-06 2.69131e+25 -3.10351 -3.73316 272.028 
1.21847e-05 -5.01725e-06 2.69003e+25 -1.93809 -3.23344 272.312 
1.40961e-05 -5.01725e-06 2.68862e+25 -0.836202 -2.40858 272.296 
1.60074e-05 -5.01725e-06 2.68954e+25 -0.192081 -1.28356 272.19 
7.1675e-07 -4.53942e-06 2.68889e+25 -6.5771 -0.26306 272.357 
2.62808e-06 -4.53942e-06 2.69019e+25 -6.31498 -1.24192 272.095 
4.53942e-06 -4.53942e-06 2.68786e+25 -6.14923 -2.29779 272.393 
6.45075e-06 -4.53942e-06 2.68752e+25 -5.46237 -3.02648 272.397 
8.36208e-06 -4.53942e-06 2.69368e+25 -4.52458 -3.8552 272.072 
1.02734e-05 -4.53942e-06 2.68905e+25 -3.33985 -4.09571 272.188 
1.21847e-05 -4.53942e-06 2.69002e+25 -2.01194 -3.60755 272.21 
1.40961e-05 -4.53942e-06 2.6902e+25 -0.807966 -2.67577 272.259 
1.60074e-05 -4.53942e-06 2.68938e+25 0.0196399 -1.38244 272.189 
7.1675e-07 -4.06158e-06 2.68725e+25 -6.72356 -0.31483 272.403 
2.62808e-06 -4.06158e-06 2.69024e+25 -6.92894 -1.3118 272.144 
4.53942e-06 -4.06158e-06 2.68741e+25 -6.72005 -2.43132 272.419 
6.45075e-06 -4.06158e-06 2.69134e+25 -5.97416 -3.2966 272.146 
8.36208e-06 -4.06158e-06 2.69195e+25 -4.92705 -4.18411 272.003 
1.02734e-05 -4.06158e-06 2.68909e+25 -3.36044 -4.50637 272.35 
1.21847e-05 -4.06158e-06 2.68668e+25 -2.03882 -3.87987 272.491 
1.40961e-05 -4.06158e-06 2.69063e+25 -0.647047 -2.98014 272.145 
1.60074e-05 -4.06158e-06 2.69151e+25 -0.0702493 -1.35797 272.06 
7.1675e-07 -3.58375e-06 2.68805e+25 -6.82215 -0.225253 272.273 
2.62808e-06 -3.58375e-06 2.68841e+25 -7.42038 -1.29447 272.235 
4.53942e-06 -3.58375e-06 2.68931e+25 -6.85504 -2.45569 272.199 
6.45075e-06 -3.58375e-06 2.69189e+25 -6.22243 -3.63915 272.023 
8.36208e-06 -3.58375e-06 2.69126e+25 -5.16746 -4.44169 271.988 
1.02734e-05 -3.58375e-06 2.69059e+25 -3.59295 -5.01976 272.212 
1.21847e-05 -3.58375e-06 2.68562e+25 -2.00288 -4.20072 272.69 
1.40961e-05 -3.58375e-06 2.68844e+25 -0.784492 -3.26279 272.327 
1.60074e-05 -3.58375e-06 2.69165e+25 -0.160457 -1.35573 272.01 
7.1675e-07 -3.10592e-06 2.68773e+25 -7.15468 -0.0142219 272.323 
2.62808e-06 -3.10592e-06 2.68804e+25 -7.7233 -1.25601 272.291 
4.53942e-06 -3.10592e-06 2.68816e+25 -7.3412 -2.55041 272.202 
6.45075e-06 -3.10592e-06 2.6904e+25 -6.72297 -3.83326 272.211 
8.36208e-06 -3.10592e-06 2.6904e+25 -5.55377 -4.85161 272.099 
1.02734e-05 -3.10592e-06 2.69196e+25 -3.8616 -5.49071 272.088 
1.21847e-05 -3.10592e-06 2.68649e+25 -2.2261 -4.52923 272.484 
1.40961e-05 -3.10592e-06 2.6884e+25 -0.695653 -3.56518 272.344 
1.60074e-05 -3.10592e-06 2.69094e+25 -0.163396 -1.34126 272.032 
7.1675e-07 -2.62808e-06 2.68941e+25 -7.36561 0.117269 272.211 
2.62808e-06 -2.62808e-06 2.69007e+25 -7.75693 -1.1675 272.209 
4.53942e-06 -2.62808e-06 2.68857e+25 -7.58751 -2.71025 272.302 
6.45075e-06 -2.62808e-06 2.69032e+25 -7.13976 -3.86658 272.163 
8.36208e-06 -2.62808e-06 2.69142e+25 -5.76717 -5.37233 272.186 
1.02734e-05 -2.62808e-06 2.69074e+25 -4.05674 -5.8403 272.049 
1.21847e-05 -2.62808e-06 2.68724e+25 -2.42355 -4.99741 272.394 
1.40961e-05 -2.62808e-06 2.68841e+25 -1.01797 -3.79128 272.26 
1.60074e-05 -2.62808e-06 2.69345e+25 -0.0169145 -1.33478 272.042 
7.1675e-07 -2.15025e-06 2.69042e+25 -7.34939 0.264489 272.011 
2.62808e-06 -2.15025e-06 2.69249e+25 -7.75798 -1.19169 272.034 
4.53942e-06 -2.15025e-06 2.68967e+25 -7.68994 -2.83189 272.206 
6.45075e-06 -2.15025e-06 2.69195e+25 -7.2754 -3.97402 272.037 
8.36208e-06 -2.15025e-06 2.69201e+25 -6.16876 -5.80441 272.073 
1.02734e-05 -2.15025e-06 2.69126e+25 -4.37102 -6.13392 272.102 
1.21847e-05 -2.15025e-06 2.68995e+25 -2.61931 -5.55882 272.257 
1.40961e-05 -2.15025e-06 2.68961e+25 -0.935789 -4.06161 272.206 
1.60074e-05 -2.15025e-06 2.6897e+25 -0.112513 -1.36932 272.191 
7.1675e-07 -1.67242e-06 2.69111e+25 -7.47118 0.454078 272.019 
2.62808e-06 -1.67242e-06 2.68853e+25 -7.77027 -1.13711 272.144 
4.53942e-06 -1.67242e-06 2.69082e+25 -7.67256 -2.80893 272.042 
6.45075e-06 -1.67242e-06 2.69024e+25 -7.52077 -4.20658 272.095 
8.36208e-06 -1.67242e-06 2.69151e+25 -6.3498 -6.20865 272.149 
1.02734e-05 -1.67242e-06 2.69431e+25 -4.76045 -6.47009 271.974 
1.21847e-05 -1.67242e-06 2.68963e+25 -2.78637 -6.09228 272.154 
1.40961e-05 -1.67242e-06 2.69147e+25 -1.01508 -4.44618 272.012 
1.60074e-05 -1.67242e-06 2.69102e+25 0.0660092 -1.43761 272.253 
7.1675e-07 -1.19458e-06 2.68938e+25 -7.43138 0.666652 272.05 
2.62808e-06 -1.19458e-06 2.69221e+25 -7.67836 -1.14555 271.943 
4.53942e-06 -1.19458e-06 2.69098e+25 -7.87784 -2.79031 272 
6.45075e-06 -1.19458e-06 2.68883e+25 -7.49868 -4.46381 272.2 
8.36208e-06 -1.19458e-06 2.69147e+25 -6.40872 -6.49203 272.065 
1.02734e-05 -1.19458e-06 2.69e+25 -4.91645 -6.86479 272.053 
1.21847e-05 -1.19458e-06 2.68959e+25 -2.98448 -6.42543 272.238 
1.40961e-05 -1.19458e-06 2.69145e+25 -1.17659 -4.86793 271.942 
1.60074e-05 -1.19458e-06 2.69016e+25 -0.12357 -1.51063 272.17 
7.1675e-07 -7.1675e-07 2.69252e+25 -7.51162 0.885249 271.86 
2.62808e-06 -7.1675e-07 2.68987e+25 -7.74167 -1.09618 272.037 
4.53942e-06 -7.1675e-07 2.68864e+25 -7.9047 -2.82428 272.159 
6.45075e-06 -7.1675e-07 2.6911e+25 -7.67693 -4.63134 272.099 
8.36208e-06 -7.1675e-07 2.69121e+25 -6.54942 -6.68804 272.05 
1.02734e-05 -7.1675e-07 2.69188e+25 -5.0383 -7.43828 271.989 
1.21847e-05 -7.1675e-07 2.68957e+25 -3.21553 -6.88809 272.348 
1.40961e-05 -7.1675e-07 2.69222e+25 -1.51428 -5.22799 271.955 
1.60074e-05 -7.1675e-07 2.6897e+25 -0.381927 -1.82806 272.149 
7.1675e-07 -2.38917e-07 2.68948e+25 -7.53584 1.00545 271.812 
2.62808e-06 -2.38917e-07 2.68687e+25 -7.99925 -0.960682 271.988 
4.53942e-06 -2.38917e-07 2.68615e+25 -7.79806 -2.85848 272.157 
6.45075e-06 -2.38917e-07 2.68778e+25 -7.42876 -4.91789 272.25 
8.36208e-06 -2.38917e-07 2.68982e+25 -6.72275 -6.87788 272.054 
1.02734e-05 -2.38917e-07 2.69135e+25 -5.30032 -7.91909 271.923 
1.21847e-05 -2.38917e-07 2.68631e+25 -3.49582 -7.33066 272.236 
1.40961e-05 -2.38917e-07 2.68922e+25 -1.72279 -5.54901 272.075 
1.60074e-05 -2.38917e-07 2.68979e+25 -0.46607 -2.18526 272.124 
1.67242e-06 -1.69631e-05 2.68424e+25 -0.199445 0.0620277 272.926 
3.58375e-06 -1.69631e-05 2.68484e+25 -0.159481 0.00549957 272.79 
5.49508e-06 -1.69631e-05 2.68571e+25 -0.301625 0.00317731 272.899 
7.40642e-06 -1.69631e-05 2.68388e+25 -0.192135 0.0429212 272.819 
9.31775e-06 -1.69631e-05 2.6846e+25 -0.110148 0.00197307 272.796 
1.12291e-05 -1.69631e-05 2.68476e+25 0.0514866 -0.0623309 272.748 
1.31404e-05 -1.69631e-05 2.68467e+25 -0.0113152 -0.0308455 272.86 
1.50518e-05 -1.69631e-05 2.68518e+25 -0.0406597 -0.0449128 272.806 
1.69631e-05 -1.69631e-05 2.68364e+25 0.0195169 -0.0145582 272.945 
1.67242e-06 -1.64852e-05 2.68564e+25 -0.399739 0.0527044 272.726 
3.58375e-06 -1.64852e-05 2.68497e+25 -0.510244 -0.0555598 272.681 
5.49508e-06 -1.64852e-05 2.68427e+25 -0.539736 0.0774817 272.856 
7.40642e-06 -1.64852e-05 2.68696e+25 -0.379565 -0.0333879 272.654 
9.31775e-06 -1.64852e-05 2.68849e+25 -0.0990279 0.00429298 272.397 
1.12291e-05 -1.64852e-05 2.68773e+25 -0.160403 -0.106745 272.347 
1.31404e-05 -1.64852e-05 2.68613e+25 -0.120872 -0.0329837 272.621 
1.50518e-05 -1.64852e-05 2.6862e+25 -0.212059 -0.0987862 272.595 
1.69631e-05 -1.64852e-05 2.68201e+25 -0.0326683 0.00735628 272.948 
1.67242e-06 -1.60074e-05 2.68998e+25 -0.64676 -0.0152294 272.296 
3.58375e-06 -1.60074e-05 2.68784e+25 -0.730103 -0.0254291 272.544 
5.49508e-06 -1.60074e-05 2.6862e+25 -0.786969 0.227948 272.675 
7.40642e-06 -1.60074e-05 2.68452e+25 -0.545118 -0.157827 272.727 
9.31775e-06 -1.60074e-05 2.69005e+25 -0.168141 -0.00826122 272.326 
1.12291e-05 -1.60074e-05 2.69024e+25 -0.384012 -0.120202 272.112 
1.31404e-05 -1.60074e-05 2.68826e+25 -0.246859 0.0343221 272.542 
1.50518e-05 -1.60074e-05 2.68924e+25 -0.127942 -0.136197 272.309 
1.69631e-05 -1.60074e-05 2.68463e+25 -0.0278807 0.00238966 272.875 
1.67242e-06 -1.55296e-05 2.69101e+25 -0.941903 -0.084761 272.172 
3.58375e-06 -1.55296e-05 2.68763e+25 -0.946007 0.0317068 272.514 
5.49508e-06 -1.55296e-05 2.68762e+25 -0.852526 0.176748 272.518 
7.40642e-06 -1.55296e-05 2.68354e+25 -0.711725 -0.238562 272.694 
9.31775e-06 -1.55296e-05 2.69103e+25 -0.42637 -0.0930559 272.334 
1.12291e-05 -1.55296e-05 2.69345e+25 -0.448024 -0.013827 272.019 
1.31404e-05 -1.55296e-05 2.6901e+25 -0.387834 0.119896 272.273 
1.50518e-05 -1.55296e-05 2.69109e+25 -0.2614 -0.202239 272.171 
1.69631e-05 -1.55296e-05 2.68565e+25 0.0223154 -0.025025 272.861 
1.67242e-06 -1.50517e-05 2.69103e+25 -1.34715 -0.0915799 272.072 
3.58375e-06 -1.50517e-05 2.68872e+25 -0.846226 0.0395352 272.397 
5.49508e-06 -1.50517e-05 2.68949e+25 -0.995128 0.102128 272.377 
7.40642e-06 -1.50517e-05 2.68647e+25 -0.862417 -0.223742 272.602 
9.31775e-06 -1.50517e-05 2.68806e+25 -0.566203 -0.24213 272.375 
1.12291e-05 -1.50517e-05 2.69155e+25 -0.36153 0.0417531 272.137 
1.31404e-05 -1.50517e-05 2.69047e+25 -0.317578 0.0752266 272.301 
1.50518e-05 -1.50517e-05 2.68833e+25 -0.238657 -0.320211 272.273 
1.69631e-05 -1.50517e-05 2.68426e+25 0.0200425 0.0167385 272.908 
1.67242e-06 -1.45739e-05 2.69565e+25 -1.41046 -0.0976751 271.717 
3.58375e-06 -1.45739e-05 2.68939e+25 -1.26016 0.0181743 272.26 
5.49508e-06 -1.45739e-05 2.69074e+25 -1.04873 0.04109 272.142 
7.40642e-06 -1.45739e-05 2.68727e+25 -1.06127 -0.300863 272.52 
9.31775e-06 -1.45739e-05 2.68793e+25 -0.876898 -0.438995 272.389 
1.12291e-05 -1.45739e-05 2.69123e+25 -0.168231 -0.0547512 272.268 
1.31404e-05 -1.45739e-05 2.69212e+25 -0.117373 -0.0182667 272.129 
1.50518e-05 -1.45739e-05 2.68916e+25 -0.0870701 -0.364526 272.385 
1.69631e-05 -1.45739e-05 2.68506e+25 0.0289003 0.0385837 272.813 
1.67242e-06 -1.40961e-05 2.69493e+25 -1.39466 -0.0689298 271.704 
3.58375e-06 -1.40961e-05 2.69001e+25 -1.54063 0.0706682 272.195 
5.49508e-06 -1.40961e-05 2.68739e+25 -1.47243 0.0594391 272.397 
7.40642e-06 -1.40961e-05 2.68713e+25 -1.18289 -0.336608 272.571 
9.31775e-06 -1.40961e-05 2.69046e+25 -1.07626 -0.464363 272.256 
1.12291e-05 -1.40961e-05 2.69045e+25 -0.375487 -0.160004 272.163 
1.31404e-05 -1.40961e-05 2.68853e+25 -0.289035 -0.0127139 272.263 
1.50518e-05 -1.40961e-05 2.68816e+25 0.177397 -0.370265 272.329 
1.69631e-05 -1.40961e-05 2.6848e+25 -0.0528509 -0.000669173 272.811 
1.67242e-06 -1.36182e-05 2.69435e+25 -1.82475 -0.0916479 271.777 
3.58375e-06 -1.36182e-05 2.69004e+25 -1.81895 -0.0727325 272.195 
5.49508e-06 -1.36182e-05 2.68858e+25 -1.62356 0.125169 272.373 
7.40642e-06 -1.36182e-05 2.68496e+25 -1.60849 -0.463757 272.516 
9.31775e-06 -1.36182e-05 2.68924e+25 -1.0428 -0.456924 272.377 
1.12291e-05 -1.36182e-05 2.6906e+25 -0.535167 -0.160703 272.23 
1.31404e-05 -1.36182e-05 2.68652e+25 -0.276207 -0.110158 272.522 
1.50518e-05 -1.36182e-05 2.68774e+25 0.196765 -0.270509 272.433 
1.69631e-05 -1.36182e-05 2.68526e+25 -0.0264628 -0.0742683 272.776 
1.67242e-06 -1.31404e-05 2.69284e+25 -2.01724 -0.0288415 271.856 
3.58375e-06 -1.31404e-05 2.69205e+25 -1.81009 -0.184742 272.045 
5.49508e-06 -1.31404e-05 2.68733e+25 -1.55663 -0.0110002 272.459 
7.40642e-06 -1.31404e-05 2.68842e+25 -1.87106 -0.560847 272.501 
9.31775e-06 -1.31404e-05 2.68773e+25 -0.922011 -0.576294 272.379 
1.12291e-05 -1.31404e-05 2.69089e+25 -0.729839 -0.178311 272.22 
1.31404e-05 -1.31404e-05 2.68647e+25 -0.170457 -0.257556 272.549 
1.50518e-05 -1.31404e-05 2.68696e+25 0.0912279 -0.214397 272.512 
1.69631e-05 -1.31404e-05 2.68309e+25 0.0118191 -0.0742773 272.792 
1.67242e-06 -1.26626e-05 2.6924e+25 -2.13267 -0.0118543 271.929 
3.58375e-06 -1.26626e-05 2.69227e+25 -2.02153 -0.177504 272.014 
5.49508e-06 -1.26626e-05 2.68827e+25 -1.78381 -0.105803 272.298 
7.40642e-06 -1.26626e-05 2.69017e+25 -1.68916 -0.665487 272.263 
9.31775e-06 -1.26626e-05 2.68868e+25 -1.02184 -0.750448 272.325 
1.12291e-05 -1.26626e-05 2.69241e+25 -0.608921 -0.271352 272.211 
1.31404e-05 -1.26626e-05 2.6886e+25 -0.254342 -0.514379 272.293 
1.50518e-05 -1.26626e-05 2.688e+25 -0.190721 -0.333473 272.382 
1.69631e-05 -1.26626e-05 2.68407e+25 -0.00277315 -0.0715621 272.897 
1.67242e-06 -1.21847e-05 2.68972e+25 -2.25123 -0.107471 272.114 
3.58375e-06 -1.21847e-05 2.69128e+25 -2.23842 -0.111965 272.047 
5.49508e-06 -1.21847e-05 2.69012e+25 -1.88904 -0.211805 272.109 
7.40642e-06 -1.21847e-05 2.68954e+25 -1.61071 -0.623637 272.202 
9.31775e-06 -1.21847e-05 2.69026e+25 -1.15295 -0.983483 272.244 
1.12291e-05 -1.21847e-05 2.69071e+25 -0.638751 -0.346481 272.075 
1.31404e-05 -1.21847e-05 2.68801e+25 -0.263496 -0.65428 272.398 
1.50518e-05 -1.21847e-05 2.68966e+25 -0.310075 -0.312372 272.266 
1.69631e-05 -1.21847e-05 2.68481e+25 -0.0100164 -0.0792312 272.857 
1.67242e-06 -1.17069e-05 2.69135e+25 -2.7117 -0.0534997 272.172 
3.58375e-06 -1.17069e-05 2.68974e+25 -2.52074 -0.240111 272.148 
5.49508e-06 -1.17069e-05 2.69257e+25 -2.02051 -0.328515 272.045 
7.40642e-06 -1.17069e-05 2.69133e+25 -1.56026 -0.636623 272.137 
9.31775e-06 -1.17069e-05 2.68691e+25 -1.43351 -1.03092 272.565 
1.12291e-05 -1.17069e-05 2.69033e+25 -0.909168 -0.426778 272.085 
1.31404e-05 -1.17069e-05 2.6893e+25 -0.387809 -0.803223 272.291 
1.50518e-05 -1.17069e-05 2.68807e+25 -0.271772 -0.27691 272.29 
1.69631e-05 -1.17069e-05 2.68554e+25 0.0285805 -0.0875128 272.815 
1.67242e-06 -1.12291e-05 2.68968e+25 -3.04404 -0.103737 272.134 
3.58375e-06 -1.12291e-05 2.6916e+25 -2.73084 -0.409506 272.097 
5.49508e-06 -1.12291e-05 2.6914e+25 -2.32819 -0.474455 272.184 
7.40642e-06 -1.12291e-05 2.69099e+25 -1.62692 -0.791711 272.168 
9.31775e-06 -1.12291e-05 2.6873e+25 -1.51744 -0.974065 272.48 
1.12291e-05 -1.12291e-05 2.68952e+25 -1.17425 -0.598885 272.257 
1.31404e-05 -1.12291e-05 2.69327e+25 -0.420018 -0.820452 271.994 
1.50518e-05 -1.12291e-05 2.69e+25 -0.250262 -0.287172 272.093 
1.69631e-05 -1.12291e-05 2.68533e+25 -0.0569045 -0.13885 272.724 
1.67242e-06 -1.07512e-05 2.69117e+25 -3.38384 -0.20693 272.066 
3.58375e-06 -1.07512e-05 2.69345e+25 -2.98308 -0.426806 272.056 
5.49508e-06 -1.07512e-05 2.69013e+25 -2.79397 -0.670783 272.182 
7.40642e-06 -1.07512e-05 2.69026e+25 -1.78127 -0.95152 272.176 
9.31775e-06 -1.07512e-05 2.68782e+25 -1.9088 -0.931046 272.308 
1.12291e-05 -1.07512e-05 2.69046e+25 -1.4033 -0.96122 272.121 
1.31404e-05 -1.07512e-05 2.69127e+25 -0.380732 -0.945484 272.146 
1.50518e-05 -1.07512e-05 2.69314e+25 0.0257039 -0.342736 272.086 
1.69631e-05 -1.07512e-05 2.68557e+25 -0.0200931 -0.225149 272.76 
1.67242e-06 -1.02734e-05 2.69298e+25 -3.73102 -0.321591 272.039 
3.58375e-06 -1.02734e-05 2.68934e+25 -3.26051 -0.428965 272.221 
5.49508e-06 -1.02734e-05 2.69128e+25 -3.03535 -0.899995 272.201 
7.40642e-06 -1.02734e-05 2.6911e+25 -1.9215 -1.10373 272.267 
9.31775e-06 -1.02734e-05 2.68849e+25 -1.8825 -0.903786 272.304 
1.12291e-05 -1.02734e-05 2.69365e+25 -1.40461 -1.29989 271.817 
1.31404e-05 -1.02734e-05 2.69238e+25 -0.427009 -0.988208 272.132 
1.50518e-05 -1.02734e-05 2.69236e+25 0.069865 -0.365482 272.037 
1.69631e-05 -1.02734e-05 2.68738e+25 0.0652697 -0.146468 272.62 
1.67242e-06 -9.79558e-06 2.69162e+25 -4.00573 -0.252364 272.081 
3.58375e-06 -9.79558e-06 2.69164e+25 -3.81109 -0.489179 272.076 
5.49508e-06 -9.79558e-06 2.69139e+25 -3.22556 -1.07366 272.148 
7.40642e-06 -9.79558e-06 2.69097e+25 -2.19169 -1.23495 272.22 
9.31775e-06 -9.79558e-06 2.68851e+25 -1.69474 -0.894914 272.344 
1.12291e-05 -9.79558e-06 2.69546e+25 -1.19714 -1.52455 271.785 
1.31404e-05 -9.79558e-06 2.69156e+25 -0.408178 -1.0108 272.063 
1.50518e-05 -9.79558e-06 2.69297e+25 -0.0152733 -0.593748 271.976 
1.69631e-05 -9.79558e-06 2.68436e+25 0.0284843 -0.0488748 272.798 
1.67242e-06 -9.31775e-06 2.6913e+25 -4.26486 -0.12686 272.022 
3.58375e-06 -9.31775e-06 2.69272e+25 -4.09088 -0.712042 271.967 
5.49508e-06 -9.31775e-06 2.69065e+25 -3.19335 -1.23536 272.043 
7.40642e-06 -9.31775e-06 2.69145e+25 -2.68547 -1.46603 272.208 
9.31775e-06 -9.31775e-06 2.69074e+25 -1.75481 -1.05345 272.232 
1.12291e-05 -9.31775e-06 2.69243e+25 -1.11743 -1.57925 271.894 
1.31404e-05 -9.31775e-06 2.69134e+25 -0.553447 -1.16112 272.076 
1.50518e-05 -9.31775e-06 2.69274e+25 -0.0399098 -0.717789 271.888 
1.69631e-05 -9.31775e-06 2.68428e+25 0.0270651 0.0617668 272.786 
1.67242e-06 -8.83992e-06 2.68938e+25 -4.69447 -0.0433699 272.151 
3.58375e-06 -8.83992e-06 2.69268e+25 -4.22334 -0.944416 271.971 
5.49508e-06 -8.83992e-06 2.69059e+25 -3.63207 -1.46408 272.127 
7.40642e-06 -8.83992e-06 2.69036e+25 -2.81349 -1.68601 272.259 
9.31775e-06 -8.83992e-06 2.69197e+25 -2.06061 -1.33443 272.166 
1.12291e-05 -8.83992e-06 2.69296e+25 -1.23917 -1.65783 271.897 
1.31404e-05 -8.83992e-06 2.69061e+25 -0.63806 -1.33246 272.12 
1.50518e-05 -8.83992e-06 2.69254e+25 -0.142144 -0.761567 271.956 
1.69631e-05 -8.83992e-06 2.68468e+25 0.0116872 0.148344 272.876 
1.67242e-06 -8.36208e-06 2.69094e+25 -4.99637 -0.0372691 272.053 
3.58375e-06 -8.36208e-06 2.69225e+25 -4.47367 -1.09842 272.014 
5.49508e-06 -8.36208e-06 2.68845e+25 -3.78548 -1.6273 272.322 
7.40642e-06 -8.36208e-06 2.69119e+25 -2.89325 -1.77582 272.107 
9.31775e-06 -8.36208e-06 2.69116e+25 -2.29867 -1.58999 272.094 
1.12291e-05 -8.36208e-06 2.69123e+25 -1.17071 -1.80904 272.088 
1.31404e-05 -8.36208e-06 2.69362e+25 -0.790345 -1.4791 271.935 
1.50518e-05 -8.36208e-06 2.6911e+25 -0.129212 -0.853749 272.082 
1.69631e-05 -8.36208e-06 2.6854e+25 -0.0441341 0.10616 272.715 
1.67242e-06 -7.88425e-06 2.6918e+25 -5.17046 -0.178451 272.102 
3.58375e-06 -7.88425e-06 2.69046e+25 -4.45443 -1.18237 272.139 
5.49508e-06 -7.88425e-06 2.68955e+25 -3.92211 -1.8123 272.247 
7.40642e-06 -7.88425e-06 2.69147e+25 -3.32208 -1.94556 272.041 
9.31775e-06 -7.88425e-06 2.69102e+25 -2.38917 -1.8857 272.189 
1.12291e-05 -7.88425e-06 2.69158e+25 -1.44957 -2.14997 272.074 
1.31404e-05 -7.88425e-06 2.69349e+25 -1.02546 -1.58258 272.054 
1.50518e-05 -7.88425e-06 2.69107e+25 -0.177899 -0.97356 272.118 
1.69631e-05 -7.88425e-06 2.68645e+25 -0.0611828 -0.024806 272.751 
1.67242e-06 -7.40642e-06 2.68965e+25 -5.15037 -0.24256 272.133 
3.58375e-06 -7.40642e-06 2.68948e+25 -4.65729 -1.27792 272.247 
5.49508e-06 -7.40642e-06 2.69133e+25 -4.04653 -2.00919 272.065 
7.40642e-06 -7.40642e-06 2.69202e+25 -3.66599 -2.18813 272.077 
9.31775e-06 -7.40642e-06 2.69266e+25 -2.72543 -2.16603 271.96 
1.12291e-05 -7.40642e-06 2.69275e+25 -1.60867 -2.42083 271.974 
1.31404e-05 -7.40642e-06 2.69184e+25 -0.976786 -1.71222 272.062 
1.50518e-05 -7.40642e-06 2.69065e+25 -0.298948 -1.07005 272.065 
1.69631e-05 -7.40642e-06 2.68416e+25 0.0531306 -0.0734374 272.698 
1.67242e-06 -6.92858e-06 2.6907e+25 -5.46702 -0.285383 272.082 
3.58375e-06 -6.92858e-06 2.69176e+25 -5.13952 -1.4118 272.161 
5.49508e-06 -6.92858e-06 2.69124e+25 -4.38967 -2.09657 272.088 
7.40642e-06 -6.92858e-06 2.69057e+25 -3.93647 -2.41267 272.159 
9.31775e-06 -6.92858e-06 2.69314e+25 -2.97498 -2.4393 271.945 
1.12291e-05 -6.92858e-06 2.69395e+25 -1.74787 -2.67977 271.889 
1.31404e-05 -6.92858e-06 2.69208e+25 -0.990123 -1.76283 271.968 
1.50518e-05 -6.92858e-06 2.68902e+25 -0.308093 -1.12928 272.28 
1.69631e-05 -6.92858e-06 2.68508e+25 0.0540269 0.065219 272.718 
1.67242e-06 -6.45075e-06 2.69262e+25 -5.60327 -0.467601 272.121 
3.58375e-06 -6.45075e-06 2.69126e+25 -5.5783 -1.53657 271.981 
5.49508e-06 -6.45075e-06 2.69164e+25 -5.03641 -2.2808 272.081 
7.40642e-06 -6.45075e-06 2.6898e+25 -4.15915 -2.60413 272.207 
9.31775e-06 -6.45075e-06 2.69249e+25 -2.98042 -2.77599 272.059 
1.12291e-05 -6.45075e-06 2.69523e+25 -1.99693 -2.91836 271.771 
1.31404e-05 -6.45075e-06 2.69134e+25 -1.22082 -1.98264 272.099 
1.50518e-05 -6.45075e-06 2.68929e+25 -0.473511 -1.19297 272.296 
1.69631e-05 -6.45075e-06 2.68537e+25 -0.0520123 0.043626 272.79 
1.67242e-06 -5.97292e-06 2.69267e+25 -5.7204 -0.597879 272.146 
3.58375e-06 -5.97292e-06 2.69029e+25 -5.83323 -1.5271 272.221 
5.49508e-06 -5.97292e-06 2.69265e+25 -5.30997 -2.50453 272.093 
7.40642e-06 -5.97292e-06 2.68954e+25 -4.55878 -2.87854 272.14 
9.31775e-06 -5.97292e-06 2.69278e+25 -3.23145 -3.07773 271.92 
1.12291e-05 -5.97292e-06 2.69293e+25 -2.18985 -3.01898 271.959 
1.31404e-05 -5.97292e-06 2.69097e+25 -1.21257 -2.29883 272.137 
1.50518e-05 -5.97292e-06 2.69009e+25 -0.710746 -1.41875 272.18 
1.69631e-05 -5.97292e-06 2.68376e+25 -0.0416719 -0.0732489 272.909 
1.67242e-06 -5.49508e-06 2.69055e+25 -5.83243 -0.63624 272.184 
3.58375e-06 -5.49508e-06 2.69101e+25 -5.85444 -1.61141 272.151 
5.49508e-06 -5.49508e-06 2.69091e+25 -5.53851 -2.67521 272.269 
7.40642e-06 -5.49508e-06 2.68945e+25 -4.87333 -3.20892 272.118 
9.31775e-06 -5.49508e-06 2.69255e+25 -3.51959 -3.51065 271.979 
1.12291e-05 -5.49508e-06 2.69099e+25 -2.39172 -3.27652 272.047 
1.31404e-05 -5.49508e-06 2.69096e+25 -1.28993 -2.53185 272.158 
1.50518e-05 -5.49508e-06 2.69112e+25 -0.63568 -1.56181 272.109 
1.69631e-05 -5.49508e-06 2.68631e+25 -0.0309383 -0.138418 272.76 
1.67242e-06 -5.01725e-06 2.68978e+25 -6.18148 -0.76686 272.189 
3.58375e-06 -5.01725e-06 2.69169e+25 -6.12571 -1.63279 272.038 
5.49508e-06 -5.01725e-06 2.68949e+25 -5.63093 -2.81011 272.255 
7.40642e-06 -5.01725e-06 2.68779e+25 -4.91209 -3.40426 272.402 
9.31775e-06 -5.01725e-06 2.69129e+25 -3.7 -3.93473 272.147 
1.12291e-05 -5.01725e-06 2.69046e+25 -2.60156 -3.56002 272.212 
1.31404e-05 -5.01725e-06 2.69066e+25 -1.35995 -2.75174 272.17 
1.50518e-05 -5.01725e-06 2.69056e+25 -0.401336 -1.72076 272.128 
1.69631e-05 -5.01725e-06 2.68592e+25 -0.0160638 -0.177334 272.683 
1.67242e-06 -4.53942e-06 2.69072e+25 -6.41038 -0.883015 272.303 
3.58375e-06 -4.53942e-06 2.69105e+25 -6.31601 -1.57658 272.026 
5.49508e-06 -4.53942e-06 2.687e+25 -6.02026 -2.88386 272.399 
7.40642e-06 -4.53942e-06 2.68756e+25 -4.99604 -3.58491 272.342 
9.31775e-06 -4.53942e-06 2.69268e+25 -4.01197 -4.19637 271.992 
1.12291e-05 -4.53942e-06 2.69114e+25 -2.67691 -3.85942 272.116 
1.31404e-05 -4.53942e-06 2.68992e+25 -1.28588 -3.03413 272.237 
1.50518e-05 -4.53942e-06 2.69309e+25 -0.300046 -1.91499 271.954 
1.69631e-05 -4.53942e-06 2.6844e+25 0.0186018 -0.173989 272.796 
1.67242e-06 -4.06158e-06 2.68848e+25 -6.78104 -0.777073 272.419 
3.58375e-06 -4.06158e-06 2.69047e+25 -6.80369 -1.60627 272.129 
5.49508e-06 -4.06158e-06 2.6898e+25 -6.37532 -2.9727 272.269 
7.40642e-06 -4.06158e-06 2.69029e+25 -5.45803 -3.79826 272.165 
9.31775e-06 -4.06158e-06 2.69107e+25 -4.31627 -4.54189 272.183 
1.12291e-05 -4.06158e-06 2.68862e+25 -2.57886 -4.21738 272.277 
1.31404e-05 -4.06158e-06 2.68934e+25 -1.39677 -3.41209 272.391 
1.50518e-05 -4.06158e-06 2.69167e+25 -0.133478 -2.14229 271.974 
1.69631e-05 -4.06158e-06 2.68495e+25 -0.0170577 -0.154729 272.689 
1.67242e-06 -3.58375e-06 2.68857e+25 -7.13866 -0.575822 272.183 
3.58375e-06 -3.58375e-06 2.68872e+25 -7.27972 -1.70813 272.117 
5.49508e-06 -3.58375e-06 2.69306e+25 -6.71465 -3.07537 272.04 
7.40642e-06 -3.58375e-06 2.69218e+25 -5.84268 -4.10434 272.036 
9.31775e-06 -3.58375e-06 2.69244e+25 -4.45873 -4.89711 272.087 
1.12291e-05 -3.58375e-06 2.68934e+25 -2.73679 -4.5673 272.367 
1.31404e-05 -3.58375e-06 2.6867e+25 -1.44784 -3.76659 272.577 
1.50518e-05 -3.58375e-06 2.69137e+25 -0.264699 -2.28111 272.025 
1.69631e-05 -3.58375e-06 2.68563e+25 -0.0639032 -0.249598 272.623 
1.67242e-06 -3.10592e-06 2.68913e+25 -7.43783 -0.432497 272.249 
3.58375e-06 -3.10592e-06 2.68925e+25 -7.54151 -1.92805 272.168 
5.49508e-06 -3.10592e-06 2.69206e+25 -6.93815 -3.31759 271.966 
7.40642e-06 -3.10592e-06 2.68876e+25 -6.30924 -4.31142 272.184 
9.31775e-06 -3.10592e-06 2.69174e+25 -4.57229 -5.31652 272.025 
1.12291e-05 -3.10592e-06 2.68766e+25 -3.03958 -4.96094 272.517 
1.31404e-05 -3.10592e-06 2.68727e+25 -1.39104 -4.08013 272.491 
1.50518e-05 -3.10592e-06 2.69198e+25 -0.299559 -2.43669 272.019 
1.69631e-05 -3.10592e-06 2.68366e+25 -0.0516065 -0.361731 272.702 
1.67242e-06 -2.62808e-06 2.6902e+25 -7.52779 -0.37109 272.075 
3.58375e-06 -2.62808e-06 2.68795e+25 -7.78531 -2.10698 272.295 
5.49508e-06 -2.62808e-06 2.69103e+25 -7.25736 -3.56716 272.059 
7.40642e-06 -2.62808e-06 2.68963e+25 -6.68815 -4.61637 272.257 
9.31775e-06 -2.62808e-06 2.6926e+25 -4.8427 -5.61619 271.849 
1.12291e-05 -2.62808e-06 2.68882e+25 -3.40402 -5.35822 272.338 
1.31404e-05 -2.62808e-06 2.6909e+25 -1.5558 -4.5052 272.19 
1.50518e-05 -2.62808e-06 2.69118e+25 -0.331698 -2.63942 272.05 
1.69631e-05 -2.62808e-06 2.68329e+25 -0.0179794 -0.426796 272.871 
1.67242e-06 -2.15025e-06 2.69004e+25 -7.66827 -0.308286 271.922 
3.58375e-06 -2.15025e-06 2.68906e+25 -7.65257 -2.10238 272.268 
5.49508e-06 -2.15025e-06 2.69137e+25 -7.55632 -3.57666 272.14 
7.40642e-06 -2.15025e-06 2.68788e+25 -6.88428 -4.9058 272.364 
9.31775e-06 -2.15025e-06 2.69505e+25 -5.24368 -6.0398 271.946 
1.12291e-05 -2.15025e-06 2.68966e+25 -3.53602 -5.80374 272.283 
1.31404e-05 -2.15025e-06 2.69111e+25 -1.65852 -4.84349 272.098 
1.50518e-05 -2.15025e-06 2.68939e+25 -0.286578 -2.95257 272.233 
1.69631e-05 -2.15025e-06 2.68348e+25 0.0623086 -0.358005 272.837 
1.67242e-06 -1.67242e-06 2.69235e+25 -7.77266 -0.240465 271.886 
3.58375e-06 -1.67242e-06 2.6857e+25 -7.73619 -2.16695 272.464 
5.49508e-06 -1.67242e-06 2.69041e+25 -7.67231 -3.73482 271.981 
7.40642e-06 -1.67242e-06 2.68768e+25 -6.98141 -5.12952 272.332 
9.31775e-06 -1.67242e-06 2.6924e+25 -5.49894 -6.50396 271.947 
1.12291e-05 -1.67242e-06 2.68914e+25 -3.6941 -6.31865 272.377 
1.31404e-05 -1.67242e-06 2.69184e+25 -1.8644 -5.18496 271.959 
1.50518e-05 -1.67242e-06 2.6921e+25 -0.331467 -3.31027 272.027 
1.69631e-05 -1.67242e-06 2.68587e+25 -0.0206774 -0.350326 272.664 
1.67242e-06 -1.19458e-06 2.69167e+25 -7.79002 -0.16017 271.807 
3.58375e-06 -1.19458e-06 2.68849e+25 -7.74892 -2.12665 272.357 
5.49508e-06 -1.19458e-06 2.69071e+25 -7.82464 -3.73198 272.015 
7.40642e-06 -1.19458e-06 2.6903e+25 -6.82782 -5.44088 272.063 
9.31775e-06 -1.19458e-06 2.6928e+25 -5.84215 -6.89518 272.065 
1.12291e-05 -1.19458e-06 2.69055e+25 -3.86017 -6.78097 272.154 
1.31404e-05 -1.19458e-06 2.69367e+25 -2.02499 -5.64477 271.923 
1.50518e-05 -1.19458e-06 2.69073e+25 -0.674038 -3.64612 271.986 
1.69631e-05 -1.19458e-06 2.68446e+25 0.0633212 -0.317441 272.718 
1.67242e-06 -7.1675e-07 2.69227e+25 -7.7035 -0.0713819 271.733 
3.58375e-06 -7.1675e-07 2.68988e+25 -7.82716 -2.02823 272.197 
5.49508e-06 -7.1675e-07 2.68941e+25 -7.80342 -3.725 272.233 
7.40642e-06 -7.1675e-07 2.68983e+25 -6.94729 -5.88617 272.071 
9.31775e-06 -7.1675e-07 2.69374e+25 -6.00282 -7.35034 271.945 
1.12291e-05 -7.1675e-07 2.69113e+25 -4.07889 -7.27883 272.119 
1.31404e-05 -7.1675e-07 2.69307e+25 -2.24082 -6.14297 272.006 
1.50518e-05 -7.1675e-07 2.69158e+25 -0.984816 -3.87033 272.067 
1.69631e-05 -7.1675e-07 2.68659e+25 -0.0174647 -0.258736 272.671 
1.67242e-06 -2.38917e-07 2.68944e+25 -7.70319 0.0600135 271.737 
3.58375e-06 -2.38917e-07 2.68729e+25 -8.02633 -2.03351 272.213 
5.49508e-06 -2.38917e-07 2.68607e+25 -7.68368 -3.78988 272.274 
7.40642e-06 -2.38917e-07 2.68743e+25 -7.21329 -6.11296 272.099 
9.31775e-06 -2.38917e-07 2.68866e+25 -6.10814 -7.79173 272.102 
1.12291e-05 -2.38917e-07 2.68978e+25 -4.43382 -7.74608 272.179 
1.31404e-05 -2.38917e-07 2.68984e+25 -2.58645 -6.62472 272.114 
1.50518e-05 -2.38917e-07 2.69243e+25 -1.05918 -4.13828 271.922 
1.69631e-05 -2.38917e-07 2.68386e+25 -0.0138549 -0.31902 272.647 
1.67242e-06 2.38917e-07 2.68813e+25 -7.96215 0.0787201 271.942 
3.58375e-06 2.38917e-07 2.68865e+25 -8.21557 -2.21596 271.987 
5.49508e-06 2.38917e-07 2.68697e+25 -7.62439 -3.86692 272.151 
7.40642e-06 2.38917e-07 2.68944e+25 -7.26471 -6.16948 272.068 
9.31775e-06 2.38917e-07 2.68738e+25 -6.12828 -8.10036 272.264 
1.12291e-05 2.38917e-07 2.68897e+25 -4.60883 -8.1261 272.093 
1.31404e-05 2.38917e-07 2.68686e+25 -2.70357 -7.22338 272.255 
1.50518e-05 2.38917e-07 2.69115e+25 -0.838588 -4.47513 271.963 
1.69631e-05 2.38917e-07 2.68187e+25 -0.0794932 -0.426883 272.745 
1.67242e-06 7.1675e-07 2.69004e+25 -7.9011 0.116778 271.909 
3.58375e-06 7.1675e-07 2.68929e+25 -8.16503 -2.22589 272.011 
5.49508e-06 7.1675e-07 2.68897e+25 -7.75413 -3.98434 272.104 
7.40642e-06 7.1675e-07 2.68921e+25 -7.34523 -6.13806 272.151 
9.31775e-06 7.1675e-07 2.69171e+25 -6.43965 -8.4163 272.154 
1.12291e-05 7.1675e-07 2.69096e+25 -4.8807 -8.6359 272.135 
1.31404e-05 7.1675e-07 2.68888e+25 -2.95442 -7.72295 272.329 
1.50518e-05 7.1675e-07 2.6889e+25 -0.914614 -4.79946 272.17 
1.69631e-05 7.1675e-07 2.68278e+25 -0.0709169 -0.54484 272.83 
1.67242e-06 1.19458e-06 2.68906e+25 -7.72999 0.353977 271.972 
3.58375e-06 1.19458e-06 2.69083e+25 -8.19822 -2.13335 271.959 
5.49508e-06 1.19458e-06 2.68871e+25 -8.03466 -4.11997 272.242 
7.40642e-06 1.19458e-06 2.69056e+25 -7.34483 -6.32667 272.121 
9.31775e-06 1.19458e-06 2.68909e+25 -6.50209 -8.8529 272.275 
1.12291e-05 1.19458e-06 2.69223e+25 -5.1174 -9.03923 272.071 
1.31404e-05 1.19458e-06 2.68858e+25 -2.78887 -8.16596 272.33 
1.50518e-05 1.19458e-06 2.69058e+25 -1.04052 -5.03968 272.136 
1.69631e-05 1.19458e-06 2.68228e+25 -0.0276595 -0.644014 272.875 
1.67242e-06 1.67242e-06 2.68769e+25 -7.48134 0.566584 272.097 
3.58375e-06 1.67242e-06 2.69127e+25 -8.15845 -2.10142 271.885 
5.49508e-06 1.67242e-06 2.68958e+25 -8.15627 -4.34412 272.058 
7.40642e-06 1.67242e-06 2.68679e+25 -7.41378 -6.57457 272.285 
9.31775e-06 1.67242e-06 2.6878e+25 -6.69417 -9.10542 272.251 
1.12291e-05 1.67242e-06 2.68947e+25 -5.23788 -9.58552 272.21 
1.31404e-05 1.67242e-06 2.68711e+25 -3.03892 -8.71387 272.35 
1.50518e-05 1.67242e-06 2.68836e+25 -1.13836 -5.47817 272.319 
1.69631e-05 1.67242e-06 2.68312e+25 0.000667795 -0.731099 272.976 
1.67242e-06 2.15025e-06 2.68851e+25 -7.27813 0.87184 272.024 
3.58375e-06 2.15025e-06 2.69016e+25 -8.12054 -1.97298 271.952 
5.49508e-06 2.15025e-06 2.68879e+25 -8.18856 -4.40278 272.044 
7.40642e-06 2.15025e-06 2.68674e+25 -7.58634 -6.7496 272.235 
9.31775e-06 2.15025e-06 2.6863e+25 -6.77438 -9.22552 272.359 
1.12291e-05 2.15025e-06 2.69013e+25 -5.34788 -10.1682 272.148 
1.31404e-05 2.15025e-06 2.68993e+25 -3.27263 -9.20239 272.171 
1.50518e-05 2.15025e-06 2.69108e+25 -1.1389 -6.03117 272.187 
1.69631e-05 2.15025e-06 2.68394e+25 -0.0674204 -0.81161 272.833 
1.67242e-06 2.62808e-06 2.68952e+25 -7.02243 1.12682 271.968 
3.58375e-06 2.62808e-06 2.69063e+25 -7.79512 -1.86941 271.808 
5.49508e-06 2.62808e-06 2.68972e+25 -7.98611 -4.46645 272.01 
7.40642e-06 2.62808e-06 2.68753e+25 -7.6662 -6.85889 272.069 
9.31775e-06 2.62808e-06 2.68565e+25 -6.9494 -9.36783 272.46 
1.12291e-05 2.62808e-06 2.68968e+25 -5.69545 -10.6104 272.205 
1.31404e-05 2.62808e-06 2.69e+25 -3.60776 -9.71935 272.081 
1.50518e-05 2.62808e-06 2.69099e+25 -1.34221 -6.572 272.217 
1.69631e-05 2.62808e-06 2.68326e+25 0.0480588 -0.851794 272.864 
1.67242e-06 3.10592e-06 2.6888e+25 -6.60309 1.33109 271.888 
3.58375e-06 3.10592e-06 2.68713e+25 -7.46092 -1.70464 272.072 
5.49508e-06 3.10592e-06 2.68994e+25 -7.93408 -4.54051 271.949 
7.40642e-06 3.10592e-06 2.68969e+25 -7.70196 -6.93569 272.003 
9.31775e-06 3.10592e-06 2.68809e+25 -7.11634 -9.44396 272.265 
1.12291e-05 3.10592e-06 2.68919e+25 -5.82052 -11.0784 272.174 
1.31404e-05 3.10592e-06 2.69159e+25 -3.81962 -10.2829 272.007 
1.50518e-05 3.10592e-06 2.69057e+25 -1.27553 -7.00491 272.201 
1.69631e-05 3.10592e-06 2.68406e+25 -0.0266031 -0.842497 272.801 
1.67242e-06 3.58375e-06 2.69033e+25 -6.21147 1.54043 271.855 
3.58375e-06 3.58375e-06 2.68753e+25 -7.05561 -1.46992 272.121 
5.49508e-06 3.58375e-06 2.68682e+25 -7.84555 -4.53764 272.199 
7.40642e-06 3.58375e-06 2.68615e+25 -7.6125 -7.0971 272.223 
9.31775e-06 3.58375e-06 2.68881e+25 -7.31403 -9.55989 272.247 
1.12291e-05 3.58375e-06 2.68959e+25 -6.01235 -11.6258 272.272 
1.31404e-05 3.58375e-06 2.6918e+25 -3.94959 -11.0317 272.007 
1.50518e-05 3.58375e-06 2.69149e+25 -1.36429 -7.58973 272.049 
1.69631e-05 3.58375e-06 2.68522e+25 -0.0199147 -0.869313 272.843 
1.67242e-06 4.06158e-06 2.68911e+25 -5.65133 1.6772 271.973 
3.58375e-06 4.06158e-06 2.68742e+25 -6.46839 -1.20292 272.241 
5.49508e-06 4.06158e-06 2.68523e+25 -7.28828 -4.46622 272.315 
7.40642e-06 4.06158e-06 2.68646e+25 -7.3899 -7.08049 272.316 
9.31775e-06 4.06158e-06 2.68838e+25 -7.22609 -9.78304 272.276 
1.12291e-05 4.06158e-06 2.69179e+25 -6.19225 -11.9669 272.026 
1.31404e-05 4.06158e-06 2.69059e+25 -3.97571 -11.7283 272.139 
1.50518e-05 4.06158e-06 2.69059e+25 -1.43684 -8.15526 272.098 
1.69631e-05 4.06158e-06 2.68608e+25 -0.0467985 -0.963949 272.882 
1.67242e-06 4.53942e-06 2.68756e+25 -5.24215 1.66645 272.003 
3.58375e-06 4.53942e-06 2.68516e+25 -5.84007 -0.92069 272.289 
5.49508e-06 4.53942e-06 2.68391e+25 -6.69483 -4.29915 272.396 
7.40642e-06 4.53942e-06 2.68768e+25 -7.14693 -7.097 272.228 
9.31775e-06 4.53942e-06 2.6866e+25 -7.07812 -9.99496 272.261 
1.12291e-05 4.53942e-06 2.69055e+25 -6.20426 -12.2754 272.107 
1.31404e-05 4.53942e-06 2.69182e+25 -3.95058 -12.4273 272.001 
1.50518e-05 4.53942e-06 2.69112e+25 -1.35325 -8.72799 272.167 
1.69631e-05 4.53942e-06 2.68423e+25 -0.076922 -1.12832 272.819 
1.67242e-06 5.01725e-06 2.68697e+25 -4.75694 1.78059 272.202 
3.58375e-06 5.01725e-06 2.68644e+25 -5.32203 -0.727281 272.185 
5.49508e-06 5.01725e-06 2.68665e+25 -6.11164 -4.07784 272.37 
7.40642e-06 5.01725e-06 2.68685e+25 -6.8737 -7.0583 272.312 
9.31775e-06 5.01725e-06 2.68595e+25 -6.89243 -10.1436 272.311 
1.12291e-05 5.01725e-06 2.68862e+25 -6.07713 -12.5495 272.17 
1.31404e-05 5.01725e-06 2.69218e+25 -3.94807 -13.051 272.048 
1.50518e-05 5.01725e-06 2.69064e+25 -1.4758 -9.19817 272.299 
1.69631e-05 5.01725e-06 2.6856e+25 -0.0784407 -1.29028 272.779 
1.67242e-06 5.49508e-06 2.68788e+25 -4.18805 1.95383 272.047 
3.58375e-06 5.49508e-06 2.68754e+25 -4.70593 -0.640812 272.054 
5.49508e-06 5.49508e-06 2.68525e+25 -5.70711 -3.94148 272.338 
7.40642e-06 5.49508e-06 2.68579e+25 -6.57205 -6.96269 272.357 
9.31775e-06 5.49508e-06 2.68751e+25 -6.82532 -10.2995 272.328 
1.12291e-05 5.49508e-06 2.68862e+25 -5.66266 -12.9419 272.144 
1.31404e-05 5.49508e-06 2.68952e+25 -3.94055 -13.5537 272.115 
1.50518e-05 5.49508e-06 2.68993e+25 -1.4628 -9.71616 272.301 
1.69631e-05 5.49508e-06 2.68638e+25 -0.0403687 -1.39207 272.623 
1.67242e-06 5.97292e-06 2.68933e+25 -3.42794 2.09229 271.907 
3.58375e-06 5.97292e-06 2.68613e+25 -4.11371 -0.441667 272.049 
5.49508e-06 5.97292e-06 2.68452e+25 -5.14232 -3.54151 272.226 
7.40642e-06 5.97292e-06 2.68696e+25 -6.07313 -6.86098 272.244 
9.31775e-06 5.97292e-06 2.68817e+25 -6.26649 -10.3909 272.227 
1.12291e-05 5.97292e-06 2.68981e+25 -5.57065 -13.3661 272.141 
1.31404e-05 5.97292e-06 2.69119e+25 -3.69542 -14.1226 272.127 
1.50518e-05 5.97292e-06 2.68847e+25 -1.63285 -10.3777 272.289 
1.69631e-05 5.97292e-06 2.68549e+25 -0.0167883 -1.45023 272.659 
1.67242e-06 6.45075e-06 2.68581e+25 -2.89425 2.15439 272.022 
3.58375e-06 6.45075e-06 2.68621e+25 -3.37327 -0.189999 272.131 
5.49508e-06 6.45075e-06 2.68466e+25 -4.32515 -3.08889 272.257 
7.40642e-06 6.45075e-06 2.68562e+25 -5.51359 -6.79143 272.178 
9.31775e-06 6.45075e-06 2.68928e+25 -5.86809 -10.4497 272.005 
1.12291e-05 6.45075e-06 2.69031e+25 -5.46683 -13.6078 272.103 
1.31404e-05 6.45075e-06 2.68933e+25 -4.06654 -14.6496 272.24 
1.50518e-05 6.45075e-06 2.69043e+25 -1.57568 -10.9576 272.355 
1.69631e-05 6.45075e-06 2.68383e+25 -0.0141051 -1.56917 272.861 
1.67242e-06 6.92858e-06 2.6886e+25 -2.20182 2.23068 272.012 
3.58375e-06 6.92858e-06 2.68476e+25 -2.81289 0.0925974 272.125 
5.49508e-06 6.92858e-06 2.68507e+25 -3.63108 -2.74287 272.246 
7.40642e-06 6.92858e-06 2.68646e+25 -4.79425 -6.57728 272.121 
9.31775e-06 6.92858e-06 2.68738e+25 -5.44706 -10.345 272.189 
1.12291e-05 6.92858e-06 2.68853e+25 -5.26908 -13.699 272.257 
1.31404e-05 6.92858e-06 2.69122e+25 -4.22417 -15.1559 272.225 
1.50518e-05 6.92858e-06 2.69301e+25 -1.66415 -11.4285 272.042 
1.69631e-05 6.92858e-06 2.6843e+25 -0.0850989 -1.66412 272.856 
1.67242e-06 7.40642e-06 2.68793e+25 -1.31279 2.16689 272.045 
3.58375e-06 7.40642e-06 2.68577e+25 -2.03528 0.347675 272.198 
5.49508e-06 7.40642e-06 2.68621e+25 -2.68375 -2.55107 272.214 
7.40642e-06 7.40642e-06 2.68643e+25 -3.85198 -6.31185 272.244 
9.31775e-06 7.40642e-06 2.68706e+25 -4.65344 -10.2207 272.262 
1.12291e-05 7.40642e-06 2.68874e+25 -5.07887 -13.7319 272.386 
1.31404e-05 7.40642e-06 2.6906e+25 -4.13499 -15.738 272.22 
1.50518e-05 7.40642e-06 2.69126e+25 -1.87686 -12.0726 272.21 
1.69631e-05 7.40642e-06 2.68523e+25 -0.118774 -1.89795 272.831 
1.67242e-06 7.88425e-06 2.68583e+25 -0.652032 2.14049 272.13 
3.58375e-06 7.88425e-06 2.68504e+25 -1.00541 0.4777 272.17 
5.49508e-06 7.88425e-06 2.68506e+25 -1.76988 -2.41718 272.341 
7.40642e-06 7.88425e-06 2.68321e+25 -2.84174 -5.97328 272.424 
9.31775e-06 7.88425e-06 2.68554e+25 -3.8117 -9.96921 272.452 
1.12291e-05 7.88425e-06 2.68858e+25 -4.87619 -13.8008 272.241 
1.31404e-05 7.88425e-06 2.69115e+25 -4.13555 -16.2094 272.165 
1.50518e-05 7.88425e-06 2.69285e+25 -1.80339 -12.7446 272.32 
1.69631e-05 7.88425e-06 2.68602e+25 -0.0369159 -2.08514 272.773 
1.67242e-06 8.36208e-06 2.68748e+25 -0.100373 2.1541 271.905 
3.58375e-06 8.36208e-06 2.68449e+25 -0.0771843 0.491244 272.285 
5.49508e-06 8.36208e-06 2.68443e+25 -0.754738 -2.34536 272.433 
7.40642e-06 8.36208e-06 2.68599e+25 -1.83009 -5.58973 272.272 
9.31775e-06 8.36208e-06 2.68545e+25 -3.25997 -9.54695 272.383 
1.12291e-05 8.36208e-06 2.69137e+25 -4.52999 -13.6314 272.214 
1.31404e-05 8.36208e-06 2.69141e+25 -4.23295 -16.5863 272.268 
1.50518e-05 8.36208e-06 2.6911e+25 -2.0116 -13.3079 272.307 
1.69631e-05 8.36208e-06 2.68514e+25 -0.0130233 -2.18009 272.857 
1.67242e-06 8.83992e-06 2.68904e+25 0.719764 2.16135 271.795 
3.58375e-06 8.83992e-06 2.68664e+25 0.865836 0.498844 272.142 
5.49508e-06 8.83992e-06 2.68633e+25 0.284022 -2.21394 272.262 
7.40642e-06 8.83992e-06 2.68566e+25 -0.780139 -5.2211 272.3 
9.31775e-06 8.83992e-06 2.6878e+25 -2.41982 -9.05721 272.312 
1.12291e-05 8.83992e-06 2.68788e+25 -3.93277 -13.3711 272.352 
1.31404e-05 8.83992e-06 2.69157e+25 -4.14971 -16.872 272.37 
1.50518e-05 8.83992e-06 2.69139e+25 -2.17758 -13.9657 272.413 
1.69631e-05 8.83992e-06 2.68703e+25 -0.0742817 -2.24566 272.791 
1.67242e-06 9.31775e-06 2.68626e+25 1.50817 2.28756 271.961 
3.58375e-06 9.31775e-06 2.68471e+25 1.64797 0.46191 272.21 
5.49508e-06 9.31775e-06 2.68394e+25 1.44691 -1.9953 272.26 
7.40642e-06 9.31775e-06 2.68351e+25 0.204086 -4.92494 272.401 
9.31775e-06 9.31775e-06 2.68647e+25 -1.43724 -8.72261 272.367 
1.12291e-05 9.31775e-06 2.69025e+25 -3.11681 -13.0415 272.246 
1.31404e-05 9.31775e-06 2.69056e+25 -3.96669 -16.9609 272.407 
1.50518e-05 9.31775e-06 2.69348e+25 -2.22057 -14.6161 272.402 
1.69631e-05 9.31775e-06 2.6867e+25 -0.106811 -2.47946 272.942 
1.67242e-06 9.79558e-06 2.68619e+25 2.79666 2.23609 271.971 
3.58375e-06 9.79558e-06 2.68426e+25 2.81161 0.489504 272.217 
5.49508e-06 9.79558e-06 2.6838e+25 2.58211 -1.77947 272.303 
7.40642e-06 9.79558e-06 2.68618e+25 1.62234 -4.55338 272.186 
9.31775e-06 9.79558e-06 2.6887e+25 -0.244292 -8.40684 272.212 
1.12291e-05 9.79558e-06 2.68995e+25 -2.40291 -12.4479 272.123 
1.31404e-05 9.79558e-06 2.68887e+25 -3.66212 -16.9173 272.536 
1.50518e-05 9.79558e-06 2.69198e+25 -2.3088 -15.2482 272.456 
1.69631e-05 9.79558e-06 2.68798e+25 -0.0973892 -2.73034 272.828 
1.67242e-06 1.02734e-05 2.6883e+25 3.87115 2.12925 271.912 
3.58375e-06 1.02734e-05 2.68423e+25 4.0216 0.545084 272.268 
5.49508e-06 1.02734e-05 2.68371e+25 3.80679 -1.56837 272.344 
7.40642e-06 1.02734e-05 2.68587e+25 2.8273 -4.2413 272.237 
9.31775e-06 1.02734e-05 2.68737e+25 0.997732 -7.86199 272.343 
1.12291e-05 1.02734e-05 2.68998e+25 -1.5318 -11.852 272.242 
1.31404e-05 1.02734e-05 2.69023e+25 -3.18042 -16.908 272.66 
1.50518e-05 1.02734e-05 2.69288e+25 -2.03204 -15.9951 272.43 
1.69631e-05 1.02734e-05 2.68798e+25 -0.0708487 -2.92041 272.917 
1.67242e-06 1.07512e-05 2.68749e+25 5.09853 2.03569 271.888 
3.58375e-06 1.07512e-05 2.68651e+25 5.40089 0.534308 272.173 
5.49508e-06 1.07512e-05 2.68365e+25 4.988 -1.30495 272.413 
7.40642e-06 1.07512e-05 2.68745e+25 4.08925 -3.92623 272.091 
9.31775e-06 1.07512e-05 2.68723e+25 2.08554 -7.20965 272.277 
1.12291e-05 1.07512e-05 2.69041e+25 -0.5564 -11.2539 272.304 
1.31404e-05 1.07512e-05 2.68979e+25 -2.6058 -16.6248 272.576 
1.50518e-05 1.07512e-05 2.69738e+25 -1.97913 -16.5791 272.207 
1.69631e-05 1.07512e-05 2.68897e+25 -0.0703554 -3.08515 272.887 
1.67242e-06 1.12291e-05 2.68698e+25 6.33559 1.78906 272.042 
3.58375e-06 1.12291e-05 2.6868e+25 6.81274 0.562446 272.153 
5.49508e-06 1.12291e-05 2.68494e+25 6.40773 -1.21079 272.314 
7.40642e-06 1.12291e-05 2.68537e+25 5.58226 -3.50468 272.209 
9.31775e-06 1.12291e-05 2.68598e+25 3.60194 -6.60866 272.539 
1.12291e-05 1.12291e-05 2.69037e+25 0.519738 -10.6171 272.262 
1.31404e-05 1.12291e-05 2.69168e+25 -1.98705 -16.1662 272.536 
1.50518e-05 1.12291e-05 2.69694e+25 -2.10468 -17.1252 272.256 
1.69631e-05 1.12291e-05 2.69208e+25 -0.0823108 -3.24997 272.815 
1.67242e-06 1.17069e-05 2.68796e+25 7.62002 1.64331 272.019 
3.58375e-06 1.17069e-05 2.68704e+25 8.30445 0.541684 272.145 
5.49508e-06 1.17069e-05 2.686e+25 7.8121 -1.23792 272.193 
7.40642e-06 1.17069e-05 2.6888e+25 6.84807 -3.18245 272.067 
9.31775e-06 1.17069e-05 2.68462e+25 4.82815 -5.96569 272.563 
1.12291e-05 1.17069e-05 2.69114e+25 1.60261 -9.91967 272.333 
1.31404e-05 1.17069e-05 2.69228e+25 -1.52271 -15.6034 272.413 
1.50518e-05 1.17069e-05 2.69576e+25 -2.22618 -17.4899 272.454 
1.69631e-05 1.17069e-05 2.6912e+25 -0.107639 -3.51017 273.025 
1.67242e-06 1.21847e-05 2.68785e+25 9.10453 1.48311 271.899 
3.58375e-06 1.21847e-05 2.68677e+25 9.65526 0.567869 271.971 
5.49508e-06 1.21847e-05 2.68527e+25 9.43908 -1.17894 272.195 
7.40642e-06 1.21847e-05 2.68741e+25 8.16294 -2.67959 272.16 
9.31775e-06 1.21847e-05 2.68731e+25 6.43122 -5.24165 272.363 
1.12291e-05 1.21847e-05 2.69182e+25 3.28005 -9.12033 272.332 
1.31404e-05 1.21847e-05 2.69302e+25 -0.540508 -15.0041 272.461 
1.50518e-05 1.21847e-05 2.69826e+25 -2.21845 -17.7088 272.463 
1.69631e-05 1.21847e-05 2.69408e+25 -0.103435 -3.77399 272.981 
1.67242e-06 1.26626e-05 2.68536e+25 10.8333 1.30015 272.063 
3.58375e-06 1.26626e-05 2.68771e+25 11.2255 0.56166 271.975 
5.49508e-06 1.26626e-05 2.68581e+25 11.2153 -0.991066 272.208 
7.40642e-06 1.26626e-05 2.68534e+25 10.1228 -2.22575 272.223 
9.31775e-06 1.26626e-05 2.69053e+25 8.26764 -4.53158 272.203 
1.12291e-05 1.26626e-05 2.69099e+25 5.03517 -8.16052 272.381 
1.31404e-05 1.26626e-05 2.69345e+25 0.69136 -14.1269 272.473 
1.50518e-05 1.26626e-05 2.69972e+25 -2.05025 -17.8425 272.512 
1.69631e-05 1.26626e-05 2.69775e+25 -0.146062 -4.08015 272.902 
1.67242e-06 1.31404e-05 2.68703e+25 12.5773 1.2808 272.075 
3.58375e-06 1.31404e-05 2.68596e+25 13.1085 0.507561 272.06 
5.49508e-06 1.31404e-05 2.68503e+25 13.1599 -0.820742 272.232 
7.40642e-06 1.31404e-05 2.68768e+25 12.1759 -1.86924 272.201 
9.31775e-06 1.31404e-05 2.68926e+25 10.217 -3.95128 272.188 
1.12291e-05 1.31404e-05 2.691e+25 6.99986 -7.09787 272.415 
1.31404e-05 1.31404e-05 2.69583e+25 1.9582 -12.8537 272.482 
1.50518e-05 1.31404e-05 2.69903e+25 -2.10546 -17.7777 272.701 
1.69631e-05 1.31404e-05 2.69986e+25 -0.15549 -4.40728 272.92 
1.67242e-06 1.36182e-05 2.6862e+25 14.6361 1.15341 272.157 
3.58375e-06 1.36182e-05 2.68618e+25 15.1279 0.395689 272.094 
5.49508e-06 1.36182e-05 2.68525e+25 15.1473 -0.633505 272.373 
7.40642e-06 1.36182e-05 2.68534e+25 14.3412 -1.57537 272.303 
9.31775e-06 1.36182e-05 2.68933e+25 12.3059 -3.32264 272.271 
1.12291e-05 1.36182e-05 2.69081e+25 8.96788 -6.10507 272.541 
1.31404e-05 1.36182e-05 2.69526e+25 3.39704 -11.3403 272.657 
1.50518e-05 1.36182e-05 2.70248e+25 -1.90402 -17.4724 272.537 
1.69631e-05 1.36182e-05 2.70173e+25 -0.22947 -4.82678 272.831 
1.67242e-06 1.40961e-05 2.68681e+25 16.7146 0.950737 272.236 
3.58375e-06 1.40961e-05 2.68507e+25 17.2592 0.152096 272.222 
5.49508e-06 1.40961e-05 2.68379e+25 17.1723 -0.356139 272.433 
7.40642e-06 1.40961e-05 2.68687e+25 16.4568 -1.38462 272.379 
9.31775e-06 1.40961e-05 2.68839e+25 14.5707 -2.6522 272.392 
1.12291e-05 1.40961e-05 2.69075e+25 11.2364 -4.9753 272.512 
1.31404e-05 1.40961e-05 2.69612e+25 5.4182 -9.58515 272.706 
1.50518e-05 1.40961e-05 2.70423e+25 -1.30191 -16.7058 272.593 
1.69631e-05 1.40961e-05 2.7062e+25 -0.220871 -5.37745 272.829 
1.67242e-06 1.45739e-05 2.68496e+25 19.1336 0.8441 272.252 
3.58375e-06 1.45739e-05 2.68515e+25 19.44 0.0714667 272.131 
5.49508e-06 1.45739e-05 2.68753e+25 19.5542 -0.102091 272.186 
7.40642e-06 1.45739e-05 2.68509e+25 18.8007 -1.11898 272.42 
9.31775e-06 1.45739e-05 2.6879e+25 16.908 -2.10542 272.367 
1.12291e-05 1.45739e-05 2.69152e+25 13.6545 -3.7748 272.592 
1.31404e-05 1.45739e-05 2.69626e+25 7.90574 -7.64008 272.666 
1.50518e-05 1.45739e-05 2.70552e+25 -0.207727 -15.4834 272.791 
1.69631e-05 1.45739e-05 2.71156e+25 -0.296621 -5.96385 272.919 
1.67242e-06 1.50518e-05 2.68411e+25 21.7089 0.698787 272.354 
3.58375e-06 1.50518e-05 2.68608e+25 22.136 0.0512759 272.275 
5.49508e-06 1.50518e-05 2.68716e+25 21.8678 0.060643 272.191 
7.40642e-06 1.50518e-05 2.68669e+25 21.3231 -0.918939 272.35 
9.31775e-06 1.50518e-05 2.68904e+25 19.7196 -1.60436 272.438 
1.12291e-05 1.50518e-05 2.6908e+25 16.5671 -2.71409 272.708 
1.31404e-05 1.50518e-05 2.69489e+25 10.895 -5.6869 272.896 
1.50518e-05 1.50518e-05 2.70714e+25 1.54739 -13.5582 272.823 
1.69631e-05 1.50518e-05 2.71675e+25 -0.431354 -6.7472 273.055 
1.67242e-06 1.55296e-05 2.68255e+25 24.5543 0.584813 272.504 
3.58375e-06 1.55296e-05 2.68545e+25 24.802 -0.000302223 272.232 
5.49508e-06 1.55296e-05 2.68764e+25 24.6581 0.0963258 272.233 
7.40642e-06 1.55296e-05 2.68706e+25 24.0423 -0.712048 272.324 
9.31775e-06 1.55296e-05 2.6889e+25 22.618 -1.05322 272.309 
1.12291e-05 1.55296e-05 2.69086e+25 19.9426 -1.78055 272.633 
1.31404e-05 1.55296e-05 2.69586e+25 14.7158 -3.70636 273.003 
1.50518e-05 1.55296e-05 2.71217e+25 4.54393 -10.796 272.753 
1.69631e-05 1.55296e-05 2.72779e+25 -0.573687 -7.78229 273.116 
1.67242e-06 1.60074e-05 2.6822e+25 27.3041 0.450419 272.628 
3.58375e-06 1.60074e-05 2.68639e+25 27.6534 0.0314864 272.216 
5.49508e-06 1.60074e-05 2.68473e+25 27.5987 0.0347337 272.501 
7.40642e-06 1.60074e-05 2.6854e+25 27.0309 -0.345154 272.527 
9.31775e-06 1.60074e-05 2.68718e+25 25.8161 -0.478796 272.488 
1.12291e-05 1.60074e-05 2.6907e+25 23.8052 -1.00029 272.687 
1.31404e-05 1.60074e-05 2.69523e+25 19.3263 -2.01823 272.99 
1.50518e-05 1.60074e-05 2.71136e+25 9.43025 -7.28598 273.212 
1.69631e-05 1.60074e-05 2.74587e+25 -0.6337 -8.95262 273.028 
1.67242e-06 1.64852e-05 2.67954e+25 30.1821 0.253434 272.833 
3.58375e-06 1.64852e-05 2.684e+25 30.4033 0.0562351 272.427 
5.49508e-06 1.64852e-05 2.68206e+25 30.4726 -0.00384088 272.669 
7.40642e-06 1.64852e-05 2.68408e+25 30.0355 -0.163931 272.516 
9.31775e-06 1.64852e-05 2.68683e+25 29.2446 -0.18594 272.533 
1.12291e-05 1.64852e-05 2.68994e+25 27.8779 -0.481545 272.753 
1.31404e-05 1.64852e-05 2.69317e+25 24.7659 -0.767 273.232 
1.50518e-05 1.64852e-05 2.70978e+25 16.8738 -3.6041 273.354 
1.69631e-05 1.64852e-05 2.77141e+25 -0.0141886 -9.58479 273.252 
1.67242e-06 1.69631e-05 2.67861e+25 32.9566 0.111074 272.976 
3.58375e-06 1.69631e-05 2.68082e+25 32.9082 0.00997703 272.795 
5.49508e-06 1.69631e-05 2.68059e+25 33.0403 0.00390769 272.87 
7.40642e-06 1.69631e-05 2.6829e+25 32.8913 -0.0403287 272.742 
9.31775e-06 1.69631e-05 2.68459e+25 32.4354 -0.0470938 272.942 
1.12291e-05 1.69631e-05 2.68886e+25 31.8216 -0.100065 272.889 
1.31404e-05 1.69631e-05 2.6935e+25 30.7327 -0.107345 273.171 
1.50518e-05 1.69631e-05 2.70875e+25 26.8165 -0.815322 273.274 
1.69631e-05 1.69631e-05 2.85264e+25 4.08288 -6.16867 273.912 
2.38917e-07 2.38917e-07 2.6866e+25 -7.41619 1.75105 272.015 
2.15025e-06 2.38917e-07 2.69015e+25 -8.09031 -0.4076 271.817 
4.06158e-06 2.38917e-07 2.6868e+25 -8.01188 -2.52503 272.17 
5.97292e-06 2.38917e-07 2.68661e+25 -7.47736 -4.31527 272.229 
7.88425e-06 2.38917e-07 2.6876e+25 -7.2033 -6.6653 272.182 
9.79558e-06 2.38917e-07 2.68846e+25 -5.78372 -8.33302 272.097 
1.17069e-05 2.38917e-07 2.68752e+25 -4.20286 -8.03294 272.234 
1.36182e-05 2.38917e-07 2.68839e+25 -2.11443 -6.58385 272.045 
1.55296e-05 2.38917e-07 2.68825e+25 -0.587027 -3.36618 272.187 
2.38917e-07 7.1675e-07 2.68835e+25 -7.36356 1.82285 272.035 
2.15025e-06 7.1675e-07 2.69033e+25 -8.01281 -0.23605 272.02 
4.06158e-06 7.1675e-07 2.69013e+25 -8.14389 -2.71069 272.055 
5.97292e-06 7.1675e-07 2.68912e+25 -7.55706 -4.51359 272.187 
7.88425e-06 7.1675e-07 2.68938e+25 -7.20462 -6.84135 272.229 
9.79558e-06 7.1675e-07 2.69111e+25 -6.051 -8.71422 272.029 
1.17069e-05 7.1675e-07 2.69005e+25 -4.34189 -8.44353 272.192 
1.36182e-05 7.1675e-07 2.68986e+25 -2.46547 -7.12928 272.263 
1.55296e-05 7.1675e-07 2.68957e+25 -0.543873 -3.68838 272.333 
2.38917e-07 1.19458e-06 2.68733e+25 -7.14718 2.04131 272.087 
2.15025e-06 1.19458e-06 2.69067e+25 -7.82135 -0.185048 271.925 
4.06158e-06 1.19458e-06 2.69013e+25 -8.1646 -2.78315 272.003 
5.97292e-06 1.19458e-06 2.68857e+25 -7.82189 -4.74334 272.302 
7.88425e-06 1.19458e-06 2.69039e+25 -7.16719 -6.92356 272.129 
9.79558e-06 1.19458e-06 2.68899e+25 -6.20081 -9.03642 272.206 
1.17069e-05 1.19458e-06 2.69129e+25 -4.57455 -9.04885 272.03 
1.36182e-05 1.19458e-06 2.68981e+25 -2.27487 -7.71173 272.285 
1.55296e-05 1.19458e-06 2.69001e+25 -0.741518 -4.10466 272.206 
2.38917e-07 1.67242e-06 2.68642e+25 -6.79981 2.1803 271.957 
2.15025e-06 1.67242e-06 2.68936e+25 -7.74916 -0.109339 272.023 
4.06158e-06 1.67242e-06 2.69224e+25 -8.17476 -2.81769 271.792 
5.97292e-06 1.67242e-06 2.68867e+25 -7.96711 -4.96935 272.189 
7.88425e-06 1.67242e-06 2.68771e+25 -7.173 -7.12576 272.355 
9.79558e-06 1.67242e-06 2.68764e+25 -6.45297 -9.29537 272.342 
1.17069e-05 1.67242e-06 2.69077e+25 -4.71964 -9.57715 272.182 
1.36182e-05 1.67242e-06 2.68945e+25 -2.50392 -8.16712 272.305 
1.55296e-05 1.67242e-06 2.68912e+25 -0.689776 -4.38553 272.217 
2.38917e-07 2.15025e-06 2.68747e+25 -6.77769 2.32324 271.955 
2.15025e-06 2.15025e-06 2.68914e+25 -7.57372 0.184647 272.053 
4.06158e-06 2.15025e-06 2.6907e+25 -8.27124 -2.72153 271.939 
5.97292e-06 2.15025e-06 2.68789e+25 -8.07536 -5.15023 272.232 
7.88425e-06 2.15025e-06 2.6889e+25 -7.40244 -7.33553 272.336 
9.79558e-06 2.15025e-06 2.68776e+25 -6.58653 -9.59489 272.385 
1.17069e-05 2.15025e-06 2.69192e+25 -4.8468 -10.0647 272.053 
1.36182e-05 2.15025e-06 2.69029e+25 -2.81335 -8.62417 272.264 
1.55296e-05 2.15025e-06 2.69121e+25 -0.659948 -4.75091 272.125 
2.38917e-07 2.62808e-06 2.68877e+25 -6.46991 2.54696 271.847 
2.15025e-06 2.62808e-06 2.68976e+25 -7.27479 0.474048 271.991 
4.06158e-06 2.62808e-06 2.6911e+25 -7.9452 -2.59791 271.933 
5.97292e-06 2.62808e-06 2.68774e+25 -7.98773 -5.21007 272.168 
7.88425e-06 2.62808e-06 2.68907e+25 -7.56309 -7.56159 272.127 
9.79558e-06 2.62808e-06 2.68685e+25 -6.81084 -9.85289 272.3 
1.17069e-05 2.62808e-06 2.69101e+25 -5.19382 -10.5387 272.068 
1.36182e-05 2.62808e-06 2.69187e+25 -3.05731 -9.14308 271.985 
1.55296e-05 2.62808e-06 2.6906e+25 -0.861141 -5.21916 272.248 
2.38917e-07 3.10592e-06 2.68557e+25 -6.13616 2.77226 272.038 
2.15025e-06 3.10592e-06 2.68907e+25 -6.89544 0.779664 271.975 
4.06158e-06 3.10592e-06 2.68947e+25 -7.62559 -2.48823 272.027 
5.97292e-06 3.10592e-06 2.68789e+25 -7.96403 -5.15999 272.132 
7.88425e-06 3.10592e-06 2.68845e+25 -7.49365 -7.73939 272.286 
9.79558e-06 3.10592e-06 2.68765e+25 -7.04849 -9.97776 272.31 
1.17069e-05 3.10592e-06 2.69049e+25 -5.29382 -11.1571 272.056 
1.36182e-05 3.10592e-06 2.69193e+25 -3.19279 -9.76163 272.049 
1.55296e-05 3.10592e-06 2.68778e+25 -0.851807 -5.68136 272.38 
2.38917e-07 3.58375e-06 2.68608e+25 -5.76018 2.98228 272.101 
2.15025e-06 3.58375e-06 2.68861e+25 -6.3391 0.93605 272.084 
4.06158e-06 3.58375e-06 2.68611e+25 -7.28046 -2.27148 272.252 
5.97292e-06 3.58375e-06 2.68557e+25 -7.86841 -5.10884 272.38 
7.88425e-06 3.58375e-06 2.68721e+25 -7.52873 -7.91835 272.317 
9.79558e-06 3.58375e-06 2.68892e+25 -7.0224 -10.13 272.336 
1.17069e-05 3.58375e-06 2.69217e+25 -5.56587 -11.6278 272.019 
1.36182e-05 3.58375e-06 2.69053e+25 -3.18447 -10.4046 272.12 
1.55296e-05 3.58375e-06 2.69165e+25 -0.894059 -6.0192 272.09 
2.38917e-07 4.06158e-06 2.6829e+25 -5.26983 3.28392 272.211 
2.15025e-06 4.06158e-06 2.68765e+25 -5.73427 1.00638 272.106 
4.06158e-06 4.06158e-06 2.68448e+25 -6.83157 -1.95909 272.283 
5.97292e-06 4.06158e-06 2.68619e+25 -7.35865 -5.06755 272.353 
7.88425e-06 4.06158e-06 2.68626e+25 -7.39046 -7.95876 272.356 
9.79558e-06 4.06158e-06 2.68668e+25 -7.02234 -10.4382 272.389 
1.17069e-05 4.06158e-06 2.69174e+25 -5.76341 -12.0936 271.937 
1.36182e-05 4.06158e-06 2.6931e+25 -3.24053 -11.1311 271.983 
1.55296e-05 4.06158e-06 2.68978e+25 -0.869901 -6.53612 272.192 
2.38917e-07 4.53942e-06 2.68072e+25 -4.73104 3.46914 272.418 
2.15025e-06 4.53942e-06 2.68858e+25 -5.34338 1.20222 271.972 
4.06158e-06 4.53942e-06 2.68676e+25 -6.10197 -1.63879 272.155 
5.97292e-06 4.53942e-06 2.68463e+25 -6.86239 -5.15265 272.438 
7.88425e-06 4.53942e-06 2.68694e+25 -7.06415 -8.00245 272.338 
9.79558e-06 4.53942e-06 2.68636e+25 -6.84544 -10.6979 272.443 
1.17069e-05 4.53942e-06 2.69229e+25 -5.82894 -12.5639 272.041 
1.36182e-05 4.53942e-06 2.69251e+25 -3.37736 -11.7307 271.969 
1.55296e-05 4.53942e-06 2.69013e+25 -0.832311 -6.99497 272.262 
2.38917e-07 5.01725e-06 2.68225e+25 -4.42534 3.46937 272.349 
2.15025e-06 5.01725e-06 2.68681e+25 -4.82719 1.29184 272.02 
4.06158e-06 5.01725e-06 2.68903e+25 -5.47982 -1.38558 272.052 
5.97292e-06 5.01725e-06 2.68432e+25 -6.27383 -5.00807 272.41 
7.88425e-06 5.01725e-06 2.68585e+25 -6.96885 -7.94819 272.247 
9.79558e-06 5.01725e-06 2.68474e+25 -6.70913 -10.9766 272.414 
1.17069e-05 5.01725e-06 2.69129e+25 -5.64728 -13.0708 272.078 
1.36182e-05 5.01725e-06 2.69133e+25 -3.24989 -12.3795 272.028 
1.55296e-05 5.01725e-06 2.69005e+25 -0.977903 -7.4935 272.22 
2.38917e-07 5.49508e-06 2.6825e+25 -3.92136 3.50407 272.327 
2.15025e-06 5.49508e-06 2.68748e+25 -4.40723 1.47307 271.939 
4.06158e-06 5.49508e-06 2.68746e+25 -4.86068 -1.22406 271.952 
5.97292e-06 5.49508e-06 2.68528e+25 -5.92778 -4.7013 272.324 
7.88425e-06 5.49508e-06 2.68523e+25 -6.70529 -7.82094 272.265 
9.79558e-06 5.49508e-06 2.68829e+25 -6.57541 -11.2362 272.27 
1.17069e-05 5.49508e-06 2.68985e+25 -5.24219 -13.5644 272.197 
1.36182e-05 5.49508e-06 2.69251e+25 -3.32294 -13.1026 271.99 
1.55296e-05 5.49508e-06 2.68943e+25 -0.94076 -8.02895 272.363 
2.38917e-07 5.97292e-06 2.68365e+25 -3.49794 3.54217 272.22 
2.15025e-06 5.97292e-06 2.68885e+25 -3.54775 1.59479 271.837 
4.06158e-06 5.97292e-06 2.68703e+25 -4.29058 -1.06405 272.046 
5.97292e-06 5.97292e-06 2.68707e+25 -5.59205 -4.43774 272.198 
7.88425e-06 5.97292e-06 2.68626e+25 -6.15583 -7.71599 272.246 
9.79558e-06 5.97292e-06 2.68864e+25 -6.20608 -11.4519 272.179 
1.17069e-05 5.97292e-06 2.68875e+25 -5.18969 -13.947 272.165 
1.36182e-05 5.97292e-06 2.68934e+25 -3.2158 -13.6058 272.213 
1.55296e-05 5.97292e-06 2.68887e+25 -1.03894 -8.51668 272.424 
2.38917e-07 6.45075e-06 2.6874e+25 -2.7981 3.47712 271.824 
2.15025e-06 6.45075e-06 2.69096e+25 -2.89966 1.63006 271.692 
4.06158e-06 6.45075e-06 2.68566e+25 -3.65744 -0.895851 272.112 
5.97292e-06 6.45075e-06 2.68512e+25 -4.7642 -4.08209 272.194 
7.88425e-06 6.45075e-06 2.68628e+25 -5.68953 -7.5551 272.171 
9.79558e-06 6.45075e-06 2.68835e+25 -5.92754 -11.4212 272.155 
1.17069e-05 6.45075e-06 2.69091e+25 -5.28983 -14.2444 272.07 
1.36182e-05 6.45075e-06 2.69001e+25 -3.42836 -14.2076 272.307 
1.55296e-05 6.45075e-06 2.69131e+25 -1.02435 -8.97767 272.258 
2.38917e-07 6.92858e-06 2.68911e+25 -2.32976 3.33792 271.718 
2.15025e-06 6.92858e-06 2.68794e+25 -2.15155 1.58226 271.967 
4.06158e-06 6.92858e-06 2.6857e+25 -3.00403 -0.676943 272.235 
5.97292e-06 6.92858e-06 2.68487e+25 -3.87905 -3.69918 272.15 
7.88425e-06 6.92858e-06 2.68448e+25 -5.04907 -7.40728 272.254 
9.79558e-06 6.92858e-06 2.68765e+25 -5.41682 -11.4759 272.324 
1.17069e-05 6.92858e-06 2.68762e+25 -5.27831 -14.3954 272.351 
1.36182e-05 6.92858e-06 2.69131e+25 -3.59306 -14.9833 272.159 
1.55296e-05 6.92858e-06 2.6906e+25 -1.13135 -9.49659 272.088 
2.38917e-07 7.40642e-06 2.68607e+25 -1.64476 3.22989 271.916 
2.15025e-06 7.40642e-06 2.68743e+25 -1.35127 1.59783 271.993 
4.06158e-06 7.40642e-06 2.68419e+25 -2.24591 -0.506169 272.36 
5.97292e-06 7.40642e-06 2.68484e+25 -2.92508 -3.44095 272.214 
7.88425e-06 7.40642e-06 2.68741e+25 -4.07636 -7.18686 272.164 
9.79558e-06 7.40642e-06 2.68577e+25 -4.89641 -11.406 272.406 
1.17069e-05 7.40642e-06 2.69013e+25 -4.9836 -14.4117 272.351 
1.36182e-05 7.40642e-06 2.68956e+25 -3.65319 -15.5251 272.303 
1.55296e-05 7.40642e-06 2.69305e+25 -1.20494 -10.075 272.026 
2.38917e-07 7.88425e-06 2.68382e+25 -0.999001 3.19352 271.984 
2.15025e-06 7.88425e-06 2.68584e+25 -0.756037 1.8328 272.103 
4.06158e-06 7.88425e-06 2.6838e+25 -1.15684 -0.292828 272.43 
5.97292e-06 7.88425e-06 2.68329e+25 -1.91733 -3.18943 272.281 
7.88425e-06 7.88425e-06 2.68658e+25 -3.19479 -6.96493 272.263 
9.79558e-06 7.88425e-06 2.68462e+25 -4.28135 -11.0123 272.449 
1.17069e-05 7.88425e-06 2.68649e+25 -4.86422 -14.4462 272.57 
1.36182e-05 7.88425e-06 2.69415e+25 -3.6503 -15.953 272.079 
1.55296e-05 7.88425e-06 2.69164e+25 -1.26182 -10.6047 272.146 
2.38917e-07 8.36208e-06 2.68409e+25 0.0134308 3.22462 272.053 
2.15025e-06 8.36208e-06 2.68459e+25 -0.162193 1.97264 272.145 
4.06158e-06 8.36208e-06 2.68432e+25 -0.212193 -0.0233651 272.39 
5.97292e-06 8.36208e-06 2.68462e+25 -0.903659 -2.93861 272.306 
7.88425e-06 8.36208e-06 2.68665e+25 -2.1886 -6.60733 272.131 
9.79558e-06 8.36208e-06 2.68521e+25 -3.71197 -10.5479 272.389 
1.17069e-05 8.36208e-06 2.68767e+25 -4.66019 -14.5103 272.37 
1.36182e-05 8.36208e-06 2.69117e+25 -3.86195 -16.4098 272.334 
1.55296e-05 8.36208e-06 2.69152e+25 -1.36974 -11.2256 272.292 
2.38917e-07 8.83992e-06 2.68541e+25 0.977306 3.15693 272.022 
2.15025e-06 8.83992e-06 2.6876e+25 0.750378 1.9163 271.948 
4.06158e-06 8.83992e-06 2.68479e+25 0.845604 0.138071 272.183 
5.97292e-06 8.83992e-06 2.68424e+25 0.131353 -2.78996 272.229 
7.88425e-06 8.83992e-06 2.68846e+25 -1.15806 -6.20173 272.086 
9.79558e-06 8.83992e-06 2.68506e+25 -2.77852 -10.2458 272.374 
1.17069e-05 8.83992e-06 2.6888e+25 -4.17289 -14.4807 272.396 
1.36182e-05 8.83992e-06 2.68966e+25 -3.85974 -16.8447 272.452 
1.55296e-05 8.83992e-06 2.69208e+25 -1.54257 -11.8248 272.414 
2.38917e-07 9.31775e-06 2.68814e+25 1.791 3.0521 271.813 
2.15025e-06 9.31775e-06 2.68647e+25 1.51435 1.84733 272.016 
4.06158e-06 9.31775e-06 2.68439e+25 1.73126 0.0730841 272.278 
5.97292e-06 9.31775e-06 2.68459e+25 1.19257 -2.57104 272.273 
7.88425e-06 9.31775e-06 2.6879e+25 -0.11087 -5.80146 272.174 
9.79558e-06 9.31775e-06 2.68581e+25 -1.78 -9.85197 272.419 
1.17069e-05 9.31775e-06 2.68979e+25 -3.59665 -14.1344 272.281 
1.36182e-05 9.31775e-06 2.68941e+25 -3.85696 -17.169 272.553 
1.55296e-05 9.31775e-06 2.69509e+25 -1.59205 -12.3892 272.203 
2.38917e-07 9.79558e-06 2.68646e+25 2.49456 2.93637 271.924 
2.15025e-06 9.79558e-06 2.6875e+25 2.87536 1.86331 271.968 
4.06158e-06 9.79558e-06 2.68489e+25 2.84673 -0.0440604 272.3 
5.97292e-06 9.79558e-06 2.685e+25 2.32822 -2.3016 272.281 
7.88425e-06 9.79558e-06 2.68856e+25 1.2101 -5.42696 272.078 
9.79558e-06 9.79558e-06 2.68618e+25 -0.744118 -9.4222 272.409 
1.17069e-05 9.79558e-06 2.69143e+25 -2.93874 -13.7021 272.314 
1.36182e-05 9.79558e-06 2.68923e+25 -3.54097 -17.4538 272.509 
1.55296e-05 9.79558e-06 2.69322e+25 -1.54847 -13.1494 272.42 
2.38917e-07 1.02734e-05 2.68619e+25 3.33291 2.91874 271.909 
2.15025e-06 1.02734e-05 2.68896e+25 3.99899 1.78401 271.875 
4.06158e-06 1.02734e-05 2.68149e+25 3.95235 -0.0769817 272.379 
5.97292e-06 1.02734e-05 2.68381e+25 3.51979 -1.97253 272.365 
7.88425e-06 1.02734e-05 2.68655e+25 2.47458 -5.0075 272.145 
9.79558e-06 1.02734e-05 2.68584e+25 0.403956 -8.81422 272.335 
1.17069e-05 1.02734e-05 2.68868e+25 -2.10158 -13.1965 272.472 
1.36182e-05 1.02734e-05 2.69061e+25 -3.22751 -17.5719 272.603 
1.55296e-05 1.02734e-05 2.69401e+25 -1.31407 -13.8263 272.374 
2.38917e-07 1.07512e-05 2.68636e+25 4.52111 2.94867 271.878 
2.15025e-06 1.07512e-05 2.6876e+25 5.20789 1.68022 271.881 
4.06158e-06 1.07512e-05 2.68283e+25 5.38965 0.0236469 272.314 
5.97292e-06 1.07512e-05 2.68264e+25 4.85544 -1.81164 272.462 
7.88425e-06 1.07512e-05 2.68857e+25 3.74312 -4.58954 272.013 
9.79558e-06 1.07512e-05 2.68489e+25 1.44875 -8.24456 272.516 
1.17069e-05 1.07512e-05 2.6901e+25 -1.17238 -12.6489 272.472 
1.36182e-05 1.07512e-05 2.69194e+25 -2.87375 -17.5399 272.522 
1.55296e-05 1.07512e-05 2.69452e+25 -1.40825 -14.4589 272.507 
2.38917e-07 1.12291e-05 2.68675e+25 5.67371 2.85938 271.868 
2.15025e-06 1.12291e-05 2.68811e+25 6.47363 1.58456 271.979 
4.06158e-06 1.12291e-05 2.68595e+25 6.75006 0.0999383 272.218 
5.97292e-06 1.12291e-05 2.68331e+25 6.26217 -1.69169 272.321 
7.88425e-06 1.12291e-05 2.68629e+25 5.06129 -4.15388 272.119 
9.79558e-06 1.12291e-05 2.68599e+25 2.81305 -7.44453 272.488 
1.17069e-05 1.12291e-05 2.691e+25 -0.11484 -12.0739 272.316 
1.36182e-05 1.12291e-05 2.69367e+25 -2.42093 -17.2467 272.365 
1.55296e-05 1.12291e-05 2.69539e+25 -1.56604 -15.0726 272.413 
2.38917e-07 1.17069e-05 2.68413e+25 7.19603 2.7246 272.122 
2.15025e-06 1.17069e-05 2.68821e+25 7.77773 1.3831 271.865 
4.06158e-06 1.17069e-05 2.68582e+25 8.16757 0.285441 272.109 
5.97292e-06 1.17069e-05 2.68672e+25 7.79644 -1.50784 272.273 
7.88425e-06 1.17069e-05 2.68826e+25 6.43927 -3.61481 272.059 
9.79558e-06 1.17069e-05 2.68846e+25 4.20316 -6.64651 272.359 
1.17069e-05 1.17069e-05 2.69164e+25 0.947339 -11.4253 272.389 
1.36182e-05 1.17069e-05 2.69452e+25 -1.96526 -16.9015 272.346 
1.55296e-05 1.17069e-05 2.69574e+25 -1.76629 -15.6254 272.513 
2.38917e-07 1.21847e-05 2.68524e+25 8.73317 2.50908 272.049 
2.15025e-06 1.21847e-05 2.68867e+25 9.32851 1.18022 271.939 
4.06158e-06 1.21847e-05 2.6872e+25 9.61884 0.462506 272.014 
5.97292e-06 1.21847e-05 2.6864e+25 9.26395 -1.35293 272.047 
7.88425e-06 1.21847e-05 2.68709e+25 7.85452 -3.26906 272.212 
9.79558e-06 1.21847e-05 2.68864e+25 5.65832 -5.98883 272.229 
1.17069e-05 1.21847e-05 2.6928e+25 2.30335 -10.5598 272.334 
1.36182e-05 1.21847e-05 2.69469e+25 -1.16665 -16.4511 272.324 
1.55296e-05 1.21847e-05 2.69843e+25 -1.85233 -16.1758 272.553 
2.38917e-07 1.26626e-05 2.68273e+25 10.4071 2.29242 272.184 
2.15025e-06 1.26626e-05 2.6889e+25 10.942 0.981544 271.936 
4.06158e-06 1.26626e-05 2.68789e+25 11.3553 0.469767 271.94 
5.97292e-06 1.26626e-05 2.68771e+25 11.0404 -1.15432 272.184 
7.88425e-06 1.26626e-05 2.68575e+25 9.67592 -3.01051 272.245 
9.79558e-06 1.26626e-05 2.68964e+25 7.51657 -5.19315 272.311 
1.17069e-05 1.26626e-05 2.6923e+25 3.98092 -9.49837 272.356 
1.36182e-05 1.26626e-05 2.69801e+25 -0.375297 -15.6075 272.317 
1.55296e-05 1.26626e-05 2.7007e+25 -1.89783 -16.5652 272.568 
2.38917e-07 1.31404e-05 2.68137e+25 12.0518 2.03282 272.333 
2.15025e-06 1.31404e-05 2.68703e+25 12.6448 0.860474 272.032 
4.06158e-06 1.31404e-05 2.68664e+25 13.2261 0.25153 272.029 
5.97292e-06 1.31404e-05 2.68538e+25 13.0472 -1.03731 272.35 
7.88425e-06 1.31404e-05 2.68896e+25 11.7347 -2.53737 272.155 
9.79558e-06 1.31404e-05 2.68913e+25 9.5743 -4.45005 272.27 
1.17069e-05 1.31404e-05 2.69051e+25 5.90471 -8.40647 272.595 
1.36182e-05 1.31404e-05 2.69869e+25 0.584013 -14.4076 272.247 
1.55296e-05 1.31404e-05 2.70151e+25 -2.0096 -16.8882 272.663 
2.38917e-07 1.36182e-05 2.68265e+25 13.8432 1.65474 272.366 
2.15025e-06 1.36182e-05 2.68556e+25 14.7406 0.801063 272.104 
4.06158e-06 1.36182e-05 2.6848e+25 15.2778 0.125177 272.213 
5.97292e-06 1.36182e-05 2.68382e+25 14.8919 -0.901628 272.554 
7.88425e-06 1.36182e-05 2.68928e+25 13.9947 -2.11136 272.052 
9.79558e-06 1.36182e-05 2.69056e+25 11.558 -3.68306 272.189 
1.17069e-05 1.36182e-05 2.69121e+25 7.78513 -7.12745 272.607 
1.36182e-05 1.36182e-05 2.69916e+25 1.7188 -12.9266 272.333 
1.55296e-05 1.36182e-05 2.70433e+25 -2.04764 -17.1415 272.634 
2.38917e-07 1.40961e-05 2.68195e+25 15.9448 1.1658 272.316 
2.15025e-06 1.40961e-05 2.68755e+25 16.7929 0.764988 272.127 
4.06158e-06 1.40961e-05 2.68551e+25 17.3659 0.0858754 272.196 
5.97292e-06 1.40961e-05 2.68386e+25 16.9579 -0.764469 272.398 
7.88425e-06 1.40961e-05 2.68765e+25 16.1435 -1.66433 272.255 
9.79558e-06 1.40961e-05 2.69007e+25 13.932 -3.01198 272.346 
1.17069e-05 1.40961e-05 2.69196e+25 9.91077 -5.75872 272.694 
1.36182e-05 1.40961e-05 2.69828e+25 3.45926 -11.0664 272.547 
1.55296e-05 1.40961e-05 2.70682e+25 -1.85634 -17.1309 272.535 
2.38917e-07 1.45739e-05 2.68172e+25 18.2777 0.75548 272.335 
2.15025e-06 1.45739e-05 2.68548e+25 19.2866 0.640878 272.15 
4.06158e-06 1.45739e-05 2.68473e+25 19.543 -0.0283157 272.272 
5.97292e-06 1.45739e-05 2.68421e+25 19.2309 -0.468261 272.414 
7.88425e-06 1.45739e-05 2.68643e+25 18.4461 -1.21736 272.308 
9.79558e-06 1.45739e-05 2.68995e+25 16.3092 -2.28538 272.448 
1.17069e-05 1.45739e-05 2.6927e+25 12.4883 -4.49191 272.689 
1.36182e-05 1.45739e-05 2.69988e+25 5.8724 -9.02333 272.73 
1.55296e-05 1.45739e-05 2.70828e+25 -1.42829 -16.6499 272.753 
2.38917e-07 1.50518e-05 2.68112e+25 20.9943 0.463146 272.458 
2.15025e-06 1.50518e-05 2.68594e+25 21.8285 0.515021 272.308 
4.06158e-06 1.50518e-05 2.68567e+25 22.1354 -0.112283 272.188 
5.97292e-06 1.50518e-05 2.68367e+25 21.7954 -0.23006 272.41 
7.88425e-06 1.50518e-05 2.68803e+25 21.1017 -0.884218 272.461 
9.79558e-06 1.50518e-05 2.68891e+25 19.116 -1.65034 272.526 
1.17069e-05 1.50518e-05 2.69365e+25 15.5517 -3.36105 272.624 
1.36182e-05 1.50518e-05 2.69825e+25 8.84818 -6.91209 272.881 
1.55296e-05 1.50518e-05 2.7134e+25 -0.456168 -15.4418 272.664 
2.38917e-07 1.55296e-05 2.67969e+25 23.8916 0.244934 272.434 
2.15025e-06 1.55296e-05 2.68177e+25 24.6773 0.346546 272.565 
4.06158e-06 1.55296e-05 2.68587e+25 24.7873 -0.0705696 272.202 
5.97292e-06 1.55296e-05 2.68463e+25 24.7605 -0.225123 272.407 
7.88425e-06 1.55296e-05 2.68718e+25 23.8589 -0.694148 272.396 
9.79558e-06 1.55296e-05 2.68833e+25 22.1132 -1.06614 272.552 
1.17069e-05 1.55296e-05 2.69351e+25 19.0263 -2.34397 272.712 
1.36182e-05 1.55296e-05 2.69674e+25 12.715 -4.77567 273.14 
1.55296e-05 1.55296e-05 2.71684e+25 1.5477 -13.2993 272.893 
2.38917e-07 1.60074e-05 2.6806e+25 26.7887 0.0590391 272.573 
2.15025e-06 1.60074e-05 2.68135e+25 27.3752 0.250338 272.63 
4.06158e-06 1.60074e-05 2.68596e+25 27.5255 0.0551795 272.28 
5.97292e-06 1.60074e-05 2.68566e+25 27.6362 -0.24592 272.354 
7.88425e-06 1.60074e-05 2.68581e+25 26.7596 -0.578807 272.409 
9.79558e-06 1.60074e-05 2.68737e+25 25.3587 -0.655304 272.692 
1.17069e-05 1.60074e-05 2.6933e+25 22.9682 -1.36653 272.614 
1.36182e-05 1.60074e-05 2.6982e+25 17.635 -2.82808 273.032 
1.55296e-05 1.60074e-05 2.71904e+25 5.49734 -9.90009 273.155 
2.38917e-07 1.64852e-05 2.67909e+25 29.916 -0.0229807 272.662 
2.15025e-06 1.64852e-05 2.68107e+25 30.3833 0.137121 272.664 
4.06158e-06 1.64852e-05 2.68366e+25 30.4517 0.091717 272.382 
5.97292e-06 1.64852e-05 2.68268e+25 30.4162 -0.183804 272.548 
7.88425e-06 1.64852e-05 2.68492e+25 29.8588 -0.315062 272.484 
9.79558e-06 1.64852e-05 2.68492e+25 28.984 -0.27489 272.724 
1.17069e-05 1.64852e-05 2.69096e+25 27.2913 -0.517998 272.713 
1.36182e-05 1.64852e-05 2.69611e+25 23.686 -1.24577 273.21 
1.55296e-05 1.64852e-05 2.71809e+25 12.7806 -5.41114 273.447 
2.38917e-07 1.69631e-05 2.67787e+25 32.954 -0.0223686 272.857 
2.15025e-06 1.69631e-05 2.68056e+25 33.1088 -0.0408301 272.794 
4.06158e-06 1.69631e-05 2.68264e+25 32.9663 0.0533078 272.69 
5.97292e-06 1.69631e-05 2.68202e+25 32.9655 -0.0238584 272.874 
7.88425e-06 1.69631e-05 2.68375e+25 32.699 -0.0511196 272.762 
9.79558e-06 1.69631e-05 2.68543e+25 32.3304 -0.0416725 272.845 
1.17069e-05 1.69631e-05 2.69073e+25 31.5577 -0.0763965 272.874 
1.36182e-05 1.69631e-05 2.69371e+25 30.209 -0.253124 273.263 
1.55296e-05 1.69631e-05 2.71648e+25 24.2664 -1.29595 273.477 
7.1675e-07 2.38917e-07 2.68905e+25 -7.61995 1.20996 272.011 
2.62808e-06 2.38917e-07 2.68717e+25 -8.18728 -0.934658 272.112 
4.53942e-06 2.38917e-07 2.68676e+25 -7.85062 -3.0044 272.202 
6.45075e-06 2.38917e-07 2.68477e+25 -7.38333 -5.12051 272.25 
8.36208e-06 2.38917e-07 2.68796e+25 -6.89732 -7.2556 272.088 
1.02734e-05 2.38917e-07 2.68796e+25 -5.37554 -8.43318 272.006 
1.21847e-05 2.38917e-07 2.6877e+25 -3.66046 -7.77373 272.187 
1.40961e-05 2.38917e-07 2.68919e+25 -1.61543 -5.91065 272.034 
1.60074e-05 2.38917e-07 2.68714e+25 -0.349498 -2.47865 272.137 
7.1675e-07 7.1675e-07 2.68786e+25 -7.4741 1.4858 272.076 
2.62808e-06 7.1675e-07 2.68799e+25 -8.10047 -0.984738 272.107 
4.53942e-06 7.1675e-07 2.68886e+25 -7.99451 -3.12007 272.16 
6.45075e-06 7.1675e-07 2.68948e+25 -7.36204 -5.14485 272.097 
8.36208e-06 7.1675e-07 2.68862e+25 -7.09163 -7.47644 272.234 
1.02734e-05 7.1675e-07 2.69153e+25 -5.69483 -8.7426 272.003 
1.21847e-05 7.1675e-07 2.68995e+25 -3.92234 -8.25849 272.213 
1.40961e-05 7.1675e-07 2.6907e+25 -1.83084 -6.42134 272.113 
1.60074e-05 7.1675e-07 2.6899e+25 -0.235035 -2.63858 272.226 
7.1675e-07 1.19458e-06 2.68783e+25 -7.29996 1.58288 272.095 
2.62808e-06 1.19458e-06 2.68932e+25 -7.92395 -0.883895 271.98 
4.53942e-06 1.19458e-06 2.68911e+25 -8.20383 -3.17388 272.038 
6.45075e-06 1.19458e-06 2.68928e+25 -7.59407 -5.29153 272.113 
8.36208e-06 1.19458e-06 2.68974e+25 -7.01153 -7.6741 272.228 
1.02734e-05 1.19458e-06 2.69132e+25 -5.92422 -9.07981 272.143 
1.21847e-05 1.19458e-06 2.6891e+25 -3.96433 -8.74896 272.244 
1.40961e-05 1.19458e-06 2.68979e+25 -1.9001 -6.85638 272.226 
1.60074e-05 1.19458e-06 2.68777e+25 -0.432643 -2.87589 272.454 
7.1675e-07 1.67242e-06 2.68891e+25 -7.02097 1.7825 272.025 
2.62808e-06 1.67242e-06 2.69168e+25 -7.90078 -0.704128 272.021 
4.53942e-06 1.67242e-06 2.68953e+25 -8.21731 -3.08667 271.946 
6.45075e-06 1.67242e-06 2.68921e+25 -7.85075 -5.39626 272.166 
8.36208e-06 1.67242e-06 2.68778e+25 -7.00171 -7.81379 272.391 
1.02734e-05 1.67242e-06 2.69018e+25 -6.10983 -9.41372 272.175 
1.21847e-05 1.67242e-06 2.68921e+25 -4.08072 -9.3957 272.315 
1.40961e-05 1.67242e-06 2.68715e+25 -2.06874 -7.29325 272.318 
1.60074e-05 1.67242e-06 2.68774e+25 -0.401321 -3.07816 272.518 
7.1675e-07 2.15025e-06 2.69099e+25 -6.8482 1.97983 271.906 
2.62808e-06 2.15025e-06 2.6903e+25 -7.78526 -0.586807 272.05 
4.53942e-06 2.15025e-06 2.68933e+25 -8.31837 -3.17611 271.935 
6.45075e-06 2.15025e-06 2.6872e+25 -7.93522 -5.51967 272.237 
8.36208e-06 2.15025e-06 2.68838e+25 -7.12433 -8.08606 272.327 
1.02734e-05 2.15025e-06 2.68716e+25 -6.32045 -9.77981 272.43 
1.21847e-05 2.15025e-06 2.69035e+25 -4.4302 -9.98719 272.165 
1.40961e-05 2.15025e-06 2.68963e+25 -2.28594 -7.75111 272.097 
1.60074e-05 2.15025e-06 2.68723e+25 -0.387954 -3.36068 272.573 
7.1675e-07 2.62808e-06 2.68756e+25 -6.69313 2.14218 271.973 
2.62808e-06 2.62808e-06 2.69027e+25 -7.56379 -0.385667 271.869 
4.53942e-06 2.62808e-06 2.68979e+25 -7.92839 -3.19121 271.976 
6.45075e-06 2.62808e-06 2.68824e+25 -7.93667 -5.65033 272.023 
8.36208e-06 2.62808e-06 2.68674e+25 -7.35521 -8.36271 272.355 
1.02734e-05 2.62808e-06 2.68806e+25 -6.4615 -10.0691 272.25 
1.21847e-05 2.62808e-06 2.69136e+25 -4.61214 -10.5279 272.054 
1.40961e-05 2.62808e-06 2.69088e+25 -2.44095 -8.38926 272.148 
1.60074e-05 2.62808e-06 2.68884e+25 -0.412982 -3.65632 272.36 
7.1675e-07 3.10592e-06 2.6882e+25 -6.32063 2.3454 271.935 
2.62808e-06 3.10592e-06 2.68949e+25 -7.15469 -0.140887 271.978 
4.53942e-06 3.10592e-06 2.68811e+25 -7.80162 -3.12399 271.982 
6.45075e-06 3.10592e-06 2.68913e+25 -7.9534 -5.75539 272.144 
8.36208e-06 3.10592e-06 2.68941e+25 -7.3278 -8.56911 272.208 
1.02734e-05 3.10592e-06 2.68984e+25 -6.75605 -10.5888 272.23 
1.21847e-05 3.10592e-06 2.69006e+25 -4.77454 -11.0107 272.095 
1.40961e-05 3.10592e-06 2.69108e+25 -2.47456 -9.09446 272.135 
1.60074e-05 3.10592e-06 2.69043e+25 -0.375392 -4.08078 272.35 
7.1675e-07 3.58375e-06 2.68911e+25 -5.99558 2.5251 272.054 
2.62808e-06 3.58375e-06 2.68596e+25 -6.41019 0.0537935 272.08 
4.53942e-06 3.58375e-06 2.68562e+25 -7.5444 -2.94381 272.286 
6.45075e-06 3.58375e-06 2.68712e+25 -7.80606 -5.89892 272.327 
8.36208e-06 3.58375e-06 2.68816e+25 -7.46226 -8.61189 272.311 
1.02734e-05 3.58375e-06 2.68933e+25 -6.79717 -10.9471 272.277 
1.21847e-05 3.58375e-06 2.69055e+25 -5.13212 -11.395 272.177 
1.40961e-05 3.58375e-06 2.69203e+25 -2.54325 -9.77089 272.174 
1.60074e-05 3.58375e-06 2.68963e+25 -0.478953 -4.54481 272.236 
7.1675e-07 4.06158e-06 2.68629e+25 -5.44508 2.70962 272.125 
2.62808e-06 4.06158e-06 2.68825e+25 -5.9117 0.225154 272.015 
4.53942e-06 4.06158e-06 2.68577e+25 -7.09343 -2.66947 272.305 
6.45075e-06 4.06158e-06 2.68567e+25 -7.34768 -6.00055 272.254 
8.36208e-06 4.06158e-06 2.68705e+25 -7.31603 -8.67034 272.381 
1.02734e-05 4.06158e-06 2.68748e+25 -6.68962 -11.2192 272.486 
1.21847e-05 4.06158e-06 2.69078e+25 -5.24348 -11.9249 272.101 
1.40961e-05 4.06158e-06 2.69141e+25 -2.5748 -10.3957 272.117 
1.60074e-05 4.06158e-06 2.68847e+25 -0.467167 -4.84683 272.374 
7.1675e-07 4.53942e-06 2.68679e+25 -4.85693 2.88817 272.171 
2.62808e-06 4.53942e-06 2.68815e+25 -5.54614 0.432583 272.036 
4.53942e-06 4.53942e-06 2.68646e+25 -6.40669 -2.45793 272.214 
6.45075e-06 4.53942e-06 2.68592e+25 -6.87353 -5.9137 272.306 
8.36208e-06 4.53942e-06 2.6863e+25 -7.12736 -8.70138 272.297 
1.02734e-05 4.53942e-06 2.68803e+25 -6.63382 -11.4337 272.306 
1.21847e-05 4.53942e-06 2.69254e+25 -5.23759 -12.5593 272.152 
1.40961e-05 4.53942e-06 2.6911e+25 -2.74794 -11.0147 272.066 
1.60074e-05 4.53942e-06 2.68957e+25 -0.503386 -5.16092 272.196 
7.1675e-07 5.01725e-06 2.68677e+25 -4.40926 3.00609 272.205 
2.62808e-06 5.01725e-06 2.68685e+25 -4.9853 0.703442 272.07 
4.53942e-06 5.01725e-06 2.68891e+25 -5.69015 -2.25002 272.068 
6.45075e-06 5.01725e-06 2.68516e+25 -6.57551 -5.74312 272.394 
8.36208e-06 5.01725e-06 2.68853e+25 -7.06328 -8.60246 272.164 
1.02734e-05 5.01725e-06 2.68705e+25 -6.52847 -11.545 272.393 
1.21847e-05 5.01725e-06 2.68915e+25 -5.08334 -13.2305 272.249 
1.40961e-05 5.01725e-06 2.69114e+25 -2.58395 -11.7219 272.169 
1.60074e-05 5.01725e-06 2.68899e+25 -0.520938 -5.47737 272.416 
7.1675e-07 5.49508e-06 2.68617e+25 -3.96662 3.05229 272.191 
2.62808e-06 5.49508e-06 2.68918e+25 -4.52084 0.741021 271.982 
4.53942e-06 5.49508e-06 2.68829e+25 -5.03933 -1.99786 272.058 
6.45075e-06 5.49508e-06 2.68522e+25 -6.26107 -5.3966 272.26 
8.36208e-06 5.49508e-06 2.6852e+25 -6.81453 -8.56537 272.382 
1.02734e-05 5.49508e-06 2.68706e+25 -6.2532 -11.7425 272.376 
1.21847e-05 5.49508e-06 2.68882e+25 -4.85336 -13.7163 272.293 
1.40961e-05 5.49508e-06 2.6902e+25 -2.71837 -12.3145 272.181 
1.60074e-05 5.49508e-06 2.69008e+25 -0.470617 -5.80847 272.242 
7.1675e-07 5.97292e-06 2.68598e+25 -3.47137 3.12847 272.176 
2.62808e-06 5.97292e-06 2.6889e+25 -3.65499 0.86181 271.882 
4.53942e-06 5.97292e-06 2.68722e+25 -4.51492 -1.70802 272.085 
6.45075e-06 5.97292e-06 2.68648e+25 -5.80845 -5.19604 272.186 
8.36208e-06 5.97292e-06 2.68605e+25 -6.23911 -8.49244 272.276 
1.02734e-05 5.97292e-06 2.6859e+25 -6.08854 -11.9708 272.386 
1.21847e-05 5.97292e-06 2.68984e+25 -4.72558 -14.176 272.197 
1.40961e-05 5.97292e-06 2.69108e+25 -2.76396 -12.8757 272.247 
1.60074e-05 5.97292e-06 2.68918e+25 -0.609856 -6.19584 272.286 
7.1675e-07 6.45075e-06 2.68696e+25 -2.71929 3.0883 272.025 
2.62808e-06 6.45075e-06 2.68766e+25 -2.94192 1.02225 271.912 
4.53942e-06 6.45075e-06 2.68709e+25 -3.72176 -1.5368 272.066 
6.45075e-06 6.45075e-06 2.68611e+25 -5.08235 -5.01618 272.118 
8.36208e-06 6.45075e-06 2.68818e+25 -5.80278 -8.37313 272.097 
1.02734e-05 6.45075e-06 2.68802e+25 -5.87722 -12.1527 272.295 
1.21847e-05 6.45075e-06 2.6899e+25 -4.98724 -14.655 272.204 
1.40961e-05 6.45075e-06 2.69103e+25 -2.60313 -13.5079 272.268 
1.60074e-05 6.45075e-06 2.69212e+25 -0.636766 -6.59056 272.065 
7.1675e-07 6.92858e-06 2.68867e+25 -2.1771 3.04799 271.908 
2.62808e-06 6.92858e-06 2.68562e+25 -2.19864 1.18595 272.031 
4.53942e-06 6.92858e-06 2.68498e+25 -3.2846 -1.4125 272.278 
6.45075e-06 6.92858e-06 2.68522e+25 -4.22185 -4.70493 272.183 
8.36208e-06 6.92858e-06 2.6869e+25 -5.21647 -8.20427 272.214 
1.02734e-05 6.92858e-06 2.68515e+25 -5.3966 -12.2273 272.455 
1.21847e-05 6.92858e-06 2.68777e+25 -5.11066 -14.9741 272.289 
1.40961e-05 6.92858e-06 2.69163e+25 -2.92653 -14.215 272.235 
1.60074e-05 6.92858e-06 2.69263e+25 -0.630465 -6.94356 272.12 
7.1675e-07 7.40642e-06 2.68798e+25 -1.55955 2.94424 271.918 
2.62808e-06 7.40642e-06 2.68592e+25 -1.6114 1.47034 272.071 
4.53942e-06 7.40642e-06 2.68379e+25 -2.35005 -1.17758 272.347 
6.45075e-06 7.40642e-06 2.68407e+25 -3.21377 -4.34634 272.28 
8.36208e-06 7.40642e-06 2.6886e+25 -4.30065 -8.00858 272.085 
1.02734e-05 7.40642e-06 2.68698e+25 -5.05999 -12.2109 272.4 
1.21847e-05 7.40642e-06 2.68881e+25 -5.01081 -15.1321 272.421 
1.40961e-05 7.40642e-06 2.69149e+25 -3.16005 -14.886 272.201 
1.60074e-05 7.40642e-06 2.6919e+25 -0.708825 -7.40416 272.194 
7.1675e-07 7.88425e-06 2.68655e+25 -0.918395 2.83159 272.034 
2.62808e-06 7.88425e-06 2.68384e+25 -0.915665 1.66026 272.191 
4.53942e-06 7.88425e-06 2.68154e+25 -1.41851 -1.0442 272.538 
6.45075e-06 7.88425e-06 2.68292e+25 -2.17848 -4.08439 272.374 
8.36208e-06 7.88425e-06 2.68867e+25 -3.38688 -7.8084 271.939 
1.02734e-05 7.88425e-06 2.68834e+25 -4.61321 -12.0683 272.372 
1.21847e-05 7.88425e-06 2.68782e+25 -4.75425 -15.1648 272.478 
1.40961e-05 7.88425e-06 2.69313e+25 -3.19278 -15.3163 272.107 
1.60074e-05 7.88425e-06 2.69322e+25 -0.725825 -7.8967 272.209 
7.1675e-07 8.36208e-06 2.68681e+25 -0.0384438 2.74505 271.903 
2.62808e-06 8.36208e-06 2.68358e+25 -0.111914 1.60516 272.16 
4.53942e-06 8.36208e-06 2.68255e+25 -0.479948 -0.79964 272.514 
6.45075e-06 8.36208e-06 2.68629e+25 -1.1869 -3.79669 272.211 
8.36208e-06 8.36208e-06 2.68772e+25 -2.51482 -7.67098 272.068 
1.02734e-05 8.36208e-06 2.68662e+25 -4.00487 -11.8273 272.302 
1.21847e-05 8.36208e-06 2.68977e+25 -4.49898 -15.3463 272.276 
1.40961e-05 8.36208e-06 2.69249e+25 -3.29993 -15.9259 272.32 
1.60074e-05 8.36208e-06 2.69031e+25 -0.800913 -8.41617 272.34 
7.1675e-07 8.83992e-06 2.68736e+25 0.948585 2.90467 271.905 
2.62808e-06 8.83992e-06 2.68662e+25 0.782284 1.56993 272.103 
4.53942e-06 8.83992e-06 2.68615e+25 0.680549 -0.593628 272.145 
6.45075e-06 8.83992e-06 2.68483e+25 -0.0630612 -3.50296 272.195 
8.36208e-06 8.83992e-06 2.68761e+25 -1.56662 -7.39358 272.09 
1.02734e-05 8.83992e-06 2.68702e+25 -3.23335 -11.3758 272.327 
1.21847e-05 8.83992e-06 2.69004e+25 -4.31084 -15.4039 272.264 
1.40961e-05 8.83992e-06 2.6898e+25 -3.45801 -16.4741 272.468 
1.60074e-05 8.83992e-06 2.69014e+25 -0.884019 -9.01882 272.517 
7.1675e-07 9.31775e-06 2.68988e+25 1.77533 3.06881 271.761 
2.62808e-06 9.31775e-06 2.68526e+25 1.59422 1.50969 272.068 
4.53942e-06 9.31775e-06 2.68425e+25 1.86233 -0.4913 272.241 
6.45075e-06 9.31775e-06 2.68415e+25 0.903713 -3.13283 272.335 
8.36208e-06 9.31775e-06 2.68637e+25 -0.570382 -6.85194 272.209 
1.02734e-05 9.31775e-06 2.68857e+25 -2.16315 -10.9472 272.267 
1.21847e-05 9.31775e-06 2.68893e+25 -3.79262 -15.316 272.376 
1.40961e-05 9.31775e-06 2.68991e+25 -3.42769 -16.9901 272.621 
1.60074e-05 9.31775e-06 2.69186e+25 -0.952116 -9.7069 272.413 
7.1675e-07 9.79558e-06 2.68884e+25 2.64084 3.09839 271.927 
2.62808e-06 9.79558e-06 2.68671e+25 2.85019 1.41981 272.022 
4.53942e-06 9.79558e-06 2.68595e+25 2.85407 -0.471507 272.145 
6.45075e-06 9.79558e-06 2.68267e+25 2.05772 -2.87864 272.402 
8.36208e-06 9.79558e-06 2.68694e+25 0.752446 -6.36358 272.186 
1.02734e-05 9.79558e-06 2.68651e+25 -1.2646 -10.4198 272.356 
1.21847e-05 9.79558e-06 2.68926e+25 -3.37365 -15.1147 272.392 
1.40961e-05 9.79558e-06 2.69059e+25 -3.25654 -17.4237 272.557 
1.60074e-05 9.79558e-06 2.69398e+25 -0.848684 -10.3101 272.227 
7.1675e-07 1.02734e-05 2.68712e+25 3.49484 2.86173 271.952 
2.62808e-06 1.02734e-05 2.68538e+25 4.05113 1.44675 272.074 
4.53942e-06 1.02734e-05 2.68491e+25 3.90989 -0.455817 272.3 
6.45075e-06 1.02734e-05 2.68318e+25 3.26202 -2.63919 272.423 
8.36208e-06 1.02734e-05 2.68649e+25 2.0004 -5.84191 272.199 
1.02734e-05 1.02734e-05 2.68708e+25 -0.245765 -9.83755 272.378 
1.21847e-05 1.02734e-05 2.69018e+25 -2.53813 -14.7181 272.428 
1.40961e-05 1.02734e-05 2.69442e+25 -3.0237 -17.7631 272.423 
1.60074e-05 1.02734e-05 2.69452e+25 -0.737637 -10.8549 272.351 
7.1675e-07 1.07512e-05 2.68813e+25 4.57904 2.55717 271.985 
2.62808e-06 1.07512e-05 2.68474e+25 5.32506 1.4235 272.076 
4.53942e-06 1.07512e-05 2.68395e+25 5.27863 -0.412472 272.203 
6.45075e-06 1.07512e-05 2.68427e+25 4.7829 -2.48284 272.399 
8.36208e-06 1.07512e-05 2.68717e+25 3.29241 -5.38699 272.278 
1.02734e-05 1.07512e-05 2.68791e+25 0.752621 -9.14066 272.478 
1.21847e-05 1.07512e-05 2.69058e+25 -1.76927 -14.2194 272.469 
1.40961e-05 1.07512e-05 2.69265e+25 -2.81288 -18.0325 272.393 
1.60074e-05 1.07512e-05 2.69491e+25 -0.857047 -11.3468 272.451 
7.1675e-07 1.12291e-05 2.68793e+25 5.78453 2.47315 271.912 
2.62808e-06 1.12291e-05 2.68505e+25 6.58264 1.34289 272.123 
4.53942e-06 1.12291e-05 2.68565e+25 6.59764 -0.296439 272.211 
6.45075e-06 1.12291e-05 2.68351e+25 6.07953 -2.31846 272.491 
8.36208e-06 1.12291e-05 2.68497e+25 4.59765 -4.93299 272.447 
1.02734e-05 1.12291e-05 2.68836e+25 1.97202 -8.36276 272.449 
1.21847e-05 1.12291e-05 2.69066e+25 -0.760411 -13.5783 272.414 
1.40961e-05 1.12291e-05 2.69484e+25 -2.63364 -18.1483 272.392 
1.60074e-05 1.12291e-05 2.69511e+25 -0.987982 -11.8421 272.559 
7.1675e-07 1.17069e-05 2.68617e+25 7.44054 2.22874 272.07 
2.62808e-06 1.17069e-05 2.68762e+25 8.08295 1.15829 271.914 
4.53942e-06 1.17069e-05 2.68758e+25 7.92852 -0.0440031 272.123 
6.45075e-06 1.17069e-05 2.68781e+25 7.57112 -2.0906 272.189 
8.36208e-06 1.17069e-05 2.6881e+25 5.95225 -4.44078 272.301 
1.02734e-05 1.17069e-05 2.69145e+25 3.39351 -7.5653 272.143 
1.21847e-05 1.17069e-05 2.69079e+25 0.179471 -12.8223 272.432 
1.40961e-05 1.17069e-05 2.69493e+25 -2.24965 -17.9597 272.43 
1.60074e-05 1.17069e-05 2.69464e+25 -1.13483 -12.4893 272.637 
7.1675e-07 1.21847e-05 2.68862e+25 8.85931 2.03527 271.984 
2.62808e-06 1.21847e-05 2.68689e+25 9.48601 0.945395 271.921 
4.53942e-06 1.21847e-05 2.68652e+25 9.52595 0.0391498 272.088 
6.45075e-06 1.21847e-05 2.68516e+25 9.00029 -1.76962 272.161 
8.36208e-06 1.21847e-05 2.68836e+25 7.49598 -3.99464 272.225 
1.02734e-05 1.21847e-05 2.68946e+25 4.95338 -6.70376 272.304 
1.21847e-05 1.21847e-05 2.69119e+25 1.2634 -11.8566 272.424 
1.40961e-05 1.21847e-05 2.69831e+25 -1.72213 -17.5645 272.373 
1.60074e-05 1.21847e-05 2.69677e+25 -1.23833 -13.2131 272.591 
7.1675e-07 1.26626e-05 2.68469e+25 10.6039 1.93177 272.173 
2.62808e-06 1.26626e-05 2.68653e+25 11.1278 0.828372 272.012 
4.53942e-06 1.26626e-05 2.68769e+25 11.4219 0.0564381 272.085 
6.45075e-06 1.26626e-05 2.68596e+25 10.853 -1.47666 272.142 
8.36208e-06 1.26626e-05 2.68871e+25 9.39795 -3.64193 272.203 
1.02734e-05 1.26626e-05 2.69118e+25 6.75548 -5.99641 272.222 
1.21847e-05 1.26626e-05 2.69136e+25 2.90731 -10.8058 272.519 
1.40961e-05 1.26626e-05 2.69761e+25 -1.36298 -16.9253 272.515 
1.60074e-05 1.26626e-05 2.69903e+25 -1.31855 -13.9046 272.707 
7.1675e-07 1.31404e-05 2.68534e+25 12.3038 1.73763 272.198 
2.62808e-06 1.31404e-05 2.68764e+25 12.7363 0.677003 272.013 
4.53942e-06 1.31404e-05 2.68751e+25 13.3051 0.039505 272.117 
6.45075e-06 1.31404e-05 2.68442e+25 12.8397 -1.21521 272.418 
8.36208e-06 1.31404e-05 2.68845e+25 11.2323 -3.25605 272.275 
1.02734e-05 1.31404e-05 2.69292e+25 8.77893 -5.15978 272.09 
1.21847e-05 1.31404e-05 2.69363e+25 4.66086 -9.60679 272.559 
1.40961e-05 1.31404e-05 2.70009e+25 -0.637446 -15.9113 272.45 
1.60074e-05 1.31404e-05 2.69932e+25 -1.44217 -14.6135 272.805 
7.1675e-07 1.36182e-05 2.68373e+25 14.2445 1.45779 272.4 
2.62808e-06 1.36182e-05 2.68656e+25 14.8353 0.519374 272.124 
4.53942e-06 1.36182e-05 2.68438e+25 15.3465 0.0285047 272.281 
6.45075e-06 1.36182e-05 2.68335e+25 14.7997 -1.00495 272.435 
8.36208e-06 1.36182e-05 2.68669e+25 13.4701 -2.6777 272.167 
1.02734e-05 1.36182e-05 2.69262e+25 10.7745 -4.31424 272.069 
1.21847e-05 1.36182e-05 2.69325e+25 6.42164 -8.29355 272.606 
1.40961e-05 1.36182e-05 2.70181e+25 0.127279 -14.6068 272.44 
1.60074e-05 1.36182e-05 2.70465e+25 -1.69351 -15.2383 272.617 
7.1675e-07 1.40961e-05 2.68447e+25 16.2602 1.2211 272.356 
2.62808e-06 1.40961e-05 2.68721e+25 16.9466 0.316384 272.008 
4.53942e-06 1.40961e-05 2.68618e+25 17.4475 0.00470328 272.184 
6.45075e-06 1.40961e-05 2.68431e+25 16.8079 -0.882306 272.412 
8.36208e-06 1.40961e-05 2.68775e+25 15.6207 -2.08518 272.259 
1.02734e-05 1.40961e-05 2.69332e+25 13.0979 -3.42867 272.134 
1.21847e-05 1.40961e-05 2.69319e+25 8.55765 -6.94199 272.744 
1.40961e-05 1.40961e-05 2.69882e+25 1.53065 -12.9743 272.64 
1.60074e-05 1.40961e-05 2.70721e+25 -1.70222 -15.7609 272.611 
7.1675e-07 1.45739e-05 2.68322e+25 18.6628 0.887943 272.477 
2.62808e-06 1.45739e-05 2.68758e+25 19.3096 0.229954 272.055 
4.53942e-06 1.45739e-05 2.68814e+25 19.6282 -0.123196 272.055 
6.45075e-06 1.45739e-05 2.68438e+25 19.0129 -0.77784 272.483 
8.36208e-06 1.45739e-05 2.68748e+25 18.0083 -1.61221 272.349 
1.02734e-05 1.45739e-05 2.68939e+25 15.6698 -2.68853 272.493 
1.21847e-05 1.45739e-05 2.69157e+25 11.2418 -5.54499 272.827 
1.40961e-05 1.45739e-05 2.70175e+25 3.63985 -10.9131 272.676 
1.60074e-05 1.45739e-05 2.71259e+25 -1.64528 -16.1664 272.625 
7.1675e-07 1.50518e-05 2.68442e+25 21.1757 0.550001 272.464 
2.62808e-06 1.50518e-05 2.68498e+25 21.9743 0.194776 272.179 
4.53942e-06 1.50518e-05 2.6868e+25 22.0832 -0.0316679 272.111 
6.45075e-06 1.50518e-05 2.68703e+25 21.651 -0.644303 272.285 
8.36208e-06 1.50518e-05 2.68874e+25 20.6533 -1.0904 272.357 
1.02734e-05 1.50518e-05 2.68923e+25 18.4917 -2.01119 272.533 
1.21847e-05 1.50518e-05 2.69272e+25 14.3278 -4.13237 272.715 
1.40961e-05 1.50518e-05 2.7022e+25 6.52126 -8.52543 272.845 
1.60074e-05 1.50518e-05 2.71822e+25 -1.57314 -16.0026 272.6 
7.1675e-07 1.55296e-05 2.68428e+25 24.1185 0.29281 272.434 
2.62808e-06 1.55296e-05 2.68257e+25 24.7482 0.118648 272.505 
4.53942e-06 1.55296e-05 2.68795e+25 24.6513 0.0478492 272.122 
6.45075e-06 1.55296e-05 2.68692e+25 24.592 -0.473144 272.276 
8.36208e-06 1.55296e-05 2.6876e+25 23.646 -0.634069 272.354 
1.02734e-05 1.55296e-05 2.68697e+25 21.4633 -1.27376 272.666 
1.21847e-05 1.55296e-05 2.69196e+25 17.9009 -2.82372 272.791 
1.40961e-05 1.55296e-05 2.7011e+25 10.4665 -6.11381 272.974 
1.60074e-05 1.55296e-05 2.7212e+25 -0.671716 -14.9375 272.907 
7.1675e-07 1.60074e-05 2.68308e+25 26.8787 0.0755184 272.533 
2.62808e-06 1.60074e-05 2.68341e+25 27.4477 0.0253371 272.494 
4.53942e-06 1.60074e-05 2.68553e+25 27.4751 0.0446908 272.203 
6.45075e-06 1.60074e-05 2.68698e+25 27.4957 -0.116951 272.467 
8.36208e-06 1.60074e-05 2.68772e+25 26.5526 -0.352308 272.395 
1.02734e-05 1.60074e-05 2.68777e+25 24.9773 -0.718251 272.613 
1.21847e-05 1.60074e-05 2.69493e+25 21.9273 -1.66197 272.694 
1.40961e-05 1.60074e-05 2.70177e+25 15.5912 -3.76004 273.054 
1.60074e-05 1.60074e-05 2.72601e+25 1.61087 -12.461 273.164 
7.1675e-07 1.64852e-05 2.6814e+25 29.9778 -0.0072133 272.728 
2.62808e-06 1.64852e-05 2.68263e+25 30.4936 -0.0446841 272.601 
4.53942e-06 1.64852e-05 2.68473e+25 30.4704 0.0649318 272.38 
6.45075e-06 1.64852e-05 2.68514e+25 30.2693 0.0454916 272.575 
8.36208e-06 1.64852e-05 2.6865e+25 29.5591 -0.128506 272.537 
1.02734e-05 1.64852e-05 2.6875e+25 28.6745 -0.385008 272.779 
1.21847e-05 1.64852e-05 2.69335e+25 26.4628 -0.610138 272.718 
1.40961e-05 1.64852e-05 2.70095e+25 22.099 -1.65723 273.184 
1.60074e-05 1.64852e-05 2.72984e+25 7.63106 -7.95996 273.583 
7.1675e-07 1.69631e-05 2.68045e+25 32.9265 0.0186081 272.839 
2.62808e-06 1.69631e-05 2.68083e+25 33.0572 -0.00539592 272.704 
4.53942e-06 1.69631e-05 2.68191e+25 33.0202 0.00893314 272.694 
6.45075e-06 1.69631e-05 2.68406e+25 32.8932 0.00597462 272.843 
8.36208e-06 1.69631e-05 2.68396e+25 32.6376 -0.00958985 272.832 
1.02734e-05 1.69631e-05 2.68596e+25 32.1342 -0.129239 272.958 
1.21847e-05 1.69631e-05 2.69374e+25 31.3142 -0.0948935 272.847 
1.40961e-05 1.69631e-05 2.69801e+25 29.4568 -0.306888 273.291 
1.60074e-05 1.69631e-05 2.73347e+25 20.0836 -2.36808 273.65 
1.19458e-06 2.38917e-07 2.68954e+25 -7.89619 0.544979 271.827 
3.10592e-06 2.38917e-07 2.68669e+25 -8.23223 -1.7131 272.158 
5.01725e-06 2.38917e-07 2.68749e+25 -7.69165 -3.46862 272.164 
6.92858e-06 2.38917e-07 2.68879e+25 -7.32306 -5.72092 272.03 
8.83992e-06 2.38917e-07 2.68739e+25 -6.49655 -7.74973 272.271 
1.07512e-05 2.38917e-07 2.68861e+25 -4.99952 -8.30333 272.021 
1.26626e-05 2.38917e-07 2.68825e+25 -3.2374 -7.63059 272.179 
1.45739e-05 2.38917e-07 2.69033e+25 -1.1859 -5.13909 271.983 
1.64852e-05 2.38917e-07 2.68512e+25 -0.154181 -1.46939 272.414 
1.19458e-06 7.1675e-07 2.68994e+25 -7.7291 0.797167 272.006 
3.10592e-06 7.1675e-07 2.68844e+25 -8.07001 -1.61346 272.134 
5.01725e-06 7.1675e-07 2.68915e+25 -7.90154 -3.58026 272.128 
6.92858e-06 7.1675e-07 2.68998e+25 -7.33865 -5.75271 272.143 
8.83992e-06 7.1675e-07 2.69097e+25 -6.82906 -8.15784 272.26 
1.07512e-05 7.1675e-07 2.69293e+25 -5.36164 -8.70551 272.055 
1.26626e-05 7.1675e-07 2.69033e+25 -3.41307 -8.09364 272.202 
1.45739e-05 7.1675e-07 2.69087e+25 -1.36742 -5.59505 272.114 
1.64852e-05 7.1675e-07 2.68568e+25 -0.128653 -1.52243 272.613 
1.19458e-06 1.19458e-06 2.68872e+25 -7.44179 1.08728 272.058 
3.10592e-06 1.19458e-06 2.6893e+25 -8.12016 -1.51642 272.026 
5.01725e-06 1.19458e-06 2.68972e+25 -8.15705 -3.71067 272.119 
6.92858e-06 1.19458e-06 2.69049e+25 -7.4771 -5.75331 272.031 
8.83992e-06 1.19458e-06 2.68945e+25 -6.81604 -8.36229 272.214 
1.07512e-05 1.19458e-06 2.69159e+25 -5.53796 -9.11477 272.101 
1.26626e-05 1.19458e-06 2.68971e+25 -3.37183 -8.67093 272.311 
1.45739e-05 1.19458e-06 2.68993e+25 -1.39627 -6.13626 272.19 
1.64852e-05 1.19458e-06 2.68464e+25 -0.218198 -1.64018 272.701 
1.19458e-06 1.67242e-06 2.68885e+25 -7.26273 1.32545 271.985 
3.10592e-06 1.67242e-06 2.69132e+25 -8.02452 -1.35899 271.909 
5.01725e-06 1.67242e-06 2.69002e+25 -8.25452 -3.74614 272.035 
6.92858e-06 1.67242e-06 2.68687e+25 -7.72429 -5.92096 272.331 
8.83992e-06 1.67242e-06 2.68754e+25 -6.8165 -8.63388 272.291 
1.07512e-05 1.67242e-06 2.68881e+25 -5.73253 -9.53654 272.185 
1.26626e-05 1.67242e-06 2.69164e+25 -3.4937 -9.22279 272.208 
1.45739e-05 1.67242e-06 2.68801e+25 -1.64557 -6.58918 272.251 
1.64852e-05 1.67242e-06 2.6851e+25 -0.172308 -1.91768 272.723 
1.19458e-06 2.15025e-06 2.68945e+25 -7.02402 1.51857 272.123 
3.10592e-06 2.15025e-06 2.68918e+25 -7.95991 -1.20282 271.98 
5.01725e-06 2.15025e-06 2.69089e+25 -8.19939 -3.7764 271.916 
6.92858e-06 2.15025e-06 2.68647e+25 -7.72311 -6.18475 272.414 
8.83992e-06 2.15025e-06 2.68886e+25 -6.90351 -8.74211 272.433 
1.07512e-05 2.15025e-06 2.68867e+25 -5.89785 -9.97392 272.22 
1.26626e-05 2.15025e-06 2.69031e+25 -3.84976 -9.76387 272.119 
1.45739e-05 2.15025e-06 2.69007e+25 -1.73074 -7.10568 272.114 
1.64852e-05 2.15025e-06 2.68448e+25 -0.151907 -2.07467 272.708 
1.19458e-06 2.62808e-06 2.68995e+25 -6.84095 1.69699 271.876 
3.10592e-06 2.62808e-06 2.68938e+25 -7.73557 -1.04806 271.972 
5.01725e-06 2.62808e-06 2.68958e+25 -7.99242 -3.79717 272.069 
6.92858e-06 2.62808e-06 2.68656e+25 -7.80645 -6.35523 272.185 
8.83992e-06 2.62808e-06 2.68807e+25 -7.08044 -8.92396 272.331 
1.07512e-05 2.62808e-06 2.68935e+25 -6.07644 -10.4356 272.232 
1.26626e-05 2.62808e-06 2.69018e+25 -4.13416 -10.3408 272.163 
1.45739e-05 2.62808e-06 2.69086e+25 -1.80563 -7.60031 272.188 
1.64852e-05 2.62808e-06 2.68578e+25 -0.0959017 -2.26995 272.522 
1.19458e-06 3.10592e-06 2.68871e+25 -6.48302 1.82578 271.914 
3.10592e-06 3.10592e-06 2.68689e+25 -7.3213 -1.01615 272.11 
5.01725e-06 3.10592e-06 2.68844e+25 -7.95286 -3.69761 272.02 
6.92858e-06 3.10592e-06 2.68861e+25 -7.82043 -6.49462 272.082 
8.83992e-06 3.10592e-06 2.68835e+25 -7.22004 -9.09429 272.278 
1.07512e-05 3.10592e-06 2.68947e+25 -6.33834 -10.7992 272.258 
1.26626e-05 3.10592e-06 2.69279e+25 -4.34759 -10.7527 272.037 
1.45739e-05 3.10592e-06 2.69041e+25 -1.83958 -8.17648 272.071 
1.64852e-05 3.10592e-06 2.68845e+25 -0.0642361 -2.48738 272.454 
1.19458e-06 3.58375e-06 2.6883e+25 -6.07748 1.92761 271.983 
3.10592e-06 3.58375e-06 2.68834e+25 -6.6739 -0.735928 271.994 
5.01725e-06 3.58375e-06 2.68722e+25 -7.70927 -3.56215 272.164 
6.92858e-06 3.58375e-06 2.68757e+25 -7.64468 -6.58083 272.148 
8.83992e-06 3.58375e-06 2.687e+25 -7.44078 -9.23179 272.439 
1.07512e-05 3.58375e-06 2.68874e+25 -6.44256 -11.2017 272.241 
1.26626e-05 3.58375e-06 2.6907e+25 -4.62341 -11.2824 272.217 
1.45739e-05 3.58375e-06 2.69159e+25 -1.95052 -8.75164 272.053 
1.64852e-05 3.58375e-06 2.68741e+25 -0.158677 -2.67271 272.629 
1.19458e-06 4.06158e-06 2.68714e+25 -5.57347 1.93845 272.057 
3.10592e-06 4.06158e-06 2.68823e+25 -6.16858 -0.356021 272.012 
5.01725e-06 4.06158e-06 2.68678e+25 -7.25101 -3.50137 272.249 
6.92858e-06 4.06158e-06 2.68627e+25 -7.39956 -6.64364 272.192 
8.83992e-06 4.06158e-06 2.68816e+25 -7.29744 -9.1985 272.35 
1.07512e-05 4.06158e-06 2.68825e+25 -6.44194 -11.5483 272.333 
1.26626e-05 4.06158e-06 2.69134e+25 -4.60751 -11.9244 272.054 
1.45739e-05 4.06158e-06 2.69202e+25 -1.99704 -9.27039 272.075 
1.64852e-05 4.06158e-06 2.68741e+25 -0.266113 -2.93942 272.658 
1.19458e-06 4.53942e-06 2.6851e+25 -5.13165 2.16749 272.217 
3.10592e-06 4.53942e-06 2.68672e+25 -5.70039 -0.187918 272.204 
5.01725e-06 4.53942e-06 2.68393e+25 -6.55162 -3.40447 272.354 
6.92858e-06 4.53942e-06 2.68626e+25 -7.04123 -6.5029 272.315 
8.83992e-06 4.53942e-06 2.68568e+25 -7.17801 -9.17233 272.246 
1.07512e-05 4.53942e-06 2.69007e+25 -6.46204 -11.761 272.226 
1.26626e-05 4.53942e-06 2.69125e+25 -4.61833 -12.5368 272.154 
1.45739e-05 4.53942e-06 2.69095e+25 -2.00437 -9.97059 272.129 
1.64852e-05 4.53942e-06 2.68587e+25 -0.220799 -3.08762 272.584 
1.19458e-06 5.01725e-06 2.6865e+25 -4.52286 2.42638 272.088 
3.10592e-06 5.01725e-06 2.68817e+25 -5.17942 -0.113598 272.064 
5.01725e-06 5.01725e-06 2.68783e+25 -5.91441 -3.25622 272.192 
6.92858e-06 5.01725e-06 2.68534e+25 -6.82537 -6.34903 272.371 
8.83992e-06 5.01725e-06 2.68731e+25 -7.06802 -9.26205 272.372 
1.07512e-05 5.01725e-06 2.68696e+25 -6.36596 -12.0364 272.275 
1.26626e-05 5.01725e-06 2.6894e+25 -4.45073 -13.1119 272.119 
1.45739e-05 5.01725e-06 2.69038e+25 -1.9634 -10.6545 272.286 
1.64852e-05 5.01725e-06 2.68725e+25 -0.22416 -3.29206 272.581 
1.19458e-06 5.49508e-06 2.68757e+25 -4.08899 2.5941 272.113 
3.10592e-06 5.49508e-06 2.68835e+25 -4.56673 0.0995602 271.978 
5.01725e-06 5.49508e-06 2.68681e+25 -5.39832 -2.93252 272.27 
6.92858e-06 5.49508e-06 2.68629e+25 -6.42431 -6.23936 272.319 
8.83992e-06 5.49508e-06 2.68534e+25 -6.84009 -9.2946 272.378 
1.07512e-05 5.49508e-06 2.68811e+25 -6.02546 -12.262 272.264 
1.26626e-05 5.49508e-06 2.69086e+25 -4.42061 -13.6641 272.188 
1.45739e-05 5.49508e-06 2.69097e+25 -2.10246 -11.284 272.238 
1.64852e-05 5.49508e-06 2.68789e+25 -0.200703 -3.51405 272.441 
1.19458e-06 5.97292e-06 2.68552e+25 -3.44764 2.56788 272.172 
3.10592e-06 5.97292e-06 2.68847e+25 -3.87457 0.212428 271.917 
5.01725e-06 5.97292e-06 2.68658e+25 -4.75031 -2.59916 272.079 
6.92858e-06 5.97292e-06 2.68738e+25 -5.96684 -6.10677 272.245 
8.83992e-06 5.97292e-06 2.68894e+25 -6.31063 -9.24576 272.092 
1.07512e-05 5.97292e-06 2.68843e+25 -5.81588 -12.4951 272.266 
1.26626e-05 5.97292e-06 2.68916e+25 -4.21455 -14.1118 272.206 
1.45739e-05 5.97292e-06 2.69218e+25 -2.21781 -11.8178 272.137 
1.64852e-05 5.97292e-06 2.68743e+25 -0.242708 -3.81693 272.443 
1.19458e-06 6.45075e-06 2.68734e+25 -2.77358 2.63313 272.023 
3.10592e-06 6.45075e-06 2.68634e+25 -3.14991 0.485826 272.11 
5.01725e-06 6.45075e-06 2.68608e+25 -3.98397 -2.30616 272.119 
6.92858e-06 6.45075e-06 2.68601e+25 -5.3239 -5.85452 272.132 
8.83992e-06 6.45075e-06 2.68897e+25 -5.8931 -9.21391 272.016 
1.07512e-05 6.45075e-06 2.68789e+25 -5.71355 -12.7448 272.295 
1.26626e-05 6.45075e-06 2.69128e+25 -4.59416 -14.5786 272.107 
1.45739e-05 6.45075e-06 2.69187e+25 -2.05716 -12.3224 272.161 
1.64852e-05 6.45075e-06 2.68789e+25 -0.272137 -4.18238 272.575 
1.19458e-06 6.92858e-06 2.6875e+25 -2.15464 2.69268 272.085 
3.10592e-06 6.92858e-06 2.68532e+25 -2.48527 0.73195 272.092 
5.01725e-06 6.92858e-06 2.68469e+25 -3.44465 -2.08474 272.331 
6.92858e-06 6.92858e-06 2.68633e+25 -4.51874 -5.64074 272.214 
8.83992e-06 6.92858e-06 2.68799e+25 -5.29676 -9.23099 272.164 
1.07512e-05 6.92858e-06 2.68742e+25 -5.32787 -12.8964 272.242 
1.26626e-05 6.92858e-06 2.69162e+25 -4.70154 -15.0776 272.148 
1.45739e-05 6.92858e-06 2.69024e+25 -2.20861 -12.8799 272.317 
1.64852e-05 6.92858e-06 2.68838e+25 -0.235379 -4.50173 272.454 
1.19458e-06 7.40642e-06 2.68897e+25 -1.41908 2.65096 271.902 
3.10592e-06 7.40642e-06 2.68522e+25 -1.84825 0.998331 272.081 
5.01725e-06 7.40642e-06 2.68487e+25 -2.51357 -1.95095 272.279 
6.92858e-06 7.40642e-06 2.68667e+25 -3.54284 -5.2919 272.276 
8.83992e-06 7.40642e-06 2.68723e+25 -4.49483 -9.10489 272.251 
1.07512e-05 7.40642e-06 2.68859e+25 -5.11425 -12.941 272.424 
1.26626e-05 7.40642e-06 2.69015e+25 -4.75923 -15.5787 272.274 
1.45739e-05 7.40642e-06 2.69016e+25 -2.60807 -13.5058 272.295 
1.64852e-05 7.40642e-06 2.68788e+25 -0.40593 -4.70224 272.523 
1.19458e-06 7.88425e-06 2.68741e+25 -0.785781 2.45803 272.02 
3.10592e-06 7.88425e-06 2.68483e+25 -0.942435 1.10653 272.206 
5.01725e-06 7.88425e-06 2.68456e+25 -1.6359 -1.74066 272.246 
6.92858e-06 7.88425e-06 2.68259e+25 -2.44032 -4.97801 272.443 
8.83992e-06 7.88425e-06 2.68894e+25 -3.56833 -8.92189 272.06 
1.07512e-05 7.88425e-06 2.68858e+25 -4.76432 -12.8418 272.28 
1.26626e-05 7.88425e-06 2.68824e+25 -4.52364 -16.0863 272.46 
1.45739e-05 7.88425e-06 2.69201e+25 -2.4976 -14.272 272.202 
1.64852e-05 7.88425e-06 2.68952e+25 -0.291129 -5.006 272.461 
1.19458e-06 8.36208e-06 2.68925e+25 -0.0203539 2.41981 271.775 
3.10592e-06 8.36208e-06 2.68631e+25 -0.110252 1.13307 272.158 
5.01725e-06 8.36208e-06 2.68396e+25 -0.584253 -1.55666 272.391 
6.92858e-06 8.36208e-06 2.68478e+25 -1.49256 -4.6572 272.306 
8.83992e-06 8.36208e-06 2.68661e+25 -2.74573 -8.58583 272.152 
1.07512e-05 8.36208e-06 2.6889e+25 -4.3393 -12.663 272.193 
1.26626e-05 8.36208e-06 2.68841e+25 -4.39596 -16.2679 272.415 
1.45739e-05 8.36208e-06 2.69155e+25 -2.69681 -15.0082 272.3 
1.64852e-05 8.36208e-06 2.68584e+25 -0.225008 -5.43514 272.738 
1.19458e-06 8.83992e-06 2.68864e+25 0.770051 2.51339 271.794 
3.10592e-06 8.83992e-06 2.68539e+25 0.826895 1.12852 272.117 
5.01725e-06 8.83992e-06 2.6856e+25 0.473564 -1.36849 272.236 
6.92858e-06 8.83992e-06 2.68433e+25 -0.446779 -4.30956 272.335 
8.83992e-06 8.83992e-06 2.68868e+25 -2.04415 -8.16847 272.104 
1.07512e-05 8.83992e-06 2.68838e+25 -3.60128 -12.4068 272.316 
1.26626e-05 8.83992e-06 2.68994e+25 -4.31382 -16.3029 272.298 
1.45739e-05 8.83992e-06 2.691e+25 -2.79501 -15.7188 272.433 
1.64852e-05 8.83992e-06 2.68954e+25 -0.324104 -5.87247 272.527 
1.19458e-06 9.31775e-06 2.68879e+25 1.615 2.58525 271.875 
3.10592e-06 9.31775e-06 2.68487e+25 1.665 1.09851 272.152 
5.01725e-06 9.31775e-06 2.68673e+25 1.71422 -1.15204 272.152 
6.92858e-06 9.31775e-06 2.68375e+25 0.539278 -3.95714 272.382 
8.83992e-06 9.31775e-06 2.68642e+25 -1.07685 -7.76375 272.123 
1.07512e-05 9.31775e-06 2.68949e+25 -2.68615 -11.9367 272.312 
1.26626e-05 9.31775e-06 2.69138e+25 -3.8872 -16.2884 272.314 
1.45739e-05 9.31775e-06 2.69024e+25 -2.86813 -16.3516 272.51 
1.64852e-05 9.31775e-06 2.68838e+25 -0.461834 -6.28317 272.686 
1.19458e-06 9.79558e-06 2.68837e+25 2.71546 2.646 271.855 
3.10592e-06 9.79558e-06 2.68492e+25 2.87171 1.08619 272.15 
5.01725e-06 9.79558e-06 2.6864e+25 2.70172 -0.917995 272.125 
6.92858e-06 9.79558e-06 2.68494e+25 1.8223 -3.70158 272.2 
8.83992e-06 9.79558e-06 2.68772e+25 0.2427 -7.24415 272.215 
1.07512e-05 9.79558e-06 2.69092e+25 -1.8291 -11.458 272.193 
1.26626e-05 9.79558e-06 2.68961e+25 -3.63975 -16.1849 272.447 
1.45739e-05 9.79558e-06 2.69031e+25 -2.90648 -16.8976 272.579 
1.64852e-05 9.79558e-06 2.69124e+25 -0.361894 -6.61827 272.494 
1.19458e-06 1.02734e-05 2.68644e+25 3.782 2.5088 271.993 
3.10592e-06 1.02734e-05 2.68537e+25 4.03225 1.14944 272.089 
5.01725e-06 1.02734e-05 2.68443e+25 3.99521 -0.838731 272.223 
6.92858e-06 1.02734e-05 2.68609e+25 3.12834 -3.53685 272.252 
8.83992e-06 1.02734e-05 2.68494e+25 1.5291 -6.76452 272.317 
1.07512e-05 1.02734e-05 2.68829e+25 -0.847291 -10.8233 272.314 
1.26626e-05 1.02734e-05 2.69045e+25 -2.91371 -15.9353 272.463 
1.45739e-05 1.02734e-05 2.69226e+25 -2.62063 -17.2866 272.508 
1.64852e-05 1.02734e-05 2.69215e+25 -0.341466 -6.9622 272.683 
1.19458e-06 1.07512e-05 2.68835e+25 4.86358 2.29962 271.894 
3.10592e-06 1.07512e-05 2.68597e+25 5.30597 1.11641 272.035 
5.01725e-06 1.07512e-05 2.68503e+25 5.14451 -0.781892 272.144 
6.92858e-06 1.07512e-05 2.68629e+25 4.48333 -3.22472 272.227 
8.83992e-06 1.07512e-05 2.68526e+25 2.73325 -6.18517 272.338 
1.07512e-05 1.07512e-05 2.688e+25 -0.00742396 -10.2129 272.418 
1.26626e-05 1.07512e-05 2.68879e+25 -2.22682 -15.6064 272.514 
1.45739e-05 1.07512e-05 2.69477e+25 -2.48238 -17.7606 272.354 
1.64852e-05 1.07512e-05 2.69208e+25 -0.350277 -7.3493 272.59 
1.19458e-06 1.12291e-05 2.68697e+25 6.03548 1.95517 271.989 
3.10592e-06 1.12291e-05 2.68717e+25 6.77674 0.980833 271.94 
5.01725e-06 1.12291e-05 2.68428e+25 6.41023 -0.634916 272.255 
6.92858e-06 1.12291e-05 2.68486e+25 5.85279 -2.92418 272.373 
8.83992e-06 1.12291e-05 2.68342e+25 4.14546 -5.64117 272.608 
1.07512e-05 1.12291e-05 2.68883e+25 1.23945 -9.49526 272.473 
1.26626e-05 1.12291e-05 2.69099e+25 -1.41802 -15.1182 272.539 
1.45739e-05 1.12291e-05 2.69514e+25 -2.50367 -18.0937 272.422 
1.64852e-05 1.12291e-05 2.69475e+25 -0.409854 -7.84668 272.642 
1.19458e-06 1.17069e-05 2.68743e+25 7.52857 1.80464 271.958 
3.10592e-06 1.17069e-05 2.68705e+25 8.21422 0.882135 271.974 
5.01725e-06 1.17069e-05 2.68738e+25 7.86275 -0.563356 272.175 
6.92858e-06 1.17069e-05 2.6875e+25 7.2389 -2.58323 272.171 
8.83992e-06 1.17069e-05 2.6857e+25 5.45002 -5.09509 272.492 
1.07512e-05 1.17069e-05 2.69008e+25 2.46452 -8.61717 272.284 
1.26626e-05 1.17069e-05 2.6907e+25 -0.699919 -14.3263 272.517 
1.45739e-05 1.17069e-05 2.69558e+25 -2.39614 -18.2916 272.446 
1.64852e-05 1.17069e-05 2.69421e+25 -0.55839 -8.33643 272.824 
1.19458e-06 1.21847e-05 2.68755e+25 9.00486 1.78213 272.008 
3.10592e-06 1.21847e-05 2.68603e+25 9.64584 0.733207 271.992 
5.01725e-06 1.21847e-05 2.68504e+25 9.47011 -0.519033 272.265 
6.92858e-06 1.21847e-05 2.68764e+25 8.64959 -2.25437 272.157 
8.83992e-06 1.21847e-05 2.68586e+25 7.06175 -4.59341 272.412 
1.07512e-05 1.21847e-05 2.69118e+25 4.15314 -7.72218 272.29 
1.26626e-05 1.21847e-05 2.69032e+25 0.252826 -13.3974 272.546 
1.45739e-05 1.21847e-05 2.69742e+25 -2.15826 -18.1283 272.42 
1.64852e-05 1.21847e-05 2.69389e+25 -0.513728 -8.87148 272.859 
1.19458e-06 1.26626e-05 2.68789e+25 10.6839 1.67498 272.001 
3.10592e-06 1.26626e-05 2.68697e+25 11.1942 0.672202 272.116 
5.01725e-06 1.26626e-05 2.68677e+25 11.4052 -0.489972 272.143 
6.92858e-06 1.26626e-05 2.6863e+25 10.5247 -1.84171 272.26 
8.83992e-06 1.26626e-05 2.68768e+25 8.89639 -3.98363 272.3 
1.07512e-05 1.26626e-05 2.69278e+25 5.98906 -6.89385 272.223 
1.26626e-05 1.26626e-05 2.69237e+25 1.75822 -12.382 272.556 
1.45739e-05 1.26626e-05 2.6973e+25 -1.9136 -17.7675 272.547 
1.64852e-05 1.26626e-05 2.69954e+25 -0.690636 -9.46822 272.589 
1.19458e-06 1.31404e-05 2.6865e+25 12.5392 1.52514 272.115 
3.10592e-06 1.31404e-05 2.68725e+25 12.9247 0.572582 272.025 
5.01725e-06 1.31404e-05 2.68434e+25 13.2862 -0.395944 272.254 
6.92858e-06 1.31404e-05 2.68571e+25 12.5282 -1.44358 272.317 
8.83992e-06 1.31404e-05 2.68882e+25 10.7644 -3.445 272.29 
1.07512e-05 1.31404e-05 2.69409e+25 7.86707 -6.04928 272.112 
1.26626e-05 1.31404e-05 2.69233e+25 3.34602 -11.1155 272.689 
1.45739e-05 1.31404e-05 2.69966e+25 -1.62589 -17.259 272.524 
1.64852e-05 1.31404e-05 2.69988e+25 -0.659747 -10.1399 272.725 
1.19458e-06 1.36182e-05 2.68571e+25 14.4371 1.40194 272.137 
3.10592e-06 1.36182e-05 2.68665e+25 15.0283 0.3624 272.052 
5.01725e-06 1.36182e-05 2.6853e+25 15.3057 -0.302424 272.319 
6.92858e-06 1.36182e-05 2.68458e+25 14.5804 -1.12588 272.41 
8.83992e-06 1.36182e-05 2.68779e+25 12.8806 -2.92458 272.288 
1.07512e-05 1.36182e-05 2.6934e+25 9.92499 -5.20882 272.122 
1.26626e-05 1.36182e-05 2.69326e+25 4.99126 -9.63591 272.776 
1.45739e-05 1.36182e-05 2.70169e+25 -1.16297 -16.3294 272.542 
1.64852e-05 1.36182e-05 2.70184e+25 -0.98703 -10.9323 272.826 
1.19458e-06 1.40961e-05 2.68449e+25 16.5005 1.17677 272.322 
3.10592e-06 1.40961e-05 2.68928e+25 17.0532 0.278623 271.864 
5.01725e-06 1.40961e-05 2.68568e+25 17.4296 -0.153131 272.254 
6.92858e-06 1.40961e-05 2.68566e+25 16.6301 -0.911252 272.399 
8.83992e-06 1.40961e-05 2.68738e+25 15.1535 -2.4445 272.394 
1.07512e-05 1.40961e-05 2.6926e+25 12.306 -4.32569 272.252 
1.26626e-05 1.40961e-05 2.69324e+25 7.12323 -8.13774 272.743 
1.45739e-05 1.40961e-05 2.70264e+25 -0.0711951 -15.1478 272.654 
1.64852e-05 1.40961e-05 2.70905e+25 -0.962386 -11.774 272.569 
1.19458e-06 1.45739e-05 2.68183e+25 19.0145 0.900059 272.423 
3.10592e-06 1.45739e-05 2.68665e+25 19.4396 0.168074 272.015 
5.01725e-06 1.45739e-05 2.68585e+25 19.6449 -0.0716941 272.158 
6.92858e-06 1.45739e-05 2.68605e+25 18.9409 -0.811213 272.249 
8.83992e-06 1.45739e-05 2.68918e+25 17.4426 -1.90776 272.355 
1.07512e-05 1.45739e-05 2.69252e+25 14.7398 -3.35663 272.348 
1.26626e-05 1.45739e-05 2.69158e+25 9.70771 -6.59199 272.903 
1.45739e-05 1.45739e-05 2.70427e+25 1.51255 -13.4503 272.537 
1.64852e-05 1.45739e-05 2.71367e+25 -1.07731 -12.5432 272.687 
1.19458e-06 1.50518e-05 2.68258e+25 21.5263 0.654212 272.508 
3.10592e-06 1.50518e-05 2.68717e+25 22.0102 0.0528548 272.182 
5.01725e-06 1.50518e-05 2.68595e+25 21.9435 -0.0329652 272.152 
6.92858e-06 1.50518e-05 2.68707e+25 21.4986 -0.675435 272.234 
8.83992e-06 1.50518e-05 2.68742e+25 20.2164 -1.35266 272.463 
1.07512e-05 1.50518e-05 2.68903e+25 17.6011 -2.29499 272.545 
1.26626e-05 1.50518e-05 2.69382e+25 12.7535 -4.86631 272.864 
1.45739e-05 1.50518e-05 2.70791e+25 4.02837 -11.2081 272.636 
1.64852e-05 1.50518e-05 2.71989e+25 -1.42507 -13.3289 272.649 
1.19458e-06 1.55296e-05 2.68189e+25 24.3613 0.402494 272.465 
3.10592e-06 1.55296e-05 2.68441e+25 24.7891 0.0168183 272.385 
5.01725e-06 1.55296e-05 2.68701e+25 24.6992 0.028636 272.193 
6.92858e-06 1.55296e-05 2.68783e+25 24.2736 -0.439405 272.274 
8.83992e-06 1.55296e-05 2.68839e+25 23.1542 -0.904128 272.346 
1.07512e-05 1.55296e-05 2.68916e+25 20.7658 -1.42005 272.699 
1.26626e-05 1.55296e-05 2.6957e+25 16.4802 -3.19714 272.789 
1.45739e-05 1.55296e-05 2.70578e+25 7.71168 -8.38749 272.899 
1.64852e-05 1.55296e-05 2.72634e+25 -1.36648 -13.8249 272.882 
1.19458e-06 1.60074e-05 2.68138e+25 27.1197 0.172276 272.608 
3.10592e-06 1.60074e-05 2.68581e+25 27.5877 -0.0810417 272.284 
5.01725e-06 1.60074e-05 2.68523e+25 27.5134 -0.00655531 272.376 
6.92858e-06 1.60074e-05 2.68521e+25 27.318 -0.295224 272.476 
8.83992e-06 1.60074e-05 2.68901e+25 26.2149 -0.444887 272.301 
1.07512e-05 1.60074e-05 2.68864e+25 24.4827 -0.75864 272.755 
1.26626e-05 1.60074e-05 2.6951e+25 20.7141 -1.68026 272.835 
1.45739e-05 1.60074e-05 2.70562e+25 12.882 -5.26291 273.141 
1.64852e-05 1.60074e-05 2.7355e+25 -0.793223 -13.3951 273.014 
1.19458e-06 1.64852e-05 2.67871e+25 30.0536 0.0147288 272.845 
3.10592e-06 1.64852e-05 2.68358e+25 30.4393 -0.152686 272.451 
5.01725e-06 1.64852e-05 2.68362e+25 30.4781 -0.0396984 272.562 
6.92858e-06 1.64852e-05 2.68306e+25 30.1799 -0.0975476 272.662 
8.83992e-06 1.64852e-05 2.68652e+25 29.3321 -0.134712 272.524 
1.07512e-05 1.64852e-05 2.68807e+25 28.2969 -0.208414 272.889 
1.26626e-05 1.64852e-05 2.69413e+25 25.6694 -0.681203 272.918 
1.45739e-05 1.64852e-05 2.70334e+25 19.9589 -2.40064 273.337 
1.64852e-05 1.64852e-05 2.74703e+25 2.3225 -10.6377 273.478 
1.19458e-06 1.69631e-05 2.68044e+25 32.8725 -0.0422511 272.949 
3.10592e-06 1.69631e-05 2.68133e+25 32.9442 -0.0821786 272.63 
5.01725e-06 1.69631e-05 2.68127e+25 33.0581 -0.0405062 272.865 
6.92858e-06 1.69631e-05 2.68326e+25 32.9517 0.00147368 272.702 
8.83992e-06 1.69631e-05 2.68502e+25 32.5805 -0.0713322 272.799 
1.07512e-05 1.69631e-05 2.68513e+25 31.9764 0.020187 273.029 
1.26626e-05 1.69631e-05 2.6933e+25 31.0129 -0.138537 272.916 
1.45739e-05 1.69631e-05 2.70185e+25 28.389 -0.522755 273.318 
1.64852e-05 1.69631e-05 2.76688e+25 13.387 -3.65171 273.929 
