ITEM: TIMESTEP
300000
ITEM: NUMBER OF CELLS
5184
ITEM: BOX BOUNDS ss ss pp
-1.7202e-05 1.7202e-05
-1.7202e-05 1.7202e-05
-0.5 0.5
ITEM: CELLS xc yc f_1[1] f_1[2] f_1[3] f_1[4] 
-1.69631e-05 -1.69631e-05 2.68194e+25 0.0328894 -0.0398467 272.971 
-1.50517e-05 -1.69631e-05 2.6833e+25 -0.015555 0.0204554 272.852 
-1.31404e-05 -1.69631e-05 2.68317e+25 -0.0494584 0.0367717 272.851 
-1.12291e-05 -1.69631e-05 2.68524e+25 -0.174031 0.0554082 272.687 
-9.31775e-06 -1.69631e-05 2.68504e+25 -0.127181 -0.0190396 272.76 
-7.40642e-06 -1.69631e-05 2.68435e+25 -0.0554259 -0.0189723 272.818 
-5.49508e-06 -1.69631e-05 2.68317e+25 -0.246922 0.0411893 272.962 
-3.58375e-06 -1.69631e-05 2.68475e+25 -0.0668617 -0.00802473 272.993 
-1.67242e-06 -1.69631e-05 2.68362e+25 -0.164541 0.02191 272.858 
-1.69631e-05 -1.64852e-05 2.68431e+25 0.0163451 -0.0545619 272.813 
-1.50517e-05 -1.64852e-05 2.6885e+25 -0.0725607 0.00372856 272.434 
-1.31404e-05 -1.64852e-05 2.68652e+25 -0.0813208 0.0763356 272.471 
-1.12291e-05 -1.64852e-05 2.6863e+25 -0.0730084 -0.00709471 272.526 
-9.31775e-06 -1.64852e-05 2.68704e+25 -0.252421 -0.0629395 272.588 
-7.40642e-06 -1.64852e-05 2.68867e+25 -0.149546 -0.10329 272.337 
-5.49508e-06 -1.64852e-05 2.68575e+25 -0.314946 0.120885 272.471 
-3.58375e-06 -1.64852e-05 2.68668e+25 -0.225434 0.0563436 272.602 
-1.67242e-06 -1.64852e-05 2.68546e+25 -0.215781 0.0498341 272.749 
-1.69631e-05 -1.60074e-05 2.68566e+25 -0.0185935 -0.0595867 272.763 
-1.50517e-05 -1.60074e-05 2.68881e+25 -0.0392344 0.13506 272.412 
-1.31404e-05 -1.60074e-05 2.6902e+25 -0.16761 0.140138 272.292 
-1.12291e-05 -1.60074e-05 2.68874e+25 -0.00439739 -0.0875494 272.393 
-9.31775e-06 -1.60074e-05 2.68869e+25 -0.291355 -0.0949195 272.349 
-7.40642e-06 -1.60074e-05 2.69079e+25 -0.402223 -0.108782 272.114 
-5.49508e-06 -1.60074e-05 2.69003e+25 -0.579656 0.0831728 272.203 
-3.58375e-06 -1.60074e-05 2.68796e+25 -0.436447 -0.0181897 272.475 
-1.67242e-06 -1.60074e-05 2.68536e+25 -0.445411 0.0103982 272.71 
-1.69631e-05 -1.55296e-05 2.6848e+25 -0.0307272 -0.01692 272.77 
-1.50517e-05 -1.55296e-05 2.69204e+25 -0.0867887 0.243839 272.178 
-1.31404e-05 -1.55296e-05 2.69061e+25 -0.23198 0.121629 272.228 
-1.12291e-05 -1.55296e-05 2.68952e+25 -0.178025 -0.03551 272.313 
-9.31775e-06 -1.55296e-05 2.69098e+25 -0.301616 -0.0281865 272.177 
-7.40642e-06 -1.55296e-05 2.68982e+25 -0.494942 -0.105034 272.247 
-5.49508e-06 -1.55296e-05 2.68951e+25 -0.819048 0.0851579 272.23 
-3.58375e-06 -1.55296e-05 2.69025e+25 -0.678413 -0.0578145 272.265 
-1.67242e-06 -1.55296e-05 2.68694e+25 -0.66585 0.142168 272.556 
-1.69631e-05 -1.50517e-05 2.68597e+25 -0.0474517 0.0495015 272.763 
-1.50517e-05 -1.50517e-05 2.69208e+25 0.0407179 0.259328 272.051 
-1.31404e-05 -1.50517e-05 2.69078e+25 0.0294011 0.140603 272.183 
-1.12291e-05 -1.50517e-05 2.68902e+25 -0.373063 -0.122875 272.271 
-9.31775e-06 -1.50517e-05 2.69038e+25 -0.368337 0.0172708 272.131 
-7.40642e-06 -1.50517e-05 2.69083e+25 -0.695792 0.0796558 272.113 
-5.49508e-06 -1.50517e-05 2.68981e+25 -0.818652 0.199281 272.218 
-3.58375e-06 -1.50517e-05 2.69113e+25 -0.829462 -0.127228 272.045 
-1.67242e-06 -1.50517e-05 2.68793e+25 -1.08609 0.306592 272.478 
-1.69631e-05 -1.45739e-05 2.68655e+25 0.0396678 0.0800806 272.732 
-1.50517e-05 -1.45739e-05 2.69376e+25 0.185505 0.164193 271.903 
-1.31404e-05 -1.45739e-05 2.69167e+25 -0.0117376 0.210075 272.033 
-1.12291e-05 -1.45739e-05 2.68821e+25 -0.378595 -0.110445 272.363 
-9.31775e-06 -1.45739e-05 2.69184e+25 -0.65012 0.209718 272.034 
-7.40642e-06 -1.45739e-05 2.69122e+25 -1.04319 0.0680104 272.093 
-5.49508e-06 -1.45739e-05 2.69121e+25 -1.1985 0.33494 272.141 
-3.58375e-06 -1.45739e-05 2.69266e+25 -1.15983 -0.210838 271.935 
-1.67242e-06 -1.45739e-05 2.68825e+25 -1.35945 0.394887 272.442 
-1.69631e-05 -1.40961e-05 2.68535e+25 0.0137414 0.0544425 272.782 
-1.50517e-05 -1.40961e-05 2.69143e+25 0.0118874 0.114252 272.123 
-1.31404e-05 -1.40961e-05 2.69262e+25 -0.214402 0.344408 271.95 
-1.12291e-05 -1.40961e-05 2.68953e+25 -0.462825 -0.00117191 272.238 
-9.31775e-06 -1.40961e-05 2.69138e+25 -0.750384 0.4826 271.89 
-7.40642e-06 -1.40961e-05 2.692e+25 -1.28068 0.0204375 272.055 
-5.49508e-06 -1.40961e-05 2.69126e+25 -1.17424 0.417949 272.063 
-3.58375e-06 -1.40961e-05 2.69049e+25 -1.63228 -0.231585 272.152 
-1.67242e-06 -1.40961e-05 2.68993e+25 -1.52836 0.313784 272.333 
-1.69631e-05 -1.36182e-05 2.68451e+25 0.0734731 -0.0423173 272.675 
-1.50517e-05 -1.36182e-05 2.69094e+25 -0.097834 0.0975777 272.205 
-1.31404e-05 -1.36182e-05 2.6927e+25 -0.131798 0.348374 271.973 
-1.12291e-05 -1.36182e-05 2.69229e+25 -0.388943 0.07025 271.922 
-9.31775e-06 -1.36182e-05 2.69284e+25 -0.93319 0.531778 271.853 
-7.40642e-06 -1.36182e-05 2.69465e+25 -1.5209 0.0493989 271.854 
-5.49508e-06 -1.36182e-05 2.69328e+25 -1.30293 0.328884 271.981 
-3.58375e-06 -1.36182e-05 2.69051e+25 -1.89983 -0.150255 272.165 
-1.67242e-06 -1.36182e-05 2.69133e+25 -1.81207 0.248011 272.151 
-1.69631e-05 -1.31404e-05 2.68508e+25 -0.00926216 -0.108605 272.622 
-1.50517e-05 -1.31404e-05 2.69247e+25 -0.218175 0.250086 271.935 
-1.31404e-05 -1.31404e-05 2.6926e+25 -0.234691 0.40604 271.925 
-1.12291e-05 -1.31404e-05 2.69253e+25 -0.572741 0.136661 271.883 
-9.31775e-06 -1.31404e-05 2.69601e+25 -1.26287 0.542028 271.774 
-7.40642e-06 -1.31404e-05 2.6948e+25 -1.61808 0.152819 271.836 
-5.49508e-06 -1.31404e-05 2.69244e+25 -1.55487 0.173302 271.882 
-3.58375e-06 -1.31404e-05 2.69234e+25 -1.96137 -0.0704998 272.066 
-1.67242e-06 -1.31404e-05 2.69376e+25 -2.07363 0.340632 271.902 
-1.69631e-05 -1.26626e-05 2.68406e+25 -0.0276007 -0.081401 272.727 
-1.50517e-05 -1.26626e-05 2.69229e+25 -0.132776 0.292938 271.901 
-1.31404e-05 -1.26626e-05 2.69267e+25 -0.456172 0.505027 271.98 
-1.12291e-05 -1.26626e-05 2.69249e+25 -0.680992 0.402097 271.987 
-9.31775e-06 -1.26626e-05 2.69514e+25 -1.30816 0.670299 271.711 
-7.40642e-06 -1.26626e-05 2.69351e+25 -1.70088 0.273907 271.885 
-5.49508e-06 -1.26626e-05 2.69068e+25 -1.95361 0.104251 272.1 
-3.58375e-06 -1.26626e-05 2.69157e+25 -2.18422 0.109097 271.95 
-1.67242e-06 -1.26626e-05 2.69311e+25 -2.34975 0.324944 271.918 
-1.69631e-05 -1.21847e-05 2.68629e+25 0.014941 -0.0164647 272.776 
-1.50517e-05 -1.21847e-05 2.69462e+25 -0.193661 0.250855 271.696 
-1.31404e-05 -1.21847e-05 2.69111e+25 -0.605182 0.509133 272.033 
-1.12291e-05 -1.21847e-05 2.69294e+25 -0.976918 0.610021 271.9 
-9.31775e-06 -1.21847e-05 2.69503e+25 -1.46219 0.795189 271.728 
-7.40642e-06 -1.21847e-05 2.69345e+25 -1.88238 0.52093 271.953 
-5.49508e-06 -1.21847e-05 2.69291e+25 -2.21168 0.148991 272.049 
-3.58375e-06 -1.21847e-05 2.69459e+25 -2.29788 0.197666 271.956 
-1.67242e-06 -1.21847e-05 2.69326e+25 -2.43415 0.237879 271.767 
-1.69631e-05 -1.17069e-05 2.68498e+25 -0.0187309 -0.0249563 272.843 
-1.50517e-05 -1.17069e-05 2.69368e+25 -0.195957 0.432946 271.803 
-1.31404e-05 -1.17069e-05 2.69277e+25 -0.622849 0.568286 271.987 
-1.12291e-05 -1.17069e-05 2.69144e+25 -1.04741 0.763337 272.091 
-9.31775e-06 -1.17069e-05 2.69501e+25 -1.3836 0.925963 271.588 
-7.40642e-06 -1.17069e-05 2.69142e+25 -1.95416 0.613713 271.96 
-5.49508e-06 -1.17069e-05 2.69147e+25 -2.36334 0.20804 272.028 
-3.58375e-06 -1.17069e-05 2.69286e+25 -2.63869 0.249345 271.973 
-1.67242e-06 -1.17069e-05 2.69322e+25 -2.5555 0.255688 271.93 
-1.69631e-05 -1.12291e-05 2.68453e+25 -0.00935719 0.0522977 272.762 
-1.50517e-05 -1.12291e-05 2.69244e+25 -0.154073 0.483617 272.049 
-1.31404e-05 -1.12291e-05 2.69424e+25 -0.607269 0.569805 271.901 
-1.12291e-05 -1.12291e-05 2.69123e+25 -1.04437 0.776753 271.977 
-9.31775e-06 -1.12291e-05 2.69488e+25 -1.39022 1.01107 271.712 
-7.40642e-06 -1.12291e-05 2.69417e+25 -1.98235 0.699394 271.931 
-5.49508e-06 -1.12291e-05 2.69389e+25 -2.48591 0.445805 271.823 
-3.58375e-06 -1.12291e-05 2.69185e+25 -2.93414 0.222512 272.086 
-1.67242e-06 -1.12291e-05 2.69156e+25 -2.85703 0.237776 272.03 
-1.69631e-05 -1.07512e-05 2.68611e+25 0.0540887 -0.0241207 272.631 
-1.50517e-05 -1.07512e-05 2.69244e+25 -0.259679 0.546647 271.976 
-1.31404e-05 -1.07512e-05 2.69307e+25 -0.482158 0.655777 271.848 
-1.12291e-05 -1.07512e-05 2.69251e+25 -1.02723 0.846971 271.934 
-9.31775e-06 -1.07512e-05 2.69396e+25 -1.59234 1.16613 271.793 
-7.40642e-06 -1.07512e-05 2.69275e+25 -2.11769 0.756444 271.892 
-5.49508e-06 -1.07512e-05 2.69464e+25 -2.63333 0.67159 271.724 
-3.58375e-06 -1.07512e-05 2.69171e+25 -3.1187 0.307235 272.112 
-1.67242e-06 -1.07512e-05 2.68897e+25 -3.36628 0.253373 272.236 
-1.69631e-05 -1.02734e-05 2.68469e+25 -0.0858064 0.00577311 272.757 
-1.50517e-05 -1.02734e-05 2.69256e+25 -0.0788761 0.552608 271.965 
-1.31404e-05 -1.02734e-05 2.69191e+25 -0.695146 0.737169 272.037 
-1.12291e-05 -1.02734e-05 2.69113e+25 -1.06059 1.01398 272.125 
-9.31775e-06 -1.02734e-05 2.69456e+25 -1.7253 1.33642 271.79 
-7.40642e-06 -1.02734e-05 2.69217e+25 -2.11765 0.85 271.95 
-5.49508e-06 -1.02734e-05 2.69445e+25 -2.80899 0.779942 271.711 
-3.58375e-06 -1.02734e-05 2.6934e+25 -3.13085 0.482831 271.823 
-1.67242e-06 -1.02734e-05 2.68811e+25 -3.90446 0.385909 272.267 
-1.69631e-05 -9.79558e-06 2.68552e+25 0.0062982 0.095681 272.689 
-1.50517e-05 -9.79558e-06 2.69342e+25 -0.122082 0.700262 271.937 
-1.31404e-05 -9.79558e-06 2.69397e+25 -0.684036 0.951994 271.917 
-1.12291e-05 -9.79558e-06 2.69378e+25 -1.1344 1.08463 271.91 
-9.31775e-06 -9.79558e-06 2.69302e+25 -1.79979 1.56512 271.937 
-7.40642e-06 -9.79558e-06 2.69253e+25 -2.20821 1.04194 271.909 
-5.49508e-06 -9.79558e-06 2.6953e+25 -3.24011 0.915297 271.636 
-3.58375e-06 -9.79558e-06 2.69307e+25 -3.43948 0.678088 271.899 
-1.67242e-06 -9.79558e-06 2.69015e+25 -4.15343 0.529485 272.197 
-1.69631e-05 -9.31775e-06 2.68613e+25 -0.0405968 0.135765 272.718 
-1.50517e-05 -9.31775e-06 2.69265e+25 0.0165664 0.765049 271.955 
-1.31404e-05 -9.31775e-06 2.69459e+25 -0.494107 1.14953 271.852 
-1.12291e-05 -9.31775e-06 2.69525e+25 -1.06902 1.12952 271.706 
-9.31775e-06 -9.31775e-06 2.69509e+25 -1.86324 1.69514 271.792 
-7.40642e-06 -9.31775e-06 2.69138e+25 -2.43446 1.20498 272.081 
-5.49508e-06 -9.31775e-06 2.69585e+25 -3.35581 1.13704 271.61 
-3.58375e-06 -9.31775e-06 2.69394e+25 -3.83396 0.874983 271.854 
-1.67242e-06 -9.31775e-06 2.69024e+25 -4.45869 0.47498 272.118 
-1.69631e-05 -8.83992e-06 2.68425e+25 -0.0414738 0.194446 272.811 
-1.50517e-05 -8.83992e-06 2.69308e+25 0.00425659 0.771589 271.978 
-1.31404e-05 -8.83992e-06 2.69454e+25 -0.391872 1.32978 271.709 
-1.12291e-05 -8.83992e-06 2.69437e+25 -1.23407 1.42817 271.777 
-9.31775e-06 -8.83992e-06 2.69515e+25 -1.84575 1.79167 271.868 
-7.40642e-06 -8.83992e-06 2.6914e+25 -2.62612 1.47376 271.982 
-5.49508e-06 -8.83992e-06 2.69736e+25 -3.28096 1.31631 271.503 
-3.58375e-06 -8.83992e-06 2.6958e+25 -4.09028 1.0304 271.752 
-1.67242e-06 -8.83992e-06 2.68959e+25 -4.69093 0.491231 272.31 
-1.69631e-05 -8.36208e-06 2.68579e+25 0.0338006 0.20111 272.791 
-1.50517e-05 -8.36208e-06 2.69325e+25 -0.15513 0.718565 271.983 
-1.31404e-05 -8.36208e-06 2.69538e+25 -0.649994 1.48898 271.788 
-1.12291e-05 -8.36208e-06 2.69374e+25 -1.44989 1.61811 271.926 
-9.31775e-06 -8.36208e-06 2.6945e+25 -1.61392 1.92681 271.834 
-7.40642e-06 -8.36208e-06 2.69236e+25 -2.54262 1.82079 271.928 
-5.49508e-06 -8.36208e-06 2.69592e+25 -3.29321 1.40242 271.578 
-3.58375e-06 -8.36208e-06 2.69338e+25 -4.28944 1.15992 271.974 
-1.67242e-06 -8.36208e-06 2.69081e+25 -4.88151 0.575163 272.144 
-1.69631e-05 -7.88425e-06 2.68541e+25 0.0349674 0.144734 272.734 
-1.50517e-05 -7.88425e-06 2.69171e+25 -0.153464 0.807167 271.97 
-1.31404e-05 -7.88425e-06 2.69401e+25 -0.688041 1.69536 271.808 
-1.12291e-05 -7.88425e-06 2.69338e+25 -1.34876 1.71208 271.888 
-9.31775e-06 -7.88425e-06 2.69331e+25 -1.79021 2.09227 271.952 
-7.40642e-06 -7.88425e-06 2.69395e+25 -2.64126 2.07843 271.854 
-5.49508e-06 -7.88425e-06 2.69424e+25 -3.54879 1.56286 271.682 
-3.58375e-06 -7.88425e-06 2.6932e+25 -4.30044 1.38312 271.94 
-1.67242e-06 -7.88425e-06 2.69248e+25 -4.93951 0.684998 272.137 
-1.69631e-05 -7.40642e-06 2.68664e+25 0.0528079 0.0902292 272.707 
-1.50517e-05 -7.40642e-06 2.69472e+25 -0.185047 1.01434 271.777 
-1.31404e-05 -7.40642e-06 2.69351e+25 -0.741106 1.74474 271.767 
-1.12291e-05 -7.40642e-06 2.69251e+25 -1.33332 1.77276 271.931 
-9.31775e-06 -7.40642e-06 2.69519e+25 -1.90715 2.32218 271.638 
-7.40642e-06 -7.40642e-06 2.69596e+25 -2.82239 2.41676 271.743 
-5.49508e-06 -7.40642e-06 2.69389e+25 -3.63653 1.72953 271.741 
-3.58375e-06 -7.40642e-06 2.69383e+25 -4.51295 1.6215 271.851 
-1.67242e-06 -7.40642e-06 2.69048e+25 -4.93012 0.834104 272.117 
-1.69631e-05 -6.92858e-06 2.6854e+25 0.0342242 0.0128761 272.709 
-1.50517e-05 -6.92858e-06 2.69286e+25 -0.237659 1.3254 271.946 
-1.31404e-05 -6.92858e-06 2.69455e+25 -0.748893 1.81916 271.733 
-1.12291e-05 -6.92858e-06 2.69269e+25 -1.37726 1.93414 271.905 
-9.31775e-06 -6.92858e-06 2.69592e+25 -2.18452 2.44611 271.648 
-7.40642e-06 -6.92858e-06 2.69292e+25 -2.98041 2.66312 271.964 
-5.49508e-06 -6.92858e-06 2.69536e+25 -3.78394 1.88966 271.737 
-3.58375e-06 -6.92858e-06 2.692e+25 -4.61795 1.82466 271.949 
-1.67242e-06 -6.92858e-06 2.69112e+25 -5.07231 0.934067 272.017 
-1.69631e-05 -6.45075e-06 2.68585e+25 -0.0209915 0.0332229 272.714 
-1.50517e-05 -6.45075e-06 2.69337e+25 -0.231521 1.36186 271.913 
-1.31404e-05 -6.45075e-06 2.69532e+25 -0.765359 1.90899 271.683 
-1.12291e-05 -6.45075e-06 2.69166e+25 -1.49948 2.19716 271.805 
-9.31775e-06 -6.45075e-06 2.69536e+25 -2.39021 2.56732 271.671 
-7.40642e-06 -6.45075e-06 2.69235e+25 -3.02954 2.8585 271.863 
-5.49508e-06 -6.45075e-06 2.69556e+25 -3.9796 2.08177 271.7 
-3.58375e-06 -6.45075e-06 2.69326e+25 -4.75971 1.9526 271.87 
-1.67242e-06 -6.45075e-06 2.6905e+25 -5.46017 1.00546 272.043 
-1.69631e-05 -5.97292e-06 2.68826e+25 0.0231296 0.0563043 272.645 
-1.50517e-05 -5.97292e-06 2.69391e+25 -0.249525 1.45136 271.873 
-1.31404e-05 -5.97292e-06 2.69499e+25 -0.844531 2.02189 271.751 
-1.12291e-05 -5.97292e-06 2.69291e+25 -1.69251 2.47733 271.814 
-9.31775e-06 -5.97292e-06 2.69594e+25 -2.55611 2.81527 271.579 
-7.40642e-06 -5.97292e-06 2.69367e+25 -3.31956 3.00811 271.71 
-5.49508e-06 -5.97292e-06 2.69375e+25 -4.29196 2.29662 271.766 
-3.58375e-06 -5.97292e-06 2.69405e+25 -4.84116 2.13209 271.932 
-1.67242e-06 -5.97292e-06 2.69184e+25 -5.53337 1.17791 271.951 
-1.69631e-05 -5.49508e-06 2.6854e+25 -0.00808922 0.0734906 272.807 
-1.50517e-05 -5.49508e-06 2.69169e+25 -0.476542 1.60852 272.047 
-1.31404e-05 -5.49508e-06 2.69139e+25 -1.01826 2.25104 272.007 
-1.12291e-05 -5.49508e-06 2.69268e+25 -2.0179 2.67032 271.928 
-9.31775e-06 -5.49508e-06 2.69559e+25 -2.82064 3.02842 271.591 
-7.40642e-06 -5.49508e-06 2.69679e+25 -3.78516 3.22126 271.485 
-5.49508e-06 -5.49508e-06 2.69443e+25 -4.58987 2.50241 271.814 
-3.58375e-06 -5.49508e-06 2.69286e+25 -5.22729 2.2971 271.95 
-1.67242e-06 -5.49508e-06 2.69089e+25 -5.63951 1.32007 272.092 
-1.69631e-05 -5.01725e-06 2.68552e+25 -0.00832134 0.0578498 272.85 
-1.50517e-05 -5.01725e-06 2.69293e+25 -0.771006 1.73997 271.988 
-1.31404e-05 -5.01725e-06 2.69094e+25 -1.27626 2.54767 271.991 
-1.12291e-05 -5.01725e-06 2.69353e+25 -2.02761 2.89232 271.867 
-9.31775e-06 -5.01725e-06 2.69603e+25 -2.85532 3.27754 271.643 
-7.40642e-06 -5.01725e-06 2.69549e+25 -3.90991 3.39065 271.592 
-5.49508e-06 -5.01725e-06 2.69118e+25 -4.7579 2.69008 272.004 
-3.58375e-06 -5.01725e-06 2.69066e+25 -5.49485 2.45629 271.889 
-1.67242e-06 -5.01725e-06 2.69087e+25 -5.86206 1.51288 272.015 
-1.69631e-05 -4.53942e-06 2.68494e+25 -0.0213456 0.120275 272.804 
-1.50517e-05 -4.53942e-06 2.69382e+25 -0.703707 1.72838 272.037 
-1.31404e-05 -4.53942e-06 2.69066e+25 -1.1432 2.71295 272.025 
-1.12291e-05 -4.53942e-06 2.69279e+25 -2.11413 3.21305 271.876 
-9.31775e-06 -4.53942e-06 2.69436e+25 -3.01608 3.49567 271.718 
-7.40642e-06 -4.53942e-06 2.69465e+25 -4.06052 3.57518 271.86 
-5.49508e-06 -4.53942e-06 2.69302e+25 -4.84466 2.84944 271.87 
-3.58375e-06 -4.53942e-06 2.69324e+25 -5.57853 2.63235 271.788 
-1.67242e-06 -4.53942e-06 2.69078e+25 -6.00055 1.59528 271.957 
-1.69631e-05 -4.06158e-06 2.68425e+25 -0.024956 0.180486 272.772 
-1.50517e-05 -4.06158e-06 2.69318e+25 -0.5995 1.90337 272.016 
-1.31404e-05 -4.06158e-06 2.69313e+25 -1.20866 2.93363 271.981 
-1.12291e-05 -4.06158e-06 2.69514e+25 -2.10075 3.52804 271.708 
-9.31775e-06 -4.06158e-06 2.6956e+25 -3.06846 3.70356 271.56 
-7.40642e-06 -4.06158e-06 2.69129e+25 -4.01081 3.76807 271.923 
-5.49508e-06 -4.06158e-06 2.69087e+25 -4.72981 3.18739 272.07 
-3.58375e-06 -4.06158e-06 2.6939e+25 -5.5594 2.74795 271.812 
-1.67242e-06 -4.06158e-06 2.69182e+25 -6.11641 1.61926 271.81 
-1.69631e-05 -3.58375e-06 2.68521e+25 -0.0612096 0.294532 272.729 
-1.50517e-05 -3.58375e-06 2.69138e+25 -0.465178 2.09466 272.088 
-1.31404e-05 -3.58375e-06 2.69347e+25 -0.917145 3.17689 271.943 
-1.12291e-05 -3.58375e-06 2.69399e+25 -2.04649 3.86686 271.71 
-9.31775e-06 -3.58375e-06 2.69646e+25 -3.14044 3.96954 271.54 
-7.40642e-06 -3.58375e-06 2.69216e+25 -4.01918 3.87267 271.898 
-5.49508e-06 -3.58375e-06 2.69035e+25 -5.03069 3.44463 272.11 
-3.58375e-06 -3.58375e-06 2.69412e+25 -5.71914 2.84394 271.69 
-1.67242e-06 -3.58375e-06 2.69259e+25 -6.37426 1.8086 271.874 
-1.69631e-05 -3.10592e-06 2.68431e+25 -0.0469629 0.43022 272.838 
-1.50517e-05 -3.10592e-06 2.69123e+25 -0.458986 2.24618 272.05 
-1.31404e-05 -3.10592e-06 2.69131e+25 -1.12362 3.39566 272.113 
-1.12291e-05 -3.10592e-06 2.69342e+25 -1.99609 4.07455 271.75 
-9.31775e-06 -3.10592e-06 2.69534e+25 -3.0133 4.21705 271.637 
-7.40642e-06 -3.10592e-06 2.69335e+25 -3.99459 4.19494 271.883 
-5.49508e-06 -3.10592e-06 2.6934e+25 -5.13183 3.63435 271.799 
-3.58375e-06 -3.10592e-06 2.69295e+25 -5.84254 3.03608 271.797 
-1.67242e-06 -3.10592e-06 2.69203e+25 -6.49682 1.90422 271.911 
-1.69631e-05 -2.62808e-06 2.68582e+25 0.0605805 0.434079 272.711 
-1.50517e-05 -2.62808e-06 2.69042e+25 -0.396456 2.44235 272.156 
-1.31404e-05 -2.62808e-06 2.68919e+25 -1.33124 3.66674 272.249 
-1.12291e-05 -2.62808e-06 2.69361e+25 -1.79977 4.18292 271.74 
-9.31775e-06 -2.62808e-06 2.6933e+25 -2.90829 4.59932 271.801 
-7.40642e-06 -2.62808e-06 2.69344e+25 -4.11359 4.43182 271.865 
-5.49508e-06 -2.62808e-06 2.692e+25 -5.1022 3.90544 271.84 
-3.58375e-06 -2.62808e-06 2.69289e+25 -5.83257 3.17563 271.817 
-1.67242e-06 -2.62808e-06 2.69181e+25 -6.61454 1.94732 271.849 
-1.69631e-05 -2.15025e-06 2.68559e+25 0.0466368 0.380171 272.814 
-1.50517e-05 -2.15025e-06 2.68946e+25 -0.37277 2.54306 272.174 
-1.31404e-05 -2.15025e-06 2.69046e+25 -1.2202 3.80825 272.076 
-1.12291e-05 -2.15025e-06 2.69344e+25 -1.89241 4.22583 271.772 
-9.31775e-06 -2.15025e-06 2.69495e+25 -2.89792 4.9488 271.619 
-7.40642e-06 -2.15025e-06 2.69301e+25 -4.1075 4.6363 271.866 
-5.49508e-06 -2.15025e-06 2.69224e+25 -4.92257 4.09378 271.822 
-3.58375e-06 -2.15025e-06 2.69197e+25 -5.79649 3.37473 271.835 
-1.67242e-06 -2.15025e-06 2.69326e+25 -6.43674 1.96213 271.664 
-1.69631e-05 -1.67242e-06 2.68548e+25 -0.0358932 0.353496 272.815 
-1.50517e-05 -1.67242e-06 2.69019e+25 -0.143634 2.5999 272.219 
-1.31404e-05 -1.67242e-06 2.69314e+25 -1.13582 3.97958 272.012 
-1.12291e-05 -1.67242e-06 2.69494e+25 -1.99899 4.43278 271.609 
-9.31775e-06 -1.67242e-06 2.69434e+25 -2.91682 5.07365 271.605 
-7.40642e-06 -1.67242e-06 2.69248e+25 -3.99567 4.79851 271.873 
-5.49508e-06 -1.67242e-06 2.69285e+25 -4.76168 4.25902 271.843 
-3.58375e-06 -1.67242e-06 2.6897e+25 -5.78086 3.65923 272.027 
-1.67242e-06 -1.67242e-06 2.69296e+25 -6.3833 2.1927 271.76 
-1.69631e-05 -1.19458e-06 2.68346e+25 -0.00397337 0.369655 272.864 
-1.50517e-05 -1.19458e-06 2.68992e+25 -0.154144 2.72723 272.25 
-1.31404e-05 -1.19458e-06 2.69192e+25 -1.00844 4.07616 271.983 
-1.12291e-05 -1.19458e-06 2.69445e+25 -1.93378 4.85875 271.632 
-9.31775e-06 -1.19458e-06 2.69487e+25 -2.93181 5.22012 271.667 
-7.40642e-06 -1.19458e-06 2.69454e+25 -3.71358 5.11429 271.648 
-5.49508e-06 -1.19458e-06 2.69115e+25 -4.71568 4.37144 271.856 
-3.58375e-06 -1.19458e-06 2.68991e+25 -5.74489 3.91178 271.987 
-1.67242e-06 -1.19458e-06 2.69071e+25 -6.55189 2.49709 271.953 
-1.69631e-05 -7.1675e-07 2.68435e+25 -0.0609544 0.468774 272.812 
-1.50517e-05 -7.1675e-07 2.69067e+25 -0.183653 2.94083 272.187 
-1.31404e-05 -7.1675e-07 2.69172e+25 -0.993052 4.24213 271.985 
-1.12291e-05 -7.1675e-07 2.69123e+25 -1.83899 5.22923 271.896 
-9.31775e-06 -7.1675e-07 2.69401e+25 -2.84476 5.41733 271.637 
-7.40642e-06 -7.1675e-07 2.69256e+25 -3.68146 5.42851 271.709 
-5.49508e-06 -7.1675e-07 2.69141e+25 -4.83225 4.65931 271.916 
-3.58375e-06 -7.1675e-07 2.69065e+25 -5.88717 4.14466 271.893 
-1.67242e-06 -7.1675e-07 2.69239e+25 -6.77404 2.80621 271.884 
-1.69631e-05 -2.38917e-07 2.6818e+25 0.0276223 0.536876 272.772 
-1.50517e-05 -2.38917e-07 2.68894e+25 -0.265599 3.04867 272.077 
-1.31404e-05 -2.38917e-07 2.68984e+25 -0.77762 4.47272 271.929 
-1.12291e-05 -2.38917e-07 2.68826e+25 -1.87598 5.41668 271.977 
-9.31775e-06 -2.38917e-07 2.6897e+25 -3.01694 5.62882 271.83 
-7.40642e-06 -2.38917e-07 2.69226e+25 -3.87419 5.76286 271.768 
-5.49508e-06 -2.38917e-07 2.69128e+25 -4.86653 4.99047 271.825 
-3.58375e-06 -2.38917e-07 2.68995e+25 -5.79129 4.32393 271.891 
-1.67242e-06 -2.38917e-07 2.68698e+25 -6.80575 3.02695 272.053 
-1.64852e-05 -1.69631e-05 2.68505e+25 0.00305722 0.0311408 272.918 
-1.45739e-05 -1.69631e-05 2.68402e+25 0.00651944 0.0127457 272.704 
-1.26626e-05 -1.69631e-05 2.68494e+25 -0.0947369 -0.00197495 272.849 
-1.07512e-05 -1.69631e-05 2.68515e+25 -0.232649 -0.000156681 272.771 
-8.83992e-06 -1.69631e-05 2.68429e+25 -0.107232 0.0141589 272.858 
-6.92858e-06 -1.69631e-05 2.6855e+25 0.0231882 -0.0310963 272.765 
-5.01725e-06 -1.69631e-05 2.68377e+25 -0.256768 -0.0270649 272.867 
-3.10592e-06 -1.69631e-05 2.68261e+25 -0.111128 0.0263574 272.945 
-1.19458e-06 -1.69631e-05 2.68487e+25 -0.135659 0.012038 272.925 
-1.64852e-05 -1.64852e-05 2.68861e+25 0.052639 0.0255612 272.587 
-1.45739e-05 -1.64852e-05 2.68666e+25 -0.113719 -0.0339687 272.562 
-1.26626e-05 -1.64852e-05 2.68663e+25 -0.171898 0.0619471 272.59 
-1.07512e-05 -1.64852e-05 2.68845e+25 0.00138628 -0.0141531 272.444 
-8.83992e-06 -1.64852e-05 2.6881e+25 -0.192955 -0.0298445 272.503 
-6.92858e-06 -1.64852e-05 2.68786e+25 -0.151491 -0.0330053 272.414 
-5.01725e-06 -1.64852e-05 2.687e+25 -0.403177 -0.0454197 272.581 
-3.10592e-06 -1.64852e-05 2.68638e+25 -0.238806 0.0101097 272.664 
-1.19458e-06 -1.64852e-05 2.68582e+25 -0.231596 -0.00081531 272.685 
-1.64852e-05 -1.60074e-05 2.69e+25 0.0641945 -0.084843 272.359 
-1.45739e-05 -1.60074e-05 2.6903e+25 -0.124116 -0.0287259 272.224 
-1.26626e-05 -1.60074e-05 2.68881e+25 -0.161648 0.125198 272.362 
-1.07512e-05 -1.60074e-05 2.68813e+25 -0.0616338 0.0438353 272.447 
-8.83992e-06 -1.60074e-05 2.69038e+25 -0.217491 -0.0682117 272.249 
-6.92858e-06 -1.60074e-05 2.69047e+25 -0.41422 0.041246 272.165 
-5.01725e-06 -1.60074e-05 2.68991e+25 -0.541798 0.0352534 272.304 
-3.10592e-06 -1.60074e-05 2.68908e+25 -0.389052 0.0505897 272.356 
-1.19458e-06 -1.60074e-05 2.68599e+25 -0.508247 0.0838203 272.625 
-1.64852e-05 -1.55296e-05 2.68909e+25 -0.110955 -0.093054 272.401 
-1.45739e-05 -1.55296e-05 2.6916e+25 -0.172838 -0.00508793 272.09 
-1.26626e-05 -1.55296e-05 2.68913e+25 -0.226916 0.142662 272.258 
-1.07512e-05 -1.55296e-05 2.68981e+25 -0.134349 0.068196 272.269 
-8.83992e-06 -1.55296e-05 2.69061e+25 -0.379361 -0.107817 272.179 
-6.92858e-06 -1.55296e-05 2.69232e+25 -0.619962 0.117819 271.999 
-5.01725e-06 -1.55296e-05 2.68971e+25 -0.848805 0.0858425 272.255 
-3.10592e-06 -1.55296e-05 2.68956e+25 -0.624724 0.0108065 272.173 
-1.19458e-06 -1.55296e-05 2.68628e+25 -0.896334 0.237822 272.678 
-1.64852e-05 -1.50517e-05 2.6892e+25 -0.0906477 -0.0842641 272.4 
-1.45739e-05 -1.50517e-05 2.69257e+25 0.0890509 0.0157564 271.895 
-1.26626e-05 -1.50517e-05 2.68969e+25 -0.099022 0.216062 272.275 
-1.07512e-05 -1.50517e-05 2.69022e+25 -0.289991 0.0398137 272.164 
-8.83992e-06 -1.50517e-05 2.69211e+25 -0.544546 0.00279099 272.067 
-6.92858e-06 -1.50517e-05 2.69225e+25 -0.752146 0.0899933 272.075 
-5.01725e-06 -1.50517e-05 2.6892e+25 -0.895346 0.062137 272.271 
-3.10592e-06 -1.50517e-05 2.68951e+25 -0.770686 -0.0170497 272.277 
-1.19458e-06 -1.50517e-05 2.68779e+25 -1.15515 0.313964 272.43 
-1.64852e-05 -1.45739e-05 2.68863e+25 -0.00102834 -0.0337113 272.39 
-1.45739e-05 -1.45739e-05 2.69171e+25 0.185615 0.0246207 272.002 
-1.26626e-05 -1.45739e-05 2.68912e+25 -0.0986126 0.345049 272.253 
-1.07512e-05 -1.45739e-05 2.69023e+25 -0.458307 -0.000400499 272.196 
-8.83992e-06 -1.45739e-05 2.69312e+25 -0.941793 0.267316 272 
-6.92858e-06 -1.45739e-05 2.69019e+25 -1.02384 0.115291 272.056 
-5.01725e-06 -1.45739e-05 2.68963e+25 -1.22043 0.051956 272.132 
-3.10592e-06 -1.45739e-05 2.68919e+25 -1.12358 -0.0236743 272.268 
-1.19458e-06 -1.45739e-05 2.68941e+25 -1.37362 0.30396 272.334 
-1.64852e-05 -1.40961e-05 2.69086e+25 0.080463 -0.015763 272.347 
-1.45739e-05 -1.40961e-05 2.6927e+25 0.0984476 0.0617575 271.966 
-1.26626e-05 -1.40961e-05 2.69025e+25 -0.200493 0.326039 272.219 
-1.07512e-05 -1.40961e-05 2.68991e+25 -0.56491 0.0273664 272.153 
-8.83992e-06 -1.40961e-05 2.69296e+25 -0.903008 0.441897 271.958 
-6.92858e-06 -1.40961e-05 2.69191e+25 -1.25523 0.119973 272.065 
-5.01725e-06 -1.40961e-05 2.69219e+25 -1.2231 0.0357338 271.983 
-3.10592e-06 -1.40961e-05 2.68934e+25 -1.62286 -0.0127312 272.241 
-1.19458e-06 -1.40961e-05 2.69162e+25 -1.43402 0.304989 272.122 
-1.64852e-05 -1.36182e-05 2.68925e+25 0.118517 -0.0262445 272.458 
-1.45739e-05 -1.36182e-05 2.69147e+25 -0.220315 0.0937181 272.013 
-1.26626e-05 -1.36182e-05 2.69118e+25 -0.276261 0.444667 272.081 
-1.07512e-05 -1.36182e-05 2.69249e+25 -0.519758 0.246092 272.041 
-8.83992e-06 -1.36182e-05 2.69398e+25 -1.02247 0.605146 271.89 
-6.92858e-06 -1.36182e-05 2.69167e+25 -1.61313 0.19946 272.003 
-5.01725e-06 -1.36182e-05 2.69226e+25 -1.29604 0.122167 271.956 
-3.10592e-06 -1.36182e-05 2.68979e+25 -1.87191 -0.100057 272.204 
-1.19458e-06 -1.36182e-05 2.6911e+25 -1.74602 0.203906 272.125 
-1.64852e-05 -1.31404e-05 2.68803e+25 0.0937336 -0.075305 272.368 
-1.45739e-05 -1.31404e-05 2.69314e+25 -0.247004 0.0625069 271.872 
-1.26626e-05 -1.31404e-05 2.69145e+25 -0.296206 0.556388 272.003 
-1.07512e-05 -1.31404e-05 2.69259e+25 -0.676759 0.381876 271.965 
-8.83992e-06 -1.31404e-05 2.69176e+25 -1.34524 0.719051 271.968 
-6.92858e-06 -1.31404e-05 2.69503e+25 -1.64482 0.176327 271.727 
-5.01725e-06 -1.31404e-05 2.69439e+25 -1.54283 0.279576 271.827 
-3.10592e-06 -1.31404e-05 2.69106e+25 -2.12952 -0.0236169 272.067 
-1.19458e-06 -1.31404e-05 2.6921e+25 -2.11479 0.114207 272.078 
-1.64852e-05 -1.26626e-05 2.69155e+25 -0.0687455 -0.153204 272.239 
-1.45739e-05 -1.26626e-05 2.69416e+25 -0.189493 0.147231 271.813 
-1.26626e-05 -1.26626e-05 2.69248e+25 -0.46474 0.530126 271.991 
-1.07512e-05 -1.26626e-05 2.69433e+25 -0.941893 0.546836 271.911 
-8.83992e-06 -1.26626e-05 2.69425e+25 -1.33276 0.724824 271.858 
-6.92858e-06 -1.26626e-05 2.69258e+25 -1.88369 0.2672 271.903 
-5.01725e-06 -1.26626e-05 2.69117e+25 -1.9034 0.259049 272.057 
-3.10592e-06 -1.26626e-05 2.69187e+25 -2.25755 -0.0139826 272.013 
-1.19458e-06 -1.26626e-05 2.69272e+25 -2.2381 0.0442416 272.012 
-1.64852e-05 -1.21847e-05 2.68939e+25 -0.0699688 -0.114378 272.348 
-1.45739e-05 -1.21847e-05 2.69522e+25 -0.237124 0.269836 271.744 
-1.26626e-05 -1.21847e-05 2.69101e+25 -0.584814 0.534409 271.995 
-1.07512e-05 -1.21847e-05 2.69287e+25 -1.14034 0.705337 271.987 
-8.83992e-06 -1.21847e-05 2.69183e+25 -1.63076 0.753328 271.901 
-6.92858e-06 -1.21847e-05 2.69157e+25 -2.02951 0.440554 271.921 
-5.01725e-06 -1.21847e-05 2.69106e+25 -2.22188 0.259441 272.113 
-3.10592e-06 -1.21847e-05 2.69238e+25 -2.39392 0.0581463 271.95 
-1.19458e-06 -1.21847e-05 2.69279e+25 -2.41954 0.0304509 271.918 
-1.64852e-05 -1.17069e-05 2.68777e+25 -0.126249 0.0828534 272.436 
-1.45739e-05 -1.17069e-05 2.69488e+25 -0.35842 0.299641 271.733 
-1.26626e-05 -1.17069e-05 2.69171e+25 -0.692779 0.628393 272.059 
-1.07512e-05 -1.17069e-05 2.69225e+25 -1.15284 0.790757 272.025 
-8.83992e-06 -1.17069e-05 2.69479e+25 -1.51571 0.865751 271.792 
-6.92858e-06 -1.17069e-05 2.69162e+25 -1.91146 0.433545 272.021 
-5.01725e-06 -1.17069e-05 2.69325e+25 -2.51755 0.360035 271.927 
-3.10592e-06 -1.17069e-05 2.69377e+25 -2.62088 0.135938 271.874 
-1.19458e-06 -1.17069e-05 2.69116e+25 -2.59318 0.0261289 272.084 
-1.64852e-05 -1.12291e-05 2.68822e+25 -0.0380413 0.110516 272.514 
-1.45739e-05 -1.12291e-05 2.69207e+25 -0.296155 0.497967 271.952 
-1.26626e-05 -1.12291e-05 2.69398e+25 -0.628959 0.665464 271.887 
-1.07512e-05 -1.12291e-05 2.6936e+25 -1.03299 0.869607 271.925 
-8.83992e-06 -1.12291e-05 2.69482e+25 -1.52288 1.0457 271.81 
-6.92858e-06 -1.12291e-05 2.69224e+25 -2.03495 0.412947 272.028 
-5.01725e-06 -1.12291e-05 2.6936e+25 -2.73747 0.508206 271.759 
-3.10592e-06 -1.12291e-05 2.69222e+25 -2.91482 0.0957283 271.976 
-1.19458e-06 -1.12291e-05 2.69063e+25 -2.94494 0.138916 272.107 
-1.64852e-05 -1.07512e-05 2.68696e+25 0.111784 0.161911 272.424 
-1.45739e-05 -1.07512e-05 2.69274e+25 -0.28831 0.613684 272.033 
-1.26626e-05 -1.07512e-05 2.69252e+25 -0.642568 0.777837 271.941 
-1.07512e-05 -1.07512e-05 2.69305e+25 -1.21676 0.967716 271.943 
-8.83992e-06 -1.07512e-05 2.69481e+25 -1.72445 1.20089 271.765 
-6.92858e-06 -1.07512e-05 2.69357e+25 -2.22815 0.550599 271.859 
-5.01725e-06 -1.07512e-05 2.69494e+25 -2.74146 0.626401 271.668 
-3.10592e-06 -1.07512e-05 2.69176e+25 -3.18321 0.167055 272.107 
-1.19458e-06 -1.07512e-05 2.68936e+25 -3.49752 0.337168 272.152 
-1.64852e-05 -1.02734e-05 2.68753e+25 -0.138158 0.170523 272.423 
-1.45739e-05 -1.02734e-05 2.69134e+25 -0.206486 0.792153 272.111 
-1.26626e-05 -1.02734e-05 2.69287e+25 -0.867353 1.02905 271.942 
-1.07512e-05 -1.02734e-05 2.69137e+25 -1.2888 1.21614 271.975 
-8.83992e-06 -1.02734e-05 2.69509e+25 -1.8872 1.29968 271.823 
-6.92858e-06 -1.02734e-05 2.69277e+25 -2.32116 0.729028 271.815 
-5.01725e-06 -1.02734e-05 2.69475e+25 -2.96673 0.739867 271.722 
-3.10592e-06 -1.02734e-05 2.69299e+25 -3.36392 0.295955 271.895 
-1.19458e-06 -1.02734e-05 2.69043e+25 -3.93171 0.346072 272.261 
-1.64852e-05 -9.79558e-06 2.68871e+25 -0.0216549 0.152166 272.397 
-1.45739e-05 -9.79558e-06 2.69344e+25 -0.177389 0.908704 271.903 
-1.26626e-05 -9.79558e-06 2.69295e+25 -0.806982 1.09683 271.846 
-1.07512e-05 -9.79558e-06 2.69134e+25 -1.13449 1.4338 271.975 
-8.83992e-06 -9.79558e-06 2.69465e+25 -1.91151 1.34042 271.852 
-6.92858e-06 -9.79558e-06 2.69185e+25 -2.5238 0.974247 271.895 
-5.01725e-06 -9.79558e-06 2.69568e+25 -3.25107 0.773957 271.636 
-3.10592e-06 -9.79558e-06 2.69182e+25 -3.68756 0.537052 271.952 
-1.19458e-06 -9.79558e-06 2.69079e+25 -4.24774 0.372355 272.149 
-1.64852e-05 -9.31775e-06 2.68608e+25 -0.0753904 0.158203 272.594 
-1.45739e-05 -9.31775e-06 2.69339e+25 -0.0209251 0.852878 271.853 
-1.26626e-05 -9.31775e-06 2.6935e+25 -0.691238 1.23314 271.909 
-1.07512e-05 -9.31775e-06 2.69368e+25 -1.21243 1.56463 271.861 
-8.83992e-06 -9.31775e-06 2.69281e+25 -1.97428 1.48267 271.834 
-6.92858e-06 -9.31775e-06 2.69193e+25 -2.59579 1.32392 271.996 
-5.01725e-06 -9.31775e-06 2.69577e+25 -3.53963 0.813507 271.567 
-3.10592e-06 -9.31775e-06 2.6937e+25 -4.05006 0.771344 271.884 
-1.19458e-06 -9.31775e-06 2.69048e+25 -4.3804 0.384497 272.14 
-1.64852e-05 -8.83992e-06 2.68609e+25 -0.063021 0.133369 272.596 
-1.45739e-05 -8.83992e-06 2.69418e+25 -0.0711599 0.959858 271.918 
-1.26626e-05 -8.83992e-06 2.69427e+25 -0.543165 1.3575 271.697 
-1.07512e-05 -8.83992e-06 2.69297e+25 -1.44649 1.64583 271.869 
-8.83992e-06 -8.83992e-06 2.69502e+25 -1.90892 1.58847 271.769 
-6.92858e-06 -8.83992e-06 2.69085e+25 -2.8743 1.45745 272.064 
-5.01725e-06 -8.83992e-06 2.6968e+25 -3.41798 0.908986 271.488 
-3.10592e-06 -8.83992e-06 2.69267e+25 -4.18995 0.923626 271.907 
-1.19458e-06 -8.83992e-06 2.69133e+25 -4.66706 0.35639 272.252 
-1.64852e-05 -8.36208e-06 2.68713e+25 0.00728099 0.20939 272.479 
-1.45739e-05 -8.36208e-06 2.69395e+25 -0.16803 1.10607 271.997 
-1.26626e-05 -8.36208e-06 2.69535e+25 -0.824921 1.47204 271.655 
-1.07512e-05 -8.36208e-06 2.69327e+25 -1.50607 1.71343 271.896 
-8.83992e-06 -8.36208e-06 2.69351e+25 -1.87198 1.78644 271.846 
-6.92858e-06 -8.36208e-06 2.69108e+25 -2.78232 1.62281 272.099 
-5.01725e-06 -8.36208e-06 2.69437e+25 -3.53479 1.14675 271.69 
-3.10592e-06 -8.36208e-06 2.69277e+25 -4.46324 1.06048 271.98 
-1.19458e-06 -8.36208e-06 2.6899e+25 -4.88524 0.25025 272.254 
-1.64852e-05 -7.88425e-06 2.68969e+25 0.030455 0.329345 272.448 
-1.45739e-05 -7.88425e-06 2.69254e+25 -0.286499 1.14523 271.951 
-1.26626e-05 -7.88425e-06 2.69326e+25 -0.890083 1.64938 271.662 
-1.07512e-05 -7.88425e-06 2.69213e+25 -1.41157 1.74884 271.972 
-8.83992e-06 -7.88425e-06 2.69414e+25 -2.02368 2.02069 271.918 
-6.92858e-06 -7.88425e-06 2.69214e+25 -2.92286 1.85456 271.959 
-5.01725e-06 -7.88425e-06 2.69319e+25 -3.67228 1.38235 271.827 
-3.10592e-06 -7.88425e-06 2.69207e+25 -4.4859 1.24454 272.015 
-1.19458e-06 -7.88425e-06 2.69141e+25 -5.0749 0.246793 272.187 
-1.64852e-05 -7.40642e-06 2.68955e+25 0.138699 0.285619 272.372 
-1.45739e-05 -7.40642e-06 2.69128e+25 -0.477563 1.31686 271.993 
-1.26626e-05 -7.40642e-06 2.69449e+25 -0.817221 1.90207 271.771 
-1.07512e-05 -7.40642e-06 2.69252e+25 -1.44996 1.9407 271.884 
-8.83992e-06 -7.40642e-06 2.69626e+25 -2.0632 2.22774 271.777 
-6.92858e-06 -7.40642e-06 2.69041e+25 -3.05658 2.11945 272.028 
-5.01725e-06 -7.40642e-06 2.69397e+25 -3.81164 1.55754 271.879 
-3.10592e-06 -7.40642e-06 2.69154e+25 -4.71016 1.31833 272.079 
-1.19458e-06 -7.40642e-06 2.69141e+25 -5.01773 0.370472 272.068 
-1.64852e-05 -6.92858e-06 2.68979e+25 0.0216902 0.262761 272.312 
-1.45739e-05 -6.92858e-06 2.69181e+25 -0.437459 1.55384 271.936 
-1.26626e-05 -6.92858e-06 2.69383e+25 -0.895044 2.0114 271.778 
-1.07512e-05 -6.92858e-06 2.69329e+25 -1.64976 2.12243 271.893 
-8.83992e-06 -6.92858e-06 2.69557e+25 -2.28408 2.31775 271.531 
-6.92858e-06 -6.92858e-06 2.69173e+25 -3.29013 2.37753 271.999 
-5.01725e-06 -6.92858e-06 2.69358e+25 -3.98762 1.72063 271.887 
-3.10592e-06 -6.92858e-06 2.69315e+25 -4.78988 1.39884 271.941 
-1.19458e-06 -6.92858e-06 2.69262e+25 -5.17316 0.542941 272.033 
-1.64852e-05 -6.45075e-06 2.69066e+25 -0.0131359 0.170426 272.268 
-1.45739e-05 -6.45075e-06 2.69098e+25 -0.288308 1.7344 272.041 
-1.26626e-05 -6.45075e-06 2.69659e+25 -0.8409 2.13505 271.668 
-1.07512e-05 -6.45075e-06 2.69421e+25 -1.7742 2.43417 271.814 
-8.83992e-06 -6.45075e-06 2.6954e+25 -2.57052 2.51586 271.648 
-6.92858e-06 -6.45075e-06 2.69304e+25 -3.24845 2.63403 271.987 
-5.01725e-06 -6.45075e-06 2.69538e+25 -4.14887 1.93123 271.734 
-3.10592e-06 -6.45075e-06 2.69226e+25 -4.90433 1.63702 271.922 
-1.19458e-06 -6.45075e-06 2.6908e+25 -5.53373 0.669369 272.07 
-1.64852e-05 -5.97292e-06 2.69041e+25 -0.0772297 0.250041 272.336 
-1.45739e-05 -5.97292e-06 2.69202e+25 -0.410174 1.82059 271.986 
-1.26626e-05 -5.97292e-06 2.69372e+25 -1.04797 2.33547 271.85 
-1.07512e-05 -5.97292e-06 2.69489e+25 -1.98193 2.73944 271.726 
-8.83992e-06 -5.97292e-06 2.69612e+25 -2.82858 2.81014 271.58 
-6.92858e-06 -5.97292e-06 2.69391e+25 -3.58393 2.95489 271.703 
-5.01725e-06 -5.97292e-06 2.69453e+25 -4.42504 2.09178 271.678 
-3.10592e-06 -5.97292e-06 2.69142e+25 -5.02262 1.83194 271.96 
-1.19458e-06 -5.97292e-06 2.69241e+25 -5.75442 0.761378 272.062 
-1.64852e-05 -5.49508e-06 2.68741e+25 -0.0489202 0.35447 272.592 
-1.45739e-05 -5.49508e-06 2.69062e+25 -0.56089 1.98668 272.058 
-1.26626e-05 -5.49508e-06 2.69328e+25 -1.3405 2.58745 271.836 
-1.07512e-05 -5.49508e-06 2.69631e+25 -2.14634 2.95765 271.634 
-8.83992e-06 -5.49508e-06 2.69614e+25 -3.02569 2.98809 271.471 
-6.92858e-06 -5.49508e-06 2.69378e+25 -3.91016 3.1345 271.659 
-5.01725e-06 -5.49508e-06 2.69715e+25 -4.77204 2.16516 271.48 
-3.10592e-06 -5.49508e-06 2.69399e+25 -5.37418 1.97726 271.851 
-1.19458e-06 -5.49508e-06 2.68976e+25 -5.81282 0.963651 272.155 
-1.64852e-05 -5.01725e-06 2.68741e+25 -0.0627772 0.528072 272.319 
-1.45739e-05 -5.01725e-06 2.69076e+25 -0.789923 1.9527 272.049 
-1.26626e-05 -5.01725e-06 2.69336e+25 -1.43279 2.80987 271.942 
-1.07512e-05 -5.01725e-06 2.69643e+25 -2.31501 3.08961 271.624 
-8.83992e-06 -5.01725e-06 2.69645e+25 -3.10716 3.25417 271.516 
-6.92858e-06 -5.01725e-06 2.69353e+25 -4.1116 3.29238 271.696 
-5.01725e-06 -5.01725e-06 2.69437e+25 -4.95305 2.37618 271.717 
-3.10592e-06 -5.01725e-06 2.69335e+25 -5.62689 2.05155 271.902 
-1.19458e-06 -5.01725e-06 2.69047e+25 -6.07321 1.15413 272.135 
-1.64852e-05 -4.53942e-06 2.68781e+25 -0.138976 0.612995 272.299 
-1.45739e-05 -4.53942e-06 2.69026e+25 -0.685267 1.97913 272.148 
-1.26626e-05 -4.53942e-06 2.69184e+25 -1.25749 2.88573 271.965 
-1.07512e-05 -4.53942e-06 2.69568e+25 -2.3243 3.32246 271.634 
-8.83992e-06 -4.53942e-06 2.69355e+25 -3.22519 3.48635 271.69 
-6.92858e-06 -4.53942e-06 2.68991e+25 -4.20725 3.48737 272.005 
-5.01725e-06 -4.53942e-06 2.69286e+25 -5.04543 2.64363 271.915 
-3.10592e-06 -4.53942e-06 2.6925e+25 -5.73029 2.21539 271.927 
-1.19458e-06 -4.53942e-06 2.69034e+25 -6.07339 1.35669 272.034 
-1.64852e-05 -4.06158e-06 2.6872e+25 -0.14439 0.791031 272.423 
-1.45739e-05 -4.06158e-06 2.69184e+25 -0.771572 1.996 272.131 
-1.26626e-05 -4.06158e-06 2.69215e+25 -1.37149 3.03174 272.023 
-1.07512e-05 -4.06158e-06 2.69589e+25 -2.36896 3.50055 271.582 
-8.83992e-06 -4.06158e-06 2.69575e+25 -3.455 3.77409 271.673 
-6.92858e-06 -4.06158e-06 2.69004e+25 -4.17006 3.61757 272.142 
-5.01725e-06 -4.06158e-06 2.69013e+25 -5.05125 2.79842 271.963 
-3.10592e-06 -4.06158e-06 2.69257e+25 -5.66288 2.37248 271.879 
-1.19458e-06 -4.06158e-06 2.69205e+25 -6.19356 1.50282 271.958 
-1.64852e-05 -3.58375e-06 2.68816e+25 -0.221404 0.90481 272.469 
-1.45739e-05 -3.58375e-06 2.69058e+25 -0.57063 2.07821 272.144 
-1.26626e-05 -3.58375e-06 2.69176e+25 -1.28297 3.31241 271.925 
-1.07512e-05 -3.58375e-06 2.69358e+25 -2.32533 3.72969 271.747 
-8.83992e-06 -3.58375e-06 2.69342e+25 -3.37602 4.18303 271.666 
-6.92858e-06 -3.58375e-06 2.68896e+25 -4.2199 3.86386 272.091 
-5.01725e-06 -3.58375e-06 2.69005e+25 -5.25838 3.0804 272.121 
-3.10592e-06 -3.58375e-06 2.69292e+25 -5.90318 2.54839 271.759 
-1.19458e-06 -3.58375e-06 2.69058e+25 -6.51353 1.49124 272.063 
-1.64852e-05 -3.10592e-06 2.68685e+25 -0.151742 1.04117 272.54 
-1.45739e-05 -3.10592e-06 2.69052e+25 -0.652832 2.27229 272.123 
-1.26626e-05 -3.10592e-06 2.69382e+25 -1.42737 3.66146 271.85 
-1.07512e-05 -3.10592e-06 2.69555e+25 -2.10719 3.9013 271.638 
-8.83992e-06 -3.10592e-06 2.69475e+25 -3.31485 4.48024 271.686 
-6.92858e-06 -3.10592e-06 2.69169e+25 -4.30838 4.10634 271.877 
-5.01725e-06 -3.10592e-06 2.69139e+25 -5.4231 3.33177 271.99 
-3.10592e-06 -3.10592e-06 2.69247e+25 -6.00978 2.76324 271.897 
-1.19458e-06 -3.10592e-06 2.69119e+25 -6.61154 1.60661 271.996 
-1.64852e-05 -2.62808e-06 2.68771e+25 0.0140266 1.14412 272.427 
-1.45739e-05 -2.62808e-06 2.69252e+25 -0.60284 2.47341 272.066 
-1.26626e-05 -2.62808e-06 2.692e+25 -1.54517 3.91141 272.038 
-1.07512e-05 -2.62808e-06 2.69272e+25 -2.08109 4.15653 271.756 
-8.83992e-06 -2.62808e-06 2.69389e+25 -3.21679 4.68988 271.765 
-6.92858e-06 -2.62808e-06 2.69201e+25 -4.34498 4.42203 271.955 
-5.01725e-06 -2.62808e-06 2.69283e+25 -5.32808 3.56226 271.762 
-3.10592e-06 -2.62808e-06 2.69193e+25 -6.04622 3.01279 271.844 
-1.19458e-06 -2.62808e-06 2.69295e+25 -6.57965 1.65504 271.827 
-1.64852e-05 -2.15025e-06 2.68774e+25 0.0608681 1.25879 272.505 
-1.45739e-05 -2.15025e-06 2.6915e+25 -0.571991 2.76503 272.098 
-1.26626e-05 -2.15025e-06 2.69161e+25 -1.3693 4.08742 271.996 
-1.07512e-05 -2.15025e-06 2.69412e+25 -2.12188 4.57261 271.685 
-8.83992e-06 -2.15025e-06 2.6955e+25 -3.12976 4.90913 271.586 
-6.92858e-06 -2.15025e-06 2.69277e+25 -4.25734 4.63136 271.938 
-5.01725e-06 -2.15025e-06 2.69417e+25 -5.11582 3.77448 271.804 
-3.10592e-06 -2.15025e-06 2.69229e+25 -6.02373 3.21942 271.912 
-1.19458e-06 -2.15025e-06 2.69182e+25 -6.57074 1.77563 271.783 
-1.64852e-05 -1.67242e-06 2.68738e+25 -0.0163679 1.21967 272.576 
-1.45739e-05 -1.67242e-06 2.69126e+25 -0.383993 3.09434 272.074 
-1.26626e-05 -1.67242e-06 2.69249e+25 -1.25998 4.219 271.925 
-1.07512e-05 -1.67242e-06 2.69394e+25 -2.28758 4.85814 271.681 
-8.83992e-06 -1.67242e-06 2.69586e+25 -3.1474 5.22245 271.59 
-6.92858e-06 -1.67242e-06 2.69127e+25 -4.24336 4.82578 271.821 
-5.01725e-06 -1.67242e-06 2.69286e+25 -4.95278 4.06291 271.839 
-3.10592e-06 -1.67242e-06 2.69174e+25 -5.91468 3.29212 271.957 
-1.19458e-06 -1.67242e-06 2.69337e+25 -6.69208 1.98502 271.745 
-1.64852e-05 -1.19458e-06 2.68614e+25 -0.0143783 1.16571 272.629 
-1.45739e-05 -1.19458e-06 2.6905e+25 -0.403544 3.41749 272.139 
-1.26626e-05 -1.19458e-06 2.69301e+25 -1.1458 4.39578 271.923 
-1.07512e-05 -1.19458e-06 2.69422e+25 -2.28382 5.06998 271.699 
-8.83992e-06 -1.19458e-06 2.69574e+25 -3.06013 5.47006 271.692 
-6.92858e-06 -1.19458e-06 2.69486e+25 -4.04109 5.07877 271.67 
-5.01725e-06 -1.19458e-06 2.69146e+25 -4.90793 4.3115 271.901 
-3.10592e-06 -1.19458e-06 2.69181e+25 -5.88891 3.37523 271.877 
-1.19458e-06 -1.19458e-06 2.69054e+25 -6.83206 2.22531 271.99 
-1.64852e-05 -7.1675e-07 2.68625e+25 -0.0769946 1.11166 272.637 
-1.45739e-05 -7.1675e-07 2.6889e+25 -0.283792 3.57686 272.223 
-1.26626e-05 -7.1675e-07 2.69356e+25 -1.17939 4.52077 271.949 
-1.07512e-05 -7.1675e-07 2.69371e+25 -2.11842 5.29013 271.686 
-8.83992e-06 -7.1675e-07 2.69341e+25 -3.0282 5.60435 271.784 
-6.92858e-06 -7.1675e-07 2.69224e+25 -4.05776 5.46632 271.659 
-5.01725e-06 -7.1675e-07 2.69103e+25 -5.06152 4.4459 271.947 
-3.10592e-06 -7.1675e-07 2.69324e+25 -6.13004 3.50405 271.822 
-1.19458e-06 -7.1675e-07 2.68986e+25 -6.92494 2.37153 271.999 
-1.64852e-05 -2.38917e-07 2.68411e+25 -0.0459223 1.09456 272.612 
-1.45739e-05 -2.38917e-07 2.68846e+25 -0.240288 3.57044 272.211 
-1.26626e-05 -2.38917e-07 2.68932e+25 -1.02309 4.7339 272.029 
-1.07512e-05 -2.38917e-07 2.69167e+25 -2.1057 5.61645 271.744 
-8.83992e-06 -2.38917e-07 2.69077e+25 -3.17858 5.8108 271.808 
-6.92858e-06 -2.38917e-07 2.69086e+25 -4.06131 5.75945 271.678 
-5.01725e-06 -2.38917e-07 2.69056e+25 -5.16725 4.7212 271.814 
-3.10592e-06 -2.38917e-07 2.69038e+25 -6.10681 3.85506 271.812 
-1.19458e-06 -2.38917e-07 2.68743e+25 -6.99295 2.51652 272.061 
-1.60074e-05 -1.69631e-05 2.68438e+25 -0.00505048 0.00726909 272.86 
-1.40961e-05 -1.69631e-05 2.6862e+25 -0.0213826 0.0112973 272.632 
-1.21847e-05 -1.69631e-05 2.68379e+25 -0.103628 -0.0260151 272.813 
-1.02734e-05 -1.69631e-05 2.68428e+25 -0.135785 -0.0598309 272.813 
-8.36208e-06 -1.69631e-05 2.68591e+25 -0.100597 0.0194831 272.757 
-6.45075e-06 -1.69631e-05 2.68655e+25 0.00695732 0.0247104 272.668 
-4.53942e-06 -1.69631e-05 2.68482e+25 -0.154841 -0.0698619 272.834 
-2.62808e-06 -1.69631e-05 2.68261e+25 -0.107216 -0.0118758 272.973 
-7.1675e-07 -1.69631e-05 2.68447e+25 -0.174691 -0.00971144 272.807 
-1.60074e-05 -1.64852e-05 2.6886e+25 0.0437987 0.0268229 272.374 
-1.40961e-05 -1.64852e-05 2.68812e+25 -0.0470458 0.0432272 272.435 
-1.21847e-05 -1.64852e-05 2.68626e+25 -0.246426 0.0246479 272.574 
-1.02734e-05 -1.64852e-05 2.68655e+25 -0.149764 -0.028167 272.68 
-8.36208e-06 -1.64852e-05 2.68855e+25 -0.172514 -0.00727608 272.415 
-6.45075e-06 -1.64852e-05 2.68877e+25 -0.20096 0.136786 272.422 
-4.53942e-06 -1.64852e-05 2.68736e+25 -0.378662 -0.163217 272.408 
-2.62808e-06 -1.64852e-05 2.68497e+25 -0.273622 0.0243368 272.644 
-7.1675e-07 -1.64852e-05 2.68684e+25 -0.242076 0.00519108 272.505 
-1.60074e-05 -1.60074e-05 2.69228e+25 0.162882 0.0650853 272.199 
-1.40961e-05 -1.60074e-05 2.68908e+25 -0.140655 0.0140441 272.331 
-1.21847e-05 -1.60074e-05 2.6892e+25 -0.158112 0.0117279 272.294 
-1.02734e-05 -1.60074e-05 2.68635e+25 -0.127293 0.174622 272.633 
-8.36208e-06 -1.60074e-05 2.69017e+25 -0.22657 0.000716302 272.27 
-6.45075e-06 -1.60074e-05 2.69001e+25 -0.496353 0.145376 272.217 
-4.53942e-06 -1.60074e-05 2.68964e+25 -0.583024 -0.240517 272.314 
-2.62808e-06 -1.60074e-05 2.68766e+25 -0.448985 0.0405442 272.48 
-7.1675e-07 -1.60074e-05 2.68713e+25 -0.631568 0.067554 272.549 
-1.60074e-05 -1.55296e-05 2.69175e+25 -0.0691575 -0.0777881 272.082 
-1.40961e-05 -1.55296e-05 2.69242e+25 -0.174342 -0.0396619 272.076 
-1.21847e-05 -1.55296e-05 2.68848e+25 -0.245654 -0.0331475 272.347 
-1.02734e-05 -1.55296e-05 2.68675e+25 -0.134893 0.166476 272.547 
-8.36208e-06 -1.55296e-05 2.6907e+25 -0.398472 0.02592 272.156 
-6.45075e-06 -1.55296e-05 2.69172e+25 -0.602373 0.243062 272.015 
-4.53942e-06 -1.55296e-05 2.69094e+25 -0.835003 -0.272409 272.21 
-2.62808e-06 -1.55296e-05 2.68874e+25 -0.571056 0.0564295 272.266 
-7.1675e-07 -1.55296e-05 2.68714e+25 -0.98001 0.141283 272.456 
-1.60074e-05 -1.50517e-05 2.69168e+25 -0.167728 -0.0487417 272.165 
-1.40961e-05 -1.50517e-05 2.69171e+25 0.088315 0.00417754 272.157 
-1.21847e-05 -1.50517e-05 2.68895e+25 -0.159274 -0.0176496 272.337 
-1.02734e-05 -1.50517e-05 2.68892e+25 -0.26333 0.259036 272.359 
-8.36208e-06 -1.50517e-05 2.69202e+25 -0.718249 0.11078 272.042 
-6.45075e-06 -1.50517e-05 2.6918e+25 -0.8494 0.281359 272.083 
-4.53942e-06 -1.50517e-05 2.69115e+25 -0.95972 -0.222644 272.134 
-2.62808e-06 -1.50517e-05 2.69116e+25 -0.773687 0.0287343 272.26 
-7.1675e-07 -1.50517e-05 2.68966e+25 -1.15572 0.204165 272.329 
-1.60074e-05 -1.45739e-05 2.69226e+25 0.0218371 -0.130958 272.053 
-1.40961e-05 -1.45739e-05 2.69089e+25 0.131972 0.033048 272.102 
-1.21847e-05 -1.45739e-05 2.68837e+25 -0.179507 0.046106 272.479 
-1.02734e-05 -1.45739e-05 2.6909e+25 -0.475507 0.256555 272.116 
-8.36208e-06 -1.45739e-05 2.69111e+25 -1.05015 0.181332 272.076 
-6.45075e-06 -1.45739e-05 2.69036e+25 -0.959075 0.299594 272.025 
-4.53942e-06 -1.45739e-05 2.68942e+25 -1.13599 -0.237318 272.207 
-2.62808e-06 -1.45739e-05 2.69007e+25 -1.20696 0.13846 272.168 
-7.1675e-07 -1.45739e-05 2.68747e+25 -1.3178 0.200092 272.388 
-1.60074e-05 -1.40961e-05 2.69102e+25 0.0331551 -0.106554 272.22 
-1.40961e-05 -1.40961e-05 2.69208e+25 0.00807527 0.0736605 272.084 
-1.21847e-05 -1.40961e-05 2.69125e+25 -0.248347 0.190921 272.305 
-1.02734e-05 -1.40961e-05 2.69196e+25 -0.590899 0.261601 272.01 
-8.36208e-06 -1.40961e-05 2.69042e+25 -1.06674 0.256242 272.039 
-6.45075e-06 -1.40961e-05 2.69332e+25 -1.26815 0.233269 271.957 
-4.53942e-06 -1.40961e-05 2.69283e+25 -1.33192 -0.125877 271.971 
-2.62808e-06 -1.40961e-05 2.68885e+25 -1.58666 0.178827 272.289 
-7.1675e-07 -1.40961e-05 2.69041e+25 -1.40425 0.135313 272.123 
-1.60074e-05 -1.36182e-05 2.69004e+25 0.110083 -0.0117014 272.256 
-1.40961e-05 -1.36182e-05 2.69113e+25 -0.196481 0.139377 272.03 
-1.21847e-05 -1.36182e-05 2.69192e+25 -0.39748 0.284094 272.02 
-1.02734e-05 -1.36182e-05 2.69224e+25 -0.802853 0.353353 272.046 
-8.36208e-06 -1.36182e-05 2.69218e+25 -1.2412 0.507602 271.882 
-6.45075e-06 -1.36182e-05 2.69215e+25 -1.59694 0.174439 271.977 
-4.53942e-06 -1.36182e-05 2.69306e+25 -1.5083 0.0576169 272.013 
-2.62808e-06 -1.36182e-05 2.68914e+25 -1.8689 0.172535 272.345 
-7.1675e-07 -1.36182e-05 2.6899e+25 -1.67723 0.148327 272.066 
-1.60074e-05 -1.31404e-05 2.68846e+25 0.0400069 0.0819486 272.242 
-1.40961e-05 -1.31404e-05 2.69289e+25 -0.210928 0.0849558 271.875 
-1.21847e-05 -1.31404e-05 2.69257e+25 -0.313342 0.326991 271.881 
-1.02734e-05 -1.31404e-05 2.69412e+25 -0.839708 0.620233 271.883 
-8.36208e-06 -1.31404e-05 2.69417e+25 -1.40968 0.66347 271.823 
-6.45075e-06 -1.31404e-05 2.69201e+25 -1.71581 0.257039 271.883 
-4.53942e-06 -1.31404e-05 2.69586e+25 -1.61771 0.19823 271.742 
-2.62808e-06 -1.31404e-05 2.69216e+25 -2.05151 0.0855194 272.148 
-7.1675e-07 -1.31404e-05 2.69068e+25 -2.0233 0.0807722 272.189 
-1.60074e-05 -1.26626e-05 2.69308e+25 -0.0268022 0.162979 271.94 
-1.40961e-05 -1.26626e-05 2.69304e+25 -0.294465 0.090958 271.955 
-1.21847e-05 -1.26626e-05 2.69258e+25 -0.464805 0.280562 271.899 
-1.02734e-05 -1.26626e-05 2.69327e+25 -1.11006 0.789577 271.865 
-8.36208e-06 -1.26626e-05 2.69237e+25 -1.38699 0.738867 271.969 
-6.45075e-06 -1.26626e-05 2.69268e+25 -2.01001 0.351059 271.866 
-4.53942e-06 -1.26626e-05 2.69212e+25 -1.99815 0.346469 271.894 
-2.62808e-06 -1.26626e-05 2.69109e+25 -2.31706 0.0886354 272.102 
-7.1675e-07 -1.26626e-05 2.69296e+25 -2.15224 0.0226945 271.923 
-1.60074e-05 -1.21847e-05 2.69178e+25 -0.207152 0.203474 272.099 
-1.40961e-05 -1.21847e-05 2.693e+25 -0.3649 0.247285 271.951 
-1.21847e-05 -1.21847e-05 2.69271e+25 -0.684091 0.394515 271.944 
-1.02734e-05 -1.21847e-05 2.69388e+25 -1.18174 0.912045 271.766 
-8.36208e-06 -1.21847e-05 2.69166e+25 -1.64842 0.832988 271.917 
-6.45075e-06 -1.21847e-05 2.6926e+25 -2.09246 0.379405 271.984 
-4.53942e-06 -1.21847e-05 2.69182e+25 -2.25182 0.391286 272.014 
-2.62808e-06 -1.21847e-05 2.69109e+25 -2.43026 0.121055 272.044 
-7.1675e-07 -1.21847e-05 2.69239e+25 -2.48245 8.43749e-05 271.932 
-1.60074e-05 -1.17069e-05 2.6923e+25 -0.123879 0.161659 272.035 
-1.40961e-05 -1.17069e-05 2.69314e+25 -0.462265 0.370498 271.901 
-1.21847e-05 -1.17069e-05 2.69092e+25 -0.837628 0.5489 272.106 
-1.02734e-05 -1.17069e-05 2.69366e+25 -1.25294 0.939286 271.84 
-8.36208e-06 -1.17069e-05 2.69252e+25 -1.62805 0.875339 271.915 
-6.45075e-06 -1.17069e-05 2.69268e+25 -1.95371 0.493149 272.01 
-4.53942e-06 -1.17069e-05 2.69276e+25 -2.51819 0.405155 272.017 
-2.62808e-06 -1.17069e-05 2.69254e+25 -2.6296 0.106596 272.01 
-7.1675e-07 -1.17069e-05 2.6923e+25 -2.67463 0.103186 272.048 
-1.60074e-05 -1.12291e-05 2.69029e+25 -0.0983915 0.174255 272.179 
-1.40961e-05 -1.12291e-05 2.69319e+25 -0.450299 0.507266 271.897 
-1.21847e-05 -1.12291e-05 2.68945e+25 -0.755627 0.733944 272.19 
-1.02734e-05 -1.12291e-05 2.69331e+25 -1.07429 1.02079 271.95 
-8.36208e-06 -1.12291e-05 2.69228e+25 -1.75156 1.04841 271.967 
-6.45075e-06 -1.12291e-05 2.69304e+25 -2.14246 0.605643 271.983 
-4.53942e-06 -1.12291e-05 2.6939e+25 -2.82254 0.420065 271.809 
-2.62808e-06 -1.12291e-05 2.69229e+25 -2.98552 0.149599 272.076 
-7.1675e-07 -1.12291e-05 2.6932e+25 -3.06597 0.193841 272.102 
-1.60074e-05 -1.07512e-05 2.69027e+25 0.0379132 0.245638 272.296 
-1.40961e-05 -1.07512e-05 2.69185e+25 -0.420402 0.59592 272.122 
-1.21847e-05 -1.07512e-05 2.69216e+25 -0.808718 0.891126 272.067 
-1.02734e-05 -1.07512e-05 2.69331e+25 -1.35956 1.16624 271.873 
-8.36208e-06 -1.07512e-05 2.69117e+25 -1.85284 1.21169 271.985 
-6.45075e-06 -1.07512e-05 2.69277e+25 -2.27887 0.595665 272.011 
-4.53942e-06 -1.07512e-05 2.69354e+25 -2.83637 0.499332 271.83 
-2.62808e-06 -1.07512e-05 2.69078e+25 -3.27468 0.167435 272.11 
-7.1675e-07 -1.07512e-05 2.69037e+25 -3.5223 0.206437 272.043 
-1.60074e-05 -1.02734e-05 2.68958e+25 -0.207416 0.337794 272.291 
-1.40961e-05 -1.02734e-05 2.69229e+25 -0.404091 0.722793 272.043 
-1.21847e-05 -1.02734e-05 2.69251e+25 -0.962601 0.92058 271.982 
-1.02734e-05 -1.02734e-05 2.69239e+25 -1.54058 1.2576 271.93 
-8.36208e-06 -1.02734e-05 2.69358e+25 -1.98338 1.33011 271.838 
-6.45075e-06 -1.02734e-05 2.69399e+25 -2.55577 0.758236 271.817 
-4.53942e-06 -1.02734e-05 2.69525e+25 -2.98412 0.548188 271.67 
-2.62808e-06 -1.02734e-05 2.69068e+25 -3.56628 0.32542 272.142 
-7.1675e-07 -1.02734e-05 2.68995e+25 -3.98611 0.276554 272.205 
-1.60074e-05 -9.79558e-06 2.6904e+25 -0.0393347 0.39578 272.161 
-1.40961e-05 -9.79558e-06 2.69172e+25 -0.217491 0.827726 271.972 
-1.21847e-05 -9.79558e-06 2.69281e+25 -0.960784 1.05306 271.881 
-1.02734e-05 -9.79558e-06 2.6939e+25 -1.34288 1.49376 272.033 
-8.36208e-06 -9.79558e-06 2.69223e+25 -2.02352 1.48118 271.791 
-6.45075e-06 -9.79558e-06 2.69305e+25 -2.84481 1.0094 271.856 
-4.53942e-06 -9.79558e-06 2.69451e+25 -3.34356 0.602149 271.645 
-2.62808e-06 -9.79558e-06 2.69069e+25 -3.89869 0.533616 272.087 
-7.1675e-07 -9.79558e-06 2.68894e+25 -4.2007 0.218645 272.196 
-1.60074e-05 -9.31775e-06 2.68842e+25 -0.00985563 0.39613 272.394 
-1.40961e-05 -9.31775e-06 2.69297e+25 -0.150588 1.02894 271.773 
-1.21847e-05 -9.31775e-06 2.69585e+25 -0.752046 1.17812 271.709 
-1.02734e-05 -9.31775e-06 2.69323e+25 -1.43281 1.77327 271.93 
-8.36208e-06 -9.31775e-06 2.69543e+25 -2.0664 1.56398 271.878 
-6.45075e-06 -9.31775e-06 2.69292e+25 -2.7896 1.18702 271.856 
-4.53942e-06 -9.31775e-06 2.69504e+25 -3.61475 0.665772 271.652 
-2.62808e-06 -9.31775e-06 2.69206e+25 -4.17493 0.698035 272.087 
-7.1675e-07 -9.31775e-06 2.69134e+25 -4.36065 0.170035 272.171 
-1.60074e-05 -8.83992e-06 2.68697e+25 -0.0410013 0.307937 272.443 
-1.40961e-05 -8.83992e-06 2.69345e+25 -0.202627 1.18737 271.81 
-1.21847e-05 -8.83992e-06 2.69513e+25 -0.697328 1.31887 271.67 
-1.02734e-05 -8.83992e-06 2.69331e+25 -1.49174 1.93318 271.985 
-8.36208e-06 -8.83992e-06 2.69219e+25 -2.06645 1.70579 271.993 
-6.45075e-06 -8.83992e-06 2.69321e+25 -2.97467 1.34288 271.866 
-4.53942e-06 -8.83992e-06 2.69537e+25 -3.58392 0.823153 271.739 
-2.62808e-06 -8.83992e-06 2.69203e+25 -4.44601 0.884517 272.144 
-7.1675e-07 -8.83992e-06 2.69081e+25 -4.64418 0.113924 272.242 
-1.60074e-05 -8.36208e-06 2.68892e+25 -0.108801 0.341315 272.342 
-1.40961e-05 -8.36208e-06 2.69169e+25 -0.318782 1.29011 272.084 
-1.21847e-05 -8.36208e-06 2.69358e+25 -0.971928 1.59233 271.831 
-1.02734e-05 -8.36208e-06 2.69361e+25 -1.5368 1.97686 271.828 
-8.36208e-06 -8.36208e-06 2.69283e+25 -2.04936 1.84161 271.903 
-6.45075e-06 -8.36208e-06 2.69297e+25 -3.05483 1.55675 271.88 
-4.53942e-06 -8.36208e-06 2.69419e+25 -3.74299 1.05822 271.767 
-2.62808e-06 -8.36208e-06 2.69167e+25 -4.59257 1.04706 272.027 
-7.1675e-07 -8.36208e-06 2.68987e+25 -4.83587 0.110508 272.261 
-1.60074e-05 -7.88425e-06 2.68994e+25 0.0347242 0.315213 272.195 
-1.40961e-05 -7.88425e-06 2.69221e+25 -0.34255 1.4626 271.965 
-1.21847e-05 -7.88425e-06 2.69241e+25 -1.08737 1.72697 271.803 
-1.02734e-05 -7.88425e-06 2.69363e+25 -1.53483 2.08035 271.852 
-8.36208e-06 -7.88425e-06 2.69331e+25 -2.14807 1.98879 271.889 
-6.45075e-06 -7.88425e-06 2.6929e+25 -3.20377 1.87622 271.934 
-4.53942e-06 -7.88425e-06 2.69339e+25 -3.9112 1.26444 271.87 
-2.62808e-06 -7.88425e-06 2.69342e+25 -4.59895 1.15342 271.97 
-7.1675e-07 -7.88425e-06 2.69089e+25 -5.08407 0.157414 272.088 
-1.60074e-05 -7.40642e-06 2.69086e+25 0.0744507 0.3555 272.087 
-1.40961e-05 -7.40642e-06 2.69178e+25 -0.690367 1.58711 271.976 
-1.21847e-05 -7.40642e-06 2.69276e+25 -1.03155 1.86045 271.892 
-1.02734e-05 -7.40642e-06 2.69305e+25 -1.59025 2.13396 271.846 
-8.36208e-06 -7.40642e-06 2.69495e+25 -2.25987 2.13546 271.684 
-6.45075e-06 -7.40642e-06 2.69409e+25 -3.26092 2.052 271.8 
-4.53942e-06 -7.40642e-06 2.69191e+25 -3.9747 1.50223 271.928 
-2.62808e-06 -7.40642e-06 2.69276e+25 -4.71762 1.21685 272.043 
-7.1675e-07 -7.40642e-06 2.69165e+25 -5.25159 0.208729 271.976 
-1.60074e-05 -6.92858e-06 2.69189e+25 0.0507056 0.424836 272.057 
-1.40961e-05 -6.92858e-06 2.69397e+25 -0.608643 1.70859 271.853 
-1.21847e-05 -6.92858e-06 2.69294e+25 -0.997643 2.085 271.857 
-1.02734e-05 -6.92858e-06 2.69294e+25 -1.87183 2.32097 271.88 
-8.36208e-06 -6.92858e-06 2.69473e+25 -2.49473 2.46805 271.687 
-6.45075e-06 -6.92858e-06 2.69269e+25 -3.49771 2.22433 271.894 
-4.53942e-06 -6.92858e-06 2.69316e+25 -4.22172 1.72825 271.766 
-2.62808e-06 -6.92858e-06 2.69084e+25 -4.95347 1.34475 272.043 
-7.1675e-07 -6.92858e-06 2.68995e+25 -5.344 0.375599 272.151 
-1.60074e-05 -6.45075e-06 2.69275e+25 -0.0581941 0.592886 271.982 
-1.40961e-05 -6.45075e-06 2.6917e+25 -0.381606 1.83768 271.968 
-1.21847e-05 -6.45075e-06 2.69439e+25 -1.06618 2.31456 271.742 
-1.02734e-05 -6.45075e-06 2.69343e+25 -2.04801 2.44046 271.736 
-8.36208e-06 -6.45075e-06 2.69722e+25 -2.81679 2.70307 271.553 
-6.45075e-06 -6.45075e-06 2.69308e+25 -3.53087 2.40479 271.906 
-4.53942e-06 -6.45075e-06 2.69386e+25 -4.41999 1.99825 271.792 
-2.62808e-06 -6.45075e-06 2.6928e+25 -5.13255 1.49163 271.948 
-7.1675e-07 -6.45075e-06 2.69057e+25 -5.54307 0.445711 272.179 
-1.60074e-05 -5.97292e-06 2.69158e+25 -0.155584 0.592541 272.073 
-1.40961e-05 -5.97292e-06 2.69296e+25 -0.570154 2.01647 271.943 
-1.21847e-05 -5.97292e-06 2.69285e+25 -1.30705 2.51315 271.776 
-1.02734e-05 -5.97292e-06 2.69558e+25 -2.24535 2.66488 271.613 
-8.36208e-06 -5.97292e-06 2.69517e+25 -3.03108 2.79111 271.55 
-6.45075e-06 -5.97292e-06 2.69276e+25 -3.83656 2.65872 271.844 
-4.53942e-06 -5.97292e-06 2.69302e+25 -4.54837 2.17311 271.876 
-2.62808e-06 -5.97292e-06 2.68996e+25 -5.23016 1.6731 271.984 
-7.1675e-07 -5.97292e-06 2.69088e+25 -5.79413 0.470604 272.1 
-1.60074e-05 -5.49508e-06 2.68978e+25 -0.220293 0.687044 272.265 
-1.40961e-05 -5.49508e-06 2.69188e+25 -0.647722 2.08525 272.07 
-1.21847e-05 -5.49508e-06 2.69356e+25 -1.57422 2.76443 271.856 
-1.02734e-05 -5.49508e-06 2.69633e+25 -2.26077 2.856 271.539 
-8.36208e-06 -5.49508e-06 2.69878e+25 -3.22326 3.00841 271.343 
-6.45075e-06 -5.49508e-06 2.69271e+25 -4.11258 2.8881 271.782 
-4.53942e-06 -5.49508e-06 2.69626e+25 -4.81888 2.29371 271.523 
-2.62808e-06 -5.49508e-06 2.69107e+25 -5.45466 1.81477 272.031 
-7.1675e-07 -5.49508e-06 2.69049e+25 -6.0309 0.543947 272.199 
-1.60074e-05 -5.01725e-06 2.68969e+25 -0.255496 0.873974 272.188 
-1.40961e-05 -5.01725e-06 2.69187e+25 -0.799992 2.13351 272.089 
-1.21847e-05 -5.01725e-06 2.69153e+25 -1.51615 2.94258 271.961 
-1.02734e-05 -5.01725e-06 2.69757e+25 -2.54804 3.09025 271.406 
-8.36208e-06 -5.01725e-06 2.69639e+25 -3.45893 3.32225 271.517 
-6.45075e-06 -5.01725e-06 2.69315e+25 -4.29239 3.1194 271.782 
-4.53942e-06 -5.01725e-06 2.69507e+25 -5.18185 2.42675 271.771 
-2.62808e-06 -5.01725e-06 2.69045e+25 -5.70068 1.87512 272.033 
-7.1675e-07 -5.01725e-06 2.69218e+25 -6.28544 0.743657 272.045 
-1.60074e-05 -4.53942e-06 2.69226e+25 -0.236396 1.10433 272.067 
-1.40961e-05 -4.53942e-06 2.69097e+25 -0.736054 2.27619 272.113 
-1.21847e-05 -4.53942e-06 2.6927e+25 -1.43377 3.12058 271.911 
-1.02734e-05 -4.53942e-06 2.69664e+25 -2.58766 3.36161 271.447 
-8.36208e-06 -4.53942e-06 2.69446e+25 -3.49267 3.69981 271.752 
-6.45075e-06 -4.53942e-06 2.69136e+25 -4.39779 3.33607 272.034 
-4.53942e-06 -4.53942e-06 2.69358e+25 -5.30523 2.66346 271.73 
-2.62808e-06 -4.53942e-06 2.69097e+25 -5.89652 1.92443 271.996 
-7.1675e-07 -4.53942e-06 2.69178e+25 -6.28123 0.95478 271.988 
-1.60074e-05 -4.06158e-06 2.68989e+25 -0.335788 1.27668 272.182 
-1.40961e-05 -4.06158e-06 2.69088e+25 -0.814838 2.3935 272.135 
-1.21847e-05 -4.06158e-06 2.69216e+25 -1.58381 3.35045 271.917 
-1.02734e-05 -4.06158e-06 2.69572e+25 -2.61814 3.69671 271.616 
-8.36208e-06 -4.06158e-06 2.69585e+25 -3.72589 3.95117 271.655 
-6.45075e-06 -4.06158e-06 2.68928e+25 -4.34288 3.49755 272.149 
-4.53942e-06 -4.06158e-06 2.69332e+25 -5.22311 2.95136 271.812 
-2.62808e-06 -4.06158e-06 2.69295e+25 -5.86452 2.06157 271.925 
-7.1675e-07 -4.06158e-06 2.69104e+25 -6.2596 1.13884 272.101 
-1.60074e-05 -3.58375e-06 2.68959e+25 -0.339296 1.39647 272.21 
-1.40961e-05 -3.58375e-06 2.68949e+25 -0.72076 2.43324 272.118 
-1.21847e-05 -3.58375e-06 2.69163e+25 -1.52849 3.58718 271.866 
-1.02734e-05 -3.58375e-06 2.69411e+25 -2.47541 3.88649 271.738 
-8.36208e-06 -3.58375e-06 2.69532e+25 -3.66174 4.11314 271.557 
-6.45075e-06 -3.58375e-06 2.69107e+25 -4.48747 3.72819 272.002 
-4.53942e-06 -3.58375e-06 2.6938e+25 -5.41924 3.07771 271.87 
-2.62808e-06 -3.58375e-06 2.69334e+25 -6.05764 2.25968 271.877 
-7.1675e-07 -3.58375e-06 2.69104e+25 -6.46772 1.18287 272.099 
-1.60074e-05 -3.10592e-06 2.68937e+25 -0.23851 1.44886 272.177 
-1.40961e-05 -3.10592e-06 2.69091e+25 -0.836214 2.58347 272.077 
-1.21847e-05 -3.10592e-06 2.69196e+25 -1.69873 3.7981 271.862 
-1.02734e-05 -3.10592e-06 2.69262e+25 -2.29495 4.10785 271.772 
-8.36208e-06 -3.10592e-06 2.69538e+25 -3.54445 4.34041 271.644 
-6.45075e-06 -3.10592e-06 2.6928e+25 -4.647 4.05038 271.927 
-4.53942e-06 -3.10592e-06 2.69257e+25 -5.64141 3.17309 271.981 
-2.62808e-06 -3.10592e-06 2.69296e+25 -6.22774 2.40288 271.851 
-7.1675e-07 -3.10592e-06 2.68915e+25 -6.5981 1.13532 272.196 
-1.60074e-05 -2.62808e-06 2.68904e+25 -0.12931 1.55791 272.233 
-1.40961e-05 -2.62808e-06 2.69104e+25 -0.920031 2.80059 272.056 
-1.21847e-05 -2.62808e-06 2.69215e+25 -1.67772 3.92888 271.945 
-1.02734e-05 -2.62808e-06 2.69383e+25 -2.39972 4.32258 271.877 
-8.36208e-06 -2.62808e-06 2.69336e+25 -3.40497 4.51709 271.744 
-6.45075e-06 -2.62808e-06 2.69269e+25 -4.56359 4.30955 271.948 
-4.53942e-06 -2.62808e-06 2.69254e+25 -5.51704 3.36315 271.976 
-2.62808e-06 -2.62808e-06 2.69315e+25 -6.35377 2.6397 271.83 
-7.1675e-07 -2.62808e-06 2.68996e+25 -6.79769 1.23631 272.062 
-1.60074e-05 -2.15025e-06 2.68801e+25 -0.144521 1.75056 272.391 
-1.40961e-05 -2.15025e-06 2.68915e+25 -0.859193 3.11385 272.22 
-1.21847e-05 -2.15025e-06 2.69289e+25 -1.55744 4.09256 271.921 
-1.02734e-05 -2.15025e-06 2.69488e+25 -2.43627 4.52785 271.77 
-8.36208e-06 -2.15025e-06 2.69495e+25 -3.47333 4.83322 271.646 
-6.45075e-06 -2.15025e-06 2.69185e+25 -4.53836 4.59351 272.06 
-4.53942e-06 -2.15025e-06 2.69243e+25 -5.40951 3.59491 271.975 
-2.62808e-06 -2.15025e-06 2.69283e+25 -6.12064 2.85122 271.775 
-7.1675e-07 -2.15025e-06 2.69173e+25 -6.74494 1.47544 271.881 
-1.60074e-05 -1.67242e-06 2.6871e+25 0.0776749 1.9167 272.374 
-1.40961e-05 -1.67242e-06 2.69052e+25 -0.67312 3.32931 272.147 
-1.21847e-05 -1.67242e-06 2.69284e+25 -1.45598 4.34048 271.867 
-1.02734e-05 -1.67242e-06 2.69369e+25 -2.53163 4.82557 271.843 
-8.36208e-06 -1.67242e-06 2.69461e+25 -3.46192 5.23171 271.719 
-6.45075e-06 -1.67242e-06 2.69036e+25 -4.38914 4.8378 271.957 
-4.53942e-06 -1.67242e-06 2.69123e+25 -5.18334 3.80974 271.976 
-2.62808e-06 -1.67242e-06 2.6934e+25 -6.04199 2.97507 271.746 
-7.1675e-07 -1.67242e-06 2.69057e+25 -6.9034 1.67092 271.897 
-1.60074e-05 -1.19458e-06 2.68721e+25 0.0830094 1.87711 272.429 
-1.40961e-05 -1.19458e-06 2.69029e+25 -0.645514 3.59756 272.162 
-1.21847e-05 -1.19458e-06 2.69257e+25 -1.29405 4.52455 271.847 
-1.02734e-05 -1.19458e-06 2.69507e+25 -2.51411 5.13238 271.531 
-8.36208e-06 -1.19458e-06 2.69509e+25 -3.28844 5.43458 271.63 
-6.45075e-06 -1.19458e-06 2.69321e+25 -4.36716 5.0175 271.816 
-4.53942e-06 -1.19458e-06 2.69079e+25 -5.18959 4.07907 271.998 
-2.62808e-06 -1.19458e-06 2.69356e+25 -5.94788 3.11587 271.642 
-7.1675e-07 -1.19458e-06 2.69083e+25 -7.06681 1.9123 271.976 
-1.60074e-05 -7.1675e-07 2.68764e+25 -0.0526058 1.78696 272.366 
-1.40961e-05 -7.1675e-07 2.68786e+25 -0.405733 3.82342 272.25 
-1.21847e-05 -7.1675e-07 2.69247e+25 -1.35022 4.73103 271.952 
-1.02734e-05 -7.1675e-07 2.69533e+25 -2.37949 5.46304 271.675 
-8.36208e-06 -7.1675e-07 2.69228e+25 -3.19737 5.66856 271.698 
-6.45075e-06 -7.1675e-07 2.69255e+25 -4.32257 5.21641 271.778 
-4.53942e-06 -7.1675e-07 2.69034e+25 -5.28449 4.38736 271.949 
-2.62808e-06 -7.1675e-07 2.69669e+25 -6.29321 3.22074 271.569 
-7.1675e-07 -7.1675e-07 2.69186e+25 -7.04383 2.18964 271.822 
-1.60074e-05 -2.38917e-07 2.68388e+25 -0.102295 1.84462 272.473 
-1.40961e-05 -2.38917e-07 2.68676e+25 -0.345629 4.04086 272.187 
-1.21847e-05 -2.38917e-07 2.68986e+25 -1.30916 4.98702 272 
-1.02734e-05 -2.38917e-07 2.69191e+25 -2.41297 5.69795 271.728 
-8.36208e-06 -2.38917e-07 2.69113e+25 -3.4009 5.87497 271.773 
-6.45075e-06 -2.38917e-07 2.6889e+25 -4.27123 5.43454 271.833 
-4.53942e-06 -2.38917e-07 2.69231e+25 -5.41528 4.61164 271.72 
-2.62808e-06 -2.38917e-07 2.69053e+25 -6.46891 3.49152 271.74 
-7.1675e-07 -2.38917e-07 2.68848e+25 -7.08318 2.27645 271.991 
-1.55296e-05 -1.69631e-05 2.6847e+25 -0.0141531 -0.0277598 272.775 
-1.36182e-05 -1.69631e-05 2.68434e+25 -0.0300401 0.0140223 272.79 
-1.17069e-05 -1.69631e-05 2.68554e+25 -0.114244 0.0444397 272.711 
-9.79558e-06 -1.69631e-05 2.68467e+25 -0.130296 -0.00537442 272.8 
-7.88425e-06 -1.69631e-05 2.6839e+25 -0.0860569 -0.00968644 272.79 
-5.97292e-06 -1.69631e-05 2.68517e+25 -0.128921 0.0817581 272.737 
-4.06158e-06 -1.69631e-05 2.68542e+25 -0.0926984 0.0084607 272.845 
-2.15025e-06 -1.69631e-05 2.68336e+25 -0.118512 0.0184524 272.855 
-2.38917e-07 -1.69631e-05 2.68233e+25 -0.128148 -0.0450573 272.758 
-1.55296e-05 -1.64852e-05 2.68777e+25 -0.0222609 0.0345838 272.48 
-1.36182e-05 -1.64852e-05 2.68928e+25 -0.0449457 -0.00634729 272.448 
-1.17069e-05 -1.64852e-05 2.6875e+25 -0.204578 0.0190784 272.466 
-9.79558e-06 -1.64852e-05 2.68683e+25 -0.23712 0.0759768 272.553 
-7.88425e-06 -1.64852e-05 2.68698e+25 -0.180148 -0.0266423 272.539 
-5.97292e-06 -1.64852e-05 2.68752e+25 -0.285443 0.172399 272.511 
-4.06158e-06 -1.64852e-05 2.68745e+25 -0.301556 -0.0937538 272.524 
-2.15025e-06 -1.64852e-05 2.68552e+25 -0.250955 -0.0249594 272.727 
-2.38917e-07 -1.64852e-05 2.68524e+25 -0.323087 0.0185053 272.394 
-1.55296e-05 -1.60074e-05 2.68892e+25 0.0818342 0.141383 272.307 
-1.36182e-05 -1.60074e-05 2.68892e+25 -0.130612 -0.0171127 272.307 
-1.17069e-05 -1.60074e-05 2.68869e+25 -0.0672644 -0.0989594 272.362 
-9.79558e-06 -1.60074e-05 2.68779e+25 -0.246744 0.122901 272.495 
-7.88425e-06 -1.60074e-05 2.68935e+25 -0.336042 0.063606 272.283 
-5.97292e-06 -1.60074e-05 2.68918e+25 -0.499087 0.278268 272.251 
-4.06158e-06 -1.60074e-05 2.68932e+25 -0.462172 -0.164139 272.379 
-2.15025e-06 -1.60074e-05 2.68738e+25 -0.463653 -0.0165861 272.523 
-2.38917e-07 -1.60074e-05 2.68535e+25 -0.723862 0.138228 272.44 
-1.55296e-05 -1.55296e-05 2.68921e+25 0.0178658 0.236322 272.261 
-1.36182e-05 -1.55296e-05 2.68941e+25 -0.179469 0.0672659 272.179 
-1.17069e-05 -1.55296e-05 2.68835e+25 -0.188476 -0.233482 272.362 
-9.79558e-06 -1.55296e-05 2.68895e+25 -0.260162 0.217809 272.318 
-7.88425e-06 -1.55296e-05 2.69063e+25 -0.424932 0.183995 272.122 
-5.97292e-06 -1.55296e-05 2.69128e+25 -0.754187 0.345401 272.136 
-4.06158e-06 -1.55296e-05 2.69048e+25 -0.791762 -0.259775 272.19 
-2.15025e-06 -1.55296e-05 2.6887e+25 -0.565215 -0.0530056 272.308 
-2.38917e-07 -1.55296e-05 2.68693e+25 -0.944526 0.112072 272.243 
-1.55296e-05 -1.50517e-05 2.69147e+25 -0.0697573 0.156263 272.068 
-1.36182e-05 -1.50517e-05 2.69058e+25 0.0322074 0.115678 272.148 
-1.17069e-05 -1.50517e-05 2.6889e+25 -0.322611 -0.13853 272.311 
-9.79558e-06 -1.50517e-05 2.69151e+25 -0.302073 0.328648 272.103 
-7.88425e-06 -1.50517e-05 2.69127e+25 -0.737007 0.124053 272.075 
-5.97292e-06 -1.50517e-05 2.68986e+25 -0.800344 0.372281 272.25 
-4.06158e-06 -1.50517e-05 2.6932e+25 -0.932437 -0.39937 271.986 
-2.15025e-06 -1.50517e-05 2.69011e+25 -0.91643 0.0829425 272.305 
-2.38917e-07 -1.50517e-05 2.68875e+25 -1.16642 0.0441535 272.167 
-1.55296e-05 -1.45739e-05 2.69041e+25 0.120548 0.0999997 272.1 
-1.36182e-05 -1.45739e-05 2.68906e+25 0.125222 0.149762 272.2 
-1.17069e-05 -1.45739e-05 2.68848e+25 -0.290557 0.0477564 272.391 
-9.79558e-06 -1.45739e-05 2.695e+25 -0.439361 0.340446 271.915 
-7.88425e-06 -1.45739e-05 2.69049e+25 -1.06811 0.0727426 272.154 
-5.97292e-06 -1.45739e-05 2.69051e+25 -1.00101 0.381652 272.099 
-4.06158e-06 -1.45739e-05 2.69154e+25 -1.16034 -0.406801 272.111 
-2.15025e-06 -1.45739e-05 2.68914e+25 -1.33439 0.260168 272.378 
-2.38917e-07 -1.45739e-05 2.68706e+25 -1.34631 0.0186137 272.311 
-1.55296e-05 -1.40961e-05 2.69097e+25 -0.0670135 -0.00467719 272.19 
-1.36182e-05 -1.40961e-05 2.69187e+25 -0.128329 0.240621 272.08 
-1.17069e-05 -1.40961e-05 2.69066e+25 -0.377194 0.127261 272.211 
-9.79558e-06 -1.40961e-05 2.69304e+25 -0.675984 0.428053 271.876 
-7.88425e-06 -1.40961e-05 2.69208e+25 -1.20242 0.124721 271.868 
-5.97292e-06 -1.40961e-05 2.69193e+25 -1.24939 0.5074 272.087 
-4.06158e-06 -1.40961e-05 2.69243e+25 -1.50628 -0.321079 272.037 
-2.15025e-06 -1.40961e-05 2.68847e+25 -1.54478 0.298863 272.345 
-2.38917e-07 -1.40961e-05 2.68764e+25 -1.41549 0.155068 272.224 
-1.55296e-05 -1.36182e-05 2.69247e+25 0.0123771 0.053053 272.038 
-1.36182e-05 -1.36182e-05 2.69307e+25 -0.146125 0.305932 271.89 
-1.17069e-05 -1.36182e-05 2.692e+25 -0.409612 0.14276 272.02 
-9.79558e-06 -1.36182e-05 2.69208e+25 -0.936903 0.471578 271.964 
-7.88425e-06 -1.36182e-05 2.69627e+25 -1.43157 0.277956 271.766 
-5.97292e-06 -1.36182e-05 2.69155e+25 -1.41561 0.350085 271.994 
-4.06158e-06 -1.36182e-05 2.69206e+25 -1.73813 -0.0999175 272.033 
-2.15025e-06 -1.36182e-05 2.68805e+25 -1.82951 0.26678 272.4 
-2.38917e-07 -1.36182e-05 2.68808e+25 -1.6847 0.176087 272.173 
-1.55296e-05 -1.31404e-05 2.69246e+25 -0.0745881 0.167185 272.029 
-1.36182e-05 -1.31404e-05 2.69305e+25 -0.183389 0.265782 271.961 
-1.17069e-05 -1.31404e-05 2.69377e+25 -0.359825 0.222082 271.903 
-9.79558e-06 -1.31404e-05 2.69356e+25 -1.06869 0.631596 271.872 
-7.88425e-06 -1.31404e-05 2.69603e+25 -1.52417 0.385819 271.746 
-5.97292e-06 -1.31404e-05 2.69334e+25 -1.79356 0.189014 271.908 
-4.06158e-06 -1.31404e-05 2.69205e+25 -1.80486 0.121979 272.089 
-2.15025e-06 -1.31404e-05 2.69069e+25 -2.02398 0.217864 272.178 
-2.38917e-07 -1.31404e-05 2.68886e+25 -1.88725 0.146678 272.206 
-1.55296e-05 -1.26626e-05 2.69198e+25 -0.143633 0.305889 272.042 
-1.36182e-05 -1.26626e-05 2.69318e+25 -0.364487 0.305636 271.882 
-1.17069e-05 -1.26626e-05 2.69226e+25 -0.496773 0.369717 271.915 
-9.79558e-06 -1.26626e-05 2.6944e+25 -1.20902 0.790269 271.7 
-7.88425e-06 -1.26626e-05 2.69472e+25 -1.47584 0.521893 271.819 
-5.97292e-06 -1.26626e-05 2.69246e+25 -1.95126 0.0647223 272.036 
-4.06158e-06 -1.26626e-05 2.69015e+25 -2.00903 0.269364 272.09 
-2.15025e-06 -1.26626e-05 2.69182e+25 -2.39919 0.260328 272.064 
-2.38917e-07 -1.26626e-05 2.68979e+25 -2.11114 0.0112642 272.107 
-1.55296e-05 -1.21847e-05 2.69295e+25 -0.186393 0.298072 271.924 
-1.36182e-05 -1.21847e-05 2.69283e+25 -0.568757 0.413781 271.889 
-1.17069e-05 -1.21847e-05 2.6928e+25 -0.867185 0.45293 271.924 
-9.79558e-06 -1.21847e-05 2.69409e+25 -1.321 0.901711 271.752 
-7.88425e-06 -1.21847e-05 2.69277e+25 -1.7157 0.640857 271.879 
-5.97292e-06 -1.21847e-05 2.69041e+25 -2.17686 0.0364619 272.042 
-4.06158e-06 -1.21847e-05 2.69309e+25 -2.32878 0.29483 271.946 
-2.15025e-06 -1.21847e-05 2.69367e+25 -2.3943 0.292167 272 
-2.38917e-07 -1.21847e-05 2.68973e+25 -2.44847 -0.0204471 272.028 
-1.55296e-05 -1.17069e-05 2.69054e+25 -0.0841751 0.316134 272.087 
-1.36182e-05 -1.17069e-05 2.69174e+25 -0.501335 0.519062 271.942 
-1.17069e-05 -1.17069e-05 2.6913e+25 -0.912199 0.555756 272.057 
-9.79558e-06 -1.17069e-05 2.69536e+25 -1.33802 1.02149 271.738 
-7.88425e-06 -1.17069e-05 2.69152e+25 -1.81159 0.800933 271.984 
-5.97292e-06 -1.17069e-05 2.69144e+25 -2.17568 0.211325 272.128 
-4.06158e-06 -1.17069e-05 2.69254e+25 -2.53962 0.314636 271.964 
-2.15025e-06 -1.17069e-05 2.69206e+25 -2.59599 0.25905 271.972 
-2.38917e-07 -1.17069e-05 2.69046e+25 -2.7654 -0.0223991 272.008 
-1.55296e-05 -1.12291e-05 2.68992e+25 -0.142753 0.326097 272.07 
-1.36182e-05 -1.12291e-05 2.69339e+25 -0.600254 0.599921 271.987 
-1.17069e-05 -1.12291e-05 2.69089e+25 -0.988217 0.7103 272.129 
-9.79558e-06 -1.12291e-05 2.69564e+25 -1.2498 1.16684 271.74 
-7.88425e-06 -1.12291e-05 2.69155e+25 -1.90342 0.970978 272.051 
-5.97292e-06 -1.12291e-05 2.69375e+25 -2.18733 0.412275 271.903 
-4.06158e-06 -1.12291e-05 2.69257e+25 -2.92034 0.41919 271.984 
-2.15025e-06 -1.12291e-05 2.6911e+25 -2.95439 0.161315 272.057 
-2.38917e-07 -1.12291e-05 2.69092e+25 -3.11085 0.0424959 271.906 
-1.55296e-05 -1.07512e-05 2.69103e+25 -0.133698 0.491199 272.179 
-1.36182e-05 -1.07512e-05 2.69223e+25 -0.449682 0.638606 272.009 
-1.17069e-05 -1.07512e-05 2.69073e+25 -0.863942 0.850677 272.073 
-9.79558e-06 -1.07512e-05 2.69422e+25 -1.43846 1.32473 271.754 
-7.88425e-06 -1.07512e-05 2.69272e+25 -1.99218 1.12241 272.004 
-5.97292e-06 -1.07512e-05 2.69449e+25 -2.45516 0.653231 271.85 
-4.06158e-06 -1.07512e-05 2.69384e+25 -2.91512 0.502434 271.869 
-2.15025e-06 -1.07512e-05 2.68992e+25 -3.30601 0.126936 272.238 
-2.38917e-07 -1.07512e-05 2.69106e+25 -3.58557 0.14419 271.963 
-1.55296e-05 -1.02734e-05 2.69219e+25 -0.0822016 0.496101 272.036 
-1.36182e-05 -1.02734e-05 2.69106e+25 -0.552554 0.726063 272.072 
-1.17069e-05 -1.02734e-05 2.69211e+25 -1.00371 0.910013 272.142 
-9.79558e-06 -1.02734e-05 2.69439e+25 -1.62338 1.38023 271.837 
-7.88425e-06 -1.02734e-05 2.69234e+25 -2.0702 1.19148 271.968 
-5.97292e-06 -1.02734e-05 2.69504e+25 -2.69734 0.823683 271.71 
-4.06158e-06 -1.02734e-05 2.69373e+25 -3.02011 0.618948 271.73 
-2.15025e-06 -1.02734e-05 2.68902e+25 -3.7759 0.211492 272.241 
-2.38917e-07 -1.02734e-05 2.68713e+25 -3.99354 0.149563 272.233 
-1.55296e-05 -9.79558e-06 2.6928e+25 -0.0874808 0.415983 271.898 
-1.36182e-05 -9.79558e-06 2.69184e+25 -0.393013 0.940524 272.086 
-1.17069e-05 -9.79558e-06 2.69327e+25 -1.06712 0.921578 271.887 
-9.79558e-06 -9.79558e-06 2.69264e+25 -1.60392 1.47287 271.964 
-7.88425e-06 -9.79558e-06 2.69398e+25 -2.12478 1.22357 271.94 
-5.97292e-06 -9.79558e-06 2.69484e+25 -3.02447 0.96194 271.85 
-4.06158e-06 -9.79558e-06 2.69433e+25 -3.32895 0.648679 271.777 
-2.15025e-06 -9.79558e-06 2.68814e+25 -4.04522 0.367307 272.24 
-2.38917e-07 -9.79558e-06 2.68638e+25 -4.08333 0.0773514 272.194 
-1.55296e-05 -9.31775e-06 2.68925e+25 -0.0112581 0.435053 272.14 
-1.36182e-05 -9.31775e-06 2.6918e+25 -0.347019 1.12519 272.018 
-1.17069e-05 -9.31775e-06 2.69491e+25 -0.886809 1.07347 271.71 
-9.79558e-06 -9.31775e-06 2.69208e+25 -1.65403 1.69506 271.931 
-7.88425e-06 -9.31775e-06 2.6946e+25 -2.21879 1.33271 271.882 
-5.97292e-06 -9.31775e-06 2.69675e+25 -3.07094 1.22924 271.604 
-4.06158e-06 -9.31775e-06 2.69207e+25 -3.69778 0.649855 271.895 
-2.15025e-06 -9.31775e-06 2.68971e+25 -4.42282 0.52859 272.225 
-2.38917e-07 -9.31775e-06 2.68666e+25 -4.37834 0.0475534 272.264 
-1.55296e-05 -8.83992e-06 2.68836e+25 -0.0101635 0.39499 272.169 
-1.36182e-05 -8.83992e-06 2.69233e+25 -0.279172 1.25274 271.883 
-1.17069e-05 -8.83992e-06 2.69541e+25 -0.963092 1.28849 271.748 
-9.79558e-06 -8.83992e-06 2.6925e+25 -1.66459 1.95997 271.935 
-7.88425e-06 -8.83992e-06 2.6916e+25 -2.28363 1.63507 272.031 
-5.97292e-06 -8.83992e-06 2.69521e+25 -3.13356 1.51931 271.703 
-4.06158e-06 -8.83992e-06 2.69321e+25 -3.88979 0.849131 271.906 
-2.15025e-06 -8.83992e-06 2.69148e+25 -4.55524 0.700027 272.02 
-2.38917e-07 -8.83992e-06 2.6881e+25 -4.56489 0.0480336 272.223 
-1.55296e-05 -8.36208e-06 2.69012e+25 -0.125643 0.410458 272.128 
-1.36182e-05 -8.36208e-06 2.6935e+25 -0.479873 1.37797 272.015 
-1.17069e-05 -8.36208e-06 2.6952e+25 -1.22776 1.56166 271.792 
-9.79558e-06 -8.36208e-06 2.69223e+25 -1.54213 2.06709 271.962 
-7.88425e-06 -8.36208e-06 2.6913e+25 -2.27224 1.87807 271.874 
-5.97292e-06 -8.36208e-06 2.69494e+25 -3.25336 1.65173 271.853 
-4.06158e-06 -8.36208e-06 2.69344e+25 -4.00855 1.21265 271.877 
-2.15025e-06 -8.36208e-06 2.69104e+25 -4.73618 0.846555 272.089 
-2.38917e-07 -8.36208e-06 2.68825e+25 -4.85205 0.0234658 272.144 
-1.55296e-05 -7.88425e-06 2.68981e+25 -0.0445653 0.517958 272.123 
-1.36182e-05 -7.88425e-06 2.69303e+25 -0.52097 1.56092 271.901 
-1.17069e-05 -7.88425e-06 2.69497e+25 -1.25398 1.76512 271.752 
-9.79558e-06 -7.88425e-06 2.69336e+25 -1.63936 2.11298 271.89 
-7.88425e-06 -7.88425e-06 2.69531e+25 -2.34866 2.15683 271.711 
-5.97292e-06 -7.88425e-06 2.69519e+25 -3.36877 1.7036 271.729 
-4.06158e-06 -7.88425e-06 2.69168e+25 -4.12772 1.42469 271.918 
-2.15025e-06 -7.88425e-06 2.69128e+25 -4.75909 1.05645 272.056 
-2.38917e-07 -7.88425e-06 2.69021e+25 -5.08427 -0.00433393 271.936 
-1.55296e-05 -7.40642e-06 2.69094e+25 0.0487085 0.659169 272.044 
-1.36182e-05 -7.40642e-06 2.69531e+25 -0.75009 1.6634 271.828 
-1.17069e-05 -7.40642e-06 2.69227e+25 -1.17157 1.93065 271.944 
-9.79558e-06 -7.40642e-06 2.69294e+25 -1.72087 2.26597 271.897 
-7.88425e-06 -7.40642e-06 2.69519e+25 -2.55376 2.42628 271.653 
-5.97292e-06 -7.40642e-06 2.6946e+25 -3.44461 1.90097 271.732 
-4.06158e-06 -7.40642e-06 2.69175e+25 -4.27956 1.65131 271.987 
-2.15025e-06 -7.40642e-06 2.69039e+25 -4.78859 1.20995 272.098 
-2.38917e-07 -7.40642e-06 2.68757e+25 -5.34352 0.0539606 272.114 
-1.55296e-05 -6.92858e-06 2.69306e+25 -0.126768 0.721606 271.895 
-1.36182e-05 -6.92858e-06 2.69389e+25 -0.709393 1.65635 271.8 
-1.17069e-05 -6.92858e-06 2.69258e+25 -1.23995 2.09679 271.845 
-9.79558e-06 -6.92858e-06 2.69256e+25 -2.01319 2.40089 271.783 
-7.88425e-06 -6.92858e-06 2.69389e+25 -2.75746 2.65523 271.77 
-5.97292e-06 -6.92858e-06 2.69372e+25 -3.63003 2.05247 271.827 
-4.06158e-06 -6.92858e-06 2.69112e+25 -4.43272 1.94163 271.964 
-2.15025e-06 -6.92858e-06 2.69083e+25 -5.02193 1.264 271.986 
-2.38917e-07 -6.92858e-06 2.68796e+25 -5.48989 0.178712 272.007 
-1.55296e-05 -6.45075e-06 2.69434e+25 -0.160782 0.84962 271.841 
-1.36182e-05 -6.45075e-06 2.69321e+25 -0.581258 1.80616 271.846 
-1.17069e-05 -6.45075e-06 2.69606e+25 -1.25399 2.24388 271.694 
-9.79558e-06 -6.45075e-06 2.69416e+25 -2.265 2.63508 271.712 
-7.88425e-06 -6.45075e-06 2.69449e+25 -2.95951 2.81918 271.755 
-5.97292e-06 -6.45075e-06 2.6944e+25 -3.68767 2.26028 271.724 
-4.06158e-06 -6.45075e-06 2.69224e+25 -4.58985 2.10665 271.867 
-2.15025e-06 -6.45075e-06 2.69137e+25 -5.29697 1.35405 272.068 
-2.38917e-07 -6.45075e-06 2.68961e+25 -5.63153 0.28837 272.002 
-1.55296e-05 -5.97292e-06 2.69135e+25 -0.160961 0.957745 272.081 
-1.36182e-05 -5.97292e-06 2.69306e+25 -0.734232 1.96599 271.821 
-1.17069e-05 -5.97292e-06 2.69513e+25 -1.4811 2.45421 271.748 
-9.79558e-06 -5.97292e-06 2.69431e+25 -2.42065 2.74064 271.752 
-7.88425e-06 -5.97292e-06 2.69496e+25 -3.15664 2.91339 271.665 
-5.97292e-06 -5.97292e-06 2.69322e+25 -4.10276 2.46832 271.777 
-4.06158e-06 -5.97292e-06 2.69422e+25 -4.72424 2.23928 271.796 
-2.15025e-06 -5.97292e-06 2.69034e+25 -5.3679 1.49414 271.995 
-2.38917e-07 -5.97292e-06 2.68883e+25 -5.81585 0.345712 272.128 
-1.55296e-05 -5.49508e-06 2.69154e+25 -0.361328 0.979886 272.103 
-1.36182e-05 -5.49508e-06 2.69177e+25 -0.723205 2.18045 272.049 
-1.17069e-05 -5.49508e-06 2.69323e+25 -1.80881 2.61296 271.864 
-9.79558e-06 -5.49508e-06 2.69596e+25 -2.52342 2.963 271.524 
-7.88425e-06 -5.49508e-06 2.69822e+25 -3.4895 3.16437 271.496 
-5.97292e-06 -5.49508e-06 2.69331e+25 -4.34219 2.73145 271.831 
-4.06158e-06 -5.49508e-06 2.69391e+25 -4.99032 2.44608 271.762 
-2.15025e-06 -5.49508e-06 2.69195e+25 -5.49633 1.62711 272.017 
-2.38917e-07 -5.49508e-06 2.6881e+25 -6.08307 0.333332 272.138 
-1.55296e-05 -5.01725e-06 2.6918e+25 -0.570694 1.22704 272.037 
-1.36182e-05 -5.01725e-06 2.69177e+25 -1.0225 2.42196 271.997 
-1.17069e-05 -5.01725e-06 2.69342e+25 -1.72614 2.89974 271.88 
-9.79558e-06 -5.01725e-06 2.69707e+25 -2.68889 3.1671 271.452 
-7.88425e-06 -5.01725e-06 2.69588e+25 -3.7685 3.40288 271.524 
-5.97292e-06 -5.01725e-06 2.69206e+25 -4.54262 2.99392 271.907 
-4.06158e-06 -5.01725e-06 2.69324e+25 -5.36235 2.63807 271.851 
-2.15025e-06 -5.01725e-06 2.69079e+25 -5.76374 1.68588 271.996 
-2.38917e-07 -5.01725e-06 2.68792e+25 -6.43913 0.396023 272.192 
-1.55296e-05 -4.53942e-06 2.69114e+25 -0.490451 1.58101 272.069 
-1.36182e-05 -4.53942e-06 2.69002e+25 -0.956086 2.68999 272.215 
-1.17069e-05 -4.53942e-06 2.6919e+25 -1.77203 3.21809 271.849 
-9.79558e-06 -4.53942e-06 2.69495e+25 -2.8608 3.27157 271.689 
-7.88425e-06 -4.53942e-06 2.69361e+25 -3.79041 3.64358 271.788 
-5.97292e-06 -4.53942e-06 2.6923e+25 -4.61865 3.21808 271.93 
-4.06158e-06 -4.53942e-06 2.69427e+25 -5.49227 2.71862 271.722 
-2.15025e-06 -4.53942e-06 2.69026e+25 -5.98704 1.73864 271.987 
-2.38917e-07 -4.53942e-06 2.68854e+25 -6.40463 0.457591 272.087 
-1.55296e-05 -4.06158e-06 2.69188e+25 -0.441154 1.74977 272.035 
-1.36182e-05 -4.06158e-06 2.69095e+25 -0.906654 2.85912 272.119 
-1.17069e-05 -4.06158e-06 2.69369e+25 -1.83076 3.51957 271.841 
-9.79558e-06 -4.06158e-06 2.69497e+25 -2.85872 3.46627 271.587 
-7.88425e-06 -4.06158e-06 2.69342e+25 -3.88942 3.82328 271.774 
-5.97292e-06 -4.06158e-06 2.69e+25 -4.4757 3.41084 272.098 
-4.06158e-06 -4.06158e-06 2.69376e+25 -5.42393 2.81263 271.715 
-2.15025e-06 -4.06158e-06 2.69416e+25 -5.982 1.84928 271.764 
-2.38917e-07 -4.06158e-06 2.69002e+25 -6.46859 0.62942 271.973 
-1.55296e-05 -3.58375e-06 2.69137e+25 -0.385283 1.8219 272.052 
-1.36182e-05 -3.58375e-06 2.69018e+25 -0.78877 3.05029 272.075 
-1.17069e-05 -3.58375e-06 2.69262e+25 -1.72817 3.76454 271.841 
-9.79558e-06 -3.58375e-06 2.69424e+25 -2.78785 3.76114 271.706 
-7.88425e-06 -3.58375e-06 2.69418e+25 -3.85855 3.99338 271.747 
-5.97292e-06 -3.58375e-06 2.69185e+25 -4.80779 3.65155 271.949 
-4.06158e-06 -3.58375e-06 2.69281e+25 -5.53497 2.99329 271.797 
-2.15025e-06 -3.58375e-06 2.69312e+25 -6.2212 1.92218 271.772 
-2.38917e-07 -3.58375e-06 2.68853e+25 -6.53284 0.785718 271.966 
-1.55296e-05 -3.10592e-06 2.6901e+25 -0.274048 1.8304 272.157 
-1.36182e-05 -3.10592e-06 2.69177e+25 -0.952915 3.12266 272.026 
-1.17069e-05 -3.10592e-06 2.69246e+25 -1.90235 3.95921 271.827 
-9.79558e-06 -3.10592e-06 2.69145e+25 -2.64622 4.23855 271.874 
-7.88425e-06 -3.10592e-06 2.69492e+25 -3.69586 4.12338 271.7 
-5.97292e-06 -3.10592e-06 2.6923e+25 -4.88212 3.89888 271.817 
-4.06158e-06 -3.10592e-06 2.69156e+25 -5.73284 3.13012 272.029 
-2.15025e-06 -3.10592e-06 2.69352e+25 -6.41629 2.11431 271.722 
-2.38917e-07 -3.10592e-06 2.68888e+25 -6.72968 0.96487 272.076 
-1.55296e-05 -2.62808e-06 2.69065e+25 -0.291919 1.99523 272.175 
-1.36182e-05 -2.62808e-06 2.68996e+25 -1.18454 3.27747 272.208 
-1.17069e-05 -2.62808e-06 2.69457e+25 -1.73522 4.06725 271.729 
-9.79558e-06 -2.62808e-06 2.69341e+25 -2.56654 4.5539 271.769 
-7.88425e-06 -2.62808e-06 2.69277e+25 -3.78253 4.47709 271.86 
-5.97292e-06 -2.62808e-06 2.69219e+25 -4.84753 4.18342 271.907 
-4.06158e-06 -2.62808e-06 2.69152e+25 -5.70666 3.23316 271.893 
-2.15025e-06 -2.62808e-06 2.69228e+25 -6.53149 2.24522 271.829 
-2.38917e-07 -2.62808e-06 2.68809e+25 -6.89249 1.07685 272.081 
-1.55296e-05 -2.15025e-06 2.69049e+25 -0.289998 2.1036 272.219 
-1.36182e-05 -2.15025e-06 2.68902e+25 -1.08288 3.43551 272.226 
-1.17069e-05 -2.15025e-06 2.69337e+25 -1.83992 4.16776 271.802 
-9.79558e-06 -2.15025e-06 2.69296e+25 -2.67799 4.78052 271.827 
-7.88425e-06 -2.15025e-06 2.69477e+25 -3.8303 4.90049 271.829 
-5.97292e-06 -2.15025e-06 2.68877e+25 -4.74287 4.3685 271.986 
-4.06158e-06 -2.15025e-06 2.69323e+25 -5.63021 3.37423 271.837 
-2.15025e-06 -2.15025e-06 2.6922e+25 -6.28179 2.39139 271.78 
-2.38917e-07 -2.15025e-06 2.68869e+25 -6.92561 1.22524 271.938 
-1.55296e-05 -1.67242e-06 2.68783e+25 -0.0559403 2.22982 272.367 
-1.36182e-05 -1.67242e-06 2.69114e+25 -0.912511 3.66617 272.028 
-1.17069e-05 -1.67242e-06 2.69513e+25 -1.66024 4.39767 271.676 
-9.79558e-06 -1.67242e-06 2.69342e+25 -2.81426 4.99207 271.786 
-7.88425e-06 -1.67242e-06 2.69324e+25 -3.74002 5.18118 271.842 
-5.97292e-06 -1.67242e-06 2.68947e+25 -4.62478 4.57594 272.151 
-4.06158e-06 -1.67242e-06 2.69066e+25 -5.44119 3.65455 271.934 
-2.15025e-06 -1.67242e-06 2.69143e+25 -6.21157 2.55283 271.771 
-2.38917e-07 -1.67242e-06 2.6902e+25 -7.12542 1.41346 271.95 
-1.55296e-05 -1.19458e-06 2.68785e+25 0.00918778 2.42758 272.342 
-1.36182e-05 -1.19458e-06 2.68982e+25 -0.874841 3.86909 272.084 
-1.17069e-05 -1.19458e-06 2.69459e+25 -1.56794 4.67283 271.744 
-9.79558e-06 -1.19458e-06 2.69472e+25 -2.72861 5.12147 271.645 
-7.88425e-06 -1.19458e-06 2.69497e+25 -3.44849 5.44182 271.562 
-5.97292e-06 -1.19458e-06 2.69216e+25 -4.53259 4.78443 271.941 
-4.06158e-06 -1.19458e-06 2.69173e+25 -5.46996 3.90114 271.973 
-2.15025e-06 -1.19458e-06 2.69518e+25 -6.12097 2.80287 271.732 
-2.38917e-07 -1.19458e-06 2.68849e+25 -7.31094 1.57833 271.937 
-1.55296e-05 -7.1675e-07 2.68985e+25 -0.0246534 2.52752 272.184 
-1.36182e-05 -7.1675e-07 2.68999e+25 -0.72236 4.16568 272.154 
-1.17069e-05 -7.1675e-07 2.69222e+25 -1.55781 4.99751 271.984 
-9.79558e-06 -7.1675e-07 2.69526e+25 -2.66578 5.29742 271.627 
-7.88425e-06 -7.1675e-07 2.69502e+25 -3.37891 5.59338 271.749 
-5.97292e-06 -7.1675e-07 2.6931e+25 -4.54445 4.99848 271.744 
-4.06158e-06 -7.1675e-07 2.69195e+25 -5.60471 4.26825 271.924 
-2.15025e-06 -7.1675e-07 2.69352e+25 -6.5711 3.1324 271.7 
-2.38917e-07 -7.1675e-07 2.68777e+25 -7.27108 1.74041 271.881 
-1.55296e-05 -2.38917e-07 2.68865e+25 -0.166902 2.60378 272.26 
-1.36182e-05 -2.38917e-07 2.68969e+25 -0.512217 4.49223 271.982 
-1.17069e-05 -2.38917e-07 2.68859e+25 -1.6723 5.31495 272.081 
-9.79558e-06 -2.38917e-07 2.6912e+25 -2.67793 5.62675 271.839 
-7.88425e-06 -2.38917e-07 2.69166e+25 -3.64538 5.85707 271.779 
-5.97292e-06 -2.38917e-07 2.69165e+25 -4.51919 5.28161 271.693 
-4.06158e-06 -2.38917e-07 2.69065e+25 -5.64998 4.55521 271.824 
-2.15025e-06 -2.38917e-07 2.68885e+25 -6.60957 3.2867 271.875 
-2.38917e-07 -2.38917e-07 2.68592e+25 -7.15196 1.92452 271.999 
-1.64852e-05 2.38917e-07 2.68379e+25 -0.0747292 1.25353 272.532 
-1.45739e-05 2.38917e-07 2.68676e+25 -0.41248 3.64701 272.19 
-1.26626e-05 2.38917e-07 2.69066e+25 -1.11878 5.0132 271.938 
-1.07512e-05 2.38917e-07 2.69223e+25 -2.40116 5.93471 271.784 
-8.83992e-06 2.38917e-07 2.6892e+25 -3.33901 6.01472 271.851 
-6.92858e-06 2.38917e-07 2.693e+25 -3.9578 5.86599 271.699 
-5.01725e-06 2.38917e-07 2.68995e+25 -5.15391 5.03895 271.858 
-3.10592e-06 2.38917e-07 2.68868e+25 -6.01641 4.21041 271.959 
-1.19458e-06 2.38917e-07 2.68854e+25 -7.02147 2.69978 271.964 
-1.64852e-05 7.1675e-07 2.68533e+25 -0.0589377 1.33698 272.547 
-1.45739e-05 7.1675e-07 2.69089e+25 -0.462948 3.75426 271.958 
-1.26626e-05 7.1675e-07 2.69001e+25 -1.17263 5.42271 271.947 
-1.07512e-05 7.1675e-07 2.69425e+25 -2.67551 6.23303 271.731 
-8.83992e-06 7.1675e-07 2.69339e+25 -3.22974 6.21033 271.821 
-6.92858e-06 7.1675e-07 2.69262e+25 -3.94997 6.02945 271.744 
-5.01725e-06 7.1675e-07 2.69324e+25 -4.87792 5.32524 271.734 
-3.10592e-06 7.1675e-07 2.69038e+25 -5.79863 4.48472 271.966 
-1.19458e-06 7.1675e-07 2.68937e+25 -6.85658 2.95483 272.073 
-1.64852e-05 1.19458e-06 2.68796e+25 -0.108092 1.45963 272.347 
-1.45739e-05 1.19458e-06 2.69217e+25 -0.457181 3.83005 271.961 
-1.26626e-05 1.19458e-06 2.69257e+25 -1.33253 5.82659 271.852 
-1.07512e-05 1.19458e-06 2.69288e+25 -2.6014 6.48027 271.741 
-8.83992e-06 1.19458e-06 2.69329e+25 -3.20419 6.33545 271.759 
-6.92858e-06 1.19458e-06 2.69199e+25 -3.90394 6.22807 271.75 
-5.01725e-06 1.19458e-06 2.69081e+25 -4.67178 5.65802 271.836 
-3.10592e-06 1.19458e-06 2.68894e+25 -5.70464 4.71766 272.008 
-1.19458e-06 1.19458e-06 2.68833e+25 -6.73367 3.17191 272.214 
-1.64852e-05 1.67242e-06 2.68568e+25 0.0380719 1.50583 272.573 
-1.45739e-05 1.67242e-06 2.68982e+25 -0.50767 3.97958 272.183 
-1.26626e-05 1.67242e-06 2.69222e+25 -1.37073 6.12832 271.8 
-1.07512e-05 1.67242e-06 2.69271e+25 -2.35554 6.73647 271.876 
-8.83992e-06 1.67242e-06 2.69251e+25 -3.27454 6.42233 271.787 
-6.92858e-06 1.67242e-06 2.69216e+25 -3.90725 6.30974 271.861 
-5.01725e-06 1.67242e-06 2.69246e+25 -4.44504 5.88759 271.716 
-3.10592e-06 1.67242e-06 2.68776e+25 -5.51028 4.8632 272.234 
-1.19458e-06 1.67242e-06 2.68833e+25 -6.37557 3.37433 272.127 
-1.64852e-05 2.15025e-06 2.68508e+25 0.113729 1.40651 272.48 
-1.45739e-05 2.15025e-06 2.68855e+25 -0.398543 4.16672 272.208 
-1.26626e-05 2.15025e-06 2.69516e+25 -1.39625 6.33759 271.57 
-1.07512e-05 2.15025e-06 2.69151e+25 -2.17168 6.92708 271.905 
-8.83992e-06 2.15025e-06 2.69157e+25 -3.18951 6.58215 271.828 
-6.92858e-06 2.15025e-06 2.69383e+25 -3.9127 6.48894 271.621 
-5.01725e-06 2.15025e-06 2.69294e+25 -4.4918 6.05197 271.659 
-3.10592e-06 2.15025e-06 2.68846e+25 -5.41848 5.02695 272.126 
-1.19458e-06 2.15025e-06 2.6875e+25 -6.09178 3.59804 272.227 
-1.64852e-05 2.62808e-06 2.68408e+25 0.0167128 1.31666 272.573 
-1.45739e-05 2.62808e-06 2.69066e+25 -0.358009 4.53923 271.988 
-1.26626e-05 2.62808e-06 2.69458e+25 -1.31798 6.42841 271.525 
-1.07512e-05 2.62808e-06 2.69138e+25 -2.06999 7.0949 271.881 
-8.83992e-06 2.62808e-06 2.69036e+25 -3.19727 6.79588 271.851 
-6.92858e-06 2.62808e-06 2.69309e+25 -4.00362 6.81443 271.74 
-5.01725e-06 2.62808e-06 2.69216e+25 -4.66817 6.13118 271.839 
-3.10592e-06 2.62808e-06 2.68729e+25 -5.20122 5.295 272.173 
-1.19458e-06 2.62808e-06 2.68583e+25 -5.67872 3.84002 272.398 
-1.64852e-05 3.10592e-06 2.68485e+25 -0.0445086 1.38437 272.645 
-1.45739e-05 3.10592e-06 2.68942e+25 -0.39624 4.86206 272.037 
-1.26626e-05 3.10592e-06 2.69327e+25 -1.24908 6.66305 271.609 
-1.07512e-05 3.10592e-06 2.69337e+25 -2.05467 7.22416 271.668 
-8.83992e-06 3.10592e-06 2.69363e+25 -2.78104 7.0321 271.654 
-6.92858e-06 3.10592e-06 2.69184e+25 -3.83044 7.07266 271.84 
-5.01725e-06 3.10592e-06 2.69036e+25 -4.57915 6.32349 271.872 
-3.10592e-06 3.10592e-06 2.68772e+25 -4.94744 5.43278 272.175 
-1.19458e-06 3.10592e-06 2.68532e+25 -5.43936 3.96437 272.225 
-1.64852e-05 3.58375e-06 2.6856e+25 -0.0217958 1.3484 272.481 
-1.45739e-05 3.58375e-06 2.69274e+25 -0.262207 4.98456 271.903 
-1.26626e-05 3.58375e-06 2.69237e+25 -1.03081 6.86532 271.74 
-1.07512e-05 3.58375e-06 2.69393e+25 -1.7362 7.50596 271.757 
-8.83992e-06 3.58375e-06 2.69245e+25 -2.71076 7.31638 271.796 
-6.92858e-06 3.58375e-06 2.68864e+25 -3.67057 7.21311 272.003 
-5.01725e-06 3.58375e-06 2.68951e+25 -4.35835 6.47714 271.902 
-3.10592e-06 3.58375e-06 2.68677e+25 -4.74317 5.53809 272.277 
-1.19458e-06 3.58375e-06 2.68539e+25 -5.21973 4.12648 272.246 
-1.64852e-05 4.06158e-06 2.68685e+25 -0.00248471 1.38445 272.382 
-1.45739e-05 4.06158e-06 2.69112e+25 -0.265136 5.01886 271.88 
-1.26626e-05 4.06158e-06 2.69075e+25 -1.04031 7.02893 271.872 
-1.07512e-05 4.06158e-06 2.69456e+25 -1.42875 7.69897 271.665 
-8.83992e-06 4.06158e-06 2.69207e+25 -2.64944 7.58887 271.818 
-6.92858e-06 4.06158e-06 2.68947e+25 -3.40321 7.40019 272.136 
-5.01725e-06 4.06158e-06 2.68924e+25 -3.99067 6.5769 271.936 
-3.10592e-06 4.06158e-06 2.68656e+25 -4.35258 5.64739 272.266 
-1.19458e-06 4.06158e-06 2.68607e+25 -4.87162 4.2355 272.353 
-1.64852e-05 4.53942e-06 2.6849e+25 -0.00796101 1.51163 272.529 
-1.45739e-05 4.53942e-06 2.69009e+25 -0.488331 5.11192 272.06 
-1.26626e-05 4.53942e-06 2.69037e+25 -0.840996 7.20575 271.92 
-1.07512e-05 4.53942e-06 2.69456e+25 -1.38905 7.84634 271.732 
-8.83992e-06 4.53942e-06 2.69217e+25 -2.30145 7.91891 271.761 
-6.92858e-06 4.53942e-06 2.68866e+25 -3.14065 7.59028 272.056 
-5.01725e-06 4.53942e-06 2.6875e+25 -3.55673 6.68801 272.138 
-3.10592e-06 4.53942e-06 2.6864e+25 -3.95703 5.85741 272.224 
-1.19458e-06 4.53942e-06 2.68611e+25 -4.40866 4.24662 272.334 
-1.64852e-05 5.01725e-06 2.68703e+25 -0.0909309 1.59743 272.415 
-1.45739e-05 5.01725e-06 2.69122e+25 -0.568241 5.25066 271.946 
-1.26626e-05 5.01725e-06 2.68891e+25 -0.629674 7.29174 271.998 
-1.07512e-05 5.01725e-06 2.69139e+25 -1.39121 7.93759 271.712 
-8.83992e-06 5.01725e-06 2.69234e+25 -2.04474 8.19842 271.647 
-6.92858e-06 5.01725e-06 2.68905e+25 -2.85961 7.63018 272.042 
-5.01725e-06 5.01725e-06 2.68959e+25 -3.19489 6.81092 271.983 
-3.10592e-06 5.01725e-06 2.68851e+25 -3.67945 5.92004 272.203 
-1.19458e-06 5.01725e-06 2.68851e+25 -4.24228 4.39997 271.973 
-1.64852e-05 5.49508e-06 2.68626e+25 -0.123792 1.58813 272.461 
-1.45739e-05 5.49508e-06 2.68817e+25 -0.682963 5.33951 272.033 
-1.26626e-05 5.49508e-06 2.69206e+25 -0.653091 7.36608 271.756 
-1.07512e-05 5.49508e-06 2.69256e+25 -1.52936 8.08008 271.625 
-8.83992e-06 5.49508e-06 2.69241e+25 -1.94835 8.30757 271.672 
-6.92858e-06 5.49508e-06 2.69248e+25 -2.64178 7.77242 271.819 
-5.01725e-06 5.49508e-06 2.69051e+25 -3.00293 6.88826 271.829 
-3.10592e-06 5.49508e-06 2.68638e+25 -3.25931 5.96115 272.145 
-1.19458e-06 5.49508e-06 2.68856e+25 -3.80886 4.54364 271.834 
-1.64852e-05 5.97292e-06 2.68697e+25 -0.124677 1.69199 272.298 
-1.45739e-05 5.97292e-06 2.6889e+25 -0.559741 5.36874 272.032 
-1.26626e-05 5.97292e-06 2.69114e+25 -0.919138 7.42949 271.837 
-1.07512e-05 5.97292e-06 2.69372e+25 -1.54485 8.18725 271.583 
-8.83992e-06 5.97292e-06 2.6929e+25 -1.96273 8.46936 271.567 
-6.92858e-06 5.97292e-06 2.69205e+25 -2.4673 7.86505 271.637 
-5.01725e-06 5.97292e-06 2.68878e+25 -2.72391 6.99667 271.933 
-3.10592e-06 5.97292e-06 2.68864e+25 -2.89097 6.08182 272.007 
-1.19458e-06 5.97292e-06 2.68799e+25 -3.33861 4.61346 271.958 
-1.64852e-05 6.45075e-06 2.68649e+25 -0.048935 1.75555 272.304 
-1.45739e-05 6.45075e-06 2.68777e+25 -0.510942 5.56954 272.076 
-1.26626e-05 6.45075e-06 2.69189e+25 -1.09601 7.45604 271.765 
-1.07512e-05 6.45075e-06 2.69397e+25 -1.36054 8.3995 271.564 
-8.83992e-06 6.45075e-06 2.69208e+25 -1.99305 8.66131 271.758 
-6.92858e-06 6.45075e-06 2.69048e+25 -2.2394 7.90747 271.858 
-5.01725e-06 6.45075e-06 2.68856e+25 -2.4353 7.08232 271.933 
-3.10592e-06 6.45075e-06 2.68888e+25 -2.57176 6.28744 272.017 
-1.19458e-06 6.45075e-06 2.69122e+25 -2.72877 4.68205 271.687 
-1.64852e-05 6.92858e-06 2.68446e+25 0.099121 1.76951 272.542 
-1.45739e-05 6.92858e-06 2.68841e+25 -0.490017 5.87909 272.044 
-1.26626e-05 6.92858e-06 2.69154e+25 -1.22898 7.54453 271.713 
-1.07512e-05 6.92858e-06 2.69225e+25 -1.36462 8.56233 271.646 
-8.83992e-06 6.92858e-06 2.68983e+25 -1.70258 8.67047 271.858 
-6.92858e-06 6.92858e-06 2.6904e+25 -2.0078 7.92413 271.706 
-5.01725e-06 6.92858e-06 2.68847e+25 -1.95418 7.07876 271.919 
-3.10592e-06 6.92858e-06 2.69024e+25 -2.06233 6.28005 271.953 
-1.19458e-06 6.92858e-06 2.68869e+25 -2.26522 4.70691 271.954 
-1.64852e-05 7.40642e-06 2.68558e+25 -0.0755746 1.8438 272.519 
-1.45739e-05 7.40642e-06 2.6906e+25 -0.464254 6.06691 272.044 
-1.26626e-05 7.40642e-06 2.69015e+25 -1.1418 7.68822 271.921 
-1.07512e-05 7.40642e-06 2.69269e+25 -1.29104 8.58821 271.712 
-8.83992e-06 7.40642e-06 2.68884e+25 -1.5822 8.71666 271.903 
-6.92858e-06 7.40642e-06 2.69298e+25 -1.67644 7.87082 271.732 
-5.01725e-06 7.40642e-06 2.6881e+25 -1.55271 7.05401 271.998 
-3.10592e-06 7.40642e-06 2.68993e+25 -1.62719 6.13246 271.847 
-1.19458e-06 7.40642e-06 2.69116e+25 -1.66482 4.77376 271.713 
-1.64852e-05 7.88425e-06 2.6825e+25 -0.0346582 1.85473 272.609 
-1.45739e-05 7.88425e-06 2.6899e+25 -0.513686 6.09362 271.898 
-1.26626e-05 7.88425e-06 2.69072e+25 -1.2756 7.82225 271.92 
-1.07512e-05 7.88425e-06 2.69054e+25 -1.3882 8.58886 271.77 
-8.83992e-06 7.88425e-06 2.68797e+25 -1.55311 8.78123 272.061 
-6.92858e-06 7.88425e-06 2.6901e+25 -1.33752 7.89066 271.859 
-5.01725e-06 7.88425e-06 2.68828e+25 -1.19292 7.01471 272.001 
-3.10592e-06 7.88425e-06 2.68846e+25 -1.24404 6.10778 271.988 
-1.19458e-06 7.88425e-06 2.68956e+25 -0.84465 4.87207 271.817 
-1.64852e-05 8.36208e-06 2.68626e+25 0.0109946 1.89018 272.322 
-1.45739e-05 8.36208e-06 2.68898e+25 -0.540479 6.1649 271.965 
-1.26626e-05 8.36208e-06 2.68921e+25 -1.51647 8.07478 271.942 
-1.07512e-05 8.36208e-06 2.69007e+25 -1.5548 8.62065 271.818 
-8.83992e-06 8.36208e-06 2.68974e+25 -1.502 8.73868 271.94 
-6.92858e-06 8.36208e-06 2.69068e+25 -0.987662 7.87723 271.804 
-5.01725e-06 8.36208e-06 2.68814e+25 -0.959134 6.97244 272.074 
-3.10592e-06 8.36208e-06 2.68792e+25 -0.716553 6.07523 271.961 
-1.19458e-06 8.36208e-06 2.68967e+25 -0.133791 4.77824 271.77 
-1.64852e-05 8.83992e-06 2.68304e+25 -0.0576048 2.02826 272.503 
-1.45739e-05 8.83992e-06 2.68918e+25 -0.645925 6.28929 272.052 
-1.26626e-05 8.83992e-06 2.68791e+25 -1.5626 8.36804 271.89 
-1.07512e-05 8.83992e-06 2.6905e+25 -1.9462 8.55752 271.857 
-8.83992e-06 8.83992e-06 2.69029e+25 -1.73064 8.66472 271.866 
-6.92858e-06 8.83992e-06 2.68703e+25 -0.80101 7.7714 272.165 
-5.01725e-06 8.83992e-06 2.68756e+25 -0.550064 6.74448 272.105 
-3.10592e-06 8.83992e-06 2.68709e+25 0.117556 6.00181 272.074 
-1.19458e-06 8.83992e-06 2.68899e+25 0.611894 4.58354 271.804 
-1.64852e-05 9.31775e-06 2.68085e+25 -0.167532 2.19406 272.678 
-1.45739e-05 9.31775e-06 2.68635e+25 -0.862395 6.54176 272.092 
-1.26626e-05 9.31775e-06 2.68716e+25 -1.86818 8.59797 271.932 
-1.07512e-05 9.31775e-06 2.69089e+25 -2.15777 8.62314 271.79 
-8.83992e-06 9.31775e-06 2.69116e+25 -1.56515 8.46027 271.89 
-6.92858e-06 9.31775e-06 2.68602e+25 -0.789549 7.54051 272.224 
-5.01725e-06 9.31775e-06 2.68919e+25 -0.0657236 6.51508 271.935 
-3.10592e-06 9.31775e-06 2.687e+25 0.733974 5.9144 272.036 
-1.19458e-06 9.31775e-06 2.68734e+25 1.34087 4.44402 271.997 
-1.64852e-05 9.79558e-06 2.68084e+25 -0.186506 2.29626 272.647 
-1.45739e-05 9.79558e-06 2.688e+25 -1.0552 6.80594 272.025 
-1.26626e-05 9.79558e-06 2.69097e+25 -2.00837 8.68334 271.804 
-1.07512e-05 9.79558e-06 2.69062e+25 -2.42356 8.64723 271.79 
-8.83992e-06 9.79558e-06 2.69051e+25 -1.56251 8.24799 271.925 
-6.92858e-06 9.79558e-06 2.68944e+25 -0.813457 7.50676 272.076 
-5.01725e-06 9.79558e-06 2.689e+25 0.492146 6.24809 271.973 
-3.10592e-06 9.79558e-06 2.68852e+25 1.60767 5.709 271.976 
-1.19458e-06 9.79558e-06 2.68519e+25 2.1231 4.34799 272.123 
-1.64852e-05 1.02734e-05 2.68151e+25 -0.289048 2.47943 272.62 
-1.45739e-05 1.02734e-05 2.68847e+25 -1.33381 7.13579 271.958 
-1.26626e-05 1.02734e-05 2.68852e+25 -2.09796 8.73707 271.852 
-1.07512e-05 1.02734e-05 2.68995e+25 -2.25079 8.47719 271.882 
-8.83992e-06 1.02734e-05 2.68966e+25 -1.40565 7.99489 272.002 
-6.92858e-06 1.02734e-05 2.68756e+25 -0.521662 7.31715 272.13 
-5.01725e-06 1.02734e-05 2.69057e+25 0.914405 5.93508 271.915 
-3.10592e-06 1.02734e-05 2.68769e+25 2.19685 5.4766 272.001 
-1.19458e-06 1.02734e-05 2.68611e+25 3.25388 4.22231 272.108 
-1.64852e-05 1.07512e-05 2.68198e+25 -0.147723 2.65062 272.571 
-1.45739e-05 1.07512e-05 2.68741e+25 -1.46572 7.44314 271.946 
-1.26626e-05 1.07512e-05 2.69035e+25 -2.28283 8.7192 271.798 
-1.07512e-05 1.07512e-05 2.6916e+25 -1.97918 8.32651 271.792 
-8.83992e-06 1.07512e-05 2.68885e+25 -1.25305 7.6601 272.019 
-6.92858e-06 1.07512e-05 2.68759e+25 -0.0524902 6.87364 272.191 
-5.01725e-06 1.07512e-05 2.68978e+25 1.45572 5.56508 271.898 
-3.10592e-06 1.07512e-05 2.68662e+25 2.97516 5.14382 272.133 
-1.19458e-06 1.07512e-05 2.68597e+25 4.26306 3.9528 272.074 
-1.64852e-05 1.12291e-05 2.68167e+25 -0.15628 2.91063 272.51 
-1.45739e-05 1.12291e-05 2.68691e+25 -1.69758 7.79755 271.985 
-1.26626e-05 1.12291e-05 2.69014e+25 -2.19984 8.75684 271.66 
-1.07512e-05 1.12291e-05 2.69256e+25 -1.98104 8.08847 271.709 
-8.83992e-06 1.12291e-05 2.689e+25 -0.826668 7.36176 271.986 
-6.92858e-06 1.12291e-05 2.68871e+25 0.760485 6.43195 272.124 
-5.01725e-06 1.12291e-05 2.68763e+25 2.14606 5.19352 272.009 
-3.10592e-06 1.12291e-05 2.68988e+25 3.56943 4.75085 271.976 
-1.19458e-06 1.12291e-05 2.68854e+25 5.29439 3.70551 271.892 
-1.64852e-05 1.17069e-05 2.68285e+25 -0.216794 3.21582 272.402 
-1.45739e-05 1.17069e-05 2.6875e+25 -1.77664 8.16337 271.914 
-1.26626e-05 1.17069e-05 2.68809e+25 -2.3051 8.83703 271.876 
-1.07512e-05 1.17069e-05 2.692e+25 -1.94921 7.9193 271.738 
-8.83992e-06 1.17069e-05 2.68761e+25 -0.356473 6.99993 272.095 
-6.92858e-06 1.17069e-05 2.68786e+25 1.61471 6.05445 272.195 
-5.01725e-06 1.17069e-05 2.68569e+25 3.04071 4.86185 272.161 
-3.10592e-06 1.17069e-05 2.68788e+25 4.69203 4.29798 271.966 
-1.19458e-06 1.17069e-05 2.68922e+25 6.54621 3.46146 271.792 
-1.64852e-05 1.21847e-05 2.68113e+25 -0.305181 3.50218 272.523 
-1.45739e-05 1.21847e-05 2.68701e+25 -1.98448 8.42284 271.907 
-1.26626e-05 1.21847e-05 2.68792e+25 -2.49928 8.86114 271.906 
-1.07512e-05 1.21847e-05 2.6919e+25 -1.55506 7.66738 271.71 
-8.83992e-06 1.21847e-05 2.68952e+25 0.212856 6.58506 272.138 
-6.92858e-06 1.21847e-05 2.68603e+25 2.25485 5.59521 272.265 
-5.01725e-06 1.21847e-05 2.68638e+25 3.95058 4.56368 272.056 
-3.10592e-06 1.21847e-05 2.68844e+25 5.86031 3.76684 271.989 
-1.19458e-06 1.21847e-05 2.68781e+25 7.73437 3.13327 271.919 
-1.64852e-05 1.26626e-05 2.68165e+25 -0.423106 3.92225 272.457 
-1.45739e-05 1.26626e-05 2.68422e+25 -2.32519 8.69207 272.037 
-1.26626e-05 1.26626e-05 2.68927e+25 -2.55768 8.66941 271.886 
-1.07512e-05 1.26626e-05 2.68929e+25 -1.14158 7.41388 271.946 
-8.83992e-06 1.26626e-05 2.68817e+25 1.02963 5.94079 272.126 
-6.92858e-06 1.26626e-05 2.6864e+25 3.17764 5.04178 272.263 
-5.01725e-06 1.26626e-05 2.6858e+25 5.37215 4.29126 272.237 
-3.10592e-06 1.26626e-05 2.68804e+25 7.32773 3.20941 272.069 
-1.19458e-06 1.26626e-05 2.68858e+25 9.23072 2.73864 271.938 
-1.64852e-05 1.31404e-05 2.68085e+25 -0.634072 4.42579 272.499 
-1.45739e-05 1.31404e-05 2.68435e+25 -3.04122 8.92155 272.091 
-1.26626e-05 1.31404e-05 2.68922e+25 -2.51514 8.35429 271.833 
-1.07512e-05 1.31404e-05 2.6913e+25 -0.370467 6.8023 271.861 
-8.83992e-06 1.31404e-05 2.6876e+25 2.25151 5.34978 272.156 
-6.92858e-06 1.31404e-05 2.68685e+25 4.65886 4.48943 272.31 
-5.01725e-06 1.31404e-05 2.68653e+25 6.91319 3.76468 272.262 
-3.10592e-06 1.31404e-05 2.68806e+25 9.23657 2.72656 272.114 
-1.19458e-06 1.31404e-05 2.68677e+25 10.9179 2.28305 272.069 
-1.64852e-05 1.36182e-05 2.67948e+25 -0.773906 5.17253 272.497 
-1.45739e-05 1.36182e-05 2.68313e+25 -3.37346 9.20607 272.114 
-1.26626e-05 1.36182e-05 2.68748e+25 -2.06894 7.85113 271.997 
-1.07512e-05 1.36182e-05 2.68734e+25 0.745988 6.05069 272.039 
-8.83992e-06 1.36182e-05 2.68816e+25 3.86257 4.69198 272.115 
-6.92858e-06 1.36182e-05 2.68778e+25 6.51854 3.95739 272.202 
-5.01725e-06 1.36182e-05 2.68648e+25 9.03104 3.11732 272.295 
-3.10592e-06 1.36182e-05 2.68696e+25 11.2578 2.1184 272.092 
-1.19458e-06 1.36182e-05 2.6865e+25 12.6374 1.87972 272.202 
-1.64852e-05 1.40961e-05 2.67628e+25 -0.852732 6.01063 272.536 
-1.45739e-05 1.40961e-05 2.68237e+25 -3.31053 9.32403 272.144 
-1.26626e-05 1.40961e-05 2.68823e+25 -1.09793 7.19316 271.883 
-1.07512e-05 1.40961e-05 2.68703e+25 2.42999 5.14027 272.121 
-8.83992e-06 1.40961e-05 2.6892e+25 5.5618 3.99334 272.097 
-6.92858e-06 1.40961e-05 2.68686e+25 8.71599 3.22386 272.244 
-5.01725e-06 1.40961e-05 2.68562e+25 11.4177 2.48311 272.361 
-3.10592e-06 1.40961e-05 2.68794e+25 13.3366 1.76137 272.066 
-1.19458e-06 1.40961e-05 2.68532e+25 14.6049 1.45913 272.254 
-1.64852e-05 1.45739e-05 2.67412e+25 -1.34811 7.04631 272.543 
-1.45739e-05 1.45739e-05 2.68135e+25 -2.91198 9.06982 272.139 
-1.26626e-05 1.45739e-05 2.68777e+25 0.574073 6.24547 271.924 
-1.07512e-05 1.45739e-05 2.68699e+25 4.74033 4.1496 272.273 
-8.83992e-06 1.45739e-05 2.68857e+25 8.07579 3.09655 272.18 
-6.92858e-06 1.45739e-05 2.68614e+25 11.4038 2.43037 272.389 
-5.01725e-06 1.45739e-05 2.68636e+25 14.0007 1.85568 272.255 
-3.10592e-06 1.45739e-05 2.68686e+25 15.7787 1.37601 272.145 
-1.19458e-06 1.45739e-05 2.68442e+25 17.2144 1.13212 272.361 
-1.64852e-05 1.50518e-05 2.67004e+25 -1.82185 8.30989 272.706 
-1.45739e-05 1.50518e-05 2.6785e+25 -1.92874 8.39166 272.3 
-1.26626e-05 1.50518e-05 2.68483e+25 3.23318 5.01855 272.206 
-1.07512e-05 1.50518e-05 2.68483e+25 7.87432 3.25461 272.468 
-8.83992e-06 1.50518e-05 2.68688e+25 11.4676 2.18446 272.397 
-6.92858e-06 1.50518e-05 2.68451e+25 14.3894 1.75269 272.385 
-5.01725e-06 1.50518e-05 2.68462e+25 16.7704 1.36378 272.414 
-3.10592e-06 1.50518e-05 2.68475e+25 18.7818 1.11157 272.309 
-1.19458e-06 1.50518e-05 2.68523e+25 20.0111 0.749398 272.39 
-1.64852e-05 1.55296e-05 2.66686e+25 -2.18107 9.75198 272.592 
-1.45739e-05 1.55296e-05 2.6765e+25 0.743939 6.97177 272.44 
-1.26626e-05 1.55296e-05 2.68151e+25 7.41401 3.68975 272.495 
-1.07512e-05 1.55296e-05 2.68211e+25 12.1923 2.25134 272.732 
-8.83992e-06 1.55296e-05 2.68584e+25 15.7085 1.42744 272.361 
-6.92858e-06 1.55296e-05 2.68623e+25 18.4233 1.16518 272.529 
-5.01725e-06 1.55296e-05 2.68492e+25 20.3473 0.844321 272.555 
-3.10592e-06 1.55296e-05 2.68421e+25 21.9094 0.749839 272.509 
-1.19458e-06 1.55296e-05 2.68369e+25 23.1954 0.508781 272.577 
-1.64852e-05 1.60074e-05 2.66047e+25 -1.87404 10.6131 272.544 
-1.45739e-05 1.60074e-05 2.67607e+25 6.01747 5.00049 272.571 
-1.26626e-05 1.60074e-05 2.68159e+25 13.183 2.27517 272.628 
-1.07512e-05 1.60074e-05 2.68183e+25 17.6388 1.26708 272.715 
-8.83992e-06 1.60074e-05 2.68737e+25 20.5008 0.718735 272.402 
-6.92858e-06 1.60074e-05 2.68221e+25 22.7384 0.656163 272.784 
-5.01725e-06 1.60074e-05 2.68256e+25 24.4412 0.395709 272.669 
-3.10592e-06 1.60074e-05 2.68394e+25 25.4778 0.393692 272.534 
-1.19458e-06 1.60074e-05 2.68304e+25 26.4605 0.236836 272.592 
-1.64852e-05 1.64852e-05 2.64565e+25 0.87122 9.3532 272.899 
-1.45739e-05 1.64852e-05 2.67408e+25 14.5344 2.4752 272.865 
-1.26626e-05 1.64852e-05 2.68084e+25 20.6799 0.966639 272.763 
-1.07512e-05 1.64852e-05 2.68281e+25 24.0004 0.472276 272.806 
-8.83992e-06 1.64852e-05 2.6859e+25 26.1186 0.18887 272.742 
-6.92858e-06 1.64852e-05 2.68342e+25 27.5033 0.301123 272.933 
-5.01725e-06 1.64852e-05 2.68217e+25 28.5067 0.111675 272.782 
-3.10592e-06 1.64852e-05 2.68357e+25 29.0644 0.204537 272.579 
-1.19458e-06 1.64852e-05 2.68225e+25 29.8174 0.121436 272.681 
-1.64852e-05 1.69631e-05 2.62308e+25 12.4367 3.52941 273.528 
-1.45739e-05 1.69631e-05 2.67457e+25 25.9129 0.564307 273.076 
-1.26626e-05 1.69631e-05 2.68175e+25 29.0631 0.160996 272.955 
-1.07512e-05 1.69631e-05 2.6828e+25 30.5658 0.0714753 272.937 
-8.83992e-06 1.69631e-05 2.68372e+25 31.3643 0.0186732 272.85 
-6.92858e-06 1.69631e-05 2.68112e+25 31.8161 0.0552504 273.093 
-5.01725e-06 1.69631e-05 2.68217e+25 32.1764 -0.00927507 272.871 
-3.10592e-06 1.69631e-05 2.68208e+25 32.5676 0.053887 272.785 
-1.19458e-06 1.69631e-05 2.68114e+25 32.7931 0.0451599 272.853 
-1.69631e-05 2.38917e-07 2.6821e+25 -0.0256889 0.481479 272.735 
-1.50517e-05 2.38917e-07 2.68671e+25 -0.310422 3.08578 272.163 
-1.31404e-05 2.38917e-07 2.68897e+25 -0.781369 4.75712 271.932 
-1.12291e-05 2.38917e-07 2.68951e+25 -2.09398 5.62622 271.984 
-9.31775e-06 2.38917e-07 2.69005e+25 -3.13781 5.84849 271.792 
-7.40642e-06 2.38917e-07 2.691e+25 -3.84378 5.91026 271.762 
-5.49508e-06 2.38917e-07 2.68947e+25 -4.81662 5.30962 271.804 
-3.58375e-06 2.38917e-07 2.68996e+25 -5.75712 4.52606 271.78 
-1.67242e-06 2.38917e-07 2.68677e+25 -6.79075 3.22075 272.079 
-1.69631e-05 7.1675e-07 2.68559e+25 -0.0244526 0.527301 272.722 
-1.50517e-05 7.1675e-07 2.69028e+25 -0.406368 3.13706 272.11 
-1.31404e-05 7.1675e-07 2.69008e+25 -0.796216 5.03311 271.993 
-1.12291e-05 7.1675e-07 2.69275e+25 -2.36155 5.96132 271.887 
-9.31775e-06 7.1675e-07 2.69129e+25 -3.0513 5.98251 271.923 
-7.40642e-06 7.1675e-07 2.69284e+25 -3.7476 6.01154 271.723 
-5.49508e-06 7.1675e-07 2.69099e+25 -4.61208 5.59397 271.857 
-3.58375e-06 7.1675e-07 2.69112e+25 -5.63481 4.68297 271.907 
-1.67242e-06 7.1675e-07 2.68861e+25 -6.75131 3.31664 272.141 
-1.69631e-05 1.19458e-06 2.6849e+25 0.023386 0.569439 272.74 
-1.50517e-05 1.19458e-06 2.68877e+25 -0.376989 3.20176 272.194 
-1.31404e-05 1.19458e-06 2.69086e+25 -0.985203 5.35504 272.055 
-1.12291e-05 1.19458e-06 2.69302e+25 -2.28262 6.37086 271.847 
-9.31775e-06 1.19458e-06 2.69182e+25 -3.16356 6.06417 271.897 
-7.40642e-06 1.19458e-06 2.69029e+25 -3.71157 6.23775 271.918 
-5.49508e-06 1.19458e-06 2.69168e+25 -4.40741 5.80392 271.701 
-3.58375e-06 1.19458e-06 2.69092e+25 -5.5215 4.83813 271.923 
-1.67242e-06 1.19458e-06 2.68866e+25 -6.44813 3.5009 272.102 
-1.69631e-05 1.67242e-06 2.68401e+25 0.0163489 0.575467 272.734 
-1.50517e-05 1.67242e-06 2.68828e+25 -0.239307 3.33866 272.138 
-1.31404e-05 1.67242e-06 2.68949e+25 -1.17695 5.63695 272.03 
-1.12291e-05 1.67242e-06 2.69217e+25 -2.09096 6.70778 271.808 
-9.31775e-06 1.67242e-06 2.69226e+25 -3.11508 6.21426 271.848 
-7.40642e-06 1.67242e-06 2.6918e+25 -3.68351 6.51483 271.79 
-5.49508e-06 1.67242e-06 2.69349e+25 -4.24844 6.05286 271.713 
-3.58375e-06 1.67242e-06 2.69013e+25 -5.34862 5.03189 272.015 
-1.67242e-06 1.67242e-06 2.68714e+25 -6.17602 3.81024 272.137 
-1.69631e-05 2.15025e-06 2.68302e+25 0.0282012 0.536719 272.828 
-1.50517e-05 2.15025e-06 2.68992e+25 -0.0962673 3.70549 272.156 
-1.31404e-05 2.15025e-06 2.69436e+25 -1.29936 5.822 271.736 
-1.12291e-05 2.15025e-06 2.69346e+25 -2.0119 6.90554 271.699 
-9.31775e-06 2.15025e-06 2.69096e+25 -2.92841 6.44632 271.901 
-7.40642e-06 2.15025e-06 2.69205e+25 -3.71673 6.72128 271.805 
-5.49508e-06 2.15025e-06 2.69264e+25 -4.39517 6.18474 271.683 
-3.58375e-06 2.15025e-06 2.68877e+25 -5.09659 5.3075 272.039 
-1.67242e-06 2.15025e-06 2.68775e+25 -5.83376 4.00883 272.187 
-1.69631e-05 2.62808e-06 2.68355e+25 -0.00468319 0.520843 272.78 
-1.50517e-05 2.62808e-06 2.69109e+25 -0.213114 3.77148 272.045 
-1.31404e-05 2.62808e-06 2.69556e+25 -1.15869 5.97242 271.55 
-1.12291e-05 2.62808e-06 2.69519e+25 -1.86549 7.07919 271.683 
-9.31775e-06 2.62808e-06 2.69189e+25 -2.91208 6.76973 271.847 
-7.40642e-06 2.62808e-06 2.69336e+25 -3.65159 6.94675 271.648 
-5.49508e-06 2.62808e-06 2.69225e+25 -4.49262 6.36907 271.853 
-3.58375e-06 2.62808e-06 2.68856e+25 -4.98854 5.5374 272.171 
-1.67242e-06 2.62808e-06 2.68729e+25 -5.49478 4.1969 272.186 
-1.69631e-05 3.10592e-06 2.68121e+25 -0.0434939 0.510384 272.998 
-1.50517e-05 3.10592e-06 2.68931e+25 -0.126124 3.94642 272.159 
-1.31404e-05 3.10592e-06 2.69502e+25 -0.976684 6.15169 271.567 
-1.12291e-05 3.10592e-06 2.69451e+25 -1.94227 7.27076 271.62 
-9.31775e-06 3.10592e-06 2.69182e+25 -2.60481 7.03813 271.787 
-7.40642e-06 3.10592e-06 2.69392e+25 -3.6722 7.22641 271.71 
-5.49508e-06 3.10592e-06 2.69126e+25 -4.40669 6.4959 271.883 
-3.58375e-06 3.10592e-06 2.68861e+25 -4.86839 5.67295 272.106 
-1.67242e-06 3.10592e-06 2.68703e+25 -5.35845 4.39688 272.234 
-1.69631e-05 3.58375e-06 2.68293e+25 0.0194116 0.551687 272.835 
-1.50517e-05 3.58375e-06 2.69081e+25 -0.14101 4.14405 272.081 
-1.31404e-05 3.58375e-06 2.69354e+25 -0.849478 6.37119 271.656 
-1.12291e-05 3.58375e-06 2.69163e+25 -1.45089 7.37843 271.718 
-9.31775e-06 3.58375e-06 2.6937e+25 -2.36011 7.24343 271.741 
-7.40642e-06 3.58375e-06 2.69175e+25 -3.47091 7.37823 271.869 
-5.49508e-06 3.58375e-06 2.69125e+25 -4.25048 6.5817 271.843 
-3.58375e-06 3.58375e-06 2.68681e+25 -4.64039 5.74012 272.164 
-1.67242e-06 3.58375e-06 2.68642e+25 -5.08214 4.46947 272.232 
-1.69631e-05 4.06158e-06 2.68417e+25 0.0332173 0.55475 272.638 
-1.50517e-05 4.06158e-06 2.68955e+25 -0.231387 4.21217 272.03 
-1.31404e-05 4.06158e-06 2.69325e+25 -0.868533 6.63118 271.748 
-1.12291e-05 4.06158e-06 2.69235e+25 -1.32874 7.54206 271.789 
-9.31775e-06 4.06158e-06 2.69253e+25 -2.34868 7.64376 271.799 
-7.40642e-06 4.06158e-06 2.68934e+25 -3.26025 7.56132 272.056 
-5.49508e-06 4.06158e-06 2.69042e+25 -3.8165 6.75529 271.985 
-3.58375e-06 4.06158e-06 2.68714e+25 -4.21648 5.84365 272.251 
-1.67242e-06 4.06158e-06 2.68717e+25 -4.81639 4.55281 272.09 
-1.69631e-05 4.53942e-06 2.68211e+25 0.00196173 0.5122 272.931 
-1.50517e-05 4.53942e-06 2.68852e+25 -0.359235 4.31991 272.107 
-1.31404e-05 4.53942e-06 2.69194e+25 -0.732639 6.72338 271.784 
-1.12291e-05 4.53942e-06 2.69259e+25 -1.16712 7.69827 271.681 
-9.31775e-06 4.53942e-06 2.69358e+25 -1.87836 8.0125 271.682 
-7.40642e-06 4.53942e-06 2.68978e+25 -3.03235 7.65598 272.044 
-5.49508e-06 4.53942e-06 2.69008e+25 -3.4823 6.87323 271.918 
-3.58375e-06 4.53942e-06 2.68747e+25 -3.84021 5.95362 272.171 
-1.67242e-06 4.53942e-06 2.68733e+25 -4.29775 4.69857 272.108 
-1.69631e-05 5.01725e-06 2.68121e+25 -0.0313432 0.535539 272.9 
-1.50517e-05 5.01725e-06 2.68754e+25 -0.435557 4.41039 272.154 
-1.31404e-05 5.01725e-06 2.6922e+25 -0.582498 6.79281 271.852 
-1.12291e-05 5.01725e-06 2.69331e+25 -1.30298 7.93345 271.724 
-9.31775e-06 5.01725e-06 2.69142e+25 -1.94119 8.27408 271.87 
-7.40642e-06 5.01725e-06 2.69102e+25 -2.78507 7.78275 271.875 
-5.49508e-06 5.01725e-06 2.68913e+25 -3.06496 6.96573 271.858 
-3.58375e-06 5.01725e-06 2.68675e+25 -3.60469 6.07385 272.101 
-1.67242e-06 5.01725e-06 2.68721e+25 -4.03562 4.84531 272.035 
-1.69631e-05 5.49508e-06 2.68482e+25 -0.0375689 0.62234 272.697 
-1.50517e-05 5.49508e-06 2.68865e+25 -0.534784 4.57418 272.097 
-1.31404e-05 5.49508e-06 2.69154e+25 -0.663362 6.72833 271.811 
-1.12291e-05 5.49508e-06 2.69266e+25 -1.39304 8.0662 271.73 
-9.31775e-06 5.49508e-06 2.6917e+25 -1.82841 8.42607 271.737 
-7.40642e-06 5.49508e-06 2.69196e+25 -2.48162 7.83571 271.797 
-5.49508e-06 5.49508e-06 2.68985e+25 -2.94202 7.07993 271.836 
-3.58375e-06 5.49508e-06 2.68865e+25 -3.17609 6.14529 272.006 
-1.67242e-06 5.49508e-06 2.68757e+25 -3.6713 5.03007 271.985 
-1.69631e-05 5.97292e-06 2.6852e+25 -0.0237959 0.711258 272.564 
-1.50517e-05 5.97292e-06 2.68825e+25 -0.409105 4.83731 272.177 
-1.31404e-05 5.97292e-06 2.6927e+25 -0.757671 6.78803 271.789 
-1.12291e-05 5.97292e-06 2.69306e+25 -1.36003 8.30515 271.662 
-9.31775e-06 5.97292e-06 2.69373e+25 -1.79591 8.55404 271.587 
-7.40642e-06 5.97292e-06 2.69223e+25 -2.34472 7.99031 271.671 
-5.49508e-06 5.97292e-06 2.68848e+25 -2.58242 7.15046 271.917 
-3.58375e-06 5.97292e-06 2.68899e+25 -2.7731 6.24168 271.99 
-1.67242e-06 5.97292e-06 2.68952e+25 -3.31612 5.16007 271.825 
-1.69631e-05 6.45075e-06 2.68205e+25 -0.00141501 0.759637 272.788 
-1.50517e-05 6.45075e-06 2.68747e+25 -0.287517 5.02596 272.227 
-1.31404e-05 6.45075e-06 2.69153e+25 -1.09412 6.93459 271.896 
-1.12291e-05 6.45075e-06 2.69374e+25 -1.20421 8.45077 271.548 
-9.31775e-06 6.45075e-06 2.69426e+25 -1.93784 8.63253 271.655 
-7.40642e-06 6.45075e-06 2.69163e+25 -2.17867 8.15322 271.725 
-5.49508e-06 6.45075e-06 2.68915e+25 -2.42018 7.20783 271.962 
-3.58375e-06 6.45075e-06 2.68946e+25 -2.44607 6.2656 271.983 
-1.67242e-06 6.45075e-06 2.69179e+25 -2.67914 5.12244 271.697 
-1.69631e-05 6.92858e-06 2.68364e+25 0.0166341 0.711826 272.726 
-1.50517e-05 6.92858e-06 2.68822e+25 -0.292971 5.12595 272.18 
-1.31404e-05 6.92858e-06 2.68975e+25 -1.05815 7.09121 271.946 
-1.12291e-05 6.92858e-06 2.69264e+25 -1.23334 8.53256 271.548 
-9.31775e-06 6.92858e-06 2.6909e+25 -1.68229 8.66411 271.692 
-7.40642e-06 6.92858e-06 2.69213e+25 -1.99492 8.2097 271.697 
-5.49508e-06 6.92858e-06 2.68773e+25 -1.98527 7.23061 272.027 
-3.58375e-06 6.92858e-06 2.68856e+25 -2.03585 6.38724 271.856 
-1.67242e-06 6.92858e-06 2.69066e+25 -2.22478 5.24939 271.625 
-1.69631e-05 7.40642e-06 2.68268e+25 0.0201479 0.684711 272.76 
-1.50517e-05 7.40642e-06 2.68925e+25 -0.364136 5.2619 272.195 
-1.31404e-05 7.40642e-06 2.6906e+25 -1.03309 7.19857 271.942 
-1.12291e-05 7.40642e-06 2.69426e+25 -1.37252 8.50453 271.531 
-9.31775e-06 7.40642e-06 2.69119e+25 -1.60048 8.65309 271.802 
-7.40642e-06 7.40642e-06 2.69318e+25 -1.62923 8.31914 271.606 
-5.49508e-06 7.40642e-06 2.69041e+25 -1.59785 7.19513 271.835 
-3.58375e-06 7.40642e-06 2.68876e+25 -1.75501 6.4326 271.88 
-1.67242e-06 7.40642e-06 2.69298e+25 -1.48493 5.3637 271.564 
-1.69631e-05 7.88425e-06 2.68064e+25 -0.00995775 0.720335 272.858 
-1.50517e-05 7.88425e-06 2.68828e+25 -0.442082 5.38341 272.099 
-1.31404e-05 7.88425e-06 2.69041e+25 -1.04447 7.43308 271.911 
-1.12291e-05 7.88425e-06 2.69255e+25 -1.37051 8.48788 271.623 
-9.31775e-06 7.88425e-06 2.68994e+25 -1.40947 8.73906 271.918 
-7.40642e-06 7.88425e-06 2.69208e+25 -1.33376 8.35284 271.7 
-5.49508e-06 7.88425e-06 2.68684e+25 -1.2958 7.1197 272.064 
-3.58375e-06 7.88425e-06 2.68798e+25 -1.21804 6.39271 272.017 
-1.67242e-06 7.88425e-06 2.69118e+25 -0.922395 5.38692 271.718 
-1.69631e-05 8.36208e-06 2.68172e+25 0.00316395 0.726709 272.764 
-1.50517e-05 8.36208e-06 2.68852e+25 -0.463043 5.5189 271.974 
-1.31404e-05 8.36208e-06 2.68974e+25 -1.20207 7.74686 272 
-1.12291e-05 8.36208e-06 2.69001e+25 -1.5923 8.49815 271.796 
-9.31775e-06 8.36208e-06 2.68866e+25 -1.58224 8.78641 271.931 
-7.40642e-06 8.36208e-06 2.69158e+25 -1.14262 8.21313 271.755 
-5.49508e-06 8.36208e-06 2.68574e+25 -1.03615 6.96196 272.137 
-3.58375e-06 8.36208e-06 2.68827e+25 -0.699945 6.48601 271.984 
-1.67242e-06 8.36208e-06 2.69074e+25 -0.335506 5.22285 271.732 
-1.69631e-05 8.83992e-06 2.68205e+25 0.0169845 0.701565 272.758 
-1.50517e-05 8.83992e-06 2.68696e+25 -0.495684 5.59431 272.147 
-1.31404e-05 8.83992e-06 2.68905e+25 -1.32969 7.99549 272.061 
-1.12291e-05 8.83992e-06 2.68931e+25 -1.94646 8.45402 271.954 
-9.31775e-06 8.83992e-06 2.69064e+25 -1.73251 8.73858 271.851 
-7.40642e-06 8.83992e-06 2.6892e+25 -1.02948 7.92912 271.927 
-5.49508e-06 8.83992e-06 2.68488e+25 -0.669742 6.96415 272.261 
-3.58375e-06 8.83992e-06 2.68877e+25 0.0305127 6.44007 271.985 
-1.67242e-06 8.83992e-06 2.69085e+25 0.455737 5.0393 271.751 
-1.69631e-05 9.31775e-06 2.68033e+25 -0.0328415 0.733683 272.72 
-1.50517e-05 9.31775e-06 2.68582e+25 -0.614794 5.74133 272.137 
-1.31404e-05 9.31775e-06 2.68858e+25 -1.67978 8.20937 271.963 
-1.12291e-05 9.31775e-06 2.69145e+25 -2.12707 8.34831 271.672 
-9.31775e-06 9.31775e-06 2.6884e+25 -1.86305 8.62976 271.972 
-7.40642e-06 9.31775e-06 2.68983e+25 -1.04592 7.64527 271.929 
-5.49508e-06 9.31775e-06 2.68776e+25 -0.224924 6.94148 272.047 
-3.58375e-06 9.31775e-06 2.68842e+25 0.548949 6.27543 271.96 
-1.67242e-06 9.31775e-06 2.68872e+25 1.17829 4.88367 271.946 
-1.69631e-05 9.79558e-06 2.68141e+25 -0.0747483 0.855749 272.817 
-1.50517e-05 9.79558e-06 2.68821e+25 -0.736735 6.00281 272.049 
-1.31404e-05 9.79558e-06 2.68852e+25 -1.87877 8.42916 271.958 
-1.12291e-05 9.79558e-06 2.69105e+25 -2.43237 8.38698 271.694 
-9.31775e-06 9.79558e-06 2.68785e+25 -1.67884 8.4036 272.004 
-7.40642e-06 9.79558e-06 2.6895e+25 -0.792906 7.48996 272.042 
-5.49508e-06 9.79558e-06 2.68939e+25 0.131796 6.64357 272.109 
-3.58375e-06 9.79558e-06 2.68956e+25 1.29348 5.96423 271.909 
-1.67242e-06 9.79558e-06 2.68978e+25 2.0096 4.67505 271.886 
-1.69631e-05 1.02734e-05 2.6792e+25 -0.063866 1.03721 272.862 
-1.50517e-05 1.02734e-05 2.68604e+25 -1.05531 6.28567 272.098 
-1.31404e-05 1.02734e-05 2.6897e+25 -2.09914 8.53498 271.894 
-1.12291e-05 1.02734e-05 2.68908e+25 -2.32877 8.48105 271.804 
-9.31775e-06 1.02734e-05 2.68879e+25 -1.68549 8.2555 272.01 
-7.40642e-06 1.02734e-05 2.68688e+25 -0.851708 7.41747 272.171 
-5.49508e-06 1.02734e-05 2.68835e+25 0.577784 6.20173 272.057 
-3.58375e-06 1.02734e-05 2.68907e+25 1.9066 5.62735 271.973 
-1.67242e-06 1.02734e-05 2.68686e+25 2.99572 4.49334 272.087 
-1.69631e-05 1.07512e-05 2.68167e+25 -0.0391395 1.17303 272.707 
-1.50517e-05 1.07512e-05 2.68723e+25 -1.11724 6.60426 271.95 
-1.31404e-05 1.07512e-05 2.69122e+25 -2.1719 8.71528 271.778 
-1.12291e-05 1.07512e-05 2.68951e+25 -2.10423 8.4474 271.808 
-9.31775e-06 1.07512e-05 2.69002e+25 -1.54853 8.05044 271.841 
-7.40642e-06 1.07512e-05 2.68501e+25 -0.389695 7.22529 272.318 
-5.49508e-06 1.07512e-05 2.68877e+25 1.0779 5.88157 272.029 
-3.58375e-06 1.07512e-05 2.68897e+25 2.52141 5.32613 272.007 
-1.67242e-06 1.07512e-05 2.68897e+25 3.97228 4.20745 271.949 
-1.69631e-05 1.12291e-05 2.68079e+25 -0.0113781 1.20454 272.729 
-1.50517e-05 1.12291e-05 2.68842e+25 -1.3278 6.97978 271.951 
-1.31404e-05 1.12291e-05 2.6886e+25 -2.1069 8.85122 271.96 
-1.12291e-05 1.12291e-05 2.69098e+25 -2.09744 8.37715 271.795 
-9.31775e-06 1.12291e-05 2.6905e+25 -1.16921 7.6673 271.871 
-7.40642e-06 1.12291e-05 2.6867e+25 0.360182 6.8664 272.243 
-5.49508e-06 1.12291e-05 2.68833e+25 1.88718 5.59819 272.001 
-3.58375e-06 1.12291e-05 2.68906e+25 3.23775 4.88782 272.035 
-1.67242e-06 1.12291e-05 2.6888e+25 4.9886 3.91328 271.807 
-1.69631e-05 1.17069e-05 2.68048e+25 -0.0233126 1.2578 272.756 
-1.50517e-05 1.17069e-05 2.68735e+25 -1.42314 7.34645 272.018 
-1.31404e-05 1.17069e-05 2.68555e+25 -2.21259 8.94432 272.145 
-1.12291e-05 1.17069e-05 2.69091e+25 -2.09992 8.30117 271.692 
-9.31775e-06 1.17069e-05 2.68757e+25 -0.785157 7.26665 272.065 
-7.40642e-06 1.17069e-05 2.6875e+25 1.09811 6.41779 272.279 
-5.49508e-06 1.17069e-05 2.68807e+25 2.71999 5.38983 272.068 
-3.58375e-06 1.17069e-05 2.68845e+25 4.18186 4.44508 272.005 
-1.67242e-06 1.17069e-05 2.68944e+25 6.13857 3.47067 271.879 
-1.69631e-05 1.21847e-05 2.67952e+25 -0.0438303 1.3732 272.846 
-1.50517e-05 1.21847e-05 2.68721e+25 -1.61756 7.84525 271.982 
-1.31404e-05 1.21847e-05 2.68588e+25 -2.59259 9.01967 272.187 
-1.12291e-05 1.21847e-05 2.6888e+25 -1.8598 8.07436 271.773 
-9.31775e-06 1.21847e-05 2.69035e+25 -0.336663 6.72516 271.843 
-7.40642e-06 1.21847e-05 2.68648e+25 1.72711 5.81928 272.265 
-5.49508e-06 1.21847e-05 2.68755e+25 3.58176 4.97843 272.154 
-3.58375e-06 1.21847e-05 2.68809e+25 5.31296 3.94893 272.11 
-1.67242e-06 1.21847e-05 2.68925e+25 7.3654 3.00866 271.951 
-1.69631e-05 1.26626e-05 2.68021e+25 -0.0948243 1.52604 272.69 
-1.50517e-05 1.26626e-05 2.684e+25 -2.0545 8.21788 272.124 
-1.31404e-05 1.26626e-05 2.6876e+25 -2.66191 8.97661 271.961 
-1.12291e-05 1.26626e-05 2.6882e+25 -1.4565 7.71233 271.803 
-9.31775e-06 1.26626e-05 2.68905e+25 0.434842 6.22634 272.066 
-7.40642e-06 1.26626e-05 2.68674e+25 2.62233 5.29942 272.271 
-5.49508e-06 1.26626e-05 2.6873e+25 4.92552 4.43084 272.273 
-3.58375e-06 1.26626e-05 2.68859e+25 6.79982 3.42532 272.12 
-1.67242e-06 1.26626e-05 2.68782e+25 8.76614 2.54974 272 
-1.69631e-05 1.31404e-05 2.67863e+25 -0.131837 1.83906 272.687 
-1.50517e-05 1.31404e-05 2.68329e+25 -2.551 8.74074 272.045 
-1.31404e-05 1.31404e-05 2.68683e+25 -2.90783 8.8046 271.882 
-1.12291e-05 1.31404e-05 2.68921e+25 -1.01595 7.29727 271.989 
-9.31775e-06 1.31404e-05 2.69005e+25 1.63208 5.6607 272.069 
-7.40642e-06 1.31404e-05 2.68468e+25 4.14971 4.78322 272.312 
-5.49508e-06 1.31404e-05 2.68736e+25 6.32127 3.84809 272.309 
-3.58375e-06 1.31404e-05 2.68784e+25 8.65008 2.79114 272.043 
-1.67242e-06 1.31404e-05 2.68819e+25 10.5996 2.19194 272.011 
-1.69631e-05 1.36182e-05 2.6787e+25 -0.174231 2.18413 272.681 
-1.50517e-05 1.36182e-05 2.68354e+25 -3.10301 9.24601 272.019 
-1.31404e-05 1.36182e-05 2.68718e+25 -2.64282 8.33842 271.948 
-1.12291e-05 1.36182e-05 2.68791e+25 -0.0324487 6.57019 272.142 
-9.31775e-06 1.36182e-05 2.68975e+25 3.11998 4.94617 271.992 
-7.40642e-06 1.36182e-05 2.68769e+25 5.91771 4.21086 272.147 
-5.49508e-06 1.36182e-05 2.68799e+25 8.33236 3.18853 272.245 
-3.58375e-06 1.36182e-05 2.68806e+25 10.7718 2.26871 272.18 
-1.67242e-06 1.36182e-05 2.68626e+25 12.1773 1.78829 272.212 
-1.69631e-05 1.40961e-05 2.67252e+25 -0.17947 2.60505 272.901 
-1.50517e-05 1.40961e-05 2.68056e+25 -3.17127 9.57896 272.198 
-1.31404e-05 1.40961e-05 2.6895e+25 -1.88145 7.68524 271.719 
-1.12291e-05 1.40961e-05 2.6845e+25 1.34109 5.65524 272.274 
-9.31775e-06 1.40961e-05 2.68833e+25 4.84647 4.15258 272.098 
-7.40642e-06 1.40961e-05 2.68859e+25 7.95163 3.55193 272.116 
-5.49508e-06 1.40961e-05 2.6873e+25 10.826 2.57377 272.354 
-3.58375e-06 1.40961e-05 2.68579e+25 13.0058 1.8945 272.215 
-1.67242e-06 1.40961e-05 2.68542e+25 14.3261 1.56533 272.385 
-1.69631e-05 1.45739e-05 2.6718e+25 -0.326143 3.2094 272.817 
-1.50517e-05 1.45739e-05 2.67962e+25 -3.17171 9.70856 272.317 
-1.31404e-05 1.45739e-05 2.68717e+25 -0.514831 6.77848 271.877 
-1.12291e-05 1.45739e-05 2.68624e+25 3.74523 4.56836 272.249 
-9.31775e-06 1.45739e-05 2.6877e+25 7.20626 3.44486 272.106 
-7.40642e-06 1.45739e-05 2.68787e+25 10.6756 2.82012 272.273 
-5.49508e-06 1.45739e-05 2.68612e+25 13.4032 1.99287 272.368 
-3.58375e-06 1.45739e-05 2.68454e+25 15.5133 1.58765 272.297 
-1.67242e-06 1.45739e-05 2.68363e+25 16.8532 1.25878 272.443 
-1.69631e-05 1.50518e-05 2.66914e+25 -0.455521 4.13581 272.857 
-1.50517e-05 1.50518e-05 2.67611e+25 -2.8027 9.39425 272.411 
-1.31404e-05 1.50518e-05 2.68683e+25 1.91398 5.64597 271.97 
-1.12291e-05 1.50518e-05 2.68527e+25 6.93224 3.56504 272.309 
-9.31775e-06 1.50518e-05 2.68718e+25 10.6143 2.65105 272.236 
-7.40642e-06 1.50518e-05 2.68548e+25 13.7404 2.11666 272.493 
-5.49508e-06 1.50518e-05 2.68297e+25 16.2668 1.36301 272.584 
-3.58375e-06 1.50518e-05 2.68449e+25 18.3242 1.16839 272.364 
-1.67242e-06 1.50518e-05 2.68576e+25 19.7415 0.97659 272.428 
-1.69631e-05 1.55296e-05 2.66192e+25 -0.688588 5.43791 272.804 
-1.50517e-05 1.55296e-05 2.67405e+25 -0.903497 8.29889 272.539 
-1.31404e-05 1.55296e-05 2.68309e+25 5.872 4.10622 272.351 
-1.12291e-05 1.55296e-05 2.68146e+25 11.206 2.59464 272.787 
-9.31775e-06 1.55296e-05 2.68858e+25 14.8456 1.68367 272.258 
-7.40642e-06 1.55296e-05 2.68468e+25 17.7881 1.423 272.586 
-5.49508e-06 1.55296e-05 2.68464e+25 19.9122 0.926676 272.53 
-3.58375e-06 1.55296e-05 2.68517e+25 21.5295 0.719491 272.466 
-1.67242e-06 1.55296e-05 2.68429e+25 22.8788 0.708595 272.568 
-1.69631e-05 1.60074e-05 2.65014e+25 -0.81414 7.06474 272.881 
-1.50517e-05 1.60074e-05 2.67376e+25 3.58141 6.19966 272.735 
-1.31404e-05 1.60074e-05 2.68147e+25 11.7208 2.45097 272.566 
-1.12291e-05 1.60074e-05 2.68073e+25 16.6268 1.56337 272.89 
-9.31775e-06 1.60074e-05 2.68582e+25 19.8648 0.912164 272.453 
-7.40642e-06 1.60074e-05 2.68304e+25 22.1877 0.781694 272.672 
-5.49508e-06 1.60074e-05 2.68275e+25 23.9816 0.496473 272.686 
-3.58375e-06 1.60074e-05 2.68434e+25 25.2754 0.408042 272.52 
-1.67242e-06 1.60074e-05 2.68394e+25 26.2233 0.405511 272.63 
-1.69631e-05 1.64852e-05 2.6262e+25 -0.368443 8.51676 272.921 
-1.50517e-05 1.64852e-05 2.6712e+25 11.8045 3.43354 272.93 
-1.31404e-05 1.64852e-05 2.68032e+25 19.5373 1.06962 272.691 
-1.12291e-05 1.64852e-05 2.68191e+25 23.2941 0.613567 272.851 
-9.31775e-06 1.64852e-05 2.68536e+25 25.7205 0.371953 272.507 
-7.40642e-06 1.64852e-05 2.68203e+25 27.1561 0.250182 272.848 
-5.49508e-06 1.64852e-05 2.68152e+25 28.2968 0.155507 272.874 
-3.58375e-06 1.64852e-05 2.68403e+25 28.8518 0.233038 272.648 
-1.67242e-06 1.64852e-05 2.68389e+25 29.6715 0.193998 272.568 
-1.69631e-05 1.69631e-05 2.55352e+25 4.01738 6.21155 273.09 
-1.50517e-05 1.69631e-05 2.67225e+25 24.3616 0.839672 273.105 
-1.31404e-05 1.69631e-05 2.67988e+25 28.6055 0.233942 273.036 
-1.12291e-05 1.69631e-05 2.68127e+25 30.3636 0.0967249 273.066 
-9.31775e-06 1.69631e-05 2.68376e+25 31.2863 0.0643986 272.835 
-7.40642e-06 1.69631e-05 2.68239e+25 31.7525 0.00196264 272.927 
-5.49508e-06 1.69631e-05 2.68023e+25 32.2016 0.0225041 273.063 
-3.58375e-06 1.69631e-05 2.68078e+25 32.4372 0.0443771 272.952 
-1.67242e-06 1.69631e-05 2.68303e+25 32.6451 -0.00343081 272.752 
-1.60074e-05 2.38917e-07 2.68441e+25 -0.225147 1.91161 272.371 
-1.40961e-05 2.38917e-07 2.6874e+25 -0.585572 4.17665 272.136 
-1.21847e-05 2.38917e-07 2.68802e+25 -1.45175 5.26992 272.219 
-1.02734e-05 2.38917e-07 2.69153e+25 -2.74181 6.02114 271.719 
-8.36208e-06 2.38917e-07 2.6909e+25 -3.56127 6.07409 271.851 
-6.45075e-06 2.38917e-07 2.68891e+25 -4.23144 5.69996 271.98 
-4.53942e-06 2.38917e-07 2.68999e+25 -5.45004 4.82802 271.787 
-2.62808e-06 2.38917e-07 2.68764e+25 -6.38333 3.74458 272.019 
-7.1675e-07 2.38917e-07 2.68908e+25 -7.24231 2.32819 272.061 
-1.60074e-05 7.1675e-07 2.6872e+25 -0.186955 2.06089 272.461 
-1.40961e-05 7.1675e-07 2.68956e+25 -0.529972 4.32781 272.11 
-1.21847e-05 7.1675e-07 2.69059e+25 -1.59252 5.66443 271.982 
-1.02734e-05 7.1675e-07 2.69251e+25 -2.91622 6.21287 271.671 
-8.36208e-06 7.1675e-07 2.69215e+25 -3.46519 6.31683 271.798 
-6.45075e-06 7.1675e-07 2.69316e+25 -4.14789 6.01699 271.774 
-4.53942e-06 7.1675e-07 2.69028e+25 -5.18691 5.1051 271.915 
-2.62808e-06 7.1675e-07 2.68906e+25 -6.15056 4.16945 272.057 
-7.1675e-07 7.1675e-07 2.69155e+25 -7.10375 2.51992 271.972 
-1.60074e-05 1.19458e-06 2.68896e+25 -0.238103 2.263 272.281 
-1.40961e-05 1.19458e-06 2.68876e+25 -0.547164 4.41157 272.179 
-1.21847e-05 1.19458e-06 2.69374e+25 -1.71791 6.03188 271.728 
-1.02734e-05 1.19458e-06 2.69452e+25 -2.79928 6.46596 271.693 
-8.36208e-06 1.19458e-06 2.69336e+25 -3.2969 6.48815 271.8 
-6.45075e-06 1.19458e-06 2.69371e+25 -4.00777 6.1504 271.685 
-4.53942e-06 1.19458e-06 2.69125e+25 -4.98385 5.48072 271.895 
-2.62808e-06 1.19458e-06 2.69135e+25 -5.89799 4.48423 271.965 
-7.1675e-07 1.19458e-06 2.69092e+25 -6.90476 2.72366 271.999 
-1.60074e-05 1.67242e-06 2.68839e+25 0.0675099 2.32372 272.313 
-1.40961e-05 1.67242e-06 2.69037e+25 -0.691928 4.51915 272.07 
-1.21847e-05 1.67242e-06 2.69368e+25 -1.64211 6.36109 271.732 
-1.02734e-05 1.67242e-06 2.69149e+25 -2.55743 6.65749 271.908 
-8.36208e-06 1.67242e-06 2.69275e+25 -3.31175 6.57279 271.655 
-6.45075e-06 1.67242e-06 2.69293e+25 -3.96096 6.27381 271.686 
-4.53942e-06 1.67242e-06 2.69158e+25 -4.68676 5.74904 271.79 
-2.62808e-06 1.67242e-06 2.68951e+25 -5.6418 4.66983 272.016 
-7.1675e-07 1.67242e-06 2.68917e+25 -6.57033 2.8949 272.041 
-1.60074e-05 2.15025e-06 2.68746e+25 0.253315 2.28318 272.402 
-1.40961e-05 2.15025e-06 2.69009e+25 -0.654035 4.8002 272.077 
-1.21847e-05 2.15025e-06 2.69584e+25 -1.54953 6.53384 271.502 
-1.02734e-05 2.15025e-06 2.69079e+25 -2.33411 6.83751 271.921 
-8.36208e-06 2.15025e-06 2.69271e+25 -3.35364 6.66377 271.805 
-6.45075e-06 2.15025e-06 2.69492e+25 -4.18123 6.42444 271.594 
-4.53942e-06 2.15025e-06 2.69242e+25 -4.62738 6.00276 271.702 
-2.62808e-06 2.15025e-06 2.689e+25 -5.58583 4.84429 272.053 
-7.1675e-07 2.15025e-06 2.68775e+25 -6.28502 3.1136 272.095 
-1.60074e-05 2.62808e-06 2.68902e+25 -0.00659025 2.28628 272.28 
-1.40961e-05 2.62808e-06 2.69143e+25 -0.78377 5.12736 271.95 
-1.21847e-05 2.62808e-06 2.69736e+25 -1.48511 6.73612 271.406 
-1.02734e-05 2.62808e-06 2.69182e+25 -2.2674 7.09749 271.817 
-8.36208e-06 2.62808e-06 2.69222e+25 -3.30032 6.76028 271.804 
-6.45075e-06 2.62808e-06 2.69355e+25 -4.19902 6.56495 271.628 
-4.53942e-06 2.62808e-06 2.69159e+25 -4.72125 6.10562 271.789 
-2.62808e-06 2.62808e-06 2.68807e+25 -5.3251 4.96269 272.215 
-7.1675e-07 2.62808e-06 2.68804e+25 -5.9199 3.33279 272.183 
-1.60074e-05 3.10592e-06 2.68948e+25 -0.0693254 2.29046 272.146 
-1.40961e-05 3.10592e-06 2.693e+25 -0.622978 5.42908 271.79 
-1.21847e-05 3.10592e-06 2.6949e+25 -1.40545 6.89742 271.623 
-1.02734e-05 3.10592e-06 2.6918e+25 -2.25589 7.2934 271.838 
-8.36208e-06 3.10592e-06 2.69248e+25 -3.15032 6.97264 271.751 
-6.45075e-06 3.10592e-06 2.69195e+25 -4.06416 6.69327 271.809 
-4.53942e-06 3.10592e-06 2.69003e+25 -4.77997 6.19378 271.927 
-2.62808e-06 3.10592e-06 2.68739e+25 -5.06883 5.00399 272.207 
-7.1675e-07 3.10592e-06 2.68697e+25 -5.65513 3.67365 272.211 
-1.60074e-05 3.58375e-06 2.68899e+25 -0.0576906 2.37306 272.108 
-1.40961e-05 3.58375e-06 2.69214e+25 -0.330999 5.57697 271.793 
-1.21847e-05 3.58375e-06 2.6927e+25 -1.24661 7.15109 271.701 
-1.02734e-05 3.58375e-06 2.69298e+25 -1.98948 7.49156 271.757 
-8.36208e-06 3.58375e-06 2.69278e+25 -2.97245 7.33212 271.822 
-6.45075e-06 3.58375e-06 2.68936e+25 -3.84544 7.01183 271.93 
-4.53942e-06 3.58375e-06 2.68877e+25 -4.43491 6.36419 271.983 
-2.62808e-06 3.58375e-06 2.6861e+25 -4.83257 5.17123 272.208 
-7.1675e-07 3.58375e-06 2.68649e+25 -5.31797 3.84703 272.236 
-1.60074e-05 4.06158e-06 2.68998e+25 -0.0813906 2.49393 271.971 
-1.40961e-05 4.06158e-06 2.69264e+25 -0.417028 5.80281 271.725 
-1.21847e-05 4.06158e-06 2.69303e+25 -1.24099 7.31434 271.659 
-1.02734e-05 4.06158e-06 2.6928e+25 -1.58709 7.71763 271.689 
-8.36208e-06 4.06158e-06 2.6928e+25 -2.89973 7.56758 271.78 
-6.45075e-06 4.06158e-06 2.68956e+25 -3.60336 7.18903 271.978 
-4.53942e-06 4.06158e-06 2.68793e+25 -4.04089 6.39194 272.209 
-2.62808e-06 4.06158e-06 2.68858e+25 -4.48595 5.30324 272.105 
-7.1675e-07 4.06158e-06 2.68641e+25 -4.91835 3.91766 272.359 
-1.60074e-05 4.53942e-06 2.68906e+25 -0.182589 2.54617 272.177 
-1.40961e-05 4.53942e-06 2.69053e+25 -0.599497 5.9903 271.842 
-1.21847e-05 4.53942e-06 2.69231e+25 -0.963966 7.42937 271.769 
-1.02734e-05 4.53942e-06 2.69311e+25 -1.52537 7.89438 271.691 
-8.36208e-06 4.53942e-06 2.69439e+25 -2.66659 7.82285 271.586 
-6.45075e-06 4.53942e-06 2.68979e+25 -3.2814 7.34066 271.963 
-4.53942e-06 4.53942e-06 2.68676e+25 -3.61848 6.43323 272.282 
-2.62808e-06 4.53942e-06 2.68824e+25 -4.10281 5.42242 272.069 
-7.1675e-07 4.53942e-06 2.68589e+25 -4.56049 4.03857 272.313 
-1.60074e-05 5.01725e-06 2.69031e+25 -0.100429 2.63039 272.098 
-1.40961e-05 5.01725e-06 2.69058e+25 -0.610887 5.96269 271.857 
-1.21847e-05 5.01725e-06 2.69138e+25 -0.77369 7.56972 271.945 
-1.02734e-05 5.01725e-06 2.69218e+25 -1.56429 8.05192 271.64 
-8.36208e-06 5.01725e-06 2.69056e+25 -2.28247 8.16922 271.767 
-6.45075e-06 5.01725e-06 2.68865e+25 -2.93096 7.42077 271.996 
-4.53942e-06 5.01725e-06 2.68974e+25 -3.3732 6.54002 272.027 
-2.62808e-06 5.01725e-06 2.68931e+25 -3.75388 5.57426 271.976 
-7.1675e-07 5.01725e-06 2.68666e+25 -4.33523 4.15504 272.092 
-1.60074e-05 5.49508e-06 2.68896e+25 -0.196602 2.76966 272.089 
-1.40961e-05 5.49508e-06 2.68891e+25 -0.68876 5.96411 271.938 
-1.21847e-05 5.49508e-06 2.69158e+25 -0.854617 7.8124 271.809 
-1.02734e-05 5.49508e-06 2.69273e+25 -1.62688 8.22287 271.7 
-8.36208e-06 5.49508e-06 2.69188e+25 -2.11876 8.44492 271.702 
-6.45075e-06 5.49508e-06 2.69092e+25 -2.76369 7.50756 271.926 
-4.53942e-06 5.49508e-06 2.69018e+25 -3.1215 6.72403 271.849 
-2.62808e-06 5.49508e-06 2.68957e+25 -3.34803 5.64854 271.957 
-7.1675e-07 5.49508e-06 2.68679e+25 -3.87752 4.21885 271.947 
-1.60074e-05 5.97292e-06 2.68892e+25 -0.196943 2.79311 272.181 
-1.40961e-05 5.97292e-06 2.68892e+25 -0.671038 6.03575 272.027 
-1.21847e-05 5.97292e-06 2.69089e+25 -0.956152 8.02946 271.821 
-1.02734e-05 5.97292e-06 2.69301e+25 -1.59447 8.2185 271.66 
-8.36208e-06 5.97292e-06 2.69247e+25 -2.09471 8.6101 271.711 
-6.45075e-06 5.97292e-06 2.69053e+25 -2.47144 7.5866 271.812 
-4.53942e-06 5.97292e-06 2.69036e+25 -2.7863 6.75465 271.902 
-2.62808e-06 5.97292e-06 2.69021e+25 -3.08935 5.81482 271.85 
-7.1675e-07 5.97292e-06 2.68669e+25 -3.43021 4.26665 272.117 
-1.60074e-05 6.45075e-06 2.68784e+25 -0.0778978 2.80198 272.176 
-1.40961e-05 6.45075e-06 2.68881e+25 -0.773713 6.12778 271.967 
-1.21847e-05 6.45075e-06 2.69097e+25 -1.15995 8.11209 271.915 
-1.02734e-05 6.45075e-06 2.69347e+25 -1.64403 8.31132 271.609 
-8.36208e-06 6.45075e-06 2.69357e+25 -2.02664 8.57842 271.642 
-6.45075e-06 6.45075e-06 2.69204e+25 -2.2499 7.55917 271.807 
-4.53942e-06 6.45075e-06 2.69072e+25 -2.3876 6.73295 271.865 
-2.62808e-06 6.45075e-06 2.68961e+25 -2.67209 5.91501 271.924 
-7.1675e-07 6.45075e-06 2.68804e+25 -2.73999 4.26405 271.989 
-1.60074e-05 6.92858e-06 2.68538e+25 -0.0531313 2.94487 272.356 
-1.40961e-05 6.92858e-06 2.69122e+25 -0.718405 6.32082 271.87 
-1.21847e-05 6.92858e-06 2.69107e+25 -1.22516 8.06025 271.818 
-1.02734e-05 6.92858e-06 2.69106e+25 -1.45426 8.5892 271.635 
-8.36208e-06 6.92858e-06 2.69149e+25 -1.73245 8.68371 271.693 
-6.45075e-06 6.92858e-06 2.68887e+25 -1.98443 7.55799 271.897 
-4.53942e-06 6.92858e-06 2.69104e+25 -1.98603 6.73488 271.861 
-2.62808e-06 6.92858e-06 2.68955e+25 -2.02793 6.02356 271.849 
-7.1675e-07 6.92858e-06 2.68839e+25 -2.36014 4.32481 271.917 
-1.60074e-05 7.40642e-06 2.68672e+25 -0.116488 3.08572 272.29 
-1.40961e-05 7.40642e-06 2.69002e+25 -0.603879 6.52289 271.958 
-1.21847e-05 7.40642e-06 2.69056e+25 -1.32469 8.11665 271.795 
-1.02734e-05 7.40642e-06 2.69212e+25 -1.35119 8.74025 271.786 
-8.36208e-06 7.40642e-06 2.69039e+25 -1.66986 8.73164 271.726 
-6.45075e-06 7.40642e-06 2.69098e+25 -1.64156 7.58706 271.696 
-4.53942e-06 7.40642e-06 2.68886e+25 -1.59517 6.83633 272.084 
-2.62808e-06 7.40642e-06 2.68849e+25 -1.49526 6.0208 271.978 
-7.1675e-07 7.40642e-06 2.68911e+25 -1.66798 4.36932 271.865 
-1.60074e-05 7.88425e-06 2.68491e+25 -0.0726044 3.1555 272.39 
-1.40961e-05 7.88425e-06 2.6893e+25 -0.584829 6.73435 271.895 
-1.21847e-05 7.88425e-06 2.69192e+25 -1.31833 8.22061 271.714 
-1.02734e-05 7.88425e-06 2.69096e+25 -1.38417 8.75238 271.829 
-8.36208e-06 7.88425e-06 2.68963e+25 -1.52627 8.73282 271.869 
-6.45075e-06 7.88425e-06 2.69133e+25 -1.36284 7.55952 271.815 
-4.53942e-06 7.88425e-06 2.68699e+25 -1.17375 6.84728 272.171 
-2.62808e-06 7.88425e-06 2.68847e+25 -1.17804 5.85415 271.953 
-7.1675e-07 7.88425e-06 2.68816e+25 -0.90755 4.32776 271.903 
-1.60074e-05 8.36208e-06 2.6856e+25 -0.148166 3.29673 272.229 
-1.40961e-05 8.36208e-06 2.68865e+25 -0.628186 6.87892 271.946 
-1.21847e-05 8.36208e-06 2.69138e+25 -1.69766 8.17055 271.707 
-1.02734e-05 8.36208e-06 2.69068e+25 -1.55342 8.73464 271.883 
-8.36208e-06 8.36208e-06 2.68871e+25 -1.4385 8.69379 271.948 
-6.45075e-06 8.36208e-06 2.68834e+25 -0.970791 7.59258 272.024 
-4.53942e-06 8.36208e-06 2.68841e+25 -0.750022 6.66458 272.063 
-2.62808e-06 8.36208e-06 2.68725e+25 -0.632525 5.68205 271.854 
-7.1675e-07 8.36208e-06 2.68853e+25 -0.042465 4.35966 272.017 
-1.60074e-05 8.83992e-06 2.68578e+25 -0.251371 3.48487 272.303 
-1.40961e-05 8.83992e-06 2.68748e+25 -0.798447 6.97636 272.012 
-1.21847e-05 8.83992e-06 2.68979e+25 -1.85549 8.3434 271.817 
-1.02734e-05 8.83992e-06 2.69009e+25 -1.87879 8.74426 271.862 
-8.36208e-06 8.83992e-06 2.68864e+25 -1.49571 8.5422 271.943 
-6.45075e-06 8.83992e-06 2.68619e+25 -0.730323 7.6421 272.24 
-4.53942e-06 8.83992e-06 2.68833e+25 -0.300042 6.46475 272.072 
-2.62808e-06 8.83992e-06 2.6878e+25 0.166993 5.62524 271.929 
-7.1675e-07 8.83992e-06 2.68766e+25 0.744545 4.30438 272.071 
-1.60074e-05 9.31775e-06 2.68632e+25 -0.340825 3.66242 272.342 
-1.40961e-05 9.31775e-06 2.68648e+25 -1.15172 7.25724 272.061 
-1.21847e-05 9.31775e-06 2.69056e+25 -2.06769 8.61623 271.778 
-1.02734e-05 9.31775e-06 2.69046e+25 -2.17249 8.683 271.959 
-8.36208e-06 9.31775e-06 2.68999e+25 -1.49417 8.38261 271.952 
-6.45075e-06 9.31775e-06 2.68714e+25 -0.608818 7.53661 272.142 
-4.53942e-06 9.31775e-06 2.68999e+25 0.200439 6.21702 271.866 
-2.62808e-06 9.31775e-06 2.68741e+25 0.880809 5.54206 271.946 
-7.1675e-07 9.31775e-06 2.68732e+25 1.46903 4.16703 272.09 
-1.60074e-05 9.79558e-06 2.68557e+25 -0.347473 3.81717 272.342 
-1.40961e-05 9.79558e-06 2.68595e+25 -1.39542 7.59432 272.13 
-1.21847e-05 9.79558e-06 2.69147e+25 -2.0437 8.7435 271.729 
-1.02734e-05 9.79558e-06 2.69034e+25 -2.27305 8.52956 271.773 
-8.36208e-06 9.79558e-06 2.68968e+25 -1.24934 8.24114 271.891 
-6.45075e-06 9.79558e-06 2.68853e+25 -0.643225 7.24043 271.999 
-4.53942e-06 9.79558e-06 2.6895e+25 0.728596 5.99029 271.985 
-2.62808e-06 9.79558e-06 2.68572e+25 1.78252 5.40777 272.09 
-7.1675e-07 9.79558e-06 2.68652e+25 2.23515 4.04875 272.047 
-1.60074e-05 1.02734e-05 2.68449e+25 -0.403445 3.92255 272.344 
-1.40961e-05 1.02734e-05 2.688e+25 -1.69934 7.93775 272.043 
-1.21847e-05 1.02734e-05 2.69235e+25 -2.14953 8.82952 271.657 
-1.02734e-05 1.02734e-05 2.68838e+25 -2.05009 8.24651 271.961 
-8.36208e-06 1.02734e-05 2.68859e+25 -1.07557 7.88695 272.084 
-6.45075e-06 1.02734e-05 2.68926e+25 -0.188919 6.97302 271.941 
-4.53942e-06 1.02734e-05 2.6895e+25 1.18417 5.7706 271.911 
-2.62808e-06 1.02734e-05 2.68622e+25 2.44002 5.19041 272.063 
-7.1675e-07 1.02734e-05 2.68739e+25 3.49491 3.82885 272.039 
-1.60074e-05 1.07512e-05 2.68368e+25 -0.489085 4.19203 272.306 
-1.40961e-05 1.07512e-05 2.68842e+25 -1.69814 8.22836 271.925 
-1.21847e-05 1.07512e-05 2.69088e+25 -2.20527 8.80102 271.74 
-1.02734e-05 1.07512e-05 2.69094e+25 -1.83555 8.08954 271.765 
-8.36208e-06 1.07512e-05 2.68834e+25 -0.967965 7.60545 272.116 
-6.45075e-06 1.07512e-05 2.68977e+25 0.396712 6.59902 271.959 
-4.53942e-06 1.07512e-05 2.68963e+25 1.84661 5.44424 271.909 
-2.62808e-06 1.07512e-05 2.68722e+25 3.32937 4.90968 271.983 
-7.1675e-07 1.07512e-05 2.68646e+25 4.46072 3.65949 272.109 
-1.60074e-05 1.12291e-05 2.68606e+25 -0.450901 4.59118 272.186 
-1.40961e-05 1.12291e-05 2.68595e+25 -1.95278 8.3752 272.061 
-1.21847e-05 1.12291e-05 2.6912e+25 -2.21341 8.73988 271.729 
-1.02734e-05 1.12291e-05 2.69258e+25 -1.78108 7.98618 271.67 
-8.36208e-06 1.12291e-05 2.68817e+25 -0.46326 7.25078 272.122 
-6.45075e-06 1.12291e-05 2.68924e+25 1.16341 6.19619 272.043 
-4.53942e-06 1.12291e-05 2.68869e+25 2.48611 5.09075 271.956 
-2.62808e-06 1.12291e-05 2.68754e+25 4.00514 4.49485 271.993 
-7.1675e-07 1.12291e-05 2.68635e+25 5.50629 3.49628 272.016 
-1.60074e-05 1.17069e-05 2.6843e+25 -0.571469 4.92462 272.274 
-1.40961e-05 1.17069e-05 2.68565e+25 -2.03472 8.52521 272.12 
-1.21847e-05 1.17069e-05 2.68965e+25 -2.30705 8.72934 271.81 
-1.02734e-05 1.17069e-05 2.69026e+25 -1.60137 7.67922 271.872 
-8.36208e-06 1.17069e-05 2.6871e+25 0.0967897 6.79281 272.058 
-6.45075e-06 1.17069e-05 2.68799e+25 1.98239 5.75621 272.13 
-4.53942e-06 1.17069e-05 2.68848e+25 3.3676 4.79939 271.903 
-2.62808e-06 1.17069e-05 2.68892e+25 5.23411 3.99828 271.933 
-7.1675e-07 1.17069e-05 2.68899e+25 6.77252 3.27734 271.911 
-1.60074e-05 1.21847e-05 2.68334e+25 -0.705899 5.38084 272.31 
-1.40961e-05 1.21847e-05 2.6867e+25 -2.21974 8.69834 271.997 
-1.21847e-05 1.21847e-05 2.6889e+25 -2.40082 8.56229 271.864 
-1.02734e-05 1.21847e-05 2.6905e+25 -1.24026 7.31228 271.885 
-8.36208e-06 1.21847e-05 2.68961e+25 0.651041 6.30551 272.1 
-6.45075e-06 1.21847e-05 2.68764e+25 2.73698 5.30298 272.137 
-4.53942e-06 1.21847e-05 2.6903e+25 4.27692 4.4027 271.878 
-2.62808e-06 1.21847e-05 2.68927e+25 6.39902 3.46952 272.032 
-7.1675e-07 1.21847e-05 2.68709e+25 8.05778 3.07162 271.983 
-1.60074e-05 1.26626e-05 2.68227e+25 -1.01173 5.9162 272.296 
-1.40961e-05 1.26626e-05 2.68567e+25 -2.49843 8.91786 272.059 
-1.21847e-05 1.26626e-05 2.68939e+25 -2.22619 8.32248 271.856 
-1.02734e-05 1.26626e-05 2.68762e+25 -0.63562 6.80043 271.988 
-8.36208e-06 1.26626e-05 2.68414e+25 1.60938 5.90734 272.31 
-6.45075e-06 1.26626e-05 2.68717e+25 3.76011 4.82725 272.168 
-4.53942e-06 1.26626e-05 2.68766e+25 5.74616 3.99554 272.084 
-2.62808e-06 1.26626e-05 2.68714e+25 7.90892 2.91702 272.104 
-7.1675e-07 1.26626e-05 2.68532e+25 9.75323 2.61547 272.124 
-1.60074e-05 1.31404e-05 2.68317e+25 -1.24598 6.58043 272.259 
-1.40961e-05 1.31404e-05 2.68648e+25 -3.34099 9.13208 271.914 
-1.21847e-05 1.31404e-05 2.68847e+25 -2.0783 7.90906 271.876 
-1.02734e-05 1.31404e-05 2.68786e+25 0.354631 6.20006 272.005 
-8.36208e-06 1.31404e-05 2.68519e+25 2.93121 5.22693 272.388 
-6.45075e-06 1.31404e-05 2.68705e+25 5.1555 4.26009 272.223 
-4.53942e-06 1.31404e-05 2.68506e+25 7.49857 3.54022 272.316 
-2.62808e-06 1.31404e-05 2.68828e+25 9.63297 2.45402 272.099 
-7.1675e-07 1.31404e-05 2.68717e+25 11.3504 2.16856 272.125 
-1.60074e-05 1.36182e-05 2.67999e+25 -1.67915 7.29189 272.4 
-1.40961e-05 1.36182e-05 2.68642e+25 -3.34982 9.1336 271.897 
-1.21847e-05 1.36182e-05 2.68567e+25 -1.52473 7.41654 272.241 
-1.02734e-05 1.36182e-05 2.68684e+25 1.53038 5.48233 272.121 
-8.36208e-06 1.36182e-05 2.68634e+25 4.53432 4.55646 272.397 
-6.45075e-06 1.36182e-05 2.68613e+25 7.11637 3.74084 272.269 
-4.53942e-06 1.36182e-05 2.68634e+25 9.70932 2.94985 272.311 
-2.62808e-06 1.36182e-05 2.68788e+25 11.6425 2.17336 271.99 
-7.1675e-07 1.36182e-05 2.68619e+25 13.0773 1.76405 272.211 
-1.60074e-05 1.40961e-05 2.67853e+25 -1.85717 8.25663 272.274 
-1.40961e-05 1.40961e-05 2.68529e+25 -3.13457 8.90712 271.903 
-1.21847e-05 1.40961e-05 2.68674e+25 -0.323982 6.77546 272.135 
-1.02734e-05 1.40961e-05 2.68612e+25 3.25695 4.75003 272.261 
-8.36208e-06 1.40961e-05 2.68928e+25 6.41496 3.76561 272.193 
-6.45075e-06 1.40961e-05 2.68652e+25 9.51707 3.08404 272.363 
-4.53942e-06 1.40961e-05 2.68597e+25 12.0562 2.24748 272.37 
-2.62808e-06 1.40961e-05 2.68823e+25 13.7911 1.72543 272.099 
-7.1675e-07 1.40961e-05 2.68468e+25 14.9989 1.36435 272.356 
-1.60074e-05 1.45739e-05 2.67599e+25 -2.36855 9.26427 272.216 
-1.40961e-05 1.45739e-05 2.68282e+25 -2.29124 8.41526 272.115 
-1.21847e-05 1.45739e-05 2.68692e+25 1.67312 5.85924 272.064 
-1.02734e-05 1.45739e-05 2.68654e+25 5.62059 3.9689 272.286 
-8.36208e-06 1.45739e-05 2.68845e+25 8.96506 2.88357 272.178 
-6.45075e-06 1.45739e-05 2.68758e+25 12.1129 2.36063 272.266 
-4.53942e-06 1.45739e-05 2.68543e+25 14.6238 1.64729 272.288 
-2.62808e-06 1.45739e-05 2.68598e+25 16.1363 1.3163 272.261 
-7.1675e-07 1.45739e-05 2.68487e+25 17.546 0.986079 272.317 
-1.60074e-05 1.50518e-05 2.67192e+25 -2.92951 10.1245 272.435 
-1.40961e-05 1.50518e-05 2.68176e+25 -0.704924 7.32918 272.205 
-1.21847e-05 1.50518e-05 2.68493e+25 4.53375 4.64025 272.344 
-1.02734e-05 1.50518e-05 2.68741e+25 8.8205 3.11105 272.329 
-8.36208e-06 1.50518e-05 2.68559e+25 12.282 2.07687 272.377 
-6.45075e-06 1.50518e-05 2.68616e+25 15.0492 1.70798 272.324 
-4.53942e-06 1.50518e-05 2.68444e+25 17.2692 1.07035 272.42 
-2.62808e-06 1.50518e-05 2.68628e+25 19.0567 0.939874 272.391 
-7.1675e-07 1.50518e-05 2.68618e+25 20.3182 0.663563 272.265 
-1.60074e-05 1.55296e-05 2.67033e+25 -2.90279 10.5528 272.482 
-1.40961e-05 1.55296e-05 2.68077e+25 2.4872 5.77461 272.359 
-1.21847e-05 1.55296e-05 2.6816e+25 8.79938 3.29098 272.708 
-1.02734e-05 1.55296e-05 2.6853e+25 13.149 2.17721 272.473 
-8.36208e-06 1.55296e-05 2.68591e+25 16.4824 1.24349 272.451 
-6.45075e-06 1.55296e-05 2.68425e+25 18.8953 1.11189 272.495 
-4.53942e-06 1.55296e-05 2.68461e+25 20.7905 0.647751 272.468 
-2.62808e-06 1.55296e-05 2.68258e+25 22.3018 0.591524 272.577 
-7.1675e-07 1.55296e-05 2.68388e+25 23.4836 0.287964 272.454 
-1.60074e-05 1.60074e-05 2.66322e+25 -1.00951 9.86444 272.838 
-1.40961e-05 1.60074e-05 2.67866e+25 8.19782 3.84599 272.48 
-1.21847e-05 1.60074e-05 2.68103e+25 14.4492 2.02524 272.739 
-1.02734e-05 1.60074e-05 2.68464e+25 18.5269 1.28616 272.605 
-8.36208e-06 1.60074e-05 2.68504e+25 21.1017 0.653084 272.562 
-6.45075e-06 1.60074e-05 2.68111e+25 23.2095 0.699234 272.899 
-4.53942e-06 1.60074e-05 2.68265e+25 24.7397 0.294283 272.823 
-2.62808e-06 1.60074e-05 2.68363e+25 25.7326 0.32574 272.538 
-7.1675e-07 1.60074e-05 2.68486e+25 26.5486 0.161481 272.481 
-1.60074e-05 1.64852e-05 2.6549e+25 4.76479 6.99069 273.204 
-1.40961e-05 1.64852e-05 2.67975e+25 16.5816 1.92954 272.61 
-1.21847e-05 1.64852e-05 2.6803e+25 21.7071 0.941186 272.979 
-1.02734e-05 1.64852e-05 2.68287e+25 24.624 0.504622 272.825 
-8.36208e-06 1.64852e-05 2.68396e+25 26.4024 0.240537 272.658 
-6.45075e-06 1.64852e-05 2.6811e+25 27.8496 0.314479 273.039 
-4.53942e-06 1.64852e-05 2.68239e+25 28.6426 0.144331 272.81 
-2.62808e-06 1.64852e-05 2.68378e+25 29.2107 0.0837814 272.552 
-7.1675e-07 1.64852e-05 2.68253e+25 29.9073 0.112328 272.623 
-1.60074e-05 1.69631e-05 2.6511e+25 18.2956 2.16891 273.456 
-1.40961e-05 1.69631e-05 2.67906e+25 27.072 0.471763 272.848 
-1.21847e-05 1.69631e-05 2.68006e+25 29.5884 0.209777 273.058 
-1.02734e-05 1.69631e-05 2.6818e+25 30.7769 0.0707415 272.992 
-8.36208e-06 1.69631e-05 2.68245e+25 31.4914 0.0605988 272.91 
-6.45075e-06 1.69631e-05 2.68263e+25 31.9649 0.0843541 273.036 
-4.53942e-06 1.69631e-05 2.68037e+25 32.2942 0.0655963 272.952 
-2.62808e-06 1.69631e-05 2.6815e+25 32.6609 -0.0103597 272.741 
-7.1675e-07 1.69631e-05 2.68098e+25 32.8555 0.0499669 272.838 
-1.55296e-05 2.38917e-07 2.68634e+25 -0.326791 2.61812 272.253 
-1.36182e-05 2.38917e-07 2.68806e+25 -0.6754 4.55877 272.051 
-1.17069e-05 2.38917e-07 2.68623e+25 -1.76357 5.62121 272.139 
-9.79558e-06 2.38917e-07 2.69105e+25 -2.99343 5.7985 271.774 
-7.88425e-06 2.38917e-07 2.69136e+25 -3.77445 6.0217 271.858 
-5.97292e-06 2.38917e-07 2.69019e+25 -4.49307 5.54434 271.805 
-4.06158e-06 2.38917e-07 2.69095e+25 -5.58716 4.67482 271.743 
-2.15025e-06 2.38917e-07 2.68755e+25 -6.66735 3.42621 272.059 
-2.38917e-07 2.38917e-07 2.68579e+25 -7.31539 2.01833 272.11 
-1.55296e-05 7.1675e-07 2.68975e+25 -0.335962 2.67186 272.268 
-1.36182e-05 7.1675e-07 2.69037e+25 -0.575173 4.55735 272.144 
-1.17069e-05 7.1675e-07 2.6906e+25 -1.99795 6.00319 271.98 
-9.79558e-06 7.1675e-07 2.68987e+25 -3.01312 5.96833 271.909 
-7.88425e-06 7.1675e-07 2.69252e+25 -3.63281 6.14968 271.817 
-5.97292e-06 7.1675e-07 2.69264e+25 -4.38322 5.78596 271.804 
-4.06158e-06 7.1675e-07 2.69078e+25 -5.48582 4.84375 271.887 
-2.15025e-06 7.1675e-07 2.69038e+25 -6.50579 3.72224 272.063 
-2.38917e-07 7.1675e-07 2.68628e+25 -7.30562 2.15096 272.003 
-1.55296e-05 1.19458e-06 2.69066e+25 -0.358925 2.70877 272.065 
-1.36182e-05 1.19458e-06 2.69042e+25 -0.74749 4.73226 272.138 
-1.17069e-05 1.19458e-06 2.69262e+25 -1.97379 6.2573 271.83 
-9.79558e-06 1.19458e-06 2.6918e+25 -3.02183 6.0314 271.809 
-7.88425e-06 1.19458e-06 2.69328e+25 -3.45018 6.3258 271.796 
-5.97292e-06 1.19458e-06 2.69386e+25 -4.18 6.04207 271.687 
-4.06158e-06 1.19458e-06 2.69005e+25 -5.30033 5.04481 271.985 
-2.15025e-06 1.19458e-06 2.6902e+25 -6.16526 4.01212 272.003 
-2.38917e-07 1.19458e-06 2.68784e+25 -7.00171 2.2929 271.954 
-1.55296e-05 1.67242e-06 2.69004e+25 0.020344 2.85078 272.082 
-1.36182e-05 1.67242e-06 2.69047e+25 -0.872618 5.01231 272.037 
-1.17069e-05 1.67242e-06 2.68937e+25 -1.81911 6.46625 271.96 
-9.79558e-06 1.67242e-06 2.69001e+25 -2.84875 6.30733 271.948 
-7.88425e-06 1.67242e-06 2.69235e+25 -3.47277 6.51739 271.8 
-5.97292e-06 1.67242e-06 2.6939e+25 -4.09154 6.1912 271.652 
-4.06158e-06 1.67242e-06 2.69107e+25 -5.05318 5.42751 271.944 
-2.15025e-06 1.67242e-06 2.68922e+25 -5.92387 4.31088 271.997 
-2.38917e-07 1.67242e-06 2.68669e+25 -6.74133 2.39802 271.971 
-1.55296e-05 2.15025e-06 2.68807e+25 0.151714 3.06716 272.183 
-1.36182e-05 2.15025e-06 2.68893e+25 -1.02964 5.28944 272.057 
-1.17069e-05 2.15025e-06 2.69379e+25 -1.80424 6.68279 271.6 
-9.79558e-06 2.15025e-06 2.69168e+25 -2.61693 6.64086 271.888 
-7.88425e-06 2.15025e-06 2.69262e+25 -3.50492 6.7533 271.843 
-5.97292e-06 2.15025e-06 2.69354e+25 -4.30762 6.25952 271.642 
-4.06158e-06 2.15025e-06 2.69106e+25 -4.86194 5.70227 271.795 
-2.15025e-06 2.15025e-06 2.68725e+25 -5.69473 4.56168 272.126 
-2.38917e-07 2.15025e-06 2.6863e+25 -6.58489 2.58405 272.089 
-1.55296e-05 2.62808e-06 2.68926e+25 -0.152608 3.25836 272.15 
-1.36182e-05 2.62808e-06 2.69249e+25 -1.00095 5.55832 271.833 
-1.17069e-05 2.62808e-06 2.69621e+25 -1.71432 6.92345 271.446 
-9.79558e-06 2.62808e-06 2.69182e+25 -2.54981 6.9953 271.905 
-7.88425e-06 2.62808e-06 2.69356e+25 -3.45584 6.91397 271.759 
-5.97292e-06 2.62808e-06 2.69188e+25 -4.28893 6.38207 271.791 
-4.06158e-06 2.62808e-06 2.69035e+25 -4.78409 5.9253 271.926 
-2.15025e-06 2.62808e-06 2.68734e+25 -5.36799 4.58836 272.318 
-2.38917e-07 2.62808e-06 2.68546e+25 -6.14027 2.87234 272.139 
-1.55296e-05 3.10592e-06 2.68968e+25 -0.0246018 3.25704 272.128 
-1.36182e-05 3.10592e-06 2.69453e+25 -0.780957 5.67748 271.823 
-1.17069e-05 3.10592e-06 2.69526e+25 -1.66363 7.20656 271.537 
-9.79558e-06 3.10592e-06 2.69177e+25 -2.422 7.25952 271.848 
-7.88425e-06 3.10592e-06 2.69326e+25 -3.41562 7.10462 271.745 
-5.97292e-06 3.10592e-06 2.69166e+25 -4.29041 6.59451 271.787 
-4.06158e-06 3.10592e-06 2.69135e+25 -4.88013 5.98754 271.94 
-2.15025e-06 3.10592e-06 2.6878e+25 -5.15923 4.64639 272.194 
-2.38917e-07 3.10592e-06 2.68337e+25 -5.95779 3.08154 272.23 
-1.55296e-05 3.58375e-06 2.69024e+25 -0.121222 3.20873 272.153 
-1.36182e-05 3.58375e-06 2.69378e+25 -0.58127 5.94345 271.698 
-1.17069e-05 3.58375e-06 2.69333e+25 -1.40147 7.38658 271.644 
-9.79558e-06 3.58375e-06 2.69342e+25 -2.12099 7.37121 271.676 
-7.88425e-06 3.58375e-06 2.69237e+25 -3.28659 7.39721 271.807 
-5.97292e-06 3.58375e-06 2.69063e+25 -4.07499 6.78761 271.732 
-4.06158e-06 3.58375e-06 2.68849e+25 -4.51117 6.00826 272.118 
-2.15025e-06 3.58375e-06 2.6871e+25 -5.00796 4.80832 272.141 
-2.38917e-07 3.58375e-06 2.68276e+25 -5.51801 3.37586 272.272 
-1.55296e-05 4.06158e-06 2.6901e+25 -0.162289 3.23759 271.989 
-1.36182e-05 4.06158e-06 2.69344e+25 -0.661599 6.19983 271.705 
-1.17069e-05 4.06158e-06 2.69424e+25 -1.25463 7.39483 271.725 
-9.79558e-06 4.06158e-06 2.69326e+25 -1.91522 7.6542 271.71 
-7.88425e-06 4.06158e-06 2.69094e+25 -3.10546 7.61612 271.915 
-5.97292e-06 4.06158e-06 2.69014e+25 -3.70945 6.91702 272.014 
-4.06158e-06 4.06158e-06 2.68771e+25 -4.07837 6.08261 272.135 
-2.15025e-06 4.06158e-06 2.68851e+25 -4.65294 4.99488 272.071 
-2.38917e-07 4.06158e-06 2.6829e+25 -5.04525 3.67438 272.254 
-1.55296e-05 4.53942e-06 2.68855e+25 -0.237446 3.3059 272.084 
-1.36182e-05 4.53942e-06 2.69167e+25 -0.717725 6.3865 271.818 
-1.17069e-05 4.53942e-06 2.6921e+25 -1.04459 7.40011 271.757 
-9.79558e-06 4.53942e-06 2.69133e+25 -1.66625 7.93898 271.717 
-7.88425e-06 4.53942e-06 2.6907e+25 -2.89556 7.78243 271.866 
-5.97292e-06 4.53942e-06 2.68988e+25 -3.35723 7.00428 271.934 
-4.06158e-06 4.53942e-06 2.68511e+25 -3.72263 6.21952 272.237 
-2.15025e-06 4.53942e-06 2.68734e+25 -4.22821 5.08317 272.06 
-2.38917e-07 4.53942e-06 2.68332e+25 -4.71195 3.81872 272.351 
-1.55296e-05 5.01725e-06 2.68858e+25 -0.316152 3.51607 272.121 
-1.36182e-05 5.01725e-06 2.69021e+25 -0.54896 6.40741 271.887 
-1.17069e-05 5.01725e-06 2.69187e+25 -0.977852 7.5969 271.844 
-9.79558e-06 5.01725e-06 2.69233e+25 -1.70545 8.1054 271.771 
-7.88425e-06 5.01725e-06 2.69097e+25 -2.61472 8.01496 271.99 
-5.97292e-06 5.01725e-06 2.68938e+25 -3.01028 7.10266 271.902 
-4.06158e-06 5.01725e-06 2.68761e+25 -3.53494 6.3251 272.133 
-2.15025e-06 5.01725e-06 2.68747e+25 -3.86913 5.19257 272.046 
-2.38917e-07 5.01725e-06 2.68566e+25 -4.38053 3.92202 272.146 
-1.55296e-05 5.49508e-06 2.68922e+25 -0.290657 3.68223 272.106 
-1.36182e-05 5.49508e-06 2.69263e+25 -0.722535 6.38902 271.756 
-1.17069e-05 5.49508e-06 2.69091e+25 -1.1812 7.9349 271.764 
-9.79558e-06 5.49508e-06 2.69123e+25 -1.70963 8.22155 271.721 
-7.88425e-06 5.49508e-06 2.69118e+25 -2.35006 8.29245 271.763 
-5.97292e-06 5.49508e-06 2.69206e+25 -2.86825 7.1138 271.887 
-4.06158e-06 5.49508e-06 2.68863e+25 -3.10974 6.37033 271.951 
-2.15025e-06 5.49508e-06 2.68798e+25 -3.4823 5.35691 271.951 
-2.38917e-07 5.49508e-06 2.68604e+25 -3.92949 3.94503 272.087 
-1.55296e-05 5.97292e-06 2.68626e+25 -0.276873 3.83947 272.235 
-1.36182e-05 5.97292e-06 2.69103e+25 -0.646139 6.39242 271.81 
-1.17069e-05 5.97292e-06 2.69054e+25 -1.14081 8.22514 271.83 
-9.79558e-06 5.97292e-06 2.69163e+25 -1.67604 8.30635 271.664 
-7.88425e-06 5.97292e-06 2.69276e+25 -2.17719 8.43456 271.651 
-5.97292e-06 5.97292e-06 2.68996e+25 -2.51738 7.20692 271.838 
-4.06158e-06 5.97292e-06 2.69008e+25 -2.76227 6.32969 271.899 
-2.15025e-06 5.97292e-06 2.68938e+25 -3.23003 5.50535 271.882 
-2.38917e-07 5.97292e-06 2.68327e+25 -3.39338 3.91411 272.117 
-1.55296e-05 6.45075e-06 2.6863e+25 -0.105435 3.92608 272.199 
-1.36182e-05 6.45075e-06 2.69092e+25 -0.894295 6.4933 271.833 
-1.17069e-05 6.45075e-06 2.6924e+25 -1.15905 8.29226 271.735 
-9.79558e-06 6.45075e-06 2.69334e+25 -1.79713 8.46608 271.662 
-7.88425e-06 6.45075e-06 2.6929e+25 -2.1161 8.52622 271.685 
-5.97292e-06 6.45075e-06 2.6903e+25 -2.32648 7.35334 271.962 
-4.06158e-06 6.45075e-06 2.68838e+25 -2.39011 6.36435 272.024 
-2.15025e-06 6.45075e-06 2.69005e+25 -2.6947 5.5649 271.807 
-2.38917e-07 6.45075e-06 2.68655e+25 -2.78332 3.94494 271.95 
-1.55296e-05 6.92858e-06 2.68517e+25 -0.205976 4.09479 272.382 
-1.36182e-05 6.92858e-06 2.69098e+25 -0.935481 6.63602 271.866 
-1.17069e-05 6.92858e-06 2.69229e+25 -1.20084 8.29484 271.634 
-9.79558e-06 6.92858e-06 2.69307e+25 -1.68014 8.64699 271.598 
-7.88425e-06 6.92858e-06 2.69198e+25 -1.82601 8.63949 271.635 
-5.97292e-06 6.92858e-06 2.68778e+25 -1.9515 7.40834 272.027 
-4.06158e-06 6.92858e-06 2.69055e+25 -2.02829 6.34564 271.815 
-2.15025e-06 6.92858e-06 2.69218e+25 -2.08422 5.55112 271.723 
-2.38917e-07 6.92858e-06 2.68554e+25 -2.32922 3.90451 271.858 
-1.55296e-05 7.40642e-06 2.68682e+25 -0.234818 4.17685 272.289 
-1.36182e-05 7.40642e-06 2.68976e+25 -0.84617 6.83291 271.906 
-1.17069e-05 7.40642e-06 2.69284e+25 -1.42365 8.3308 271.665 
-9.79558e-06 7.40642e-06 2.6906e+25 -1.46975 8.76745 271.779 
-7.88425e-06 7.40642e-06 2.69214e+25 -1.61695 8.68475 271.699 
-5.97292e-06 7.40642e-06 2.69117e+25 -1.66321 7.34512 271.82 
-4.06158e-06 7.40642e-06 2.68857e+25 -1.67717 6.36032 272.037 
-2.15025e-06 7.40642e-06 2.69007e+25 -1.42268 5.56722 271.792 
-2.38917e-07 7.40642e-06 2.68666e+25 -1.67848 3.88536 271.841 
-1.55296e-05 7.88425e-06 2.68692e+25 -0.25643 4.39289 272.262 
-1.36182e-05 7.88425e-06 2.69027e+25 -0.791532 7.02436 271.86 
-1.17069e-05 7.88425e-06 2.69231e+25 -1.35687 8.32806 271.627 
-9.79558e-06 7.88425e-06 2.68975e+25 -1.39556 8.87969 271.905 
-7.88425e-06 7.88425e-06 2.6907e+25 -1.42681 8.55734 271.727 
-5.97292e-06 7.88425e-06 2.68812e+25 -1.35041 7.33797 272.035 
-4.06158e-06 7.88425e-06 2.68656e+25 -1.16674 6.49951 272.083 
-2.15025e-06 7.88425e-06 2.68924e+25 -1.03668 5.54216 271.855 
-2.38917e-07 7.88425e-06 2.68559e+25 -0.853243 3.8893 271.97 
-1.55296e-05 8.36208e-06 2.68621e+25 -0.293546 4.57401 272.242 
-1.36182e-05 8.36208e-06 2.6891e+25 -0.867179 7.31743 272.117 
-1.17069e-05 8.36208e-06 2.69164e+25 -1.60471 8.31189 271.685 
-9.79558e-06 8.36208e-06 2.69065e+25 -1.57729 8.89063 271.865 
-7.88425e-06 8.36208e-06 2.69057e+25 -1.40529 8.42857 271.798 
-5.97292e-06 8.36208e-06 2.68769e+25 -1.04807 7.42419 272.24 
-4.06158e-06 8.36208e-06 2.68742e+25 -0.611575 6.54771 272.12 
-2.15025e-06 8.36208e-06 2.68745e+25 -0.490246 5.42877 271.862 
-2.38917e-07 8.36208e-06 2.68454e+25 -0.0246884 3.86009 272.121 
-1.55296e-05 8.83992e-06 2.68649e+25 -0.401695 4.71788 272.215 
-1.36182e-05 8.83992e-06 2.68914e+25 -1.07056 7.67998 272.043 
-1.17069e-05 8.83992e-06 2.69212e+25 -2.05081 8.28793 271.778 
-9.79558e-06 8.83992e-06 2.68947e+25 -1.82513 8.8642 271.897 
-7.88425e-06 8.83992e-06 2.6895e+25 -1.28842 8.27922 271.833 
-5.97292e-06 8.83992e-06 2.68476e+25 -0.703317 7.40371 272.37 
-4.06158e-06 8.83992e-06 2.69096e+25 -0.11457 6.51051 271.816 
-2.15025e-06 8.83992e-06 2.68906e+25 0.267551 5.26757 271.817 
-2.38917e-07 8.83992e-06 2.6833e+25 0.912385 3.72329 272.138 
-1.55296e-05 9.31775e-06 2.68639e+25 -0.457628 4.82626 272.212 
-1.36182e-05 9.31775e-06 2.68932e+25 -1.42127 7.93051 272.07 
-1.17069e-05 9.31775e-06 2.68994e+25 -2.14459 8.27721 271.743 
-9.79558e-06 9.31775e-06 2.69291e+25 -2.00374 8.72533 271.728 
-7.88425e-06 9.31775e-06 2.69021e+25 -1.29292 8.04145 271.828 
-5.97292e-06 9.31775e-06 2.68732e+25 -0.395456 7.26389 272.28 
-4.06158e-06 9.31775e-06 2.69079e+25 0.357523 6.32204 271.785 
-2.15025e-06 9.31775e-06 2.68693e+25 1.00003 5.12555 271.983 
-2.38917e-07 9.31775e-06 2.68517e+25 1.64456 3.57509 272.016 
-1.55296e-05 9.79558e-06 2.68606e+25 -0.489831 4.98177 272.121 
-1.36182e-05 9.79558e-06 2.68658e+25 -1.67274 8.2016 272.06 
-1.17069e-05 9.79558e-06 2.69121e+25 -2.24202 8.41215 271.793 
-9.79558e-06 9.79558e-06 2.68937e+25 -1.95828 8.47307 271.739 
-7.88425e-06 9.79558e-06 2.69064e+25 -1.00078 7.72843 271.992 
-5.97292e-06 9.79558e-06 2.68774e+25 -0.348387 6.96932 272.107 
-4.06158e-06 9.79558e-06 2.68997e+25 0.947366 6.13375 271.835 
-2.15025e-06 9.79558e-06 2.68742e+25 1.90154 5.02597 272.011 
-2.38917e-07 9.79558e-06 2.68263e+25 2.3938 3.35858 272.033 
-1.55296e-05 1.02734e-05 2.68767e+25 -0.695334 5.29136 272.13 
-1.36182e-05 1.02734e-05 2.68737e+25 -1.96171 8.39248 272.077 
-1.17069e-05 1.02734e-05 2.6904e+25 -2.22944 8.62016 271.751 
-9.79558e-06 1.02734e-05 2.68927e+25 -1.82997 8.22066 271.952 
-7.88425e-06 1.02734e-05 2.687e+25 -0.847963 7.58303 272.067 
-5.97292e-06 1.02734e-05 2.68749e+25 0.181747 6.51677 272.068 
-4.06158e-06 1.02734e-05 2.68996e+25 1.56925 5.80512 271.795 
-2.15025e-06 1.02734e-05 2.6873e+25 2.69944 4.83736 272.018 
-2.38917e-07 1.02734e-05 2.68389e+25 3.52328 3.3521 272.059 
-1.55296e-05 1.07512e-05 2.6874e+25 -0.849903 5.62426 272.065 
-1.36182e-05 1.07512e-05 2.68963e+25 -1.9183 8.58013 271.925 
-1.17069e-05 1.07512e-05 2.68951e+25 -2.16263 8.6755 271.777 
-9.79558e-06 1.07512e-05 2.69185e+25 -1.74497 8.05602 271.711 
-7.88425e-06 1.07512e-05 2.68454e+25 -0.659983 7.45923 272.224 
-5.97292e-06 1.07512e-05 2.68897e+25 0.793926 6.19164 271.994 
-4.06158e-06 1.07512e-05 2.68911e+25 2.17983 5.39693 271.801 
-2.15025e-06 1.07512e-05 2.68731e+25 3.69016 4.5277 272.02 
-2.38917e-07 1.07512e-05 2.68484e+25 4.56915 3.40563 271.934 
-1.55296e-05 1.12291e-05 2.68955e+25 -0.880449 5.98087 271.936 
-1.36182e-05 1.12291e-05 2.68819e+25 -2.04674 8.7413 272.073 
-1.17069e-05 1.12291e-05 2.69037e+25 -2.18733 8.6162 271.829 
-9.79558e-06 1.12291e-05 2.69123e+25 -1.56495 7.85769 271.635 
-7.88425e-06 1.12291e-05 2.68659e+25 -0.05913 7.10724 272.269 
-5.97292e-06 1.12291e-05 2.68972e+25 1.56777 5.80049 271.989 
-4.06158e-06 1.12291e-05 2.68733e+25 2.81957 5.0653 272.002 
-2.15025e-06 1.12291e-05 2.68898e+25 4.56055 4.02292 271.972 
-2.38917e-07 1.12291e-05 2.68675e+25 5.69659 3.35878 271.911 
-1.55296e-05 1.17069e-05 2.68734e+25 -0.946313 6.45373 271.93 
-1.36182e-05 1.17069e-05 2.6864e+25 -2.14469 8.84373 272.158 
-1.17069e-05 1.17069e-05 2.69133e+25 -2.1914 8.49034 271.706 
-9.79558e-06 1.17069e-05 2.69182e+25 -1.21374 7.53487 271.757 
-7.88425e-06 1.17069e-05 2.68676e+25 0.599004 6.61472 272.188 
-5.97292e-06 1.17069e-05 2.68667e+25 2.42455 5.41227 272.173 
-4.06158e-06 1.17069e-05 2.68943e+25 3.72685 4.69542 272.029 
-2.15025e-06 1.17069e-05 2.68808e+25 5.67991 3.58009 271.938 
-2.38917e-07 1.17069e-05 2.68425e+25 7.05319 3.14628 272.085 
-1.55296e-05 1.21847e-05 2.68463e+25 -1.1959 6.87554 272.125 
-1.36182e-05 1.21847e-05 2.68732e+25 -2.4187 8.95042 272.124 
-1.17069e-05 1.21847e-05 2.69065e+25 -2.14827 8.33671 271.784 
-9.79558e-06 1.21847e-05 2.68836e+25 -0.867298 7.07704 271.963 
-7.88425e-06 1.21847e-05 2.68843e+25 1.10418 6.13474 272.185 
-5.97292e-06 1.21847e-05 2.68777e+25 3.1437 5.10225 272.17 
-4.06158e-06 1.21847e-05 2.68973e+25 4.79581 4.18726 271.86 
-2.15025e-06 1.21847e-05 2.68797e+25 6.88108 3.10011 272.066 
-2.38917e-07 1.21847e-05 2.68287e+25 8.48275 2.78047 272.208 
-1.55296e-05 1.26626e-05 2.68439e+25 -1.62227 7.37186 272.21 
-1.36182e-05 1.26626e-05 2.6876e+25 -2.69588 9.14673 272.008 
-1.17069e-05 1.26626e-05 2.68992e+25 -1.84618 8.01913 271.891 
-9.79558e-06 1.26626e-05 2.68834e+25 -0.0372075 6.62664 271.994 
-7.88425e-06 1.26626e-05 2.6859e+25 2.17219 5.56028 272.355 
-5.97292e-06 1.26626e-05 2.68605e+25 4.31068 4.58698 272.295 
-4.06158e-06 1.26626e-05 2.68881e+25 6.17855 3.6477 272.03 
-2.15025e-06 1.26626e-05 2.68802e+25 8.37012 2.71069 272.073 
-2.38917e-07 1.26626e-05 2.68176e+25 10.1654 2.38871 272.295 
-1.55296e-05 1.31404e-05 2.68387e+25 -1.84546 7.95625 272.032 
-1.36182e-05 1.31404e-05 2.68895e+25 -3.20066 9.01885 271.723 
-1.17069e-05 1.31404e-05 2.68805e+25 -1.59051 7.53075 272.014 
-9.79558e-06 1.31404e-05 2.689e+25 0.961318 6.00637 271.984 
-7.88425e-06 1.31404e-05 2.68588e+25 3.56009 5.06205 272.381 
-5.97292e-06 1.31404e-05 2.68799e+25 5.71326 4.04774 272.156 
-4.06158e-06 1.31404e-05 2.68515e+25 8.07881 3.09402 272.301 
-2.15025e-06 1.31404e-05 2.68766e+25 10.0707 2.16214 272.061 
-2.38917e-07 1.31404e-05 2.6821e+25 11.7638 2.04269 272.298 
-1.55296e-05 1.36182e-05 2.68325e+25 -2.53137 8.72131 272.098 
-1.36182e-05 1.36182e-05 2.68833e+25 -3.12269 8.7022 271.816 
-1.17069e-05 1.36182e-05 2.68511e+25 -0.850319 6.88552 272.197 
-9.79558e-06 1.36182e-05 2.68839e+25 2.32053 5.30073 271.974 
-7.88425e-06 1.36182e-05 2.68585e+25 5.27895 4.34682 272.429 
-5.97292e-06 1.36182e-05 2.68953e+25 7.70602 3.42086 272.145 
-4.06158e-06 1.36182e-05 2.68492e+25 10.2865 2.53769 272.399 
-2.15025e-06 1.36182e-05 2.6862e+25 11.9601 1.80295 272.188 
-2.38917e-07 1.36182e-05 2.68219e+25 13.4819 1.69018 272.302 
-1.55296e-05 1.40961e-05 2.67925e+25 -2.71986 9.48048 272.273 
-1.36182e-05 1.40961e-05 2.688e+25 -2.57148 8.17071 271.781 
-1.17069e-05 1.40961e-05 2.68268e+25 0.417984 6.13697 272.39 
-9.79558e-06 1.40961e-05 2.68869e+25 4.02862 4.42737 272.059 
-7.88425e-06 1.40961e-05 2.6868e+25 7.2705 3.6261 272.297 
-5.97292e-06 1.40961e-05 2.6871e+25 10.2105 2.78655 272.215 
-4.06158e-06 1.40961e-05 2.68543e+25 12.6861 2.01783 272.39 
-2.15025e-06 1.40961e-05 2.68639e+25 14.1514 1.58891 272.379 
-2.38917e-07 1.40961e-05 2.68118e+25 15.4823 1.23884 272.286 
-1.55296e-05 1.45739e-05 2.67858e+25 -3.04914 9.97655 272.214 
-1.36182e-05 1.45739e-05 2.68405e+25 -1.50137 7.42768 272.089 
-1.17069e-05 1.45739e-05 2.6856e+25 2.72406 5.22598 272.374 
-9.79558e-06 1.45739e-05 2.68773e+25 6.47331 3.62581 272.237 
-7.88425e-06 1.45739e-05 2.68813e+25 9.81463 2.80255 272.326 
-5.97292e-06 1.45739e-05 2.68669e+25 12.756 2.14824 272.264 
-4.06158e-06 1.45739e-05 2.68584e+25 15.0696 1.57194 272.294 
-2.15025e-06 1.45739e-05 2.68527e+25 16.5523 1.32493 272.348 
-2.38917e-07 1.45739e-05 2.68263e+25 17.8944 0.828196 272.303 
-1.55296e-05 1.50518e-05 2.67614e+25 -3.21408 10.1392 272.368 
-1.36182e-05 1.50518e-05 2.68471e+25 0.655332 6.32375 272.067 
-1.17069e-05 1.50518e-05 2.68261e+25 5.87906 4.11575 272.456 
-9.79558e-06 1.50518e-05 2.68637e+25 9.69547 2.73769 272.314 
-7.88425e-06 1.50518e-05 2.68625e+25 13.0589 1.97767 272.368 
-5.97292e-06 1.50518e-05 2.68581e+25 15.6837 1.48128 272.364 
-4.06158e-06 1.50518e-05 2.68736e+25 17.7984 1.09154 272.262 
-2.15025e-06 1.50518e-05 2.68492e+25 19.4329 0.943544 272.419 
-2.38917e-07 1.50518e-05 2.68466e+25 20.7675 0.453338 272.247 
-1.55296e-05 1.55296e-05 2.67284e+25 -2.29429 9.53564 272.571 
-1.36182e-05 1.55296e-05 2.68288e+25 4.17132 4.91408 272.334 
-1.17069e-05 1.55296e-05 2.68082e+25 10.0408 2.82815 272.8 
-9.79558e-06 1.55296e-05 2.68586e+25 13.9582 1.88581 272.392 
-7.88425e-06 1.55296e-05 2.68569e+25 17.1394 1.35235 272.491 
-5.97292e-06 1.55296e-05 2.68441e+25 19.4177 0.950288 272.587 
-4.06158e-06 1.55296e-05 2.68425e+25 21.1749 0.603193 272.523 
-2.15025e-06 1.55296e-05 2.68466e+25 22.5553 0.62256 272.534 
-2.38917e-07 1.55296e-05 2.68124e+25 23.6872 0.251654 272.444 
-1.55296e-05 1.60074e-05 2.66812e+25 1.08732 7.84281 272.833 
-1.36182e-05 1.60074e-05 2.67969e+25 10.0278 3.14929 272.516 
-1.17069e-05 1.60074e-05 2.68094e+25 15.6238 1.70275 272.925 
-9.79558e-06 1.60074e-05 2.68434e+25 19.292 1.1757 272.585 
-7.88425e-06 1.60074e-05 2.68395e+25 21.6255 0.722978 272.578 
-5.97292e-06 1.60074e-05 2.6837e+25 23.5695 0.423931 272.661 
-4.06158e-06 1.60074e-05 2.68439e+25 24.9962 0.31409 272.597 
-2.15025e-06 1.60074e-05 2.68285e+25 26.0285 0.352804 272.659 
-2.38917e-07 1.60074e-05 2.68206e+25 26.6938 0.0952725 272.446 
-1.55296e-05 1.64852e-05 2.66316e+25 8.62101 4.77021 273.175 
-1.36182e-05 1.64852e-05 2.67843e+25 18.223 1.47025 272.856 
-1.17069e-05 1.64852e-05 2.68218e+25 22.5302 0.761929 272.888 
-9.79558e-06 1.64852e-05 2.68146e+25 25.2105 0.59489 272.766 
-7.88425e-06 1.64852e-05 2.68332e+25 26.7113 0.307871 272.639 
-5.97292e-06 1.64852e-05 2.68173e+25 28.1028 0.16707 272.904 
-4.06158e-06 1.64852e-05 2.68327e+25 28.7042 0.0647192 272.824 
-2.15025e-06 1.64852e-05 2.68391e+25 29.4393 0.127942 272.562 
-2.38917e-07 1.64852e-05 2.68034e+25 29.9243 0.0494813 272.617 
-1.55296e-05 1.69631e-05 2.66582e+25 21.9551 1.34158 273.277 
-1.36182e-05 1.69631e-05 2.67948e+25 27.9756 0.263826 272.935 
-1.17069e-05 1.69631e-05 2.68106e+25 30.0252 0.193794 273.069 
-9.79558e-06 1.69631e-05 2.68188e+25 31.0717 0.129234 272.972 
-7.88425e-06 1.69631e-05 2.6825e+25 31.6218 0.0390817 272.866 
-5.97292e-06 1.69631e-05 2.68074e+25 32.0982 -0.00698275 273.097 
-4.06158e-06 1.69631e-05 2.68018e+25 32.3641 0.0320862 273.065 
-2.15025e-06 1.69631e-05 2.67993e+25 32.6329 0.0378344 272.885 
-2.38917e-07 1.69631e-05 2.68024e+25 32.9542 -0.00913772 272.779 
1.19458e-06 -1.69631e-05 2.68239e+25 -0.149365 -0.0099824 272.989 
3.10592e-06 -1.69631e-05 2.68422e+25 -0.250879 -0.0394617 272.973 
5.01725e-06 -1.69631e-05 2.68644e+25 -0.195757 0.0367355 272.804 
6.92858e-06 -1.69631e-05 2.68354e+25 -0.16007 0.00274456 272.859 
8.83992e-06 -1.69631e-05 2.68647e+25 -0.140641 -0.0227068 272.747 
1.07512e-05 -1.69631e-05 2.68531e+25 -0.116458 -0.0981817 272.743 
1.26626e-05 -1.69631e-05 2.68401e+25 0.0111272 -0.000744332 272.86 
1.45739e-05 -1.69631e-05 2.68321e+25 -0.0612443 0.0148924 272.874 
1.64852e-05 -1.69631e-05 2.68178e+25 -0.0319316 -0.00897899 272.979 
1.19458e-06 -1.64852e-05 2.68665e+25 -0.417962 -0.0226107 272.63 
3.10592e-06 -1.64852e-05 2.6856e+25 -0.478379 -0.0610366 272.825 
5.01725e-06 -1.64852e-05 2.68438e+25 -0.345992 0.169445 272.754 
6.92858e-06 -1.64852e-05 2.6866e+25 -0.444465 0.0189068 272.626 
8.83992e-06 -1.64852e-05 2.68776e+25 -0.136983 -0.03969 272.561 
1.07512e-05 -1.64852e-05 2.68947e+25 -0.165012 -0.220718 272.379 
1.26626e-05 -1.64852e-05 2.68545e+25 -0.00791373 0.0329522 272.69 
1.45739e-05 -1.64852e-05 2.6873e+25 -0.160685 0.0337431 272.645 
1.64852e-05 -1.64852e-05 2.68429e+25 -0.015852 -0.031021 272.798 
1.19458e-06 -1.60074e-05 2.68929e+25 -0.692845 -0.0857726 272.243 
3.10592e-06 -1.60074e-05 2.68816e+25 -0.678553 0.0194393 272.425 
5.01725e-06 -1.60074e-05 2.68871e+25 -0.739389 0.17393 272.526 
6.92858e-06 -1.60074e-05 2.68777e+25 -0.658344 -0.0731585 272.621 
8.83992e-06 -1.60074e-05 2.68635e+25 -0.36248 -0.135939 272.615 
1.07512e-05 -1.60074e-05 2.69233e+25 -0.349269 -0.165516 272.097 
1.26626e-05 -1.60074e-05 2.68809e+25 -0.234881 0.00729008 272.409 
1.45739e-05 -1.60074e-05 2.68788e+25 -0.147695 -0.00477396 272.411 
1.64852e-05 -1.60074e-05 2.68718e+25 0.0272637 -0.0135491 272.643 
1.19458e-06 -1.55296e-05 2.69157e+25 -0.980019 -0.08273 272.184 
3.10592e-06 -1.55296e-05 2.68858e+25 -0.803325 0.0854566 272.401 
5.01725e-06 -1.55296e-05 2.68973e+25 -0.948634 0.14838 272.353 
6.92858e-06 -1.55296e-05 2.68715e+25 -0.809171 -0.183682 272.676 
8.83992e-06 -1.55296e-05 2.68626e+25 -0.597945 -0.251107 272.609 
1.07512e-05 -1.55296e-05 2.69105e+25 -0.318629 -0.101243 272.242 
1.26626e-05 -1.55296e-05 2.68846e+25 -0.360977 0.0124701 272.321 
1.45739e-05 -1.55296e-05 2.68949e+25 -0.387792 -0.126826 272.394 
1.64852e-05 -1.55296e-05 2.68965e+25 0.0507733 0.0778501 272.384 
1.19458e-06 -1.50517e-05 2.69033e+25 -1.30079 -0.0662921 272.06 
3.10592e-06 -1.50517e-05 2.68959e+25 -0.921506 0.0126388 272.29 
5.01725e-06 -1.50517e-05 2.68858e+25 -0.982564 0.101893 272.277 
6.92858e-06 -1.50517e-05 2.688e+25 -0.89699 -0.239083 272.505 
8.83992e-06 -1.50517e-05 2.68659e+25 -0.756144 -0.442486 272.541 
1.07512e-05 -1.50517e-05 2.68826e+25 -0.366656 0.0229913 272.42 
1.26626e-05 -1.50517e-05 2.69103e+25 -0.435586 -0.0303216 272.161 
1.45739e-05 -1.50517e-05 2.68649e+25 -0.306834 -0.127518 272.427 
1.64852e-05 -1.50517e-05 2.68835e+25 0.000287249 0.0160051 272.382 
1.19458e-06 -1.45739e-05 2.69466e+25 -1.34782 0.0173057 271.773 
3.10592e-06 -1.45739e-05 2.69007e+25 -1.23301 -0.0766889 272.206 
5.01725e-06 -1.45739e-05 2.6899e+25 -1.1441 -0.00150862 272.318 
6.92858e-06 -1.45739e-05 2.68743e+25 -1.09014 -0.211718 272.586 
8.83992e-06 -1.45739e-05 2.68532e+25 -0.885235 -0.355496 272.548 
1.07512e-05 -1.45739e-05 2.68904e+25 -0.394879 -0.0289425 272.399 
1.26626e-05 -1.45739e-05 2.68977e+25 -0.125487 -0.0906122 272.151 
1.45739e-05 -1.45739e-05 2.68848e+25 -0.095479 -0.141945 272.545 
1.64852e-05 -1.45739e-05 2.68793e+25 -0.00955597 -0.0302038 272.435 
1.19458e-06 -1.40961e-05 2.69605e+25 -1.43267 -0.00473222 271.682 
3.10592e-06 -1.40961e-05 2.6924e+25 -1.4635 -0.083019 272.024 
5.01725e-06 -1.40961e-05 2.69217e+25 -1.38768 -0.012056 272.146 
6.92858e-06 -1.40961e-05 2.68774e+25 -1.36744 -0.278462 272.574 
8.83992e-06 -1.40961e-05 2.68632e+25 -1.02394 -0.256408 272.568 
1.07512e-05 -1.40961e-05 2.68986e+25 -0.507227 -0.262044 272.326 
1.26626e-05 -1.40961e-05 2.68776e+25 -0.306525 -0.108245 272.278 
1.45739e-05 -1.40961e-05 2.6883e+25 0.0405233 -0.157173 272.429 
1.64852e-05 -1.40961e-05 2.68686e+25 -0.0858616 -0.0560139 272.647 
1.19458e-06 -1.36182e-05 2.69453e+25 -1.70799 -0.0236512 271.726 
3.10592e-06 -1.36182e-05 2.69426e+25 -1.85345 -0.0401067 271.975 
5.01725e-06 -1.36182e-05 2.69005e+25 -1.52051 0.135237 272.27 
6.92858e-06 -1.36182e-05 2.68748e+25 -1.64654 -0.312781 272.51 
8.83992e-06 -1.36182e-05 2.68824e+25 -1.15871 -0.329585 272.441 
1.07512e-05 -1.36182e-05 2.68814e+25 -0.600878 -0.447803 272.478 
1.26626e-05 -1.36182e-05 2.68867e+25 -0.470255 -0.182869 272.355 
1.45739e-05 -1.36182e-05 2.68727e+25 0.280242 -0.242967 272.453 
1.64852e-05 -1.36182e-05 2.68674e+25 -0.0329743 0.00536242 272.541 
1.19458e-06 -1.31404e-05 2.6928e+25 -1.87488 0.0138453 271.979 
3.10592e-06 -1.31404e-05 2.6915e+25 -1.83039 -0.110368 272.05 
5.01725e-06 -1.31404e-05 2.6896e+25 -1.78209 0.131698 272.356 
6.92858e-06 -1.31404e-05 2.68718e+25 -1.82499 -0.221206 272.53 
8.83992e-06 -1.31404e-05 2.68931e+25 -1.11056 -0.500368 272.362 
1.07512e-05 -1.31404e-05 2.68806e+25 -0.759349 -0.474409 272.499 
1.26626e-05 -1.31404e-05 2.68909e+25 -0.487856 -0.381282 272.326 
1.45739e-05 -1.31404e-05 2.68685e+25 -0.001988 -0.233944 272.603 
1.64852e-05 -1.31404e-05 2.68786e+25 -0.00234456 -0.045239 272.542 
1.19458e-06 -1.26626e-05 2.69267e+25 -2.19139 0.0370037 272.031 
3.10592e-06 -1.26626e-05 2.69115e+25 -1.91548 -0.0975259 271.971 
5.01725e-06 -1.26626e-05 2.69013e+25 -1.86409 -0.0790392 272.299 
6.92858e-06 -1.26626e-05 2.68859e+25 -1.70008 -0.238295 272.492 
8.83992e-06 -1.26626e-05 2.69048e+25 -1.28077 -0.801371 272.373 
1.07512e-05 -1.26626e-05 2.68848e+25 -0.690287 -0.458442 272.438 
1.26626e-05 -1.26626e-05 2.68869e+25 -0.446225 -0.562802 272.367 
1.45739e-05 -1.26626e-05 2.68565e+25 -0.266706 -0.28376 272.668 
1.64852e-05 -1.26626e-05 2.68633e+25 -0.0911409 -0.114941 272.517 
1.19458e-06 -1.21847e-05 2.69014e+25 -2.33027 -0.0203441 272.21 
3.10592e-06 -1.21847e-05 2.6925e+25 -2.2435 -0.0929263 272.003 
5.01725e-06 -1.21847e-05 2.68979e+25 -2.09096 -0.159827 272.31 
6.92858e-06 -1.21847e-05 2.6911e+25 -1.58701 -0.378023 272.246 
8.83992e-06 -1.21847e-05 2.68893e+25 -1.29212 -0.979818 272.352 
1.07512e-05 -1.21847e-05 2.68905e+25 -0.708054 -0.535131 272.333 
1.26626e-05 -1.21847e-05 2.68971e+25 -0.527303 -0.670156 272.266 
1.45739e-05 -1.21847e-05 2.68666e+25 -0.285141 -0.304022 272.611 
1.64852e-05 -1.21847e-05 2.68835e+25 -0.00823838 -0.203208 272.325 
1.19458e-06 -1.17069e-05 2.69178e+25 -2.66242 -0.170533 272.082 
3.10592e-06 -1.17069e-05 2.69163e+25 -2.60318 -0.0792198 272.056 
5.01725e-06 -1.17069e-05 2.68967e+25 -2.07424 -0.288289 272.289 
6.92858e-06 -1.17069e-05 2.69063e+25 -1.6445 -0.538318 272.19 
8.83992e-06 -1.17069e-05 2.68943e+25 -1.39677 -1.0691 272.348 
1.07512e-05 -1.17069e-05 2.68828e+25 -1.13585 -0.724013 272.407 
1.26626e-05 -1.17069e-05 2.68999e+25 -0.538456 -0.781099 272.286 
1.45739e-05 -1.17069e-05 2.68804e+25 -0.25961 -0.231276 272.454 
1.64852e-05 -1.17069e-05 2.68994e+25 -0.0533443 -0.333644 272.318 
1.19458e-06 -1.12291e-05 2.6909e+25 -3.15034 -0.0746618 272.179 
3.10592e-06 -1.12291e-05 2.69119e+25 -2.89771 -0.16659 272.107 
5.01725e-06 -1.12291e-05 2.69095e+25 -2.56034 -0.434052 272.089 
6.92858e-06 -1.12291e-05 2.69126e+25 -1.75882 -0.580528 272.247 
8.83992e-06 -1.12291e-05 2.69095e+25 -1.41762 -1.09003 272.332 
1.07512e-05 -1.12291e-05 2.69014e+25 -1.33597 -0.905031 272.16 
1.26626e-05 -1.12291e-05 2.69155e+25 -0.520212 -0.945189 272.126 
1.45739e-05 -1.12291e-05 2.68981e+25 -0.246814 -0.239694 272.219 
1.64852e-05 -1.12291e-05 2.68722e+25 -0.116648 -0.356399 272.467 
1.19458e-06 -1.07512e-05 2.69282e+25 -3.58496 -0.100062 272.019 
3.10592e-06 -1.07512e-05 2.69111e+25 -3.05304 -0.338497 272.09 
5.01725e-06 -1.07512e-05 2.69185e+25 -2.92499 -0.54914 272.181 
6.92858e-06 -1.07512e-05 2.68996e+25 -1.98846 -0.751541 272.243 
8.83992e-06 -1.07512e-05 2.6905e+25 -1.79604 -1.05632 272.286 
1.07512e-05 -1.07512e-05 2.69037e+25 -1.6425 -1.10548 272.007 
1.26626e-05 -1.07512e-05 2.69067e+25 -0.526104 -1.05788 272.141 
1.45739e-05 -1.07512e-05 2.69119e+25 0.0267405 -0.283555 272.169 
1.64852e-05 -1.07512e-05 2.6871e+25 -0.0281915 -0.371164 272.563 
1.19458e-06 -1.02734e-05 2.69105e+25 -3.73696 -0.173051 272.032 
3.10592e-06 -1.02734e-05 2.69189e+25 -3.42192 -0.440583 272.141 
5.01725e-06 -1.02734e-05 2.69051e+25 -3.17244 -0.574733 272.146 
6.92858e-06 -1.02734e-05 2.68986e+25 -2.15888 -1.06278 272.301 
8.83992e-06 -1.02734e-05 2.6879e+25 -1.82577 -1.04359 272.312 
1.07512e-05 -1.02734e-05 2.69296e+25 -1.63388 -1.21492 271.947 
1.26626e-05 -1.02734e-05 2.69022e+25 -0.430528 -1.17158 272.146 
1.45739e-05 -1.02734e-05 2.68994e+25 -0.177407 -0.478387 272.161 
1.64852e-05 -1.02734e-05 2.68776e+25 0.13164 -0.430196 272.572 
1.19458e-06 -9.79558e-06 2.69269e+25 -3.92934 -0.166334 272.038 
3.10592e-06 -9.79558e-06 2.69053e+25 -3.99058 -0.59908 272.189 
5.01725e-06 -9.79558e-06 2.69116e+25 -3.39904 -0.759114 272.217 
6.92858e-06 -9.79558e-06 2.68979e+25 -2.49365 -1.38731 272.243 
8.83992e-06 -9.79558e-06 2.68921e+25 -1.73478 -1.10419 272.261 
1.07512e-05 -9.79558e-06 2.69349e+25 -1.3564 -1.40066 272.006 
1.26626e-05 -9.79558e-06 2.69192e+25 -0.529755 -1.27202 272.095 
1.45739e-05 -9.79558e-06 2.69219e+25 -0.228743 -0.748515 272.009 
1.64852e-05 -9.79558e-06 2.68673e+25 0.161313 -0.355265 272.551 
1.19458e-06 -9.31775e-06 2.69192e+25 -4.21127 -0.0930383 272.105 
3.10592e-06 -9.31775e-06 2.69127e+25 -4.37676 -0.736954 271.986 
5.01725e-06 -9.31775e-06 2.69037e+25 -3.46904 -1.00738 272.017 
6.92858e-06 -9.31775e-06 2.69043e+25 -2.79748 -1.65062 272.245 
8.83992e-06 -9.31775e-06 2.68923e+25 -2.05627 -1.37358 272.22 
1.07512e-05 -9.31775e-06 2.69197e+25 -1.28949 -1.58974 272.042 
1.26626e-05 -9.31775e-06 2.68941e+25 -0.744918 -1.48075 272.304 
1.45739e-05 -9.31775e-06 2.69266e+25 -0.0853439 -0.860653 272.028 
1.64852e-05 -9.31775e-06 2.68638e+25 0.0832182 -0.276606 272.603 
1.19458e-06 -8.83992e-06 2.68899e+25 -4.68824 -0.080163 272.237 
3.10592e-06 -8.83992e-06 2.69018e+25 -4.48743 -0.986606 272.034 
5.01725e-06 -8.83992e-06 2.69249e+25 -3.6953 -1.11528 272.083 
6.92858e-06 -8.83992e-06 2.68996e+25 -3.04025 -1.66426 272.357 
8.83992e-06 -8.83992e-06 2.69154e+25 -2.36383 -1.56766 272.086 
1.07512e-05 -8.83992e-06 2.69105e+25 -1.37865 -1.74772 272.13 
1.26626e-05 -8.83992e-06 2.69107e+25 -0.79686 -1.68125 272.14 
1.45739e-05 -8.83992e-06 2.6913e+25 -0.190027 -0.970928 272.158 
1.64852e-05 -8.83992e-06 2.68752e+25 0.124873 -0.254075 272.437 
1.19458e-06 -8.36208e-06 2.69054e+25 -5.0484 -0.0557518 272.107 
3.10592e-06 -8.36208e-06 2.68976e+25 -4.60381 -1.14034 272.158 
5.01725e-06 -8.36208e-06 2.68949e+25 -4.05748 -1.22543 272.294 
6.92858e-06 -8.36208e-06 2.69015e+25 -3.0624 -1.86187 272.188 
8.83992e-06 -8.36208e-06 2.69044e+25 -2.5735 -1.72547 272.182 
1.07512e-05 -8.36208e-06 2.69014e+25 -1.4966 -1.99337 272.172 
1.26626e-05 -8.36208e-06 2.69216e+25 -0.844836 -1.78897 272.067 
1.45739e-05 -8.36208e-06 2.69174e+25 -0.258663 -1.07256 272.149 
1.64852e-05 -8.36208e-06 2.68849e+25 -0.110523 -0.194608 272.403 
1.19458e-06 -7.88425e-06 2.69175e+25 -5.29356 -0.10547 272.077 
3.10592e-06 -7.88425e-06 2.69083e+25 -4.60321 -1.2526 271.984 
5.01725e-06 -7.88425e-06 2.69224e+25 -4.21079 -1.49644 272.083 
6.92858e-06 -7.88425e-06 2.69218e+25 -3.5994 -2.05298 272.091 
8.83992e-06 -7.88425e-06 2.68999e+25 -2.67017 -1.96888 272.126 
1.07512e-05 -7.88425e-06 2.69084e+25 -1.74286 -2.18905 272.123 
1.26626e-05 -7.88425e-06 2.69115e+25 -1.09281 -1.91237 272.133 
1.45739e-05 -7.88425e-06 2.6892e+25 -0.294864 -1.1237 272.258 
1.64852e-05 -7.88425e-06 2.68623e+25 -0.110955 -0.152915 272.572 
1.19458e-06 -7.40642e-06 2.69181e+25 -5.23766 -0.104558 272.024 
3.10592e-06 -7.40642e-06 2.69001e+25 -4.81295 -1.43461 272.202 
5.01725e-06 -7.40642e-06 2.69054e+25 -4.32055 -1.66566 272.243 
6.92858e-06 -7.40642e-06 2.69191e+25 -3.90629 -2.29577 272.141 
8.83992e-06 -7.40642e-06 2.69224e+25 -2.91189 -2.09541 272.046 
1.07512e-05 -7.40642e-06 2.69319e+25 -1.88688 -2.40707 271.925 
1.26626e-05 -7.40642e-06 2.6927e+25 -1.00353 -1.91084 272.113 
1.45739e-05 -7.40642e-06 2.69008e+25 -0.417914 -1.28638 272.246 
1.64852e-05 -7.40642e-06 2.68468e+25 0.0283547 -0.189091 272.597 
1.19458e-06 -6.92858e-06 2.69305e+25 -5.49348 -0.222875 271.98 
3.10592e-06 -6.92858e-06 2.68921e+25 -5.31463 -1.6135 272.303 
5.01725e-06 -6.92858e-06 2.69168e+25 -4.63728 -1.8706 272.161 
6.92858e-06 -6.92858e-06 2.69048e+25 -4.11434 -2.40138 272.154 
8.83992e-06 -6.92858e-06 2.6917e+25 -3.23942 -2.31984 271.964 
1.07512e-05 -6.92858e-06 2.69319e+25 -2.01538 -2.66987 271.978 
1.26626e-05 -6.92858e-06 2.69356e+25 -1.12149 -2.02597 271.891 
1.45739e-05 -6.92858e-06 2.69078e+25 -0.449199 -1.51237 272.27 
1.64852e-05 -6.92858e-06 2.68647e+25 -0.0526925 -0.340322 272.557 
1.19458e-06 -6.45075e-06 2.69087e+25 -5.74924 -0.183977 272.016 
3.10592e-06 -6.45075e-06 2.69031e+25 -5.57378 -1.59804 272.173 
5.01725e-06 -6.45075e-06 2.69096e+25 -5.21342 -1.99207 272.091 
6.92858e-06 -6.45075e-06 2.69067e+25 -4.43701 -2.51263 272.125 
8.83992e-06 -6.45075e-06 2.69244e+25 -3.29607 -2.67285 271.999 
1.07512e-05 -6.45075e-06 2.69339e+25 -2.05514 -2.87254 271.986 
1.26626e-05 -6.45075e-06 2.69082e+25 -1.43368 -2.18625 272.107 
1.45739e-05 -6.45075e-06 2.69038e+25 -0.623125 -1.68656 272.229 
1.64852e-05 -6.45075e-06 2.6841e+25 -0.0790483 -0.484154 272.716 
1.19458e-06 -5.97292e-06 2.69239e+25 -5.7202 -0.165154 272.067 
3.10592e-06 -5.97292e-06 2.69368e+25 -5.80779 -1.52399 271.962 
5.01725e-06 -5.97292e-06 2.69014e+25 -5.44951 -2.16154 272.217 
6.92858e-06 -5.97292e-06 2.69139e+25 -4.87645 -2.79013 272.076 
8.83992e-06 -5.97292e-06 2.6909e+25 -3.65917 -3.10713 272.109 
1.07512e-05 -5.97292e-06 2.6906e+25 -2.38127 -3.13702 272.118 
1.26626e-05 -5.97292e-06 2.69089e+25 -1.48093 -2.31547 272.134 
1.45739e-05 -5.97292e-06 2.6913e+25 -0.763513 -1.69823 272.243 
1.64852e-05 -5.97292e-06 2.68551e+25 -0.121836 -0.469719 272.672 
1.19458e-06 -5.49508e-06 2.69012e+25 -5.99888 -0.261051 272.185 
3.10592e-06 -5.49508e-06 2.69265e+25 -5.92217 -1.40854 272.01 
5.01725e-06 -5.49508e-06 2.68945e+25 -5.72366 -2.32493 272.249 
6.92858e-06 -5.49508e-06 2.69018e+25 -5.06673 -3.04821 272.119 
8.83992e-06 -5.49508e-06 2.69096e+25 -3.89233 -3.47911 272.104 
1.07512e-05 -5.49508e-06 2.69024e+25 -2.65383 -3.41506 272.251 
1.26626e-05 -5.49508e-06 2.691e+25 -1.63046 -2.64751 272.277 
1.45739e-05 -5.49508e-06 2.69109e+25 -0.793148 -1.81043 272.209 
1.64852e-05 -5.49508e-06 2.68841e+25 -0.0457132 -0.530825 272.471 
1.19458e-06 -5.01725e-06 2.68805e+25 -6.38075 -0.31439 272.326 
3.10592e-06 -5.01725e-06 2.69097e+25 -6.18051 -1.41795 272.024 
5.01725e-06 -5.01725e-06 2.68641e+25 -5.68906 -2.48162 272.438 
6.92858e-06 -5.01725e-06 2.68955e+25 -4.99262 -3.22457 272.316 
8.83992e-06 -5.01725e-06 2.69116e+25 -3.96337 -3.72178 272.206 
1.07512e-05 -5.01725e-06 2.69169e+25 -2.87474 -3.68809 272.106 
1.26626e-05 -5.01725e-06 2.6916e+25 -1.63226 -3.00971 272.177 
1.45739e-05 -5.01725e-06 2.68955e+25 -0.646781 -2.0941 272.245 
1.64852e-05 -5.01725e-06 2.69057e+25 -0.0757658 -0.5915 272.257 
1.19458e-06 -4.53942e-06 2.691e+25 -6.52767 -0.418008 272.068 
3.10592e-06 -4.53942e-06 2.69036e+25 -6.4125 -1.52873 272.121 
5.01725e-06 -4.53942e-06 2.68933e+25 -6.07442 -2.55301 272.333 
6.92858e-06 -4.53942e-06 2.6873e+25 -5.1833 -3.45368 272.488 
8.83992e-06 -4.53942e-06 2.69108e+25 -4.27048 -4.02814 272.174 
1.07512e-05 -4.53942e-06 2.68842e+25 -2.97607 -3.92027 272.343 
1.26626e-05 -4.53942e-06 2.69057e+25 -1.64155 -3.33269 272.251 
1.45739e-05 -4.53942e-06 2.69039e+25 -0.481089 -2.3151 272.127 
1.64852e-05 -4.53942e-06 2.68815e+25 0.0654341 -0.628138 272.385 
1.19458e-06 -4.06158e-06 2.68869e+25 -6.69249 -0.464661 272.281 
3.10592e-06 -4.06158e-06 2.69098e+25 -6.92842 -1.54215 272.106 
5.01725e-06 -4.06158e-06 2.68922e+25 -6.55992 -2.74759 272.354 
6.92858e-06 -4.06158e-06 2.69019e+25 -5.74168 -3.6947 272.28 
8.83992e-06 -4.06158e-06 2.69042e+25 -4.67058 -4.24218 272.162 
1.07512e-05 -4.06158e-06 2.68808e+25 -3.03726 -4.27665 272.378 
1.26626e-05 -4.06158e-06 2.6882e+25 -1.73164 -3.71782 272.394 
1.45739e-05 -4.06158e-06 2.69001e+25 -0.366681 -2.56952 272.142 
1.64852e-05 -4.06158e-06 2.68992e+25 -0.038117 -0.659998 272.389 
1.19458e-06 -3.58375e-06 2.68898e+25 -6.99413 -0.408247 272.224 
3.10592e-06 -3.58375e-06 2.68829e+25 -7.39759 -1.59113 272.138 
5.01725e-06 -3.58375e-06 2.69133e+25 -6.87461 -2.91489 272.199 
6.92858e-06 -3.58375e-06 2.68973e+25 -6.01272 -3.83277 272.162 
8.83992e-06 -3.58375e-06 2.69092e+25 -4.94791 -4.57761 272.169 
1.07512e-05 -3.58375e-06 2.68858e+25 -3.16213 -4.65563 272.315 
1.26626e-05 -3.58375e-06 2.68755e+25 -1.71045 -3.9979 272.468 
1.45739e-05 -3.58375e-06 2.68924e+25 -0.391096 -2.87055 272.233 
1.64852e-05 -3.58375e-06 2.69036e+25 -0.171475 -0.70321 272.303 
1.19458e-06 -3.10592e-06 2.68873e+25 -7.31397 -0.272845 272.225 
3.10592e-06 -3.10592e-06 2.69044e+25 -7.67139 -1.63355 272.176 
5.01725e-06 -3.10592e-06 2.6908e+25 -7.20092 -2.99319 272.015 
6.92858e-06 -3.10592e-06 2.6894e+25 -6.63324 -4.00944 272.13 
8.83992e-06 -3.10592e-06 2.69133e+25 -5.10569 -5.03859 272.066 
1.07512e-05 -3.10592e-06 2.68975e+25 -3.43455 -5.09706 272.309 
1.26626e-05 -3.10592e-06 2.68783e+25 -1.69733 -4.35461 272.405 
1.45739e-05 -3.10592e-06 2.69175e+25 -0.476221 -3.0715 272.04 
1.64852e-05 -3.10592e-06 2.68793e+25 -0.112529 -0.736631 272.227 
1.19458e-06 -2.62808e-06 2.68971e+25 -7.43193 -0.177502 272.142 
3.10592e-06 -2.62808e-06 2.68871e+25 -7.74604 -1.63863 272.212 
5.01725e-06 -2.62808e-06 2.69057e+25 -7.42879 -3.13094 272.129 
6.92858e-06 -2.62808e-06 2.68955e+25 -6.98681 -4.26022 272.226 
8.83992e-06 -2.62808e-06 2.69324e+25 -5.39129 -5.57062 271.918 
1.07512e-05 -2.62808e-06 2.6901e+25 -3.77058 -5.51968 272.099 
1.26626e-05 -2.62808e-06 2.68912e+25 -1.97809 -4.76516 272.245 
1.45739e-05 -2.62808e-06 2.68948e+25 -0.650119 -3.37166 272.105 
1.64852e-05 -2.62808e-06 2.68604e+25 0.00661524 -0.74141 272.472 
1.19458e-06 -2.15025e-06 2.69264e+25 -7.46295 -0.0263922 271.917 
3.10592e-06 -2.15025e-06 2.68733e+25 -7.7141 -1.64728 272.4 
5.01725e-06 -2.15025e-06 2.68957e+25 -7.67272 -3.3211 272.172 
6.92858e-06 -2.15025e-06 2.68902e+25 -7.12059 -4.46548 272.263 
8.83992e-06 -2.15025e-06 2.69205e+25 -5.76325 -6.04763 271.96 
1.07512e-05 -2.15025e-06 2.68958e+25 -3.99555 -5.91102 272.226 
1.26626e-05 -2.15025e-06 2.69036e+25 -2.02738 -5.18377 272.222 
1.45739e-05 -2.15025e-06 2.69213e+25 -0.615057 -3.70637 272.078 
1.64852e-05 -2.15025e-06 2.68691e+25 0.00419138 -0.840701 272.451 
1.19458e-06 -1.67242e-06 2.69204e+25 -7.65344 0.146069 271.85 
3.10592e-06 -1.67242e-06 2.68842e+25 -7.81774 -1.7054 272.365 
5.01725e-06 -1.67242e-06 2.68979e+25 -7.78493 -3.30957 272.153 
6.92858e-06 -1.67242e-06 2.68847e+25 -7.24181 -4.7066 272.308 
8.83992e-06 -1.67242e-06 2.6917e+25 -5.93069 -6.51761 272.078 
1.07512e-05 -1.67242e-06 2.68979e+25 -4.27583 -6.4314 272.254 
1.26626e-05 -1.67242e-06 2.69223e+25 -2.27968 -5.71452 272.138 
1.45739e-05 -1.67242e-06 2.69115e+25 -0.699644 -4.019 272.042 
1.64852e-05 -1.67242e-06 2.68827e+25 -0.0152619 -0.859635 272.451 
1.19458e-06 -1.19458e-06 2.69196e+25 -7.73739 0.324908 271.927 
3.10592e-06 -1.19458e-06 2.68855e+25 -7.71826 -1.74452 272.193 
5.01725e-06 -1.19458e-06 2.69008e+25 -7.83141 -3.32973 272.13 
6.92858e-06 -1.19458e-06 2.68863e+25 -7.25115 -5.01542 272.261 
8.83992e-06 -1.19458e-06 2.6915e+25 -6.1221 -6.89659 271.911 
1.07512e-05 -1.19458e-06 2.6921e+25 -4.30586 -7.05033 271.993 
1.26626e-05 -1.19458e-06 2.691e+25 -2.57187 -6.22538 272.162 
1.45739e-05 -1.19458e-06 2.69026e+25 -0.966561 -4.26411 272.091 
1.64852e-05 -1.19458e-06 2.68725e+25 0.0149585 -0.926386 272.391 
1.19458e-06 -7.1675e-07 2.69171e+25 -7.64007 0.437815 271.817 
3.10592e-06 -7.1675e-07 2.68895e+25 -7.85736 -1.72019 272.198 
5.01725e-06 -7.1675e-07 2.69037e+25 -7.85699 -3.38833 272.226 
6.92858e-06 -7.1675e-07 2.69073e+25 -7.40619 -5.42347 272.152 
8.83992e-06 -7.1675e-07 2.69173e+25 -6.35899 -7.074 271.97 
1.07512e-05 -7.1675e-07 2.69115e+25 -4.59452 -7.46548 272.053 
1.26626e-05 -7.1675e-07 2.68986e+25 -2.77107 -6.69981 272.126 
1.45739e-05 -7.1675e-07 2.69124e+25 -1.26492 -4.44022 272.119 
1.64852e-05 -7.1675e-07 2.68915e+25 -0.0797563 -1.092 272.289 
1.19458e-06 -2.38917e-07 2.69079e+25 -7.67997 0.494196 271.771 
3.10592e-06 -2.38917e-07 2.68764e+25 -8.08002 -1.72352 272.095 
5.01725e-06 -2.38917e-07 2.6853e+25 -7.77663 -3.38719 272.235 
6.92858e-06 -2.38917e-07 2.68871e+25 -7.30935 -5.60716 272.033 
8.83992e-06 -2.38917e-07 2.68949e+25 -6.50839 -7.35285 272.074 
1.07512e-05 -2.38917e-07 2.69041e+25 -4.86358 -7.92662 271.988 
1.26626e-05 -2.38917e-07 2.68725e+25 -3.01704 -7.15677 272.078 
1.45739e-05 -2.38917e-07 2.68873e+25 -1.39204 -4.73752 272.121 
1.64852e-05 -2.38917e-07 2.68746e+25 -0.18504 -1.2765 272.272 
2.38917e-07 -1.69631e-05 2.68363e+25 -0.151321 0.0703521 272.686 
2.15025e-06 -1.69631e-05 2.68507e+25 -0.240484 0.016953 272.949 
4.06158e-06 -1.69631e-05 2.68321e+25 -0.17737 0.0118379 272.891 
5.97292e-06 -1.69631e-05 2.68344e+25 -0.257228 -0.0576631 272.987 
7.88425e-06 -1.69631e-05 2.68421e+25 -0.207167 -0.0559667 272.866 
9.79558e-06 -1.69631e-05 2.68547e+25 -0.119515 0.00392698 272.715 
1.17069e-05 -1.69631e-05 2.68615e+25 0.0820967 0.00367469 272.768 
1.36182e-05 -1.69631e-05 2.68427e+25 0.0379919 0.0104228 272.893 
1.55296e-05 -1.69631e-05 2.68564e+25 -0.0313193 0.0105391 272.775 
2.38917e-07 -1.64852e-05 2.68318e+25 -0.493599 0.145091 272.561 
2.15025e-06 -1.64852e-05 2.6854e+25 -0.30849 0.0284243 272.812 
4.06158e-06 -1.64852e-05 2.68528e+25 -0.373063 -0.0429784 272.769 
5.97292e-06 -1.64852e-05 2.68393e+25 -0.57521 -0.0463845 272.792 
7.88425e-06 -1.64852e-05 2.68649e+25 -0.201973 -0.0966107 272.665 
9.79558e-06 -1.64852e-05 2.68914e+25 -0.2267 0.0542616 272.381 
1.17069e-05 -1.64852e-05 2.68855e+25 -0.0984406 0.0187881 272.415 
1.36182e-05 -1.64852e-05 2.68616e+25 -0.12684 0.0648673 272.618 
1.55296e-05 -1.64852e-05 2.6877e+25 -0.0794941 -0.0583436 272.54 
2.38917e-07 -1.60074e-05 2.68699e+25 -0.707667 0.145382 272.385 
2.15025e-06 -1.60074e-05 2.68874e+25 -0.602757 -0.0215902 272.327 
4.06158e-06 -1.60074e-05 2.68714e+25 -0.724876 -0.111468 272.63 
5.97292e-06 -1.60074e-05 2.68562e+25 -0.790035 -0.0672824 272.74 
7.88425e-06 -1.60074e-05 2.68706e+25 -0.570226 -0.181135 272.598 
9.79558e-06 -1.60074e-05 2.68957e+25 -0.244854 0.191996 272.274 
1.17069e-05 -1.60074e-05 2.69017e+25 -0.379608 -0.0176444 272.29 
1.36182e-05 -1.60074e-05 2.68685e+25 -0.303196 0.114315 272.636 
1.55296e-05 -1.60074e-05 2.69e+25 -0.0330687 -0.188501 272.304 
2.38917e-07 -1.55296e-05 2.6891e+25 -0.927678 0.0945008 272.149 
2.15025e-06 -1.55296e-05 2.69067e+25 -0.954513 -0.0257582 272.113 
4.06158e-06 -1.55296e-05 2.68852e+25 -0.882874 -0.117756 272.417 
5.97292e-06 -1.55296e-05 2.68887e+25 -0.798537 -0.0195377 272.522 
7.88425e-06 -1.55296e-05 2.68421e+25 -0.755679 -0.154725 272.803 
9.79558e-06 -1.55296e-05 2.68795e+25 -0.323443 0.150652 272.377 
1.17069e-05 -1.55296e-05 2.69172e+25 -0.47406 -0.11823 272.128 
1.36182e-05 -1.55296e-05 2.68869e+25 -0.396329 0.085222 272.405 
1.55296e-05 -1.55296e-05 2.69099e+25 -0.129531 -0.252055 272.078 
2.38917e-07 -1.50517e-05 2.68866e+25 -1.14316 0.1208 272.115 
2.15025e-06 -1.50517e-05 2.69108e+25 -1.19435 -0.0688366 272.001 
4.06158e-06 -1.50517e-05 2.68933e+25 -0.910919 -0.073627 272.291 
5.97292e-06 -1.50517e-05 2.68924e+25 -0.889828 -0.0224282 272.347 
7.88425e-06 -1.50517e-05 2.68732e+25 -0.80145 -0.21459 272.663 
9.79558e-06 -1.50517e-05 2.68524e+25 -0.3779 -0.0210712 272.524 
1.17069e-05 -1.50517e-05 2.6909e+25 -0.340149 -0.177938 272.159 
1.36182e-05 -1.50517e-05 2.69152e+25 -0.290858 0.115447 272.202 
1.55296e-05 -1.50517e-05 2.69095e+25 -0.160132 -0.395619 272.104 
2.38917e-07 -1.45739e-05 2.69023e+25 -1.35566 0.11035 272.045 
2.15025e-06 -1.45739e-05 2.6933e+25 -1.39568 -0.189228 271.84 
4.06158e-06 -1.45739e-05 2.69046e+25 -1.27343 0.0419517 272.179 
5.97292e-06 -1.45739e-05 2.69098e+25 -1.03572 -0.106252 272.211 
7.88425e-06 -1.45739e-05 2.68475e+25 -0.930903 -0.378865 272.659 
9.79558e-06 -1.45739e-05 2.686e+25 -0.773896 -0.181196 272.573 
1.17069e-05 -1.45739e-05 2.68967e+25 -0.156479 -0.172444 272.282 
1.36182e-05 -1.45739e-05 2.69252e+25 -0.120031 0.157172 272.12 
1.55296e-05 -1.45739e-05 2.68888e+25 -0.114742 -0.467236 272.389 
2.38917e-07 -1.40961e-05 2.6899e+25 -1.51949 0.0148469 271.966 
2.15025e-06 -1.40961e-05 2.69435e+25 -1.34941 -0.18397 271.799 
4.06158e-06 -1.40961e-05 2.6907e+25 -1.37371 -0.0220832 272.237 
5.97292e-06 -1.40961e-05 2.69076e+25 -1.56936 -0.063534 272.203 
7.88425e-06 -1.40961e-05 2.68632e+25 -1.19602 -0.453777 272.601 
9.79558e-06 -1.40961e-05 2.68838e+25 -1.05743 -0.34615 272.491 
1.17069e-05 -1.40961e-05 2.68993e+25 -0.383449 -0.108892 272.249 
1.36182e-05 -1.40961e-05 2.68772e+25 -0.199124 0.0314626 272.52 
1.55296e-05 -1.40961e-05 2.6893e+25 0.0448121 -0.335683 272.369 
2.38917e-07 -1.36182e-05 2.68985e+25 -1.69924 0.0467225 271.999 
2.15025e-06 -1.36182e-05 2.69474e+25 -1.77711 -0.104413 271.748 
4.06158e-06 -1.36182e-05 2.69058e+25 -1.62712 -0.139588 272.163 
5.97292e-06 -1.36182e-05 2.68973e+25 -1.56785 -0.18016 272.238 
7.88425e-06 -1.36182e-05 2.68759e+25 -1.45041 -0.536285 272.558 
9.79558e-06 -1.36182e-05 2.6879e+25 -0.999009 -0.470007 272.474 
1.17069e-05 -1.36182e-05 2.69126e+25 -0.622707 -0.0918572 272.193 
1.36182e-05 -1.36182e-05 2.68707e+25 -0.0474369 -0.197658 272.612 
1.55296e-05 -1.36182e-05 2.6873e+25 0.0628547 -0.250963 272.442 
2.38917e-07 -1.31404e-05 2.69055e+25 -1.88765 0.0868205 271.991 
2.15025e-06 -1.31404e-05 2.69388e+25 -1.96214 -0.147299 271.904 
4.06158e-06 -1.31404e-05 2.69309e+25 -1.78667 -0.138412 272.058 
5.97292e-06 -1.31404e-05 2.68843e+25 -1.50441 -0.0758551 272.4 
7.88425e-06 -1.31404e-05 2.68735e+25 -1.68557 -0.702355 272.481 
9.79558e-06 -1.31404e-05 2.68857e+25 -0.787113 -0.613068 272.5 
1.17069e-05 -1.31404e-05 2.6907e+25 -0.650778 -0.11429 272.241 
1.36182e-05 -1.31404e-05 2.68685e+25 -0.11748 -0.452317 272.586 
1.55296e-05 -1.31404e-05 2.68892e+25 0.0767617 -0.186792 272.314 
2.38917e-07 -1.26626e-05 2.68914e+25 -2.11427 0.103297 272.104 
2.15025e-06 -1.26626e-05 2.69137e+25 -1.97915 -0.257052 272.167 
4.06158e-06 -1.26626e-05 2.69092e+25 -2.02636 -0.111869 272.004 
5.97292e-06 -1.26626e-05 2.68919e+25 -1.75594 -0.077491 272.405 
7.88425e-06 -1.26626e-05 2.68868e+25 -1.60057 -0.824671 272.501 
9.79558e-06 -1.26626e-05 2.68467e+25 -0.787764 -0.778761 272.645 
1.17069e-05 -1.26626e-05 2.68924e+25 -0.609235 -0.143992 272.27 
1.36182e-05 -1.26626e-05 2.68758e+25 -0.218669 -0.410302 272.448 
1.55296e-05 -1.26626e-05 2.68816e+25 -0.14452 -0.107312 272.335 
2.38917e-07 -1.21847e-05 2.68927e+25 -2.49502 0.164945 272.125 
2.15025e-06 -1.21847e-05 2.69011e+25 -2.28229 -0.347477 272.183 
4.06158e-06 -1.21847e-05 2.68994e+25 -2.23604 -0.151049 272.183 
5.97292e-06 -1.21847e-05 2.6899e+25 -1.73528 -0.112866 272.16 
7.88425e-06 -1.21847e-05 2.68702e+25 -1.51382 -0.888666 272.386 
9.79558e-06 -1.21847e-05 2.68768e+25 -0.966623 -0.87286 272.388 
1.17069e-05 -1.21847e-05 2.69068e+25 -0.59199 -0.136881 272.198 
1.36182e-05 -1.21847e-05 2.68889e+25 -0.178557 -0.502967 272.35 
1.55296e-05 -1.21847e-05 2.69023e+25 -0.2782 -0.236367 272.159 
2.38917e-07 -1.17069e-05 2.69085e+25 -2.74535 0.115802 272.018 
2.15025e-06 -1.17069e-05 2.69097e+25 -2.7412 -0.338109 272.207 
4.06158e-06 -1.17069e-05 2.69034e+25 -2.36062 -0.250595 272.27 
5.97292e-06 -1.17069e-05 2.69153e+25 -1.89589 -0.233841 272.15 
7.88425e-06 -1.17069e-05 2.69015e+25 -1.38242 -0.984975 272.328 
9.79558e-06 -1.17069e-05 2.68835e+25 -1.3241 -0.979849 272.482 
1.17069e-05 -1.17069e-05 2.68918e+25 -0.809686 -0.234177 272.266 
1.36182e-05 -1.17069e-05 2.69006e+25 -0.368527 -0.588846 272.276 
1.55296e-05 -1.17069e-05 2.68916e+25 -0.258033 -0.306019 272.251 
2.38917e-07 -1.12291e-05 2.69021e+25 -3.16801 0.0904783 271.968 
2.15025e-06 -1.12291e-05 2.68977e+25 -3.03907 -0.325444 272.213 
4.06158e-06 -1.12291e-05 2.69288e+25 -2.65473 -0.273548 272.023 
5.97292e-06 -1.12291e-05 2.68958e+25 -2.11965 -0.407691 272.403 
7.88425e-06 -1.12291e-05 2.68983e+25 -1.51924 -1.07409 272.116 
9.79558e-06 -1.12291e-05 2.68661e+25 -1.53953 -1.00048 272.543 
1.17069e-05 -1.12291e-05 2.69046e+25 -0.953677 -0.386736 272.146 
1.36182e-05 -1.12291e-05 2.69099e+25 -0.373583 -0.650264 272.244 
1.55296e-05 -1.12291e-05 2.68987e+25 -0.186173 -0.360475 272.183 
2.38917e-07 -1.07512e-05 2.69004e+25 -3.64818 0.0565326 272.015 
2.15025e-06 -1.07512e-05 2.69142e+25 -3.39111 -0.432633 272.09 
4.06158e-06 -1.07512e-05 2.69206e+25 -2.98029 -0.366125 272.163 
5.97292e-06 -1.07512e-05 2.6893e+25 -2.57512 -0.662464 272.33 
7.88425e-06 -1.07512e-05 2.69037e+25 -1.67589 -1.0863 272.17 
9.79558e-06 -1.07512e-05 2.68898e+25 -1.85884 -1.01884 272.31 
1.17069e-05 -1.07512e-05 2.6928e+25 -0.941319 -0.648198 272.174 
1.36182e-05 -1.07512e-05 2.68995e+25 -0.319634 -0.716569 272.301 
1.55296e-05 -1.07512e-05 2.69139e+25 0.00108367 -0.330768 272.131 
2.38917e-07 -1.02734e-05 2.68781e+25 -3.93463 0.0225779 272.212 
2.15025e-06 -1.02734e-05 2.692e+25 -3.661 -0.512019 272.064 
4.06158e-06 -1.02734e-05 2.69102e+25 -3.27942 -0.407767 272.133 
5.97292e-06 -1.02734e-05 2.68945e+25 -2.81454 -0.873134 272.204 
7.88425e-06 -1.02734e-05 2.68938e+25 -1.86767 -1.10544 272.339 
9.79558e-06 -1.02734e-05 2.69051e+25 -1.82002 -1.04685 272.249 
1.17069e-05 -1.02734e-05 2.69061e+25 -1.09542 -1.04546 272.118 
1.36182e-05 -1.02734e-05 2.69119e+25 -0.417828 -0.814585 272.137 
1.55296e-05 -1.02734e-05 2.69117e+25 0.207926 -0.377093 272.105 
2.38917e-07 -9.79558e-06 2.68714e+25 -4.02168 -0.0628026 272.205 
2.15025e-06 -9.79558e-06 2.69203e+25 -4.12824 -0.552309 272.147 
4.06158e-06 -9.79558e-06 2.69128e+25 -3.73932 -0.477556 272.195 
5.97292e-06 -9.79558e-06 2.69055e+25 -3.00984 -1.13159 272.221 
7.88425e-06 -9.79558e-06 2.68905e+25 -2.02191 -1.13408 272.325 
9.79558e-06 -9.79558e-06 2.68974e+25 -1.64745 -1.11152 272.281 
1.17069e-05 -9.79558e-06 2.68893e+25 -0.96709 -1.37099 272.19 
1.36182e-05 -9.79558e-06 2.69217e+25 -0.395032 -0.756191 272.056 
1.55296e-05 -9.79558e-06 2.69166e+25 0.195839 -0.444502 272.063 
2.38917e-07 -9.31775e-06 2.68878e+25 -4.31643 -0.214151 272.2 
2.15025e-06 -9.31775e-06 2.69176e+25 -4.37554 -0.485834 272.034 
4.06158e-06 -9.31775e-06 2.69142e+25 -3.91922 -0.644247 272.103 
5.97292e-06 -9.31775e-06 2.69158e+25 -3.06574 -1.30946 272.151 
7.88425e-06 -9.31775e-06 2.68997e+25 -2.45396 -1.26843 272.271 
9.79558e-06 -9.31775e-06 2.68829e+25 -1.60041 -1.15819 272.268 
1.17069e-05 -9.31775e-06 2.69114e+25 -1.07404 -1.65185 272.064 
1.36182e-05 -9.31775e-06 2.69012e+25 -0.316864 -0.879161 272.187 
1.55296e-05 -9.31775e-06 2.69322e+25 -0.0153595 -0.557003 271.992 
2.38917e-07 -8.83992e-06 2.6879e+25 -4.6796 -0.140434 272.139 
2.15025e-06 -8.83992e-06 2.69124e+25 -4.77173 -0.436021 272.082 
4.06158e-06 -8.83992e-06 2.69151e+25 -4.01175 -0.878857 272.024 
5.97292e-06 -8.83992e-06 2.68946e+25 -3.39352 -1.51257 272.206 
7.88425e-06 -8.83992e-06 2.69082e+25 -2.64183 -1.51084 272.144 
9.79558e-06 -8.83992e-06 2.69062e+25 -1.81441 -1.40463 272.271 
1.17069e-05 -8.83992e-06 2.69224e+25 -1.1269 -1.7765 271.993 
1.36182e-05 -8.83992e-06 2.69022e+25 -0.48971 -1.05983 272.175 
1.55296e-05 -8.83992e-06 2.6911e+25 -0.0377674 -0.701714 272.098 
2.38917e-07 -8.36208e-06 2.6882e+25 -4.91041 -0.0426195 272.195 
2.15025e-06 -8.36208e-06 2.69167e+25 -4.86103 -0.557123 272.067 
4.06158e-06 -8.36208e-06 2.6913e+25 -4.39619 -1.07029 272.014 
5.97292e-06 -8.36208e-06 2.68888e+25 -3.63038 -1.83148 272.352 
7.88425e-06 -8.36208e-06 2.68985e+25 -2.84292 -1.68711 272.177 
9.79558e-06 -8.36208e-06 2.68972e+25 -2.03614 -1.67359 272.257 
1.17069e-05 -8.36208e-06 2.69062e+25 -1.0239 -1.9423 272.126 
1.36182e-05 -8.36208e-06 2.69184e+25 -0.617744 -1.20849 272.027 
1.55296e-05 -8.36208e-06 2.6907e+25 -0.0611328 -0.761067 272.163 
2.38917e-07 -7.88425e-06 2.68842e+25 -5.15374 0.0553312 272.032 
2.15025e-06 -7.88425e-06 2.69091e+25 -5.02366 -0.782943 272.097 
4.06158e-06 -7.88425e-06 2.69036e+25 -4.46083 -1.17436 272.12 
5.97292e-06 -7.88425e-06 2.68947e+25 -3.85809 -1.96465 272.243 
7.88425e-06 -7.88425e-06 2.69144e+25 -3.11018 -1.87235 272.128 
9.79558e-06 -7.88425e-06 2.69124e+25 -2.16785 -1.8927 272.092 
1.17069e-05 -7.88425e-06 2.69056e+25 -1.259 -2.012 272.236 
1.36182e-05 -7.88425e-06 2.69014e+25 -0.772855 -1.46178 272.172 
1.55296e-05 -7.88425e-06 2.69091e+25 -0.114923 -0.826881 272.205 
2.38917e-07 -7.40642e-06 2.68976e+25 -5.35218 0.0754822 272.009 
2.15025e-06 -7.40642e-06 2.69102e+25 -5.1514 -0.950594 272.132 
4.06158e-06 -7.40642e-06 2.68799e+25 -4.5849 -1.20796 272.252 
5.97292e-06 -7.40642e-06 2.69125e+25 -4.04866 -2.01803 272.118 
7.88425e-06 -7.40642e-06 2.69279e+25 -3.4396 -2.16982 272.072 
9.79558e-06 -7.40642e-06 2.69087e+25 -2.39314 -2.13321 272.055 
1.17069e-05 -7.40642e-06 2.68997e+25 -1.40359 -2.21533 272.17 
1.36182e-05 -7.40642e-06 2.69055e+25 -0.804952 -1.78229 272.207 
1.55296e-05 -7.40642e-06 2.68981e+25 -0.149718 -0.927696 272.275 
2.38917e-07 -6.92858e-06 2.6873e+25 -5.58953 0.0347432 272.108 
2.15025e-06 -6.92858e-06 2.68854e+25 -5.38506 -0.942637 272.197 
4.06158e-06 -6.92858e-06 2.69014e+25 -4.98633 -1.33971 272.237 
5.97292e-06 -6.92858e-06 2.69219e+25 -4.33569 -2.14535 272.075 
7.88425e-06 -6.92858e-06 2.69258e+25 -3.75744 -2.41036 272.072 
9.79558e-06 -6.92858e-06 2.68983e+25 -2.54523 -2.54397 272.185 
1.17069e-05 -6.92858e-06 2.6925e+25 -1.53728 -2.41263 272.052 
1.36182e-05 -6.92858e-06 2.69115e+25 -0.878211 -1.94329 272.076 
1.55296e-05 -6.92858e-06 2.68872e+25 -0.359022 -0.949704 272.329 
2.38917e-07 -6.45075e-06 2.6882e+25 -5.67034 0.0582982 272.164 
2.15025e-06 -6.45075e-06 2.6904e+25 -5.53981 -0.958883 272.184 
4.06158e-06 -6.45075e-06 2.6922e+25 -5.52093 -1.5518 272.077 
5.97292e-06 -6.45075e-06 2.6929e+25 -4.81121 -2.30413 271.963 
7.88425e-06 -6.45075e-06 2.69122e+25 -3.96227 -2.64079 272.176 
9.79558e-06 -6.45075e-06 2.69131e+25 -2.63661 -2.92618 272.199 
1.17069e-05 -6.45075e-06 2.69162e+25 -1.72384 -2.58325 271.94 
1.36182e-05 -6.45075e-06 2.69112e+25 -0.974298 -2.11899 272.164 
1.55296e-05 -6.45075e-06 2.68825e+25 -0.321338 -1.05342 272.369 
2.38917e-07 -5.97292e-06 2.68661e+25 -5.80768 -0.0833293 272.191 
2.15025e-06 -5.97292e-06 2.69114e+25 -5.73066 -1.01029 272.133 
4.06158e-06 -5.97292e-06 2.68921e+25 -5.77585 -1.68613 272.329 
5.97292e-06 -5.97292e-06 2.69172e+25 -5.16262 -2.46392 272.007 
7.88425e-06 -5.97292e-06 2.6906e+25 -4.19703 -2.89254 272.155 
9.79558e-06 -5.97292e-06 2.69327e+25 -2.92357 -3.25753 271.986 
1.17069e-05 -5.97292e-06 2.69213e+25 -1.92365 -2.89171 272.087 
1.36182e-05 -5.97292e-06 2.69089e+25 -1.02467 -2.30082 272.243 
1.55296e-05 -5.97292e-06 2.6894e+25 -0.39072 -1.26063 272.224 
2.38917e-07 -5.49508e-06 2.68618e+25 -6.18093 -0.0107999 272.184 
2.15025e-06 -5.49508e-06 2.69073e+25 -5.76004 -1.06858 272.124 
4.06158e-06 -5.49508e-06 2.68915e+25 -5.86255 -1.66632 272.301 
5.97292e-06 -5.49508e-06 2.68958e+25 -5.38928 -2.58416 272.117 
7.88425e-06 -5.49508e-06 2.68968e+25 -4.48042 -3.21958 272.262 
9.79558e-06 -5.49508e-06 2.69228e+25 -3.11705 -3.50424 272.006 
1.17069e-05 -5.49508e-06 2.69031e+25 -2.12955 -3.0794 272.179 
1.36182e-05 -5.49508e-06 2.69e+25 -1.12096 -2.41605 272.298 
1.55296e-05 -5.49508e-06 2.68997e+25 -0.41338 -1.57056 272.191 
2.38917e-07 -5.01725e-06 2.68642e+25 -6.42397 -0.014483 272.266 
2.15025e-06 -5.01725e-06 2.68918e+25 -6.27056 -1.07724 272.221 
4.06158e-06 -5.01725e-06 2.68781e+25 -6.08986 -1.74705 272.304 
5.97292e-06 -5.01725e-06 2.69002e+25 -5.47302 -2.69966 272.178 
7.88425e-06 -5.01725e-06 2.68835e+25 -4.69451 -3.55534 272.313 
9.79558e-06 -5.01725e-06 2.69177e+25 -3.42897 -3.73333 272.054 
1.17069e-05 -5.01725e-06 2.68957e+25 -2.27664 -3.38876 272.3 
1.36182e-05 -5.01725e-06 2.69043e+25 -1.07494 -2.60606 272.202 
1.55296e-05 -5.01725e-06 2.69101e+25 -0.335985 -1.67493 272.111 
2.38917e-07 -4.53942e-06 2.68824e+25 -6.58581 -0.00676816 272.202 
2.15025e-06 -4.53942e-06 2.69041e+25 -6.45499 -1.03518 272.248 
4.06158e-06 -4.53942e-06 2.68987e+25 -6.33317 -1.94472 272.103 
5.97292e-06 -4.53942e-06 2.68958e+25 -5.72672 -3.04025 272.184 
7.88425e-06 -4.53942e-06 2.69028e+25 -4.78974 -3.75056 272.094 
9.79558e-06 -4.53942e-06 2.69285e+25 -3.6892 -4.02295 272.048 
1.17069e-05 -4.53942e-06 2.68831e+25 -2.38539 -3.73935 272.322 
1.36182e-05 -4.53942e-06 2.69057e+25 -1.07167 -2.88701 272.192 
1.55296e-05 -4.53942e-06 2.69249e+25 -0.0681258 -1.82087 272.063 
2.38917e-07 -4.06158e-06 2.68782e+25 -6.639 0.145078 272.081 
2.15025e-06 -4.06158e-06 2.68881e+25 -6.96164 -0.99879 272.303 
4.06158e-06 -4.06158e-06 2.69092e+25 -6.80417 -1.97815 272.127 
5.97292e-06 -4.06158e-06 2.6914e+25 -6.25201 -3.29461 272.15 
7.88425e-06 -4.06158e-06 2.69203e+25 -5.19734 -3.99436 271.97 
9.79558e-06 -4.06158e-06 2.691e+25 -3.92029 -4.45516 272.227 
1.17069e-05 -4.06158e-06 2.68807e+25 -2.35377 -4.08876 272.352 
1.36182e-05 -4.06158e-06 2.68969e+25 -0.938447 -3.15209 272.213 
1.55296e-05 -4.06158e-06 2.69222e+25 0.024909 -1.90873 271.979 
2.38917e-07 -3.58375e-06 2.68788e+25 -6.66752 0.290684 272.048 
2.15025e-06 -3.58375e-06 2.68695e+25 -7.25794 -0.927319 272.26 
4.06158e-06 -3.58375e-06 2.69153e+25 -7.03674 -2.16954 272.065 
5.97292e-06 -3.58375e-06 2.69156e+25 -6.54396 -3.50497 271.927 
7.88425e-06 -3.58375e-06 2.69162e+25 -5.58075 -4.27914 272.018 
9.79558e-06 -3.58375e-06 2.69278e+25 -4.11934 -4.97134 272.126 
1.17069e-05 -3.58375e-06 2.68826e+25 -2.33534 -4.39413 272.421 
1.36182e-05 -3.58375e-06 2.68944e+25 -1.03944 -3.51511 272.34 
1.55296e-05 -3.58375e-06 2.69326e+25 -0.201 -1.91357 271.97 
2.38917e-07 -3.10592e-06 2.68751e+25 -6.95811 0.470524 272.182 
2.15025e-06 -3.10592e-06 2.68846e+25 -7.54411 -0.754065 272.218 
4.06158e-06 -3.10592e-06 2.69037e+25 -7.45486 -2.35539 272.083 
5.97292e-06 -3.10592e-06 2.69125e+25 -6.75326 -3.68548 272.02 
7.88425e-06 -3.10592e-06 2.68922e+25 -6.10241 -4.65695 272.202 
9.79558e-06 -3.10592e-06 2.69091e+25 -4.31115 -5.30297 272.096 
1.17069e-05 -3.10592e-06 2.68593e+25 -2.59033 -4.83121 272.465 
1.36182e-05 -3.10592e-06 2.68862e+25 -0.960554 -3.88898 272.266 
1.55296e-05 -3.10592e-06 2.69213e+25 -0.112457 -1.96682 272.003 
2.38917e-07 -2.62808e-06 2.68877e+25 -7.14548 0.724481 272.086 
2.15025e-06 -2.62808e-06 2.68966e+25 -7.57359 -0.586545 272.158 
4.06158e-06 -2.62808e-06 2.68691e+25 -7.686 -2.38671 272.345 
5.97292e-06 -2.62808e-06 2.68906e+25 -7.19275 -3.75263 272.198 
7.88425e-06 -2.62808e-06 2.69032e+25 -6.34986 -5.06459 272.185 
9.79558e-06 -2.62808e-06 2.69125e+25 -4.49812 -5.7298 271.995 
1.17069e-05 -2.62808e-06 2.68968e+25 -2.87151 -5.33179 272.22 
1.36182e-05 -2.62808e-06 2.68782e+25 -1.18008 -4.19219 272.35 
1.55296e-05 -2.62808e-06 2.69042e+25 -0.0968876 -2.09603 272.175 
2.38917e-07 -2.15025e-06 2.68802e+25 -7.15787 0.970302 272.071 
2.15025e-06 -2.15025e-06 2.69002e+25 -7.71555 -0.490511 271.956 
4.06158e-06 -2.15025e-06 2.68836e+25 -7.71456 -2.36258 272.359 
5.97292e-06 -2.15025e-06 2.68914e+25 -7.4738 -3.84058 272.214 
7.88425e-06 -2.15025e-06 2.68854e+25 -6.59835 -5.50592 272.315 
9.79558e-06 -2.15025e-06 2.6922e+25 -4.81111 -6.26063 272.066 
1.17069e-05 -2.15025e-06 2.68982e+25 -3.12212 -5.7093 272.272 
1.36182e-05 -2.15025e-06 2.68905e+25 -1.31477 -4.52981 272.338 
1.55296e-05 -2.15025e-06 2.68959e+25 -0.122719 -2.19805 272.289 
2.38917e-07 -1.67242e-06 2.68832e+25 -7.30699 1.17625 271.95 
2.15025e-06 -1.67242e-06 2.69148e+25 -7.80142 -0.470985 272.004 
4.06158e-06 -1.67242e-06 2.68892e+25 -7.70484 -2.33098 272.314 
5.97292e-06 -1.67242e-06 2.69103e+25 -7.62285 -3.93663 272.094 
7.88425e-06 -1.67242e-06 2.68946e+25 -6.62848 -5.84205 272.098 
9.79558e-06 -1.67242e-06 2.69231e+25 -5.07801 -6.66574 271.936 
1.17069e-05 -1.67242e-06 2.69039e+25 -3.21883 -6.14743 272.14 
1.36182e-05 -1.67242e-06 2.68935e+25 -1.48293 -4.92612 272.117 
1.55296e-05 -1.67242e-06 2.68939e+25 -0.124955 -2.25446 272.31 
2.38917e-07 -1.19458e-06 2.68837e+25 -7.4038 1.2862 271.93 
2.15025e-06 -1.19458e-06 2.69151e+25 -7.83997 -0.553485 271.95 
4.06158e-06 -1.19458e-06 2.68858e+25 -7.87771 -2.31696 272.262 
5.97292e-06 -1.19458e-06 2.6903e+25 -7.74617 -4.04981 272.052 
7.88425e-06 -1.19458e-06 2.69089e+25 -6.58341 -6.10375 272.14 
9.79558e-06 -1.19458e-06 2.69095e+25 -5.35844 -7.11076 272.095 
1.17069e-05 -1.19458e-06 2.69051e+25 -3.35935 -6.60904 272.176 
1.36182e-05 -1.19458e-06 2.69114e+25 -1.64074 -5.32002 272.053 
1.55296e-05 -1.19458e-06 2.69086e+25 -0.450838 -2.50631 272.087 
2.38917e-07 -7.1675e-07 2.68866e+25 -7.44669 1.33298 271.961 
2.15025e-06 -7.1675e-07 2.69081e+25 -7.74506 -0.654628 271.891 
4.06158e-06 -7.1675e-07 2.68817e+25 -7.92553 -2.28093 272.229 
5.97292e-06 -7.1675e-07 2.69079e+25 -7.8845 -4.20703 272.109 
7.88425e-06 -7.1675e-07 2.69056e+25 -6.73061 -6.24707 272.116 
9.79558e-06 -7.1675e-07 2.69169e+25 -5.53633 -7.5735 272.113 
1.17069e-05 -7.1675e-07 2.69174e+25 -3.65791 -7.02637 272.106 
1.36182e-05 -7.1675e-07 2.69133e+25 -1.85413 -5.66302 272.039 
1.55296e-05 -7.1675e-07 2.69128e+25 -0.748235 -2.84153 272.063 
2.38917e-07 -2.38917e-07 2.68457e+25 -7.41068 1.58886 272.018 
2.15025e-06 -2.38917e-07 2.68936e+25 -7.89347 -0.564543 271.825 
4.06158e-06 -2.38917e-07 2.68676e+25 -7.90452 -2.31979 272.191 
5.97292e-06 -2.38917e-07 2.68643e+25 -7.6526 -4.221 272.296 
7.88425e-06 -2.38917e-07 2.68791e+25 -7.05943 -6.43908 272.119 
9.79558e-06 -2.38917e-07 2.69126e+25 -5.79083 -7.97221 271.986 
1.17069e-05 -2.38917e-07 2.68619e+25 -4.00846 -7.46843 272.255 
1.36182e-05 -2.38917e-07 2.68836e+25 -2.08392 -6.04189 272.034 
1.55296e-05 -2.38917e-07 2.68972e+25 -0.724715 -3.12321 272.051 
7.1675e-07 -1.69631e-05 2.68732e+25 -0.209013 -0.0263779 272.717 
2.62808e-06 -1.69631e-05 2.68416e+25 -0.253673 0.000460612 272.911 
4.53942e-06 -1.69631e-05 2.68268e+25 -0.150381 0.013113 272.896 
6.45075e-06 -1.69631e-05 2.68508e+25 -0.152022 0.0188287 272.852 
8.36208e-06 -1.69631e-05 2.68499e+25 -0.134758 0.0323853 272.794 
1.02734e-05 -1.69631e-05 2.68505e+25 -0.154465 0.054565 272.86 
1.21847e-05 -1.69631e-05 2.68614e+25 0.0686136 0.0326142 272.751 
1.40961e-05 -1.69631e-05 2.68603e+25 -0.0118687 0.0514049 272.758 
1.60074e-05 -1.69631e-05 2.68428e+25 -0.0291775 0.0190365 272.921 
7.1675e-07 -1.64852e-05 2.68842e+25 -0.437889 -0.0774434 272.504 
2.62808e-06 -1.64852e-05 2.68535e+25 -0.349015 0.0680382 272.776 
4.53942e-06 -1.64852e-05 2.68421e+25 -0.298556 -0.0495222 272.825 
6.45075e-06 -1.64852e-05 2.68548e+25 -0.537026 -0.13562 272.752 
8.36208e-06 -1.64852e-05 2.68726e+25 -0.159964 -0.0243623 272.56 
1.02734e-05 -1.64852e-05 2.6885e+25 -0.243407 0.0311074 272.375 
1.21847e-05 -1.64852e-05 2.68613e+25 -0.0800558 0.0128316 272.605 
1.40961e-05 -1.64852e-05 2.68494e+25 -0.181843 0.0710578 272.748 
1.60074e-05 -1.64852e-05 2.6865e+25 -0.010881 0.0106073 272.664 
7.1675e-07 -1.60074e-05 2.69109e+25 -0.719814 -0.070401 272.171 
2.62808e-06 -1.60074e-05 2.68737e+25 -0.607432 0.183525 272.583 
4.53942e-06 -1.60074e-05 2.68704e+25 -0.780183 -0.00579044 272.537 
6.45075e-06 -1.60074e-05 2.68706e+25 -0.807402 -0.197134 272.732 
8.36208e-06 -1.60074e-05 2.6872e+25 -0.468538 -0.0735472 272.643 
1.02734e-05 -1.60074e-05 2.69e+25 -0.333228 -0.0403661 272.146 
1.21847e-05 -1.60074e-05 2.68898e+25 -0.254853 -0.0773029 272.406 
1.40961e-05 -1.60074e-05 2.68793e+25 -0.241004 0.0286943 272.407 
1.60074e-05 -1.60074e-05 2.68966e+25 0.0409727 0.0110434 272.336 
7.1675e-07 -1.55296e-05 2.69128e+25 -0.922232 -0.0300513 272.126 
2.62808e-06 -1.55296e-05 2.68957e+25 -0.879707 0.138515 272.283 
4.53942e-06 -1.55296e-05 2.68911e+25 -0.915027 0.0103987 272.339 
6.45075e-06 -1.55296e-05 2.68902e+25 -0.800664 -0.220364 272.53 
8.36208e-06 -1.55296e-05 2.68462e+25 -0.756905 -0.2233 272.815 
1.02734e-05 -1.55296e-05 2.68981e+25 -0.246118 -0.00229439 272.334 
1.21847e-05 -1.55296e-05 2.69156e+25 -0.387186 -0.179425 272.096 
1.40961e-05 -1.55296e-05 2.68966e+25 -0.417522 -0.0058842 272.4 
1.60074e-05 -1.55296e-05 2.68999e+25 -0.0360063 -0.108251 272.256 
7.1675e-07 -1.50517e-05 2.69245e+25 -1.25059 0.0404942 272.09 
2.62808e-06 -1.50517e-05 2.69194e+25 -1.06155 -0.0254733 272.075 
4.53942e-06 -1.50517e-05 2.69032e+25 -0.966233 0.0938521 272.158 
6.45075e-06 -1.50517e-05 2.68849e+25 -0.865114 -0.218314 272.515 
8.36208e-06 -1.50517e-05 2.68562e+25 -0.773431 -0.204935 272.642 
1.02734e-05 -1.50517e-05 2.68676e+25 -0.305971 0.0262322 272.599 
1.21847e-05 -1.50517e-05 2.69112e+25 -0.377956 -0.151946 272.127 
1.40961e-05 -1.50517e-05 2.68891e+25 -0.31853 0.0140547 272.311 
1.60074e-05 -1.50517e-05 2.69031e+25 -0.0726878 -0.220271 272.218 
7.1675e-07 -1.45739e-05 2.69353e+25 -1.28275 0.0993584 271.942 
2.62808e-06 -1.45739e-05 2.69117e+25 -1.2981 -0.139673 272.07 
4.53942e-06 -1.45739e-05 2.69219e+25 -1.28209 0.0777293 272.152 
6.45075e-06 -1.45739e-05 2.68824e+25 -1.04519 -0.135442 272.459 
8.36208e-06 -1.45739e-05 2.68697e+25 -0.810863 -0.237861 272.608 
1.02734e-05 -1.45739e-05 2.68694e+25 -0.565372 -0.0577879 272.525 
1.21847e-05 -1.45739e-05 2.69113e+25 -0.232387 -0.0422016 272.151 
1.40961e-05 -1.45739e-05 2.68905e+25 -0.109193 0.0083533 272.393 
1.60074e-05 -1.45739e-05 2.68947e+25 -0.0685828 -0.294927 272.383 
7.1675e-07 -1.40961e-05 2.69278e+25 -1.46961 0.118027 271.926 
2.62808e-06 -1.40961e-05 2.69334e+25 -1.43319 -0.174462 271.905 
4.53942e-06 -1.40961e-05 2.69215e+25 -1.33575 0.0151019 271.999 
6.45075e-06 -1.40961e-05 2.68676e+25 -1.46069 -0.214624 272.547 
8.36208e-06 -1.40961e-05 2.68657e+25 -1.08755 -0.316627 272.643 
1.02734e-05 -1.40961e-05 2.68646e+25 -0.828951 -0.306934 272.538 
1.21847e-05 -1.40961e-05 2.6915e+25 -0.352979 -0.161322 272.148 
1.40961e-05 -1.40961e-05 2.68795e+25 -0.0458646 -0.0385972 272.483 
1.60074e-05 -1.40961e-05 2.68921e+25 -0.0325722 -0.321977 272.412 
7.1675e-07 -1.36182e-05 2.69303e+25 -1.73282 0.104031 271.9 
2.62808e-06 -1.36182e-05 2.6955e+25 -1.79344 -0.101783 271.753 
4.53942e-06 -1.36182e-05 2.69206e+25 -1.47115 -0.0223056 272.12 
6.45075e-06 -1.36182e-05 2.68847e+25 -1.59489 -0.229486 272.381 
8.36208e-06 -1.36182e-05 2.68749e+25 -1.30807 -0.465518 272.468 
1.02734e-05 -1.36182e-05 2.68718e+25 -0.802041 -0.612255 272.562 
1.21847e-05 -1.36182e-05 2.69013e+25 -0.579938 -0.222544 272.32 
1.40961e-05 -1.36182e-05 2.68594e+25 0.178727 -0.196994 272.552 
1.60074e-05 -1.36182e-05 2.68804e+25 0.0126852 -0.284942 272.453 
7.1675e-07 -1.31404e-05 2.69115e+25 -1.85568 0.103311 272.009 
2.62808e-06 -1.31404e-05 2.69341e+25 -1.89657 -0.12205 271.918 
4.53942e-06 -1.31404e-05 2.69201e+25 -1.89192 -0.0956954 272.192 
6.45075e-06 -1.31404e-05 2.68764e+25 -1.67186 -0.154849 272.426 
8.36208e-06 -1.31404e-05 2.68888e+25 -1.42456 -0.739726 272.417 
1.02734e-05 -1.31404e-05 2.68643e+25 -0.723431 -0.707 272.629 
1.21847e-05 -1.31404e-05 2.68985e+25 -0.62694 -0.297721 272.262 
1.40961e-05 -1.31404e-05 2.68658e+25 -0.057577 -0.304472 272.528 
1.60074e-05 -1.31404e-05 2.6881e+25 -0.00715888 -0.208808 272.389 
7.1675e-07 -1.26626e-05 2.69097e+25 -2.14394 0.119695 272.091 
2.62808e-06 -1.26626e-05 2.69194e+25 -1.91424 -0.188441 272.065 
4.53942e-06 -1.26626e-05 2.69118e+25 -1.97727 -0.0743563 272.22 
6.45075e-06 -1.26626e-05 2.6882e+25 -1.74118 -0.0191042 272.346 
8.36208e-06 -1.26626e-05 2.69014e+25 -1.45032 -0.989837 272.393 
1.02734e-05 -1.26626e-05 2.68684e+25 -0.701216 -0.69702 272.615 
1.21847e-05 -1.26626e-05 2.69061e+25 -0.577691 -0.347436 272.24 
1.40961e-05 -1.26626e-05 2.6865e+25 -0.233061 -0.343873 272.577 
1.60074e-05 -1.26626e-05 2.68856e+25 -0.147048 -0.192334 272.35 
7.1675e-07 -1.21847e-05 2.68925e+25 -2.48209 0.0857494 272.126 
2.62808e-06 -1.21847e-05 2.68959e+25 -2.2502 -0.149379 272.193 
4.53942e-06 -1.21847e-05 2.68967e+25 -2.11203 -0.174669 272.177 
6.45075e-06 -1.21847e-05 2.68874e+25 -1.72895 -0.0420248 272.35 
8.36208e-06 -1.21847e-05 2.68798e+25 -1.40572 -1.15651 272.442 
1.02734e-05 -1.21847e-05 2.68767e+25 -0.884324 -0.825564 272.612 
1.21847e-05 -1.21847e-05 2.69103e+25 -0.496766 -0.434704 272.232 
1.40961e-05 -1.21847e-05 2.68804e+25 -0.191232 -0.168532 272.476 
1.60074e-05 -1.21847e-05 2.69037e+25 -0.148703 -0.253612 272.26 
7.1675e-07 -1.17069e-05 2.69066e+25 -2.70706 0.0699937 272.044 
2.62808e-06 -1.17069e-05 2.69216e+25 -2.65058 -0.264217 272.028 
4.53942e-06 -1.17069e-05 2.69035e+25 -2.2917 -0.271437 272.165 
6.45075e-06 -1.17069e-05 2.68805e+25 -1.76931 -0.13788 272.324 
8.36208e-06 -1.17069e-05 2.68964e+25 -1.3801 -1.20351 272.381 
1.02734e-05 -1.17069e-05 2.68737e+25 -1.23674 -0.896469 272.377 
1.21847e-05 -1.17069e-05 2.68976e+25 -0.730763 -0.51233 272.195 
1.40961e-05 -1.17069e-05 2.68841e+25 -0.307032 -0.198773 272.321 
1.60074e-05 -1.17069e-05 2.69156e+25 -0.170884 -0.384148 272.319 
7.1675e-07 -1.12291e-05 2.69013e+25 -3.09242 0.00639866 272.199 
2.62808e-06 -1.12291e-05 2.68962e+25 -3.02359 -0.391346 272.158 
4.53942e-06 -1.12291e-05 2.6903e+25 -2.59471 -0.436837 272.119 
6.45075e-06 -1.12291e-05 2.68804e+25 -1.86759 -0.311533 272.38 
8.36208e-06 -1.12291e-05 2.68941e+25 -1.41425 -1.17681 272.352 
1.02734e-05 -1.12291e-05 2.68928e+25 -1.47809 -1.01573 272.301 
1.21847e-05 -1.12291e-05 2.68941e+25 -0.757593 -0.716475 272.175 
1.40961e-05 -1.12291e-05 2.688e+25 -0.27612 -0.263212 272.386 
1.60074e-05 -1.12291e-05 2.68888e+25 -0.138985 -0.507532 272.328 
7.1675e-07 -1.07512e-05 2.69137e+25 -3.61417 -0.00762381 272.09 
2.62808e-06 -1.07512e-05 2.69015e+25 -3.20911 -0.467223 272.115 
4.53942e-06 -1.07512e-05 2.69038e+25 -2.95781 -0.381814 272.154 
6.45075e-06 -1.07512e-05 2.6894e+25 -2.29832 -0.586536 272.263 
8.36208e-06 -1.07512e-05 2.68949e+25 -1.74319 -1.20086 272.324 
1.02734e-05 -1.07512e-05 2.6896e+25 -1.75729 -1.0731 272.204 
1.21847e-05 -1.07512e-05 2.69049e+25 -0.643716 -0.906306 272.224 
1.40961e-05 -1.07512e-05 2.68863e+25 -0.126339 -0.414968 272.314 
1.60074e-05 -1.07512e-05 2.6896e+25 -0.0242888 -0.508327 272.362 
7.1675e-07 -1.02734e-05 2.69147e+25 -3.86619 -0.0796481 272.006 
2.62808e-06 -1.02734e-05 2.69116e+25 -3.5499 -0.638184 272.104 
4.53942e-06 -1.02734e-05 2.68922e+25 -3.22488 -0.451359 272.252 
6.45075e-06 -1.02734e-05 2.69111e+25 -2.4943 -0.919421 272.265 
8.36208e-06 -1.02734e-05 2.68894e+25 -1.86781 -1.14631 272.379 
1.02734e-05 -1.02734e-05 2.69048e+25 -1.74604 -1.2402 272.246 
1.21847e-05 -1.02734e-05 2.69101e+25 -0.683518 -1.18681 272.259 
1.40961e-05 -1.02734e-05 2.69164e+25 -0.401413 -0.59733 272.075 
1.60074e-05 -1.02734e-05 2.68851e+25 0.195217 -0.387764 272.374 
7.1675e-07 -9.79558e-06 2.6915e+25 -3.88143 -0.140566 272.097 
2.62808e-06 -9.79558e-06 2.69065e+25 -4.11257 -0.715283 272.107 
4.53942e-06 -9.79558e-06 2.69212e+25 -3.58168 -0.536417 272.194 
6.45075e-06 -9.79558e-06 2.69332e+25 -2.82256 -1.25256 272.051 
8.36208e-06 -9.79558e-06 2.68984e+25 -1.95227 -1.25305 272.269 
1.02734e-05 -9.79558e-06 2.69022e+25 -1.56001 -1.32698 272.208 
1.21847e-05 -9.79558e-06 2.68959e+25 -0.707784 -1.55218 272.267 
1.40961e-05 -9.79558e-06 2.69178e+25 -0.346391 -0.667049 272.055 
1.60074e-05 -9.79558e-06 2.68934e+25 0.253715 -0.360259 272.344 
7.1675e-07 -9.31775e-06 2.68881e+25 -4.25035 -0.178788 272.157 
2.62808e-06 -9.31775e-06 2.69151e+25 -4.45007 -0.751053 272.139 
4.53942e-06 -9.31775e-06 2.69348e+25 -3.7232 -0.747001 272.001 
6.45075e-06 -9.31775e-06 2.69278e+25 -2.91982 -1.40828 272.091 
8.36208e-06 -9.31775e-06 2.69006e+25 -2.27407 -1.40441 272.217 
1.02734e-05 -9.31775e-06 2.6898e+25 -1.43877 -1.50395 272.277 
1.21847e-05 -9.31775e-06 2.68849e+25 -0.923065 -1.67218 272.311 
1.40961e-05 -9.31775e-06 2.69051e+25 -0.161241 -0.782313 271.97 
1.60074e-05 -9.31775e-06 2.69043e+25 0.0922624 -0.352854 272.252 
7.1675e-07 -8.83992e-06 2.69023e+25 -4.70056 -0.279536 272.164 
2.62808e-06 -8.83992e-06 2.69098e+25 -4.70344 -0.792816 272.047 
4.53942e-06 -8.83992e-06 2.69329e+25 -3.80034 -0.955807 272.046 
6.45075e-06 -8.83992e-06 2.68879e+25 -3.09574 -1.56372 272.276 
8.36208e-06 -8.83992e-06 2.69294e+25 -2.45909 -1.57341 272.073 
1.02734e-05 -8.83992e-06 2.69e+25 -1.57179 -1.66475 272.36 
1.21847e-05 -8.83992e-06 2.69016e+25 -0.975082 -1.80573 272.032 
1.40961e-05 -8.83992e-06 2.68966e+25 -0.385015 -0.844745 272.154 
1.60074e-05 -8.83992e-06 2.69127e+25 0.0761819 -0.403015 272.135 
7.1675e-07 -8.36208e-06 2.691e+25 -5.00263 -0.208028 272.131 
2.62808e-06 -8.36208e-06 2.69073e+25 -4.68408 -0.935263 272.17 
4.53942e-06 -8.36208e-06 2.69121e+25 -4.25302 -1.16258 272.056 
6.45075e-06 -8.36208e-06 2.68944e+25 -3.33576 -1.8029 272.31 
8.36208e-06 -8.36208e-06 2.69038e+25 -2.70127 -1.68152 272.173 
1.02734e-05 -8.36208e-06 2.69115e+25 -1.78347 -1.93944 272.259 
1.21847e-05 -8.36208e-06 2.68857e+25 -0.945362 -1.90443 272.301 
1.40961e-05 -8.36208e-06 2.69069e+25 -0.392701 -1.044 272.203 
1.60074e-05 -8.36208e-06 2.6917e+25 -0.0376211 -0.475544 272.185 
7.1675e-07 -7.88425e-06 2.69086e+25 -5.2776 -0.0803752 272.093 
2.62808e-06 -7.88425e-06 2.69104e+25 -4.79009 -1.0646 272.057 
4.53942e-06 -7.88425e-06 2.6918e+25 -4.37512 -1.28197 272.066 
6.45075e-06 -7.88425e-06 2.69123e+25 -3.73239 -2.05752 272.144 
8.36208e-06 -7.88425e-06 2.692e+25 -2.88561 -1.82938 272.132 
1.02734e-05 -7.88425e-06 2.69003e+25 -1.91325 -2.20584 272.214 
1.21847e-05 -7.88425e-06 2.69094e+25 -1.17224 -1.96386 272.217 
1.40961e-05 -7.88425e-06 2.69024e+25 -0.450185 -1.31135 272.348 
1.60074e-05 -7.88425e-06 2.68751e+25 -0.0785167 -0.424926 272.343 
7.1675e-07 -7.40642e-06 2.69065e+25 -5.3268 -0.104607 272.129 
2.62808e-06 -7.40642e-06 2.69043e+25 -5.03671 -1.32069 272.247 
4.53942e-06 -7.40642e-06 2.68978e+25 -4.51551 -1.39962 272.135 
6.45075e-06 -7.40642e-06 2.69263e+25 -4.10855 -2.09698 272.084 
8.36208e-06 -7.40642e-06 2.69089e+25 -3.13417 -2.11314 272.147 
1.02734e-05 -7.40642e-06 2.69139e+25 -2.1534 -2.4746 272.089 
1.21847e-05 -7.40642e-06 2.69118e+25 -1.18325 -2.11194 272.081 
1.40961e-05 -7.40642e-06 2.68931e+25 -0.609893 -1.48185 272.298 
1.60074e-05 -7.40642e-06 2.68864e+25 -0.0923897 -0.469905 272.33 
7.1675e-07 -6.92858e-06 2.69029e+25 -5.59013 -0.121131 272.09 
2.62808e-06 -6.92858e-06 2.68887e+25 -5.39254 -1.42631 272.214 
4.53942e-06 -6.92858e-06 2.69139e+25 -4.78474 -1.55712 272.135 
6.45075e-06 -6.92858e-06 2.69117e+25 -4.13777 -2.15432 272.152 
8.36208e-06 -6.92858e-06 2.69055e+25 -3.50925 -2.39038 272.081 
1.02734e-05 -6.92858e-06 2.69093e+25 -2.22704 -2.68409 272.223 
1.21847e-05 -6.92858e-06 2.69283e+25 -1.3069 -2.38114 271.949 
1.40961e-05 -6.92858e-06 2.69006e+25 -0.721811 -1.71757 272.269 
1.60074e-05 -6.92858e-06 2.68915e+25 -0.220276 -0.614462 272.287 
7.1675e-07 -6.45075e-06 2.6912e+25 -5.61534 -0.120199 272.001 
2.62808e-06 -6.45075e-06 2.69145e+25 -5.48464 -1.41715 272.046 
4.53942e-06 -6.45075e-06 2.69124e+25 -5.32836 -1.70836 272.116 
6.45075e-06 -6.45075e-06 2.69029e+25 -4.65849 -2.3602 272.054 
8.36208e-06 -6.45075e-06 2.69012e+25 -3.74095 -2.70667 272.127 
1.02734e-05 -6.45075e-06 2.69138e+25 -2.28754 -2.94463 272.143 
1.21847e-05 -6.45075e-06 2.69156e+25 -1.54699 -2.61295 272.005 
1.40961e-05 -6.45075e-06 2.69042e+25 -0.756942 -1.89919 272.184 
1.60074e-05 -6.45075e-06 2.68592e+25 -0.217379 -0.777667 272.625 
7.1675e-07 -5.97292e-06 2.68937e+25 -5.75751 -0.030322 272.262 
2.62808e-06 -5.97292e-06 2.69298e+25 -5.69377 -1.37868 271.983 
4.53942e-06 -5.97292e-06 2.68886e+25 -5.68161 -1.84637 272.282 
6.45075e-06 -5.97292e-06 2.69132e+25 -5.08311 -2.47803 272.005 
8.36208e-06 -5.97292e-06 2.68815e+25 -3.99888 -2.9556 272.226 
1.02734e-05 -5.97292e-06 2.69093e+25 -2.69568 -3.19246 272.152 
1.21847e-05 -5.97292e-06 2.69125e+25 -1.67584 -2.70058 272.269 
1.40961e-05 -5.97292e-06 2.69022e+25 -0.850893 -2.11202 272.212 
1.60074e-05 -5.97292e-06 2.68629e+25 -0.108406 -0.92856 272.545 
7.1675e-07 -5.49508e-06 2.68896e+25 -6.1092 -0.148733 272.357 
2.62808e-06 -5.49508e-06 2.691e+25 -5.8379 -1.27367 272.141 
4.53942e-06 -5.49508e-06 2.68833e+25 -5.85142 -1.98818 272.357 
6.45075e-06 -5.49508e-06 2.69101e+25 -5.22031 -2.60725 272.099 
8.36208e-06 -5.49508e-06 2.69122e+25 -4.14202 -3.17913 272.132 
1.02734e-05 -5.49508e-06 2.69061e+25 -2.9107 -3.44358 272.084 
1.21847e-05 -5.49508e-06 2.68865e+25 -1.95016 -2.95732 272.34 
1.40961e-05 -5.49508e-06 2.68942e+25 -1.02562 -2.28698 272.272 
1.60074e-05 -5.49508e-06 2.68925e+25 -0.238471 -1.07082 272.315 
7.1675e-07 -5.01725e-06 2.68857e+25 -6.42066 -0.233738 272.396 
2.62808e-06 -5.01725e-06 2.69037e+25 -6.2927 -1.25221 272.113 
4.53942e-06 -5.01725e-06 2.6876e+25 -5.88607 -2.13598 272.377 
6.45075e-06 -5.01725e-06 2.68976e+25 -5.2437 -2.85344 272.185 
8.36208e-06 -5.01725e-06 2.6919e+25 -4.31751 -3.60628 272.115 
1.02734e-05 -5.01725e-06 2.69088e+25 -3.11546 -3.68183 272.07 
1.21847e-05 -5.01725e-06 2.68968e+25 -1.93159 -3.17915 272.373 
1.40961e-05 -5.01725e-06 2.68876e+25 -0.841642 -2.42886 272.281 
1.60074e-05 -5.01725e-06 2.68959e+25 -0.197131 -1.29618 272.205 
7.1675e-07 -4.53942e-06 2.68944e+25 -6.59381 -0.204836 272.316 
2.62808e-06 -4.53942e-06 2.69033e+25 -6.39964 -1.27132 272.074 
4.53942e-06 -4.53942e-06 2.68788e+25 -6.17521 -2.31427 272.388 
6.45075e-06 -4.53942e-06 2.68807e+25 -5.43841 -3.08416 272.374 
8.36208e-06 -4.53942e-06 2.69302e+25 -4.53408 -3.88689 272.138 
1.02734e-05 -4.53942e-06 2.68892e+25 -3.33922 -4.04489 272.223 
1.21847e-05 -4.53942e-06 2.6895e+25 -2.01761 -3.58109 272.274 
1.40961e-05 -4.53942e-06 2.69036e+25 -0.795561 -2.70591 272.248 
1.60074e-05 -4.53942e-06 2.68904e+25 0.0324328 -1.39981 272.207 
7.1675e-07 -4.06158e-06 2.6875e+25 -6.73961 -0.251533 272.378 
2.62808e-06 -4.06158e-06 2.69053e+25 -6.97655 -1.32908 272.117 
4.53942e-06 -4.06158e-06 2.68821e+25 -6.76536 -2.45119 272.382 
6.45075e-06 -4.06158e-06 2.69125e+25 -5.98076 -3.36217 272.156 
8.36208e-06 -4.06158e-06 2.69169e+25 -4.94918 -4.20332 272.023 
1.02734e-05 -4.06158e-06 2.68893e+25 -3.40559 -4.4293 272.368 
1.21847e-05 -4.06158e-06 2.68658e+25 -2.02933 -3.88209 272.509 
1.40961e-05 -4.06158e-06 2.69102e+25 -0.611764 -3.01663 272.117 
1.60074e-05 -4.06158e-06 2.69113e+25 -0.0546318 -1.37654 272.078 
7.1675e-07 -3.58375e-06 2.68833e+25 -6.8432 -0.158187 272.226 
2.62808e-06 -3.58375e-06 2.6885e+25 -7.39442 -1.28835 272.235 
4.53942e-06 -3.58375e-06 2.68948e+25 -6.86422 -2.4858 272.166 
6.45075e-06 -3.58375e-06 2.69197e+25 -6.23322 -3.69101 272.021 
8.36208e-06 -3.58375e-06 2.69143e+25 -5.25139 -4.45723 271.978 
1.02734e-05 -3.58375e-06 2.69025e+25 -3.65601 -4.95258 272.258 
1.21847e-05 -3.58375e-06 2.68601e+25 -1.98772 -4.21374 272.668 
1.40961e-05 -3.58375e-06 2.68871e+25 -0.722209 -3.29371 272.3 
1.60074e-05 -3.58375e-06 2.69202e+25 -0.160366 -1.36301 272.027 
7.1675e-07 -3.10592e-06 2.68827e+25 -7.12411 0.0555476 272.247 
2.62808e-06 -3.10592e-06 2.68745e+25 -7.65425 -1.23415 272.332 
4.53942e-06 -3.10592e-06 2.68815e+25 -7.34938 -2.59151 272.228 
6.45075e-06 -3.10592e-06 2.69004e+25 -6.73194 -3.86508 272.231 
8.36208e-06 -3.10592e-06 2.6908e+25 -5.65252 -4.86817 272.074 
1.02734e-05 -3.10592e-06 2.69182e+25 -3.88873 -5.43371 272.117 
1.21847e-05 -3.10592e-06 2.68686e+25 -2.15589 -4.55025 272.457 
1.40961e-05 -3.10592e-06 2.68863e+25 -0.633526 -3.58179 272.339 
1.60074e-05 -3.10592e-06 2.69102e+25 -0.13232 -1.34251 272.031 
7.1675e-07 -2.62808e-06 2.68979e+25 -7.32378 0.201011 272.168 
2.62808e-06 -2.62808e-06 2.68989e+25 -7.69935 -1.1216 272.224 
4.53942e-06 -2.62808e-06 2.68843e+25 -7.61272 -2.72954 272.321 
6.45075e-06 -2.62808e-06 2.6903e+25 -7.1627 -3.90234 272.188 
8.36208e-06 -2.62808e-06 2.69174e+25 -5.85754 -5.38672 272.153 
1.02734e-05 -2.62808e-06 2.69093e+25 -4.08969 -5.81783 272.066 
1.21847e-05 -2.62808e-06 2.68767e+25 -2.3772 -5.0037 272.367 
1.40961e-05 -2.62808e-06 2.6881e+25 -0.962754 -3.80411 272.276 
1.60074e-05 -2.62808e-06 2.69374e+25 -0.0153728 -1.31711 272.037 
7.1675e-07 -2.15025e-06 2.69074e+25 -7.35275 0.347145 272.022 
2.62808e-06 -2.15025e-06 2.69198e+25 -7.75582 -1.14047 272.065 
4.53942e-06 -2.15025e-06 2.6893e+25 -7.75404 -2.8453 272.249 
6.45075e-06 -2.15025e-06 2.69196e+25 -7.29201 -4.00981 272.061 
8.36208e-06 -2.15025e-06 2.69207e+25 -6.21099 -5.80571 272.082 
1.02734e-05 -2.15025e-06 2.69138e+25 -4.37639 -6.14977 272.098 
1.21847e-05 -2.15025e-06 2.69012e+25 -2.59501 -5.56861 272.23 
1.40961e-05 -2.15025e-06 2.68933e+25 -0.923707 -4.07745 272.242 
1.60074e-05 -2.15025e-06 2.6895e+25 -0.106391 -1.35497 272.192 
7.1675e-07 -1.67242e-06 2.69105e+25 -7.49771 0.515911 272.033 
2.62808e-06 -1.67242e-06 2.68817e+25 -7.80815 -1.09386 272.182 
4.53942e-06 -1.67242e-06 2.69074e+25 -7.72805 -2.81071 272.064 
6.45075e-06 -1.67242e-06 2.68998e+25 -7.55223 -4.22976 272.136 
8.36208e-06 -1.67242e-06 2.6913e+25 -6.32461 -6.19794 272.17 
1.02734e-05 -1.67242e-06 2.69416e+25 -4.73919 -6.4935 271.987 
1.21847e-05 -1.67242e-06 2.68994e+25 -2.78612 -6.10049 272.151 
1.40961e-05 -1.67242e-06 2.69158e+25 -1.0444 -4.46118 272.015 
1.60074e-05 -1.67242e-06 2.69095e+25 0.00904899 -1.42648 272.249 
7.1675e-07 -1.19458e-06 2.68923e+25 -7.48603 0.715208 272.077 
2.62808e-06 -1.19458e-06 2.69174e+25 -7.75384 -1.1117 271.997 
4.53942e-06 -1.19458e-06 2.69085e+25 -7.90094 -2.80356 272.017 
6.45075e-06 -1.19458e-06 2.68873e+25 -7.52568 -4.47801 272.227 
8.36208e-06 -1.19458e-06 2.691e+25 -6.41031 -6.49417 272.106 
1.02734e-05 -1.19458e-06 2.69018e+25 -4.87682 -6.89637 272.055 
1.21847e-05 -1.19458e-06 2.68962e+25 -2.9698 -6.43623 272.233 
1.40961e-05 -1.19458e-06 2.69132e+25 -1.23313 -4.86456 271.949 
1.60074e-05 -1.19458e-06 2.69068e+25 -0.184802 -1.5057 272.149 
7.1675e-07 -7.1675e-07 2.69237e+25 -7.60089 0.928481 271.89 
2.62808e-06 -7.1675e-07 2.68966e+25 -7.75467 -1.08693 272.096 
4.53942e-06 -7.1675e-07 2.68842e+25 -7.91365 -2.85103 272.2 
6.45075e-06 -7.1675e-07 2.69142e+25 -7.71755 -4.64645 272.093 
8.36208e-06 -7.1675e-07 2.69078e+25 -6.5778 -6.69996 272.081 
1.02734e-05 -7.1675e-07 2.69184e+25 -5.04565 -7.46507 272.001 
1.21847e-05 -7.1675e-07 2.68961e+25 -3.23439 -6.8865 272.345 
1.40961e-05 -7.1675e-07 2.69213e+25 -1.55176 -5.20792 271.978 
1.60074e-05 -7.1675e-07 2.68964e+25 -0.369354 -1.84421 272.148 
7.1675e-07 -2.38917e-07 2.6897e+25 -7.59197 1.03495 271.809 
2.62808e-06 -2.38917e-07 2.687e+25 -8.02979 -0.959238 271.989 
4.53942e-06 -2.38917e-07 2.686e+25 -7.80334 -2.88599 272.165 
6.45075e-06 -2.38917e-07 2.6879e+25 -7.47997 -4.92511 272.24 
8.36208e-06 -2.38917e-07 2.68976e+25 -6.75519 -6.89729 272.064 
1.02734e-05 -2.38917e-07 2.69116e+25 -5.31571 -7.94762 271.946 
1.21847e-05 -2.38917e-07 2.68666e+25 -3.5133 -7.35201 272.233 
1.40961e-05 -2.38917e-07 2.68884e+25 -1.72799 -5.53202 272.083 
1.60074e-05 -2.38917e-07 2.68988e+25 -0.45058 -2.19827 272.133 
1.67242e-06 -1.69631e-05 2.68432e+25 -0.185671 0.0467875 272.927 
3.58375e-06 -1.69631e-05 2.68454e+25 -0.148694 -0.00736504 272.801 
5.49508e-06 -1.69631e-05 2.6857e+25 -0.2796 0.0050437 272.919 
7.40642e-06 -1.69631e-05 2.68429e+25 -0.175397 0.0512182 272.798 
9.31775e-06 -1.69631e-05 2.68481e+25 -0.12362 0.0108308 272.794 
1.12291e-05 -1.69631e-05 2.68499e+25 0.0518737 -0.059406 272.759 
1.31404e-05 -1.69631e-05 2.68472e+25 0.0115758 -0.0214877 272.852 
1.50518e-05 -1.69631e-05 2.68516e+25 -0.021333 -0.0456579 272.819 
1.69631e-05 -1.69631e-05 2.68376e+25 0.0128602 -0.0202033 272.935 
1.67242e-06 -1.64852e-05 2.6856e+25 -0.379023 0.0369405 272.72 
3.58375e-06 -1.64852e-05 2.6849e+25 -0.475613 -0.0798193 272.71 
5.49508e-06 -1.64852e-05 2.68438e+25 -0.489411 0.082416 272.853 
7.40642e-06 -1.64852e-05 2.68732e+25 -0.375193 -0.0323421 272.632 
9.31775e-06 -1.64852e-05 2.68858e+25 -0.137747 0.0209867 272.399 
1.12291e-05 -1.64852e-05 2.6876e+25 -0.119835 -0.109422 272.381 
1.31404e-05 -1.64852e-05 2.6863e+25 -0.0599111 -0.015873 272.623 
1.50518e-05 -1.64852e-05 2.68571e+25 -0.184395 -0.0747405 272.615 
1.69631e-05 -1.64852e-05 2.68192e+25 -0.0369969 -0.00165674 272.94 
1.67242e-06 -1.60074e-05 2.69026e+25 -0.642911 -0.0351464 272.295 
3.58375e-06 -1.60074e-05 2.68737e+25 -0.713335 -0.0627888 272.583 
5.49508e-06 -1.60074e-05 2.6863e+25 -0.760539 0.223478 272.646 
7.40642e-06 -1.60074e-05 2.68439e+25 -0.576399 -0.132653 272.736 
9.31775e-06 -1.60074e-05 2.68952e+25 -0.203488 0.0111708 272.374 
1.12291e-05 -1.60074e-05 2.68973e+25 -0.39092 -0.154162 272.164 
1.31404e-05 -1.60074e-05 2.68827e+25 -0.226205 0.0556022 272.529 
1.50518e-05 -1.60074e-05 2.68855e+25 -0.090654 -0.0897389 272.35 
1.69631e-05 -1.60074e-05 2.68497e+25 -0.0310297 -0.0291013 272.856 
1.67242e-06 -1.55296e-05 2.69137e+25 -0.928912 -0.0896732 272.146 
3.58375e-06 -1.55296e-05 2.68754e+25 -0.931812 -0.0162301 272.557 
5.49508e-06 -1.55296e-05 2.68759e+25 -0.807362 0.165512 272.519 
7.40642e-06 -1.55296e-05 2.6835e+25 -0.746662 -0.178277 272.715 
9.31775e-06 -1.55296e-05 2.69048e+25 -0.483837 -0.0785728 272.395 
1.12291e-05 -1.55296e-05 2.69285e+25 -0.46058 -0.0530501 272.085 
1.31404e-05 -1.55296e-05 2.6899e+25 -0.387254 0.138089 272.31 
1.50518e-05 -1.55296e-05 2.69063e+25 -0.27799 -0.164418 272.211 
1.69631e-05 -1.55296e-05 2.68571e+25 0.0350949 -0.0438162 272.851 
1.67242e-06 -1.50517e-05 2.6912e+25 -1.31973 -0.115329 272.047 
3.58375e-06 -1.50517e-05 2.68826e+25 -0.811525 0.0106363 272.455 
5.49508e-06 -1.50517e-05 2.68935e+25 -0.970823 0.103687 272.383 
7.40642e-06 -1.50517e-05 2.6862e+25 -0.900212 -0.156785 272.616 
9.31775e-06 -1.50517e-05 2.68724e+25 -0.603921 -0.237373 272.475 
1.12291e-05 -1.50517e-05 2.69093e+25 -0.396553 -0.0026491 272.207 
1.31404e-05 -1.50517e-05 2.69025e+25 -0.315459 0.0931502 272.311 
1.50518e-05 -1.50517e-05 2.68795e+25 -0.280829 -0.291332 272.311 
1.69631e-05 -1.50517e-05 2.68382e+25 0.027534 0.0177355 272.932 
1.67242e-06 -1.45739e-05 2.69572e+25 -1.38588 -0.132568 271.707 
3.58375e-06 -1.45739e-05 2.68902e+25 -1.2213 -0.0222808 272.278 
5.49508e-06 -1.45739e-05 2.69075e+25 -1.05606 0.0697797 272.148 
7.40642e-06 -1.45739e-05 2.68693e+25 -1.0852 -0.242286 272.561 
9.31775e-06 -1.45739e-05 2.68685e+25 -0.889807 -0.441037 272.491 
1.12291e-05 -1.45739e-05 2.69059e+25 -0.210167 -0.109533 272.333 
1.31404e-05 -1.45739e-05 2.69166e+25 -0.13625 0.00323169 272.179 
1.50518e-05 -1.45739e-05 2.68914e+25 -0.130232 -0.340918 272.404 
1.69631e-05 -1.45739e-05 2.68462e+25 0.0299513 0.0479743 272.844 
1.67242e-06 -1.40961e-05 2.69532e+25 -1.34922 -0.12481 271.709 
3.58375e-06 -1.40961e-05 2.69028e+25 -1.49848 0.0284022 272.166 
5.49508e-06 -1.40961e-05 2.6875e+25 -1.50101 0.110659 272.382 
7.40642e-06 -1.40961e-05 2.68642e+25 -1.2094 -0.302477 272.627 
9.31775e-06 -1.40961e-05 2.68976e+25 -1.08844 -0.461571 272.342 
1.12291e-05 -1.40961e-05 2.69039e+25 -0.393916 -0.224468 272.199 
1.31404e-05 -1.40961e-05 2.68787e+25 -0.300905 0.0103245 272.359 
1.50518e-05 -1.40961e-05 2.68847e+25 0.123846 -0.371175 272.338 
1.69631e-05 -1.40961e-05 2.68453e+25 -0.0562051 0.00544407 272.811 
1.67242e-06 -1.36182e-05 2.6947e+25 -1.75857 -0.169265 271.761 
3.58375e-06 -1.36182e-05 2.69018e+25 -1.76796 -0.0833738 272.179 
5.49508e-06 -1.36182e-05 2.68868e+25 -1.63927 0.177265 272.366 
7.40642e-06 -1.36182e-05 2.68438e+25 -1.59444 -0.430806 272.564 
9.31775e-06 -1.36182e-05 2.68861e+25 -1.06121 -0.428632 272.451 
1.12291e-05 -1.36182e-05 2.69005e+25 -0.565955 -0.222949 272.293 
1.31404e-05 -1.36182e-05 2.68617e+25 -0.331384 -0.0937843 272.57 
1.50518e-05 -1.36182e-05 2.68774e+25 0.194726 -0.286498 272.446 
1.69631e-05 -1.36182e-05 2.68519e+25 -0.022907 -0.0771794 272.794 
1.67242e-06 -1.31404e-05 2.69272e+25 -1.97489 -0.108506 271.863 
3.58375e-06 -1.31404e-05 2.69222e+25 -1.7654 -0.184327 272.04 
5.49508e-06 -1.31404e-05 2.68743e+25 -1.56233 0.0650569 272.456 
7.40642e-06 -1.31404e-05 2.68764e+25 -1.82523 -0.516322 272.566 
9.31775e-06 -1.31404e-05 2.6876e+25 -0.891883 -0.529729 272.414 
1.12291e-05 -1.31404e-05 2.69022e+25 -0.734867 -0.229605 272.286 
1.31404e-05 -1.31404e-05 2.68646e+25 -0.223278 -0.24671 272.565 
1.50518e-05 -1.31404e-05 2.68688e+25 0.0774713 -0.241786 272.513 
1.69631e-05 -1.31404e-05 2.68332e+25 0.0121434 -0.0779594 272.788 
1.67242e-06 -1.26626e-05 2.69198e+25 -2.11676 -0.0884998 271.992 
3.58375e-06 -1.26626e-05 2.69199e+25 -1.98458 -0.172368 272.041 
5.49508e-06 -1.26626e-05 2.68848e+25 -1.76613 -0.0482501 272.319 
7.40642e-06 -1.26626e-05 2.6895e+25 -1.59751 -0.603068 272.34 
9.31775e-06 -1.26626e-05 2.68861e+25 -0.987219 -0.692167 272.353 
1.12291e-05 -1.26626e-05 2.69171e+25 -0.612153 -0.302558 272.285 
1.31404e-05 -1.26626e-05 2.68831e+25 -0.30425 -0.497315 272.338 
1.50518e-05 -1.26626e-05 2.68731e+25 -0.203741 -0.353172 272.448 
1.69631e-05 -1.26626e-05 2.68459e+25 -0.0118964 -0.0842067 272.877 
1.67242e-06 -1.21847e-05 2.68922e+25 -2.24709 -0.182536 272.184 
3.58375e-06 -1.21847e-05 2.69134e+25 -2.24396 -0.0964327 272.065 
5.49508e-06 -1.21847e-05 2.68981e+25 -1.91137 -0.179185 272.164 
7.40642e-06 -1.21847e-05 2.68883e+25 -1.56592 -0.571012 272.285 
9.31775e-06 -1.21847e-05 2.69015e+25 -1.10529 -0.935977 272.273 
1.12291e-05 -1.21847e-05 2.69006e+25 -0.637871 -0.361457 272.135 
1.31404e-05 -1.21847e-05 2.68759e+25 -0.315845 -0.633355 272.454 
1.50518e-05 -1.21847e-05 2.68904e+25 -0.317037 -0.336769 272.338 
1.69631e-05 -1.21847e-05 2.68515e+25 0.00436196 -0.0820178 272.826 
1.67242e-06 -1.17069e-05 2.69084e+25 -2.73776 -0.105278 272.221 
3.58375e-06 -1.17069e-05 2.68949e+25 -2.51354 -0.210803 272.19 
5.49508e-06 -1.17069e-05 2.6924e+25 -2.00619 -0.297898 272.079 
7.40642e-06 -1.17069e-05 2.69124e+25 -1.52074 -0.596874 272.191 
9.31775e-06 -1.17069e-05 2.68645e+25 -1.37735 -1.00463 272.594 
1.12291e-05 -1.17069e-05 2.68943e+25 -0.905174 -0.430665 272.188 
1.31404e-05 -1.17069e-05 2.68831e+25 -0.42328 -0.787634 272.41 
1.50518e-05 -1.17069e-05 2.68763e+25 -0.282202 -0.319704 272.38 
1.69631e-05 -1.17069e-05 2.68593e+25 0.0318993 -0.0767639 272.807 
1.67242e-06 -1.12291e-05 2.6894e+25 -3.08908 -0.146951 272.172 
3.58375e-06 -1.12291e-05 2.69112e+25 -2.75553 -0.366073 272.157 
5.49508e-06 -1.12291e-05 2.69142e+25 -2.32836 -0.455435 272.193 
7.40642e-06 -1.12291e-05 2.69075e+25 -1.59192 -0.785657 272.194 
9.31775e-06 -1.12291e-05 2.68701e+25 -1.45854 -0.952343 272.513 
1.12291e-05 -1.12291e-05 2.68867e+25 -1.14956 -0.575719 272.335 
1.31404e-05 -1.12291e-05 2.6917e+25 -0.452535 -0.833272 272.15 
1.50518e-05 -1.12291e-05 2.68917e+25 -0.229348 -0.335146 272.186 
1.69631e-05 -1.12291e-05 2.68555e+25 -0.0563719 -0.127968 272.706 
1.67242e-06 -1.07512e-05 2.69095e+25 -3.42734 -0.233186 272.107 
3.58375e-06 -1.07512e-05 2.69293e+25 -3.02015 -0.387039 272.111 
5.49508e-06 -1.07512e-05 2.68987e+25 -2.79858 -0.664419 272.229 
7.40642e-06 -1.07512e-05 2.68997e+25 -1.78122 -0.953636 272.197 
9.31775e-06 -1.07512e-05 2.68785e+25 -1.83847 -0.902412 272.35 
1.12291e-05 -1.07512e-05 2.68962e+25 -1.35825 -0.924167 272.189 
1.31404e-05 -1.07512e-05 2.6901e+25 -0.40675 -0.964265 272.258 
1.50518e-05 -1.07512e-05 2.69245e+25 0.0351999 -0.369993 272.161 
1.69631e-05 -1.07512e-05 2.68575e+25 -0.0203314 -0.216276 272.732 
1.67242e-06 -1.02734e-05 2.69263e+25 -3.75624 -0.343041 272.091 
3.58375e-06 -1.02734e-05 2.68929e+25 -3.30358 -0.426495 272.263 
5.49508e-06 -1.02734e-05 2.69084e+25 -3.01656 -0.893697 272.255 
7.40642e-06 -1.02734e-05 2.69093e+25 -1.91948 -1.11811 272.28 
9.31775e-06 -1.02734e-05 2.68837e+25 -1.82193 -0.873226 272.319 
1.12291e-05 -1.02734e-05 2.69268e+25 -1.40169 -1.25049 271.914 
1.31404e-05 -1.02734e-05 2.69152e+25 -0.420832 -0.992697 272.218 
1.50518e-05 -1.02734e-05 2.69198e+25 0.0835068 -0.399099 272.111 
1.69631e-05 -1.02734e-05 2.6879e+25 0.072237 -0.124481 272.597 
1.67242e-06 -9.79558e-06 2.6914e+25 -4.05012 -0.286505 272.102 
3.58375e-06 -9.79558e-06 2.69132e+25 -3.87054 -0.499074 272.091 
5.49508e-06 -9.79558e-06 2.69128e+25 -3.21181 -1.06247 272.158 
7.40642e-06 -9.79558e-06 2.69035e+25 -2.18573 -1.24884 272.26 
9.31775e-06 -9.79558e-06 2.68861e+25 -1.67822 -0.847653 272.352 
1.12291e-05 -9.79558e-06 2.69454e+25 -1.2256 -1.48202 271.88 
1.31404e-05 -9.79558e-06 2.69069e+25 -0.395494 -1.00113 272.16 
1.50518e-05 -9.79558e-06 2.69239e+25 -0.00741495 -0.660253 272.044 
1.69631e-05 -9.79558e-06 2.68468e+25 0.0316522 -0.0293699 272.777 
1.67242e-06 -9.31775e-06 2.69103e+25 -4.29247 -0.171478 272.044 
3.58375e-06 -9.31775e-06 2.69311e+25 -4.11658 -0.717391 271.964 
5.49508e-06 -9.31775e-06 2.69093e+25 -3.18685 -1.20232 272.023 
7.40642e-06 -9.31775e-06 2.69118e+25 -2.70798 -1.48763 272.232 
9.31775e-06 -9.31775e-06 2.69087e+25 -1.76974 -0.996645 272.245 
1.12291e-05 -9.31775e-06 2.69204e+25 -1.14439 -1.53117 271.968 
1.31404e-05 -9.31775e-06 2.69042e+25 -0.554715 -1.1456 272.186 
1.50518e-05 -9.31775e-06 2.69224e+25 -0.0383151 -0.782566 271.958 
1.69631e-05 -9.31775e-06 2.68436e+25 0.0118286 0.0728757 272.794 
1.67242e-06 -8.83992e-06 2.68908e+25 -4.73139 -0.0792535 272.181 
3.58375e-06 -8.83992e-06 2.69245e+25 -4.26613 -0.943025 271.996 
5.49508e-06 -8.83992e-06 2.69101e+25 -3.66599 -1.42703 272.123 
7.40642e-06 -8.83992e-06 2.69042e+25 -2.84299 -1.72375 272.25 
9.31775e-06 -8.83992e-06 2.692e+25 -2.10229 -1.28657 272.186 
1.12291e-05 -8.83992e-06 2.69222e+25 -1.27106 -1.63227 271.985 
1.31404e-05 -8.83992e-06 2.69001e+25 -0.635063 -1.33312 272.193 
1.50518e-05 -8.83992e-06 2.69176e+25 -0.148621 -0.820049 272.014 
1.69631e-05 -8.83992e-06 2.68487e+25 0.0120951 0.147879 272.87 
1.67242e-06 -8.36208e-06 2.69066e+25 -5.04124 -0.0578689 272.082 
3.58375e-06 -8.36208e-06 2.69245e+25 -4.53153 -1.08392 272.017 
5.49508e-06 -8.36208e-06 2.68855e+25 -3.85192 -1.59035 272.317 
7.40642e-06 -8.36208e-06 2.69161e+25 -2.92979 -1.81929 272.108 
9.31775e-06 -8.36208e-06 2.69068e+25 -2.32653 -1.55067 272.145 
1.12291e-05 -8.36208e-06 2.69058e+25 -1.18696 -1.81839 272.171 
1.31404e-05 -8.36208e-06 2.69281e+25 -0.757072 -1.47951 272.02 
1.50518e-05 -8.36208e-06 2.69087e+25 -0.137867 -0.901645 272.114 
1.69631e-05 -8.36208e-06 2.68544e+25 -0.0332785 0.11806 272.697 
1.67242e-06 -7.88425e-06 2.69186e+25 -5.19712 -0.196071 272.106 
3.58375e-06 -7.88425e-06 2.69035e+25 -4.49689 -1.17836 272.168 
5.49508e-06 -7.88425e-06 2.68969e+25 -3.98869 -1.78109 272.229 
7.40642e-06 -7.88425e-06 2.69145e+25 -3.37071 -1.97465 272.067 
9.31775e-06 -7.88425e-06 2.69055e+25 -2.4161 -1.8619 272.234 
1.12291e-05 -7.88425e-06 2.69088e+25 -1.47936 -2.14949 272.145 
1.31404e-05 -7.88425e-06 2.69279e+25 -1.00603 -1.60262 272.12 
1.50518e-05 -7.88425e-06 2.69108e+25 -0.17683 -1.01837 272.142 
1.69631e-05 -7.88425e-06 2.68597e+25 -0.0620835 -0.0111949 272.777 
1.67242e-06 -7.40642e-06 2.68976e+25 -5.1598 -0.266908 272.135 
3.58375e-06 -7.40642e-06 2.68897e+25 -4.67666 -1.25671 272.285 
5.49508e-06 -7.40642e-06 2.6917e+25 -4.14826 -1.99025 272.038 
7.40642e-06 -7.40642e-06 2.692e+25 -3.72119 -2.217 272.103 
9.31775e-06 -7.40642e-06 2.69201e+25 -2.71262 -2.13245 272.017 
1.12291e-05 -7.40642e-06 2.69197e+25 -1.6362 -2.39291 272.045 
1.31404e-05 -7.40642e-06 2.69156e+25 -0.969679 -1.75415 272.065 
1.50518e-05 -7.40642e-06 2.6909e+25 -0.309953 -1.11357 272.065 
1.69631e-05 -7.40642e-06 2.6841e+25 0.0443682 -0.063224 272.708 
1.67242e-06 -6.92858e-06 2.69073e+25 -5.47079 -0.322255 272.093 
3.58375e-06 -6.92858e-06 2.69143e+25 -5.1587 -1.38132 272.188 
5.49508e-06 -6.92858e-06 2.69161e+25 -4.46154 -2.08349 272.053 
7.40642e-06 -6.92858e-06 2.69029e+25 -3.99209 -2.44999 272.184 
9.31775e-06 -6.92858e-06 2.69257e+25 -2.96291 -2.40706 271.995 
1.12291e-05 -6.92858e-06 2.69352e+25 -1.72444 -2.62545 271.946 
1.31404e-05 -6.92858e-06 2.69154e+25 -0.999764 -1.80032 271.997 
1.50518e-05 -6.92858e-06 2.68919e+25 -0.344645 -1.18099 272.265 
1.69631e-05 -6.92858e-06 2.68493e+25 0.0486841 0.0577141 272.757 
1.67242e-06 -6.45075e-06 2.69287e+25 -5.61828 -0.486211 272.118 
3.58375e-06 -6.45075e-06 2.69107e+25 -5.61958 -1.50331 272.012 
5.49508e-06 -6.45075e-06 2.69154e+25 -5.07336 -2.26121 272.067 
7.40642e-06 -6.45075e-06 2.68973e+25 -4.19281 -2.64298 272.218 
9.31775e-06 -6.45075e-06 2.69177e+25 -2.97823 -2.75977 272.099 
1.12291e-05 -6.45075e-06 2.69504e+25 -1.94453 -2.8599 271.812 
1.31404e-05 -6.45075e-06 2.69097e+25 -1.25313 -1.98057 272.148 
1.50518e-05 -6.45075e-06 2.68894e+25 -0.484917 -1.24296 272.299 
1.69631e-05 -6.45075e-06 2.68516e+25 -0.0516416 0.0240224 272.804 
1.67242e-06 -5.97292e-06 2.69288e+25 -5.73587 -0.594705 272.122 
3.58375e-06 -5.97292e-06 2.69038e+25 -5.84969 -1.49703 272.219 
5.49508e-06 -5.97292e-06 2.69266e+25 -5.32233 -2.48287 272.089 
7.40642e-06 -5.97292e-06 2.68939e+25 -4.55546 -2.94407 272.187 
9.31775e-06 -5.97292e-06 2.69248e+25 -3.21888 -3.07486 271.943 
1.12291e-05 -5.97292e-06 2.69281e+25 -2.15488 -2.9644 271.972 
1.31404e-05 -5.97292e-06 2.69051e+25 -1.22426 -2.27327 272.192 
1.50518e-05 -5.97292e-06 2.69026e+25 -0.661089 -1.4795 272.168 
1.69631e-05 -5.97292e-06 2.68365e+25 -0.0387516 -0.0753047 272.901 
1.67242e-06 -5.49508e-06 2.6907e+25 -5.86671 -0.605814 272.173 
3.58375e-06 -5.49508e-06 2.69115e+25 -5.88874 -1.59825 272.165 
5.49508e-06 -5.49508e-06 2.69101e+25 -5.52448 -2.64382 272.277 
7.40642e-06 -5.49508e-06 2.68891e+25 -4.83436 -3.3052 272.157 
9.31775e-06 -5.49508e-06 2.69227e+25 -3.49943 -3.50796 272.014 
1.12291e-05 -5.49508e-06 2.69063e+25 -2.37893 -3.22579 272.068 
1.31404e-05 -5.49508e-06 2.6906e+25 -1.29309 -2.53506 272.189 
1.50518e-05 -5.49508e-06 2.69127e+25 -0.630555 -1.6367 272.107 
1.69631e-05 -5.49508e-06 2.68624e+25 -0.0321948 -0.133639 272.77 
1.67242e-06 -5.01725e-06 2.69015e+25 -6.25391 -0.720625 272.171 
3.58375e-06 -5.01725e-06 2.69168e+25 -6.16021 -1.64214 272.044 
5.49508e-06 -5.01725e-06 2.68975e+25 -5.59456 -2.78208 272.252 
7.40642e-06 -5.01725e-06 2.68743e+25 -4.83941 -3.48484 272.436 
9.31775e-06 -5.01725e-06 2.69076e+25 -3.69116 -3.90773 272.209 
1.12291e-05 -5.01725e-06 2.69009e+25 -2.61242 -3.50808 272.243 
1.31404e-05 -5.01725e-06 2.69048e+25 -1.35064 -2.77956 272.219 
1.50518e-05 -5.01725e-06 2.69064e+25 -0.390934 -1.78016 272.129 
1.69631e-05 -5.01725e-06 2.68565e+25 -0.00900087 -0.173536 272.706 
1.67242e-06 -4.53942e-06 2.69092e+25 -6.47136 -0.815664 272.284 
3.58375e-06 -4.53942e-06 2.69094e+25 -6.37095 -1.61981 272.036 
5.49508e-06 -4.53942e-06 2.68738e+25 -6.01675 -2.86658 272.369 
7.40642e-06 -4.53942e-06 2.68738e+25 -4.97709 -3.63882 272.383 
9.31775e-06 -4.53942e-06 2.69224e+25 -4.00315 -4.16364 272.029 
1.12291e-05 -4.53942e-06 2.69084e+25 -2.70329 -3.80071 272.154 
1.31404e-05 -4.53942e-06 2.68974e+25 -1.27986 -3.03553 272.253 
1.50518e-05 -4.53942e-06 2.69278e+25 -0.275185 -1.96741 271.976 
1.69631e-05 -4.53942e-06 2.68416e+25 0.0240246 -0.162979 272.818 
1.67242e-06 -4.06158e-06 2.68862e+25 -6.81581 -0.713028 272.388 
3.58375e-06 -4.06158e-06 2.69058e+25 -6.86953 -1.6556 272.118 
5.49508e-06 -4.06158e-06 2.69029e+25 -6.37679 -2.9866 272.24 
7.40642e-06 -4.06158e-06 2.68986e+25 -5.4654 -3.83597 272.229 
9.31775e-06 -4.06158e-06 2.69109e+25 -4.36419 -4.51806 272.171 
1.12291e-05 -4.06158e-06 2.68871e+25 -2.63441 -4.14256 272.312 
1.31404e-05 -4.06158e-06 2.68936e+25 -1.36078 -3.39193 272.393 
1.50518e-05 -4.06158e-06 2.69168e+25 -0.132432 -2.19315 271.972 
1.69631e-05 -4.06158e-06 2.68489e+25 -0.012137 -0.136518 272.72 
1.67242e-06 -3.58375e-06 2.68873e+25 -7.11644 -0.519034 272.154 
3.58375e-06 -3.58375e-06 2.68887e+25 -7.27598 -1.75798 272.105 
5.49508e-06 -3.58375e-06 2.69319e+25 -6.71747 -3.09666 272.048 
7.40642e-06 -3.58375e-06 2.69137e+25 -5.889 -4.13573 272.117 
9.31775e-06 -3.58375e-06 2.69247e+25 -4.50959 -4.87065 272.084 
1.12291e-05 -3.58375e-06 2.68922e+25 -2.76437 -4.51553 272.395 
1.31404e-05 -3.58375e-06 2.68702e+25 -1.39093 -3.77444 272.541 
1.50518e-05 -3.58375e-06 2.69144e+25 -0.240676 -2.32724 272.01 
1.69631e-05 -3.58375e-06 2.68567e+25 -0.0611779 -0.230373 272.639 
1.67242e-06 -3.10592e-06 2.68938e+25 -7.38974 -0.400051 272.233 
3.58375e-06 -3.10592e-06 2.68906e+25 -7.5382 -1.9552 272.167 
5.49508e-06 -3.10592e-06 2.69181e+25 -6.95956 -3.3499 271.999 
7.40642e-06 -3.10592e-06 2.68856e+25 -6.38442 -4.32076 272.208 
9.31775e-06 -3.10592e-06 2.69178e+25 -4.65227 -5.31378 272.032 
1.12291e-05 -3.10592e-06 2.6877e+25 -3.0089 -4.95312 272.523 
1.31404e-05 -3.10592e-06 2.68712e+25 -1.34192 -4.11366 272.483 
1.50518e-05 -3.10592e-06 2.69197e+25 -0.233927 -2.46036 272.003 
1.69631e-05 -3.10592e-06 2.68376e+25 -0.0556255 -0.340195 272.69 
1.67242e-06 -2.62808e-06 2.69034e+25 -7.48509 -0.364056 272.074 
3.58375e-06 -2.62808e-06 2.68765e+25 -7.77619 -2.09091 272.315 
5.49508e-06 -2.62808e-06 2.69098e+25 -7.28943 -3.58758 272.078 
7.40642e-06 -2.62808e-06 2.68928e+25 -6.72846 -4.58839 272.28 
9.31775e-06 -2.62808e-06 2.69264e+25 -4.94627 -5.64333 271.861 
1.12291e-05 -2.62808e-06 2.68899e+25 -3.34193 -5.37296 272.328 
1.31404e-05 -2.62808e-06 2.69066e+25 -1.52887 -4.53837 272.212 
1.50518e-05 -2.62808e-06 2.69127e+25 -0.296875 -2.66467 272.044 
1.69631e-05 -2.62808e-06 2.68384e+25 -0.0223097 -0.409467 272.86 
1.67242e-06 -2.15025e-06 2.69025e+25 -7.66125 -0.297758 271.917 
3.58375e-06 -2.15025e-06 2.68882e+25 -7.67072 -2.07233 272.297 
5.49508e-06 -2.15025e-06 2.69123e+25 -7.58237 -3.62133 272.147 
7.40642e-06 -2.15025e-06 2.68777e+25 -6.919 -4.84822 272.392 
9.31775e-06 -2.15025e-06 2.69489e+25 -5.27153 -6.07676 271.973 
1.12291e-05 -2.15025e-06 2.68989e+25 -3.51854 -5.83656 272.267 
1.31404e-05 -2.15025e-06 2.69057e+25 -1.64515 -4.88914 272.148 
1.50518e-05 -2.15025e-06 2.68984e+25 -0.294498 -2.97475 272.214 
1.69631e-05 -2.15025e-06 2.68363e+25 0.0602353 -0.346622 272.83 
1.67242e-06 -1.67242e-06 2.69218e+25 -7.79565 -0.220769 271.89 
3.58375e-06 -1.67242e-06 2.68576e+25 -7.76867 -2.13184 272.48 
5.49508e-06 -1.67242e-06 2.68967e+25 -7.69133 -3.81019 272.046 
7.40642e-06 -1.67242e-06 2.68731e+25 -6.97941 -5.09664 272.382 
9.31775e-06 -1.67242e-06 2.6922e+25 -5.47081 -6.53973 271.986 
1.12291e-05 -1.67242e-06 2.68936e+25 -3.6701 -6.3406 272.353 
1.31404e-05 -1.67242e-06 2.69129e+25 -1.86393 -5.21943 272.015 
1.50518e-05 -1.67242e-06 2.6925e+25 -0.38463 -3.30074 272.013 
1.69631e-05 -1.67242e-06 2.68588e+25 -0.0292363 -0.34403 272.666 
1.67242e-06 -1.19458e-06 2.69134e+25 -7.84362 -0.117778 271.831 
3.58375e-06 -1.19458e-06 2.6881e+25 -7.77842 -2.09147 272.407 
5.49508e-06 -1.19458e-06 2.69011e+25 -7.83394 -3.8077 272.057 
7.40642e-06 -1.19458e-06 2.69004e+25 -6.86263 -5.41852 272.101 
9.31775e-06 -1.19458e-06 2.69216e+25 -5.81612 -6.92363 272.123 
1.12291e-05 -1.19458e-06 2.69084e+25 -3.83455 -6.80306 272.156 
1.31404e-05 -1.19458e-06 2.69328e+25 -2.03817 -5.65579 271.964 
1.50518e-05 -1.19458e-06 2.69088e+25 -0.745676 -3.62545 271.984 
1.69631e-05 -1.19458e-06 2.68466e+25 0.0590634 -0.330419 272.708 
1.67242e-06 -7.1675e-07 2.69168e+25 -7.76316 -0.0299096 271.785 
3.58375e-06 -7.1675e-07 2.68948e+25 -7.8454 -1.98411 272.264 
5.49508e-06 -7.1675e-07 2.68925e+25 -7.85466 -3.76586 272.233 
7.40642e-06 -7.1675e-07 2.68947e+25 -7.0081 -5.86472 272.082 
9.31775e-06 -7.1675e-07 2.6936e+25 -6.01887 -7.3817 271.967 
1.12291e-05 -7.1675e-07 2.69131e+25 -4.08494 -7.30466 272.114 
1.31404e-05 -7.1675e-07 2.69294e+25 -2.24473 -6.14082 272.021 
1.50518e-05 -7.1675e-07 2.69143e+25 -1.00854 -3.86054 272.104 
1.69631e-05 -7.1675e-07 2.68652e+25 -0.0105146 -0.270156 272.672 
1.67242e-06 -2.38917e-07 2.68945e+25 -7.74701 0.0990327 271.752 
3.58375e-06 -2.38917e-07 2.68683e+25 -8.05124 -1.9949 272.261 
5.49508e-06 -2.38917e-07 2.68619e+25 -7.72806 -3.80815 272.277 
7.40642e-06 -2.38917e-07 2.68749e+25 -7.25178 -6.1099 272.103 
9.31775e-06 -2.38917e-07 2.6889e+25 -6.12595 -7.83246 272.096 
1.12291e-05 -2.38917e-07 2.68965e+25 -4.47994 -7.75508 272.185 
1.31404e-05 -2.38917e-07 2.68948e+25 -2.57396 -6.60477 272.129 
1.50518e-05 -2.38917e-07 2.69172e+25 -1.05847 -4.15234 271.983 
1.69631e-05 -2.38917e-07 2.68376e+25 -0.0164068 -0.322929 272.638 
1.67242e-06 2.38917e-07 2.68836e+25 -8.02065 0.134682 271.933 
3.58375e-06 2.38917e-07 2.68855e+25 -8.26223 -2.20249 272.027 
5.49508e-06 2.38917e-07 2.68645e+25 -7.67518 -3.88122 272.213 
7.40642e-06 2.38917e-07 2.68951e+25 -7.27286 -6.19221 272.072 
9.31775e-06 2.38917e-07 2.6873e+25 -6.09425 -8.13615 272.255 
1.12291e-05 2.38917e-07 2.68899e+25 -4.63405 -8.14906 272.112 
1.31404e-05 2.38917e-07 2.68686e+25 -2.69716 -7.20931 272.268 
1.50518e-05 2.38917e-07 2.69103e+25 -0.812785 -4.50429 271.995 
1.69631e-05 2.38917e-07 2.68184e+25 -0.0706885 -0.434327 272.73 
1.67242e-06 7.1675e-07 2.69055e+25 -7.93564 0.177426 271.878 
3.58375e-06 7.1675e-07 2.68943e+25 -8.21307 -2.21816 272.017 
5.49508e-06 7.1675e-07 2.68846e+25 -7.77679 -3.99676 272.179 
7.40642e-06 7.1675e-07 2.68898e+25 -7.28363 -6.17757 272.158 
9.31775e-06 7.1675e-07 2.69168e+25 -6.38749 -8.44712 272.166 
1.12291e-05 7.1675e-07 2.69091e+25 -4.8514 -8.65819 272.141 
1.31404e-05 7.1675e-07 2.68884e+25 -2.93187 -7.7268 272.354 
1.50518e-05 7.1675e-07 2.68933e+25 -0.878369 -4.83692 272.155 
1.69631e-05 7.1675e-07 2.68271e+25 -0.068143 -0.53419 272.832 
1.67242e-06 1.19458e-06 2.68973e+25 -7.75092 0.405801 271.92 
3.58375e-06 1.19458e-06 2.69076e+25 -8.21505 -2.12369 271.963 
5.49508e-06 1.19458e-06 2.6884e+25 -8.0342 -4.1601 272.28 
7.40642e-06 1.19458e-06 2.69067e+25 -7.26851 -6.392 272.118 
9.31775e-06 1.19458e-06 2.68873e+25 -6.47593 -8.85943 272.285 
1.12291e-05 1.19458e-06 2.69204e+25 -5.03585 -9.05686 272.087 
1.31404e-05 1.19458e-06 2.68871e+25 -2.77115 -8.18234 272.316 
1.50518e-05 1.19458e-06 2.69041e+25 -1.0176 -5.059 272.136 
1.69631e-05 1.19458e-06 2.68232e+25 -0.0228841 -0.629804 272.884 
1.67242e-06 1.67242e-06 2.68769e+25 -7.5221 0.612855 272.094 
3.58375e-06 1.67242e-06 2.69094e+25 -8.1569 -2.08917 271.903 
5.49508e-06 1.67242e-06 2.68951e+25 -8.15928 -4.39436 272.075 
7.40642e-06 1.67242e-06 2.68719e+25 -7.37785 -6.65809 272.263 
9.31775e-06 1.67242e-06 2.68784e+25 -6.65004 -9.10346 272.249 
1.12291e-05 1.67242e-06 2.68954e+25 -5.15959 -9.60615 272.212 
1.31404e-05 1.67242e-06 2.68706e+25 -3.02796 -8.72593 272.359 
1.50518e-05 1.67242e-06 2.68865e+25 -1.12398 -5.48003 272.307 
1.69631e-05 1.67242e-06 2.68329e+25 -0.00653979 -0.709942 272.965 
1.67242e-06 2.15025e-06 2.68831e+25 -7.29657 0.889684 272.055 
3.58375e-06 2.15025e-06 2.6898e+25 -8.1537 -1.97357 272.008 
5.49508e-06 2.15025e-06 2.68872e+25 -8.20168 -4.45705 272.055 
7.40642e-06 2.15025e-06 2.6866e+25 -7.56103 -6.82153 272.237 
9.31775e-06 2.15025e-06 2.68654e+25 -6.76575 -9.23999 272.335 
1.12291e-05 2.15025e-06 2.68983e+25 -5.32086 -10.1935 272.169 
1.31404e-05 2.15025e-06 2.68978e+25 -3.25364 -9.19042 272.18 
1.50518e-05 2.15025e-06 2.69103e+25 -1.11665 -6.01162 272.167 
1.69631e-05 2.15025e-06 2.68396e+25 -0.0708841 -0.80156 272.846 
1.67242e-06 2.62808e-06 2.68928e+25 -7.01366 1.12771 272.01 
3.58375e-06 2.62808e-06 2.69016e+25 -7.84785 -1.8523 271.864 
5.49508e-06 2.62808e-06 2.69005e+25 -7.96848 -4.52346 271.994 
7.40642e-06 2.62808e-06 2.68732e+25 -7.66419 -6.92453 272.105 
9.31775e-06 2.62808e-06 2.68583e+25 -6.90962 -9.39725 272.445 
1.12291e-05 2.62808e-06 2.68967e+25 -5.65938 -10.6346 272.223 
1.31404e-05 2.62808e-06 2.68967e+25 -3.57009 -9.69082 272.097 
1.50518e-05 2.62808e-06 2.69127e+25 -1.34058 -6.55458 272.182 
1.69631e-05 2.62808e-06 2.68306e+25 0.0395432 -0.846851 272.875 
1.67242e-06 3.10592e-06 2.68838e+25 -6.63019 1.3502 271.923 
3.58375e-06 3.10592e-06 2.68689e+25 -7.4826 -1.67661 272.104 
5.49508e-06 3.10592e-06 2.6898e+25 -7.88043 -4.61945 271.972 
7.40642e-06 3.10592e-06 2.68911e+25 -7.70519 -6.99724 272.067 
9.31775e-06 3.10592e-06 2.6881e+25 -7.09442 -9.48737 272.289 
1.12291e-05 3.10592e-06 2.68918e+25 -5.78593 -11.107 272.182 
1.31404e-05 3.10592e-06 2.69193e+25 -3.7596 -10.2455 272.012 
1.50518e-05 3.10592e-06 2.69112e+25 -1.27688 -6.99606 272.169 
1.69631e-05 3.10592e-06 2.68397e+25 -0.0381385 -0.855658 272.8 
1.67242e-06 3.58375e-06 2.68998e+25 -6.27506 1.56993 271.893 
3.58375e-06 3.58375e-06 2.68715e+25 -7.07262 -1.46236 272.148 
5.49508e-06 3.58375e-06 2.68674e+25 -7.81899 -4.63977 272.189 
7.40642e-06 3.58375e-06 2.6858e+25 -7.62677 -7.1622 272.265 
9.31775e-06 3.58375e-06 2.68868e+25 -7.27783 -9.6121 272.266 
1.12291e-05 3.58375e-06 2.6891e+25 -5.97583 -11.6666 272.295 
1.31404e-05 3.58375e-06 2.6917e+25 -3.89984 -10.9805 272.014 
1.50518e-05 3.58375e-06 2.69205e+25 -1.36973 -7.56116 272.014 
1.69631e-05 3.58375e-06 2.68565e+25 -0.0195545 -0.907862 272.825 
1.67242e-06 4.06158e-06 2.68834e+25 -5.66918 1.71318 272.038 
3.58375e-06 4.06158e-06 2.68725e+25 -6.48246 -1.20761 272.265 
5.49508e-06 4.06158e-06 2.68552e+25 -7.29253 -4.54649 272.305 
7.40642e-06 4.06158e-06 2.68637e+25 -7.42368 -7.13716 272.311 
9.31775e-06 4.06158e-06 2.68821e+25 -7.19877 -9.83529 272.28 
1.12291e-05 4.06158e-06 2.69149e+25 -6.13455 -12.0044 272.067 
1.31404e-05 4.06158e-06 2.69052e+25 -3.97724 -11.6648 272.138 
1.50518e-05 4.06158e-06 2.69083e+25 -1.41654 -8.13358 272.081 
1.69631e-05 4.06158e-06 2.68664e+25 -0.0271657 -0.981687 272.852 
1.67242e-06 4.53942e-06 2.68699e+25 -5.26394 1.68887 272.04 
3.58375e-06 4.53942e-06 2.68513e+25 -5.84533 -0.922385 272.297 
5.49508e-06 4.53942e-06 2.68399e+25 -6.68975 -4.34741 272.383 
7.40642e-06 4.53942e-06 2.68777e+25 -7.13598 -7.14546 272.223 
9.31775e-06 4.53942e-06 2.68645e+25 -7.0601 -10.0565 272.263 
1.12291e-05 4.53942e-06 2.69024e+25 -6.16397 -12.3077 272.148 
1.31404e-05 4.53942e-06 2.69174e+25 -3.98585 -12.3521 272.031 
1.50518e-05 4.53942e-06 2.69096e+25 -1.32798 -8.71845 272.172 
1.69631e-05 4.53942e-06 2.6844e+25 -0.0732717 -1.12275 272.807 
1.67242e-06 5.01725e-06 2.68724e+25 -4.78406 1.78257 272.19 
3.58375e-06 5.01725e-06 2.68655e+25 -5.32037 -0.742536 272.185 
5.49508e-06 5.01725e-06 2.68688e+25 -6.1181 -4.12437 272.35 
7.40642e-06 5.01725e-06 2.68722e+25 -6.87001 -7.10069 272.273 
9.31775e-06 5.01725e-06 2.6862e+25 -6.87393 -10.2179 272.317 
1.12291e-05 5.01725e-06 2.68839e+25 -6.07238 -12.5545 272.216 
1.31404e-05 5.01725e-06 2.69197e+25 -3.97902 -12.9589 272.093 
1.50518e-05 5.01725e-06 2.69087e+25 -1.47985 -9.20137 272.297 
1.69631e-05 5.01725e-06 2.68582e+25 -0.0784319 -1.27684 272.753 
1.67242e-06 5.49508e-06 2.68812e+25 -4.18466 1.95668 272.038 
3.58375e-06 5.49508e-06 2.68722e+25 -4.69427 -0.657148 272.059 
5.49508e-06 5.49508e-06 2.68522e+25 -5.72271 -3.98965 272.323 
7.40642e-06 5.49508e-06 2.68667e+25 -6.59163 -6.99565 272.276 
9.31775e-06 5.49508e-06 2.68771e+25 -6.84354 -10.3913 272.288 
1.12291e-05 5.49508e-06 2.68863e+25 -5.67384 -12.9198 272.174 
1.31404e-05 5.49508e-06 2.68931e+25 -3.95145 -13.4801 272.16 
1.50518e-05 5.49508e-06 2.69027e+25 -1.49874 -9.72789 272.283 
1.69631e-05 5.49508e-06 2.68644e+25 -0.0401892 -1.37358 272.619 
1.67242e-06 5.97292e-06 2.68939e+25 -3.42665 2.08984 271.899 
3.58375e-06 5.97292e-06 2.68618e+25 -4.1128 -0.467874 272.061 
5.49508e-06 5.97292e-06 2.6843e+25 -5.16319 -3.59126 272.231 
7.40642e-06 5.97292e-06 2.68738e+25 -6.09486 -6.89519 272.189 
9.31775e-06 5.97292e-06 2.68854e+25 -6.31859 -10.4674 272.199 
1.12291e-05 5.97292e-06 2.68987e+25 -5.61536 -13.3492 272.177 
1.31404e-05 5.97292e-06 2.6908e+25 -3.68357 -14.0624 272.182 
1.50518e-05 5.97292e-06 2.68868e+25 -1.64842 -10.3976 272.274 
1.69631e-05 5.97292e-06 2.68539e+25 -0.0191202 -1.43693 272.662 
1.67242e-06 6.45075e-06 2.68589e+25 -2.87932 2.15095 272.027 
3.58375e-06 6.45075e-06 2.68608e+25 -3.35134 -0.212181 272.13 
5.49508e-06 6.45075e-06 2.68442e+25 -4.29081 -3.1347 272.282 
7.40642e-06 6.45075e-06 2.68634e+25 -5.54648 -6.80821 272.128 
9.31775e-06 6.45075e-06 2.68944e+25 -5.94415 -10.5211 271.985 
1.12291e-05 6.45075e-06 2.69015e+25 -5.47272 -13.5968 272.147 
1.31404e-05 6.45075e-06 2.68928e+25 -4.05236 -14.5942 272.262 
1.50518e-05 6.45075e-06 2.69036e+25 -1.53244 -10.9702 272.359 
1.69631e-05 6.45075e-06 2.68397e+25 -0.0134246 -1.55124 272.863 
1.67242e-06 6.92858e-06 2.68843e+25 -2.19151 2.23294 272.029 
3.58375e-06 6.92858e-06 2.68488e+25 -2.77283 0.0712 272.141 
5.49508e-06 6.92858e-06 2.68519e+25 -3.6212 -2.79926 272.232 
7.40642e-06 6.92858e-06 2.68682e+25 -4.80523 -6.58825 272.101 
9.31775e-06 6.92858e-06 2.68818e+25 -5.49355 -10.4222 272.151 
1.12291e-05 6.92858e-06 2.68843e+25 -5.27014 -13.7081 272.273 
1.31404e-05 6.92858e-06 2.69105e+25 -4.19699 -15.1155 272.243 
1.50518e-05 6.92858e-06 2.69271e+25 -1.63324 -11.4329 272.063 
1.69631e-05 6.92858e-06 2.68414e+25 -0.0946612 -1.6566 272.849 
1.67242e-06 7.40642e-06 2.68797e+25 -1.26967 2.17556 272.048 
3.58375e-06 7.40642e-06 2.68557e+25 -1.98732 0.314935 272.197 
5.49508e-06 7.40642e-06 2.68642e+25 -2.65752 -2.59482 272.207 
7.40642e-06 7.40642e-06 2.68637e+25 -3.8514 -6.3409 272.26 
9.31775e-06 7.40642e-06 2.68702e+25 -4.64998 -10.2959 272.257 
1.12291e-05 7.40642e-06 2.68879e+25 -5.09189 -13.7521 272.375 
1.31404e-05 7.40642e-06 2.69093e+25 -4.09743 -15.7153 272.198 
1.50518e-05 7.40642e-06 2.69112e+25 -1.90779 -12.0568 272.213 
1.69631e-05 7.40642e-06 2.6853e+25 -0.119218 -1.89673 272.809 
1.67242e-06 7.88425e-06 2.68572e+25 -0.599256 2.15473 272.13 
3.58375e-06 7.88425e-06 2.68523e+25 -0.953941 0.426565 272.154 
5.49508e-06 7.88425e-06 2.68487e+25 -1.72527 -2.45776 272.355 
7.40642e-06 7.88425e-06 2.68325e+25 -2.80372 -6.01461 272.443 
9.31775e-06 7.88425e-06 2.68575e+25 -3.81014 -10.0367 272.434 
1.12291e-05 7.88425e-06 2.68866e+25 -4.86851 -13.8322 272.251 
1.31404e-05 7.88425e-06 2.69185e+25 -4.10775 -16.1836 272.124 
1.50518e-05 7.88425e-06 2.69331e+25 -1.84233 -12.7171 272.287 
1.69631e-05 7.88425e-06 2.68639e+25 -0.0379226 -2.08849 272.751 
1.67242e-06 8.36208e-06 2.68688e+25 -0.052122 2.16361 271.937 
3.58375e-06 8.36208e-06 2.68446e+25 -0.0406464 0.429083 272.294 
5.49508e-06 8.36208e-06 2.68445e+25 -0.715156 -2.39155 272.428 
7.40642e-06 8.36208e-06 2.68589e+25 -1.8019 -5.61212 272.286 
9.31775e-06 8.36208e-06 2.68579e+25 -3.26918 -9.61974 272.365 
1.12291e-05 8.36208e-06 2.69135e+25 -4.53218 -13.6976 272.22 
1.31404e-05 8.36208e-06 2.69163e+25 -4.22874 -16.5716 272.248 
1.50518e-05 8.36208e-06 2.69164e+25 -2.01648 -13.2597 272.274 
1.69631e-05 8.36208e-06 2.68535e+25 -0.0219316 -2.18967 272.849 
1.67242e-06 8.83992e-06 2.6888e+25 0.762114 2.18232 271.824 
3.58375e-06 8.83992e-06 2.68665e+25 0.871613 0.433404 272.153 
5.49508e-06 8.83992e-06 2.68641e+25 0.311826 -2.25803 272.252 
7.40642e-06 8.83992e-06 2.68588e+25 -0.749673 -5.24178 272.265 
9.31775e-06 8.83992e-06 2.68803e+25 -2.41459 -9.13462 272.296 
1.12291e-05 8.83992e-06 2.68841e+25 -3.92554 -13.4493 272.332 
1.31404e-05 8.83992e-06 2.69174e+25 -4.1628 -16.8391 272.361 
1.50518e-05 8.83992e-06 2.692e+25 -2.13384 -13.9277 272.368 
1.69631e-05 8.83992e-06 2.68711e+25 -0.0677563 -2.2626 272.771 
1.67242e-06 9.31775e-06 2.68603e+25 1.55436 2.30349 271.971 
3.58375e-06 9.31775e-06 2.6846e+25 1.68017 0.406225 272.206 
5.49508e-06 9.31775e-06 2.68396e+25 1.48381 -2.03325 272.265 
7.40642e-06 9.31775e-06 2.68374e+25 0.227186 -4.94137 272.395 
9.31775e-06 9.31775e-06 2.68671e+25 -1.44788 -8.794 272.371 
1.12291e-05 9.31775e-06 2.69009e+25 -3.12308 -13.1146 272.262 
1.31404e-05 9.31775e-06 2.69083e+25 -3.95334 -16.9393 272.401 
1.50518e-05 9.31775e-06 2.69399e+25 -2.1754 -14.5909 272.373 
1.69631e-05 9.31775e-06 2.68674e+25 -0.103743 -2.48249 272.932 
1.67242e-06 9.79558e-06 2.68612e+25 2.82196 2.23256 271.975 
3.58375e-06 9.79558e-06 2.6847e+25 2.86806 0.456124 272.189 
5.49508e-06 9.79558e-06 2.68368e+25 2.63395 -1.7966 272.325 
7.40642e-06 9.79558e-06 2.68639e+25 1.6351 -4.55942 272.173 
9.31775e-06 9.79558e-06 2.68858e+25 -0.230691 -8.47938 272.23 
1.12291e-05 9.79558e-06 2.68987e+25 -2.38686 -12.5059 272.128 
1.31404e-05 9.79558e-06 2.68924e+25 -3.64882 -16.8983 272.521 
1.50518e-05 9.79558e-06 2.69209e+25 -2.28542 -15.2223 272.468 
1.69631e-05 9.79558e-06 2.68822e+25 -0.0949568 -2.7258 272.812 
1.67242e-06 1.02734e-05 2.6883e+25 3.92445 2.12749 271.917 
3.58375e-06 1.02734e-05 2.68465e+25 4.06087 0.517788 272.239 
5.49508e-06 1.02734e-05 2.68351e+25 3.82905 -1.58486 272.38 
7.40642e-06 1.02734e-05 2.68609e+25 2.85643 -4.22883 272.215 
9.31775e-06 1.02734e-05 2.68736e+25 1.00123 -7.92198 272.359 
1.12291e-05 1.02734e-05 2.68979e+25 -1.53514 -11.9094 272.249 
1.31404e-05 1.02734e-05 2.69022e+25 -3.19019 -16.8752 272.667 
1.50518e-05 1.02734e-05 2.69268e+25 -2.04775 -15.9617 272.459 
1.69631e-05 1.02734e-05 2.68809e+25 -0.0832858 -2.91874 272.915 
1.67242e-06 1.07512e-05 2.68717e+25 5.14109 2.03466 271.902 
3.58375e-06 1.07512e-05 2.68719e+25 5.43869 0.523743 272.122 
5.49508e-06 1.07512e-05 2.68346e+25 4.97969 -1.36097 272.453 
7.40642e-06 1.07512e-05 2.68758e+25 4.10028 -3.91148 272.082 
9.31775e-06 1.07512e-05 2.68732e+25 2.08876 -7.2499 272.259 
1.12291e-05 1.07512e-05 2.69067e+25 -0.580439 -11.3006 272.296 
1.31404e-05 1.07512e-05 2.68972e+25 -2.60378 -16.6032 272.58 
1.50518e-05 1.07512e-05 2.69679e+25 -2.01424 -16.5194 272.238 
1.69631e-05 1.07512e-05 2.68904e+25 -0.0740202 -3.1016 272.895 
1.67242e-06 1.12291e-05 2.68692e+25 6.40026 1.80428 272.058 
3.58375e-06 1.12291e-05 2.68737e+25 6.82124 0.577172 272.127 
5.49508e-06 1.12291e-05 2.68497e+25 6.39762 -1.29483 272.309 
7.40642e-06 1.12291e-05 2.68534e+25 5.59404 -3.49962 272.203 
9.31775e-06 1.12291e-05 2.68601e+25 3.57642 -6.63937 272.512 
1.12291e-05 1.12291e-05 2.69027e+25 0.511058 -10.6743 272.259 
1.31404e-05 1.12291e-05 2.69183e+25 -1.9725 -16.1559 272.537 
1.50518e-05 1.12291e-05 2.69678e+25 -2.10883 -17.0622 272.276 
1.69631e-05 1.12291e-05 2.69238e+25 -0.0778638 -3.27229 272.816 
1.67242e-06 1.17069e-05 2.68839e+25 7.70284 1.67282 271.994 
3.58375e-06 1.17069e-05 2.68753e+25 8.30181 0.542783 272.098 
5.49508e-06 1.17069e-05 2.68614e+25 7.8408 -1.30061 272.182 
7.40642e-06 1.17069e-05 2.68911e+25 6.89033 -3.18973 272.04 
9.31775e-06 1.17069e-05 2.68445e+25 4.85011 -5.99019 272.573 
1.12291e-05 1.17069e-05 2.69132e+25 1.58512 -9.98009 272.324 
1.31404e-05 1.17069e-05 2.69209e+25 -1.49367 -15.5885 272.427 
1.50518e-05 1.17069e-05 2.69565e+25 -2.2088 -17.4454 272.478 
1.69631e-05 1.17069e-05 2.69163e+25 -0.117166 -3.53899 273.01 
1.67242e-06 1.21847e-05 2.68811e+25 9.19887 1.51748 271.894 
3.58375e-06 1.21847e-05 2.68704e+25 9.68499 0.573709 271.959 
5.49508e-06 1.21847e-05 2.6858e+25 9.47243 -1.2255 272.177 
7.40642e-06 1.21847e-05 2.68758e+25 8.19027 -2.69592 272.137 
9.31775e-06 1.21847e-05 2.68686e+25 6.45614 -5.26759 272.394 
1.12291e-05 1.21847e-05 2.69173e+25 3.26071 -9.17862 272.348 
1.31404e-05 1.21847e-05 2.69302e+25 -0.517457 -14.9783 272.498 
1.50518e-05 1.21847e-05 2.69853e+25 -2.20023 -17.6766 272.446 
1.69631e-05 1.21847e-05 2.69404e+25 -0.0977701 -3.79967 272.994 
1.67242e-06 1.26626e-05 2.68556e+25 10.8206 1.3399 272.056 
3.58375e-06 1.26626e-05 2.68797e+25 11.2481 0.5721 271.937 
5.49508e-06 1.26626e-05 2.68627e+25 11.222 -1.02048 272.172 
7.40642e-06 1.26626e-05 2.68514e+25 10.0973 -2.24799 272.221 
9.31775e-06 1.26626e-05 2.69025e+25 8.28017 -4.56546 272.205 
1.12291e-05 1.26626e-05 2.69081e+25 5.02519 -8.21252 272.399 
1.31404e-05 1.26626e-05 2.693e+25 0.686961 -14.1015 272.51 
1.50518e-05 1.26626e-05 2.70024e+25 -2.01602 -17.8119 272.484 
1.69631e-05 1.26626e-05 2.69779e+25 -0.148006 -4.09413 272.893 
1.67242e-06 1.31404e-05 2.68679e+25 12.5182 1.31385 272.099 
3.58375e-06 1.31404e-05 2.68639e+25 13.1149 0.49283 272.022 
5.49508e-06 1.31404e-05 2.68495e+25 13.1646 -0.839733 272.25 
7.40642e-06 1.31404e-05 2.68754e+25 12.1795 -1.88493 272.214 
9.31775e-06 1.31404e-05 2.68936e+25 10.2147 -3.9725 272.166 
1.12291e-05 1.31404e-05 2.69066e+25 6.95631 -7.13824 272.443 
1.31404e-05 1.31404e-05 2.69579e+25 1.92598 -12.8418 272.515 
1.50518e-05 1.31404e-05 2.69923e+25 -2.07576 -17.7511 272.709 
1.69631e-05 1.31404e-05 2.70007e+25 -0.130476 -4.39622 272.885 
1.67242e-06 1.36182e-05 2.68584e+25 14.57 1.18685 272.158 
3.58375e-06 1.36182e-05 2.68618e+25 15.1141 0.358079 272.077 
5.49508e-06 1.36182e-05 2.68465e+25 15.147 -0.655495 272.396 
7.40642e-06 1.36182e-05 2.68496e+25 14.324 -1.60632 272.313 
9.31775e-06 1.36182e-05 2.68959e+25 12.2719 -3.33458 272.255 
1.12291e-05 1.36182e-05 2.69093e+25 8.92127 -6.14474 272.52 
1.31404e-05 1.36182e-05 2.69524e+25 3.39851 -11.3323 272.686 
1.50518e-05 1.36182e-05 2.70285e+25 -1.8925 -17.4396 272.536 
1.69631e-05 1.36182e-05 2.70211e+25 -0.224971 -4.79947 272.806 
1.67242e-06 1.40961e-05 2.68665e+25 16.7139 0.979302 272.225 
3.58375e-06 1.40961e-05 2.68489e+25 17.2766 0.118292 272.236 
5.49508e-06 1.40961e-05 2.6839e+25 17.1763 -0.365903 272.432 
7.40642e-06 1.40961e-05 2.68709e+25 16.4291 -1.42922 272.369 
9.31775e-06 1.40961e-05 2.68848e+25 14.5544 -2.65072 272.384 
1.12291e-05 1.40961e-05 2.69087e+25 11.2123 -5.02298 272.503 
1.31404e-05 1.40961e-05 2.6957e+25 5.40599 -9.58759 272.76 
1.50518e-05 1.40961e-05 2.70401e+25 -1.30413 -16.6598 272.598 
1.69631e-05 1.40961e-05 2.70633e+25 -0.227321 -5.34592 272.816 
1.67242e-06 1.45739e-05 2.68503e+25 19.162 0.868979 272.261 
3.58375e-06 1.45739e-05 2.68543e+25 19.4562 0.0576896 272.127 
5.49508e-06 1.45739e-05 2.68731e+25 19.5622 -0.108348 272.197 
7.40642e-06 1.45739e-05 2.68517e+25 18.8263 -1.14349 272.42 
9.31775e-06 1.45739e-05 2.68784e+25 16.9124 -2.11504 272.359 
1.12291e-05 1.45739e-05 2.69171e+25 13.6479 -3.8318 272.597 
1.31404e-05 1.45739e-05 2.69606e+25 7.85023 -7.64753 272.715 
1.50518e-05 1.45739e-05 2.70563e+25 -0.228334 -15.4345 272.781 
1.69631e-05 1.45739e-05 2.71153e+25 -0.300454 -5.94939 272.927 
1.67242e-06 1.50518e-05 2.68423e+25 21.7816 0.723648 272.369 
3.58375e-06 1.50518e-05 2.68598e+25 22.161 0.0589472 272.291 
5.49508e-06 1.50518e-05 2.68721e+25 21.9098 0.0286338 272.189 
7.40642e-06 1.50518e-05 2.68651e+25 21.3304 -0.939359 272.356 
9.31775e-06 1.50518e-05 2.68876e+25 19.7235 -1.61405 272.448 
1.12291e-05 1.50518e-05 2.69096e+25 16.5644 -2.76828 272.718 
1.31404e-05 1.50518e-05 2.69514e+25 10.8286 -5.70585 272.897 
1.50518e-05 1.50518e-05 2.70739e+25 1.5287 -13.5141 272.822 
1.69631e-05 1.50518e-05 2.717e+25 -0.42143 -6.71992 273.048 
1.67242e-06 1.55296e-05 2.68241e+25 24.5868 0.599544 272.512 
3.58375e-06 1.55296e-05 2.68509e+25 24.8449 0.0209136 272.271 
5.49508e-06 1.55296e-05 2.68718e+25 24.6851 0.0400665 272.262 
7.40642e-06 1.55296e-05 2.68678e+25 24.0462 -0.721989 272.359 
9.31775e-06 1.55296e-05 2.68904e+25 22.6365 -1.0505 272.311 
1.12291e-05 1.55296e-05 2.69072e+25 19.9631 -1.8121 272.652 
1.31404e-05 1.55296e-05 2.69572e+25 14.6672 -3.74928 273.021 
1.50518e-05 1.55296e-05 2.71209e+25 4.51339 -10.7573 272.749 
1.69631e-05 1.55296e-05 2.72815e+25 -0.588597 -7.76918 273.107 
1.67242e-06 1.60074e-05 2.68227e+25 27.3191 0.457893 272.638 
3.58375e-06 1.60074e-05 2.68619e+25 27.7027 0.0630471 272.249 
5.49508e-06 1.60074e-05 2.6848e+25 27.5971 -0.00809383 272.491 
7.40642e-06 1.60074e-05 2.68525e+25 27.0568 -0.359048 272.549 
9.31775e-06 1.60074e-05 2.68739e+25 25.8238 -0.462021 272.476 
1.12291e-05 1.60074e-05 2.69036e+25 23.7804 -1.01971 272.736 
1.31404e-05 1.60074e-05 2.6949e+25 19.2697 -2.04312 273.015 
1.50518e-05 1.60074e-05 2.71141e+25 9.38383 -7.25749 273.204 
1.69631e-05 1.60074e-05 2.74614e+25 -0.639358 -8.95181 273 
1.67242e-06 1.64852e-05 2.67915e+25 30.187 0.25266 272.865 
3.58375e-06 1.64852e-05 2.68416e+25 30.4452 0.0859153 272.429 
5.49508e-06 1.64852e-05 2.68233e+25 30.4725 -0.029153 272.65 
7.40642e-06 1.64852e-05 2.68413e+25 30.0545 -0.172949 272.537 
9.31775e-06 1.64852e-05 2.68686e+25 29.2544 -0.177304 272.539 
1.12291e-05 1.64852e-05 2.68983e+25 27.8576 -0.485737 272.781 
1.31404e-05 1.64852e-05 2.69329e+25 24.7379 -0.763085 273.218 
1.50518e-05 1.64852e-05 2.70984e+25 16.8364 -3.59987 273.341 
1.69631e-05 1.64852e-05 2.77145e+25 -0.0111629 -9.58418 273.242 
1.67242e-06 1.69631e-05 2.67889e+25 32.9739 0.0973263 272.969 
3.58375e-06 1.69631e-05 2.68068e+25 32.9247 0.0193251 272.81 
5.49508e-06 1.69631e-05 2.68079e+25 33.0452 -0.00833701 272.869 
7.40642e-06 1.69631e-05 2.68263e+25 32.8953 -0.0408757 272.76 
9.31775e-06 1.69631e-05 2.68458e+25 32.4556 -0.0493348 272.937 
1.12291e-05 1.69631e-05 2.68891e+25 31.8 -0.101164 272.915 
1.31404e-05 1.69631e-05 2.69328e+25 30.7203 -0.0994511 273.183 
1.50518e-05 1.69631e-05 2.7089e+25 26.7926 -0.812839 273.261 
1.69631e-05 1.69631e-05 2.85271e+25 4.08721 -6.16642 273.904 
2.38917e-07 2.38917e-07 2.68651e+25 -7.43839 1.78542 272.017 
2.15025e-06 2.38917e-07 2.6901e+25 -8.13876 -0.415829 271.812 
4.06158e-06 2.38917e-07 2.68623e+25 -8.04259 -2.51264 272.228 
5.97292e-06 2.38917e-07 2.68593e+25 -7.52329 -4.36338 272.262 
7.88425e-06 2.38917e-07 2.68738e+25 -7.20415 -6.69019 272.219 
9.79558e-06 2.38917e-07 2.68823e+25 -5.76624 -8.35571 272.13 
1.17069e-05 2.38917e-07 2.68761e+25 -4.22454 -8.04636 272.242 
1.36182e-05 2.38917e-07 2.68789e+25 -2.09521 -6.54496 272.103 
1.55296e-05 2.38917e-07 2.68796e+25 -0.563212 -3.39923 272.201 
2.38917e-07 7.1675e-07 2.68808e+25 -7.40786 1.84215 272.045 
2.15025e-06 7.1675e-07 2.69093e+25 -8.0515 -0.25017 271.989 
4.06158e-06 7.1675e-07 2.6898e+25 -8.19733 -2.69164 272.08 
5.97292e-06 7.1675e-07 2.6884e+25 -7.57735 -4.56427 272.245 
7.88425e-06 7.1675e-07 2.68933e+25 -7.1297 -6.86977 272.24 
9.79558e-06 7.1675e-07 2.69064e+25 -6.01247 -8.71704 272.075 
1.17069e-05 7.1675e-07 2.69007e+25 -4.30639 -8.4672 272.175 
1.36182e-05 7.1675e-07 2.68975e+25 -2.4252 -7.10764 272.278 
1.55296e-05 7.1675e-07 2.69015e+25 -0.514698 -3.70627 272.28 
2.38917e-07 1.19458e-06 2.68733e+25 -7.22511 2.03468 272.09 
2.15025e-06 1.19458e-06 2.69119e+25 -7.86874 -0.176913 271.878 
4.06158e-06 1.19458e-06 2.69012e+25 -8.18458 -2.76062 272.011 
5.97292e-06 1.19458e-06 2.68787e+25 -7.80587 -4.78882 272.371 
7.88425e-06 1.19458e-06 2.69036e+25 -7.06144 -6.96613 272.123 
9.79558e-06 1.19458e-06 2.68889e+25 -6.16609 -9.05817 272.225 
1.17069e-05 1.19458e-06 2.69124e+25 -4.50526 -9.07097 272.04 
1.36182e-05 1.19458e-06 2.6898e+25 -2.25671 -7.69839 272.287 
1.55296e-05 1.19458e-06 2.69049e+25 -0.741519 -4.11487 272.172 
2.38917e-07 1.67242e-06 2.68631e+25 -6.87602 2.16816 271.974 
2.15025e-06 1.67242e-06 2.68922e+25 -7.77642 -0.0793017 272.025 
4.06158e-06 1.67242e-06 2.69213e+25 -8.15815 -2.80295 271.811 
5.97292e-06 1.67242e-06 2.68853e+25 -7.97204 -5.01577 272.194 
7.88425e-06 1.67242e-06 2.68767e+25 -7.12934 -7.19393 272.36 
9.79558e-06 1.67242e-06 2.68766e+25 -6.40837 -9.33735 272.361 
1.17069e-05 1.67242e-06 2.69072e+25 -4.64683 -9.57971 272.18 
1.36182e-05 1.67242e-06 2.6896e+25 -2.50063 -8.15508 272.297 
1.55296e-05 1.67242e-06 2.6894e+25 -0.693096 -4.37403 272.209 
2.38917e-07 2.15025e-06 2.68688e+25 -6.80725 2.33892 271.993 
2.15025e-06 2.15025e-06 2.68875e+25 -7.575 0.211304 272.082 
4.06158e-06 2.15025e-06 2.69038e+25 -8.2929 -2.71733 271.954 
5.97292e-06 2.15025e-06 2.68818e+25 -8.06748 -5.2151 272.216 
7.88425e-06 2.15025e-06 2.68865e+25 -7.39442 -7.40467 272.364 
9.79558e-06 2.15025e-06 2.68788e+25 -6.55984 -9.63386 272.36 
1.17069e-05 2.15025e-06 2.69205e+25 -4.81469 -10.0523 272.045 
1.36182e-05 2.15025e-06 2.69049e+25 -2.79456 -8.62439 272.252 
1.55296e-05 2.15025e-06 2.69097e+25 -0.650183 -4.72871 272.131 
2.38917e-07 2.62808e-06 2.68859e+25 -6.44943 2.57088 271.879 
2.15025e-06 2.62808e-06 2.68925e+25 -7.26642 0.494968 272.043 
4.06158e-06 2.62808e-06 2.69112e+25 -7.99212 -2.60771 271.946 
5.97292e-06 2.62808e-06 2.68783e+25 -7.96586 -5.29345 272.163 
7.88425e-06 2.62808e-06 2.68853e+25 -7.57282 -7.61842 272.174 
9.79558e-06 2.62808e-06 2.68717e+25 -6.76999 -9.88529 272.273 
1.17069e-05 2.62808e-06 2.69115e+25 -5.15974 -10.5413 272.072 
1.36182e-05 2.62808e-06 2.69193e+25 -3.03898 -9.13886 271.979 
1.55296e-05 2.62808e-06 2.69059e+25 -0.846432 -5.18994 272.241 
2.38917e-07 3.10592e-06 2.6856e+25 -6.14825 2.77118 272.054 
2.15025e-06 3.10592e-06 2.68839e+25 -6.93672 0.799375 272.025 
4.06158e-06 3.10592e-06 2.68924e+25 -7.66102 -2.4974 272.046 
5.97292e-06 3.10592e-06 2.6886e+25 -7.91406 -5.2209 272.099 
7.88425e-06 3.10592e-06 2.68814e+25 -7.507 -7.78438 272.355 
9.79558e-06 3.10592e-06 2.68791e+25 -7.02087 -10.0017 272.296 
1.17069e-05 3.10592e-06 2.69027e+25 -5.25835 -11.1755 272.086 
1.36182e-05 3.10592e-06 2.69235e+25 -3.14465 -9.74002 272.022 
1.55296e-05 3.10592e-06 2.68791e+25 -0.852688 -5.66684 272.353 
2.38917e-07 3.58375e-06 2.68589e+25 -5.81918 2.98094 272.095 
2.15025e-06 3.58375e-06 2.68803e+25 -6.39213 0.948112 272.142 
4.06158e-06 3.58375e-06 2.68617e+25 -7.2619 -2.29079 272.245 
5.97292e-06 3.58375e-06 2.68579e+25 -7.83622 -5.16613 272.345 
7.88425e-06 3.58375e-06 2.68653e+25 -7.53396 -7.95705 272.367 
9.79558e-06 3.58375e-06 2.68878e+25 -6.98558 -10.1609 272.343 
1.17069e-05 3.58375e-06 2.69199e+25 -5.50926 -11.6643 272.038 
1.36182e-05 3.58375e-06 2.69062e+25 -3.14527 -10.3666 272.105 
1.55296e-05 3.58375e-06 2.69209e+25 -0.920229 -5.99947 272.045 
2.38917e-07 4.06158e-06 2.6829e+25 -5.35454 3.26365 272.215 
2.15025e-06 4.06158e-06 2.68728e+25 -5.7607 1.00898 272.151 
4.06158e-06 4.06158e-06 2.6847e+25 -6.81812 -2.02195 272.268 
5.97292e-06 4.06158e-06 2.68671e+25 -7.38698 -5.12282 272.324 
7.88425e-06 4.06158e-06 2.68605e+25 -7.42093 -8.01542 272.38 
9.79558e-06 4.06158e-06 2.68686e+25 -6.99073 -10.4665 272.378 
1.17069e-05 4.06158e-06 2.69149e+25 -5.71767 -12.125 271.939 
1.36182e-05 4.06158e-06 2.69328e+25 -3.24964 -11.0783 271.973 
1.55296e-05 4.06158e-06 2.68971e+25 -0.847623 -6.49955 272.19 
2.38917e-07 4.53942e-06 2.68091e+25 -4.79878 3.4494 272.39 
2.15025e-06 4.53942e-06 2.6885e+25 -5.34494 1.20163 271.98 
4.06158e-06 4.53942e-06 2.68694e+25 -6.11309 -1.72178 272.142 
5.97292e-06 4.53942e-06 2.68517e+25 -6.86602 -5.19834 272.397 
7.88425e-06 4.53942e-06 2.68716e+25 -7.07757 -8.05945 272.313 
9.79558e-06 4.53942e-06 2.68654e+25 -6.81358 -10.7281 272.438 
1.17069e-05 4.53942e-06 2.69158e+25 -5.81002 -12.57 272.083 
1.36182e-05 4.53942e-06 2.6924e+25 -3.41916 -11.6856 271.976 
1.55296e-05 4.53942e-06 2.69009e+25 -0.794439 -6.97707 272.266 
2.38917e-07 5.01725e-06 2.68281e+25 -4.48146 3.44221 272.302 
2.15025e-06 5.01725e-06 2.68682e+25 -4.84504 1.2922 272.039 
4.06158e-06 5.01725e-06 2.68899e+25 -5.48415 -1.46129 272.062 
5.97292e-06 5.01725e-06 2.68492e+25 -6.2816 -5.04416 272.363 
7.88425e-06 5.01725e-06 2.68608e+25 -6.96512 -7.99674 272.222 
9.79558e-06 5.01725e-06 2.68532e+25 -6.67691 -11.02 272.403 
1.17069e-05 5.01725e-06 2.69074e+25 -5.66763 -13.0673 272.131 
1.36182e-05 5.01725e-06 2.69142e+25 -3.28248 -12.3351 272.043 
1.55296e-05 5.01725e-06 2.69056e+25 -0.960812 -7.4903 272.17 
2.38917e-07 5.49508e-06 2.68251e+25 -3.9161 3.46675 272.32 
2.15025e-06 5.49508e-06 2.68741e+25 -4.4033 1.45643 271.948 
4.06158e-06 5.49508e-06 2.68762e+25 -4.85075 -1.28839 271.946 
5.97292e-06 5.49508e-06 2.68545e+25 -5.93077 -4.74422 272.305 
7.88425e-06 5.49508e-06 2.6858e+25 -6.71444 -7.87291 272.234 
9.79558e-06 5.49508e-06 2.68899e+25 -6.59412 -11.2896 272.207 
1.17069e-05 5.49508e-06 2.68931e+25 -5.26719 -13.5538 272.262 
1.36182e-05 5.49508e-06 2.69251e+25 -3.32189 -13.0566 272.009 
1.55296e-05 5.49508e-06 2.68988e+25 -0.972388 -8.03219 272.327 
2.38917e-07 5.97292e-06 2.68341e+25 -3.44801 3.50082 272.226 
2.15025e-06 5.97292e-06 2.68866e+25 -3.53382 1.57075 271.852 
4.06158e-06 5.97292e-06 2.68701e+25 -4.27296 -1.13683 272.029 
5.97292e-06 5.97292e-06 2.68725e+25 -5.61255 -4.50745 272.173 
7.88425e-06 5.97292e-06 2.68659e+25 -6.17301 -7.77962 272.223 
9.79558e-06 5.97292e-06 2.68921e+25 -6.25946 -11.515 272.129 
1.17069e-05 5.97292e-06 2.68868e+25 -5.22617 -13.9275 272.222 
1.36182e-05 5.97292e-06 2.689e+25 -3.19401 -13.572 272.242 
1.55296e-05 5.97292e-06 2.68889e+25 -1.05395 -8.5268 272.421 
2.38917e-07 6.45075e-06 2.68704e+25 -2.74497 3.46006 271.843 
2.15025e-06 6.45075e-06 2.69041e+25 -2.90162 1.60889 271.731 
4.06158e-06 6.45075e-06 2.68565e+25 -3.64297 -0.984338 272.094 
5.97292e-06 6.45075e-06 2.68513e+25 -4.73455 -4.13936 272.212 
7.88425e-06 6.45075e-06 2.68645e+25 -5.74169 -7.62598 272.165 
9.79558e-06 6.45075e-06 2.68897e+25 -5.98595 -11.5068 272.129 
1.17069e-05 6.45075e-06 2.69043e+25 -5.29715 -14.2392 272.119 
1.36182e-05 6.45075e-06 2.68962e+25 -3.40584 -14.182 272.349 
1.55296e-05 6.45075e-06 2.69118e+25 -0.997946 -8.97444 272.269 
2.38917e-07 6.92858e-06 2.68918e+25 -2.29047 3.34323 271.72 
2.15025e-06 6.92858e-06 2.68771e+25 -2.1439 1.57779 271.968 
4.06158e-06 6.92858e-06 2.68576e+25 -2.9785 -0.745144 272.232 
5.97292e-06 6.92858e-06 2.68512e+25 -3.87459 -3.73496 272.131 
7.88425e-06 6.92858e-06 2.68439e+25 -5.07794 -7.44998 272.268 
9.79558e-06 6.92858e-06 2.6879e+25 -5.47208 -11.5704 272.316 
1.17069e-05 6.92858e-06 2.68726e+25 -5.2618 -14.3906 272.389 
1.36182e-05 6.92858e-06 2.6911e+25 -3.54053 -14.9717 272.182 
1.55296e-05 6.92858e-06 2.69058e+25 -1.10853 -9.47906 272.113 
2.38917e-07 7.40642e-06 2.68609e+25 -1.60738 3.22689 271.912 
2.15025e-06 7.40642e-06 2.68745e+25 -1.30987 1.59334 272.003 
4.06158e-06 7.40642e-06 2.68437e+25 -2.20094 -0.549851 272.354 
5.97292e-06 7.40642e-06 2.68509e+25 -2.91027 -3.46845 272.207 
7.88425e-06 7.40642e-06 2.68724e+25 -4.06213 -7.21488 272.174 
9.79558e-06 7.40642e-06 2.68583e+25 -4.89528 -11.5039 272.399 
1.17069e-05 7.40642e-06 2.6901e+25 -4.98382 -14.4193 272.352 
1.36182e-05 7.40642e-06 2.68944e+25 -3.62641 -15.4957 272.298 
1.55296e-05 7.40642e-06 2.69317e+25 -1.23301 -10.0705 272.03 
2.38917e-07 7.88425e-06 2.68374e+25 -0.940036 3.20098 271.986 
2.15025e-06 7.88425e-06 2.68593e+25 -0.712136 1.82989 272.111 
4.06158e-06 7.88425e-06 2.68368e+25 -1.08759 -0.33477 272.429 
5.97292e-06 7.88425e-06 2.68347e+25 -1.87107 -3.21005 272.275 
7.88425e-06 7.88425e-06 2.68638e+25 -3.15819 -6.97804 272.281 
9.79558e-06 7.88425e-06 2.68482e+25 -4.27917 -11.1033 272.429 
1.17069e-05 7.88425e-06 2.68649e+25 -4.83996 -14.4724 272.567 
1.36182e-05 7.88425e-06 2.6943e+25 -3.62916 -15.9062 272.067 
1.55296e-05 7.88425e-06 2.69199e+25 -1.3024 -10.6124 272.134 
2.38917e-07 8.36208e-06 2.68389e+25 0.0460491 3.22301 272.075 
2.15025e-06 8.36208e-06 2.68424e+25 -0.120925 1.9861 272.184 
4.06158e-06 8.36208e-06 2.68386e+25 -0.178181 -0.0684111 272.427 
5.97292e-06 8.36208e-06 2.68455e+25 -0.870901 -2.96133 272.313 
7.88425e-06 8.36208e-06 2.68666e+25 -2.17792 -6.62109 272.137 
9.79558e-06 8.36208e-06 2.68557e+25 -3.72032 -10.6344 272.352 
1.17069e-05 8.36208e-06 2.68783e+25 -4.63266 -14.5477 272.366 
1.36182e-05 8.36208e-06 2.69146e+25 -3.85185 -16.3634 272.307 
1.55296e-05 8.36208e-06 2.69227e+25 -1.39062 -11.2252 272.244 
2.38917e-07 8.83992e-06 2.68535e+25 1.00704 3.14295 272.032 
2.15025e-06 8.83992e-06 2.68738e+25 0.776387 1.94593 271.98 
4.06158e-06 8.83992e-06 2.68472e+25 0.843422 0.102788 272.207 
5.97292e-06 8.83992e-06 2.68457e+25 0.158931 -2.8015 272.207 
7.88425e-06 8.83992e-06 2.68831e+25 -1.13352 -6.20291 272.09 
9.79558e-06 8.83992e-06 2.68556e+25 -2.77589 -10.3278 272.33 
1.17069e-05 8.83992e-06 2.68918e+25 -4.17689 -14.5085 272.374 
1.36182e-05 8.83992e-06 2.68999e+25 -3.86539 -16.8085 272.442 
1.55296e-05 8.83992e-06 2.69255e+25 -1.49504 -11.8224 272.373 
2.38917e-07 9.31775e-06 2.68805e+25 1.80637 3.03273 271.816 
2.15025e-06 9.31775e-06 2.68621e+25 1.57206 1.88808 272.047 
4.06158e-06 9.31775e-06 2.6842e+25 1.76327 0.0296196 272.29 
5.97292e-06 9.31775e-06 2.68459e+25 1.22498 -2.60075 272.291 
7.88425e-06 9.31775e-06 2.68778e+25 -0.0858198 -5.78755 272.185 
9.79558e-06 9.31775e-06 2.68582e+25 -1.77862 -9.94118 272.418 
1.17069e-05 9.31775e-06 2.68982e+25 -3.58844 -14.1633 272.286 
1.36182e-05 9.31775e-06 2.68962e+25 -3.84529 -17.1265 272.545 
1.55296e-05 9.31775e-06 2.69522e+25 -1.54489 -12.3774 272.182 
2.38917e-07 9.79558e-06 2.68638e+25 2.50341 2.92654 271.926 
2.15025e-06 9.79558e-06 2.68748e+25 2.93517 1.87536 271.96 
4.06158e-06 9.79558e-06 2.68516e+25 2.88784 -0.0845068 272.277 
5.97292e-06 9.79558e-06 2.68469e+25 2.3595 -2.32027 272.309 
7.88425e-06 9.79558e-06 2.6884e+25 1.22337 -5.42716 272.102 
9.79558e-06 9.79558e-06 2.68624e+25 -0.738942 -9.51198 272.408 
1.17069e-05 9.79558e-06 2.69137e+25 -2.93654 -13.7522 272.318 
1.36182e-05 9.79558e-06 2.68934e+25 -3.5289 -17.4026 272.514 
1.55296e-05 9.79558e-06 2.69346e+25 -1.54395 -13.1274 272.411 
2.38917e-07 1.02734e-05 2.686e+25 3.3853 2.89898 271.933 
2.15025e-06 1.02734e-05 2.689e+25 4.04545 1.77075 271.865 
4.06158e-06 1.02734e-05 2.68176e+25 3.98913 -0.11284 272.341 
5.97292e-06 1.02734e-05 2.6837e+25 3.56289 -1.9794 272.397 
7.88425e-06 1.02734e-05 2.68683e+25 2.49419 -5.02355 272.139 
9.79558e-06 1.02734e-05 2.68594e+25 0.40192 -8.90406 272.323 
1.17069e-05 1.02734e-05 2.6887e+25 -2.12382 -13.21 272.449 
1.36182e-05 1.02734e-05 2.69035e+25 -3.23037 -17.5403 272.619 
1.55296e-05 1.02734e-05 2.69438e+25 -1.34632 -13.785 272.363 
2.38917e-07 1.07512e-05 2.68632e+25 4.5819 2.91129 271.873 
2.15025e-06 1.07512e-05 2.68739e+25 5.25072 1.67142 271.891 
4.06158e-06 1.07512e-05 2.68317e+25 5.41015 -0.00294995 272.294 
5.97292e-06 1.07512e-05 2.68306e+25 4.87391 -1.83001 272.449 
7.88425e-06 1.07512e-05 2.68831e+25 3.75177 -4.60214 272.024 
9.79558e-06 1.07512e-05 2.68496e+25 1.43662 -8.32686 272.519 
1.17069e-05 1.07512e-05 2.69032e+25 -1.18702 -12.6754 272.44 
1.36182e-05 1.07512e-05 2.69153e+25 -2.86444 -17.5119 272.563 
1.55296e-05 1.07512e-05 2.69417e+25 -1.45101 -14.4213 272.517 
2.38917e-07 1.12291e-05 2.68687e+25 5.75937 2.82058 271.848 
2.15025e-06 1.12291e-05 2.68835e+25 6.5132 1.57833 271.952 
4.06158e-06 1.12291e-05 2.68615e+25 6.75879 0.0751917 272.17 
5.97292e-06 1.12291e-05 2.68345e+25 6.25721 -1.71373 272.314 
7.88425e-06 1.12291e-05 2.68614e+25 5.08551 -4.16668 272.139 
9.79558e-06 1.12291e-05 2.68631e+25 2.78074 -7.52117 272.481 
1.17069e-05 1.12291e-05 2.69146e+25 -0.113541 -12.1109 272.29 
1.36182e-05 1.12291e-05 2.69291e+25 -2.4019 -17.2275 272.426 
1.55296e-05 1.12291e-05 2.69547e+25 -1.55933 -15.0326 272.417 
2.38917e-07 1.17069e-05 2.68412e+25 7.25848 2.69412 272.13 
2.15025e-06 1.17069e-05 2.68818e+25 7.84011 1.40981 271.835 
4.06158e-06 1.17069e-05 2.68615e+25 8.1795 0.267903 272.062 
5.97292e-06 1.17069e-05 2.68678e+25 7.80434 -1.53566 272.246 
7.88425e-06 1.17069e-05 2.68838e+25 6.48206 -3.62081 272.042 
9.79558e-06 1.17069e-05 2.68847e+25 4.21292 -6.71263 272.373 
1.17069e-05 1.17069e-05 2.69152e+25 0.928346 -11.4615 272.381 
1.36182e-05 1.17069e-05 2.6942e+25 -1.94962 -16.8741 272.372 
1.55296e-05 1.17069e-05 2.69564e+25 -1.74042 -15.5895 272.531 
2.38917e-07 1.21847e-05 2.68511e+25 8.79214 2.46535 272.077 
2.15025e-06 1.21847e-05 2.68908e+25 9.4045 1.23601 271.9 
4.06158e-06 1.21847e-05 2.68739e+25 9.63942 0.440901 271.983 
5.97292e-06 1.21847e-05 2.68644e+25 9.28702 -1.36493 272.041 
7.88425e-06 1.21847e-05 2.6876e+25 7.87719 -3.26264 272.172 
9.79558e-06 1.21847e-05 2.68854e+25 5.68749 -6.05985 272.245 
1.17069e-05 1.21847e-05 2.69261e+25 2.292 -10.6012 272.354 
1.36182e-05 1.21847e-05 2.6947e+25 -1.16759 -16.3972 272.339 
1.55296e-05 1.21847e-05 2.69882e+25 -1.82768 -16.1352 272.513 
2.38917e-07 1.26626e-05 2.68228e+25 10.4264 2.24954 272.236 
2.15025e-06 1.26626e-05 2.68926e+25 10.9327 1.06179 271.888 
4.06158e-06 1.26626e-05 2.68806e+25 11.3812 0.42866 271.912 
5.97292e-06 1.26626e-05 2.68748e+25 11.0348 -1.16274 272.182 
7.88425e-06 1.26626e-05 2.68588e+25 9.65681 -2.99719 272.241 
9.79558e-06 1.26626e-05 2.68954e+25 7.53415 -5.26335 272.307 
1.17069e-05 1.26626e-05 2.69251e+25 3.96509 -9.54949 272.34 
1.36182e-05 1.26626e-05 2.69777e+25 -0.370313 -15.5549 272.34 
1.55296e-05 1.26626e-05 2.70133e+25 -1.87085 -16.5274 272.517 
2.38917e-07 1.31404e-05 2.68146e+25 12.0605 2.01163 272.336 
2.15025e-06 1.31404e-05 2.68699e+25 12.5936 0.921204 272.031 
4.06158e-06 1.31404e-05 2.68735e+25 13.2543 0.218514 271.966 
5.97292e-06 1.31404e-05 2.68552e+25 13.0487 -1.03983 272.338 
7.88425e-06 1.31404e-05 2.68886e+25 11.7451 -2.53571 272.178 
9.79558e-06 1.31404e-05 2.68925e+25 9.54886 -4.50575 272.257 
1.17069e-05 1.31404e-05 2.69049e+25 5.85232 -8.4509 272.61 
1.36182e-05 1.31404e-05 2.69832e+25 0.56944 -14.3685 272.287 
1.55296e-05 1.31404e-05 2.70174e+25 -1.99259 -16.8329 272.626 
2.38917e-07 1.36182e-05 2.68268e+25 13.8572 1.65926 272.375 
2.15025e-06 1.36182e-05 2.68574e+25 14.6935 0.83512 272.111 
4.06158e-06 1.36182e-05 2.68541e+25 15.2762 0.0756701 272.158 
5.97292e-06 1.36182e-05 2.68344e+25 14.899 -0.904752 272.574 
7.88425e-06 1.36182e-05 2.68908e+25 14.0071 -2.1249 272.075 
9.79558e-06 1.36182e-05 2.69056e+25 11.5136 -3.71333 272.207 
1.17069e-05 1.36182e-05 2.6915e+25 7.74874 -7.18803 272.591 
1.36182e-05 1.36182e-05 2.69889e+25 1.72937 -12.9059 272.369 
1.55296e-05 1.36182e-05 2.70476e+25 -2.04172 -17.0821 272.596 
2.38917e-07 1.40961e-05 2.68183e+25 15.9593 1.19136 272.31 
2.15025e-06 1.40961e-05 2.68757e+25 16.7968 0.773496 272.127 
4.06158e-06 1.40961e-05 2.68598e+25 17.3542 0.0409763 272.149 
5.97292e-06 1.40961e-05 2.68399e+25 16.9471 -0.769902 272.403 
7.88425e-06 1.40961e-05 2.68771e+25 16.118 -1.69114 272.28 
9.79558e-06 1.40961e-05 2.69051e+25 13.9102 -3.04297 272.334 
1.17069e-05 1.40961e-05 2.69196e+25 9.89906 -5.83635 272.695 
1.36182e-05 1.40961e-05 2.69766e+25 3.45097 -11.0611 272.609 
1.55296e-05 1.40961e-05 2.7069e+25 -1.85455 -17.0824 272.532 
2.38917e-07 1.45739e-05 2.68155e+25 18.2745 0.788257 272.349 
2.15025e-06 1.45739e-05 2.68594e+25 19.3109 0.657114 272.13 
4.06158e-06 1.45739e-05 2.68539e+25 19.5247 -0.0425213 272.244 
5.97292e-06 1.45739e-05 2.68419e+25 19.2436 -0.47 272.412 
7.88425e-06 1.45739e-05 2.6868e+25 18.4524 -1.24825 272.298 
9.79558e-06 1.45739e-05 2.69018e+25 16.3197 -2.30317 272.448 
1.17069e-05 1.45739e-05 2.69284e+25 12.4731 -4.564 272.682 
1.36182e-05 1.45739e-05 2.69954e+25 5.82245 -9.0234 272.757 
1.55296e-05 1.45739e-05 2.70854e+25 -1.43378 -16.6134 272.741 
2.38917e-07 1.50518e-05 2.6815e+25 20.9868 0.489967 272.44 
2.15025e-06 1.50518e-05 2.68598e+25 21.8988 0.527755 272.301 
4.06158e-06 1.50518e-05 2.68565e+25 22.1423 -0.100391 272.186 
5.97292e-06 1.50518e-05 2.68368e+25 21.8596 -0.240972 272.436 
7.88425e-06 1.50518e-05 2.68788e+25 21.1071 -0.909946 272.481 
9.79558e-06 1.50518e-05 2.68885e+25 19.1201 -1.67389 272.532 
1.17069e-05 1.50518e-05 2.69379e+25 15.521 -3.39725 272.619 
1.36182e-05 1.50518e-05 2.69857e+25 8.80235 -6.91741 272.882 
1.55296e-05 1.50518e-05 2.71369e+25 -0.470138 -15.4267 272.659 
2.38917e-07 1.55296e-05 2.67961e+25 23.9196 0.254875 272.454 
2.15025e-06 1.55296e-05 2.68207e+25 24.7186 0.359676 272.553 
4.06158e-06 1.55296e-05 2.68581e+25 24.8137 -0.0374118 272.219 
5.97292e-06 1.55296e-05 2.68446e+25 24.7731 -0.220012 272.437 
7.88425e-06 1.55296e-05 2.68663e+25 23.8535 -0.706149 272.444 
9.79558e-06 1.55296e-05 2.68821e+25 22.1194 -1.09318 272.567 
1.17069e-05 1.55296e-05 2.69308e+25 19.0155 -2.34059 272.731 
1.36182e-05 1.55296e-05 2.69686e+25 12.6706 -4.79849 273.129 
1.55296e-05 1.55296e-05 2.71707e+25 1.51264 -13.2846 272.889 
2.38917e-07 1.60074e-05 2.6807e+25 26.7975 0.0746158 272.58 
2.15025e-06 1.60074e-05 2.68124e+25 27.4057 0.246385 272.618 
4.06158e-06 1.60074e-05 2.68559e+25 27.5766 0.0863386 272.302 
5.97292e-06 1.60074e-05 2.68579e+25 27.6164 -0.227478 272.377 
7.88425e-06 1.60074e-05 2.68542e+25 26.7849 -0.587218 272.44 
9.79558e-06 1.60074e-05 2.68696e+25 25.3729 -0.678543 272.711 
1.17069e-05 1.60074e-05 2.6929e+25 22.9584 -1.36604 272.67 
1.36182e-05 1.60074e-05 2.69831e+25 17.56 -2.85032 273.035 
1.55296e-05 1.60074e-05 2.71957e+25 5.46721 -9.89018 273.137 
2.38917e-07 1.64852e-05 2.67893e+25 29.925 -0.0121698 272.679 
2.15025e-06 1.64852e-05 2.6808e+25 30.406 0.112146 272.684 
4.06158e-06 1.64852e-05 2.68338e+25 30.5097 0.114506 272.406 
5.97292e-06 1.64852e-05 2.68285e+25 30.4217 -0.170697 272.554 
7.88425e-06 1.64852e-05 2.68502e+25 29.8807 -0.313533 272.48 
9.79558e-06 1.64852e-05 2.6851e+25 28.9942 -0.287715 272.728 
1.17069e-05 1.64852e-05 2.69087e+25 27.2623 -0.5303 272.733 
1.36182e-05 1.64852e-05 2.69627e+25 23.6279 -1.25879 273.198 
1.55296e-05 1.64852e-05 2.71847e+25 12.7449 -5.40674 273.435 
2.38917e-07 1.69631e-05 2.67767e+25 32.9604 -0.0183242 272.888 
2.15025e-06 1.69631e-05 2.68066e+25 33.1032 -0.0544966 272.79 
4.06158e-06 1.69631e-05 2.6827e+25 32.9976 0.0598541 272.697 
5.97292e-06 1.69631e-05 2.682e+25 32.962 -0.0229606 272.882 
7.88425e-06 1.69631e-05 2.68374e+25 32.6897 -0.0530876 272.78 
9.79558e-06 1.69631e-05 2.68566e+25 32.3467 -0.0420277 272.845 
1.17069e-05 1.69631e-05 2.69062e+25 31.5352 -0.0774821 272.897 
1.36182e-05 1.69631e-05 2.69361e+25 30.2041 -0.250351 273.287 
1.55296e-05 1.69631e-05 2.71648e+25 24.2527 -1.29203 273.456 
7.1675e-07 2.38917e-07 2.68936e+25 -7.63441 1.23919 272.011 
2.62808e-06 2.38917e-07 2.68747e+25 -8.23268 -0.92162 272.082 
4.53942e-06 2.38917e-07 2.68616e+25 -7.88483 -3.01528 272.247 
6.45075e-06 2.38917e-07 2.68487e+25 -7.41391 -5.13472 272.244 
8.36208e-06 2.38917e-07 2.68768e+25 -6.89131 -7.28545 272.119 
1.02734e-05 2.38917e-07 2.68783e+25 -5.37695 -8.45341 272.037 
1.21847e-05 2.38917e-07 2.68819e+25 -3.6795 -7.81253 272.171 
1.40961e-05 2.38917e-07 2.68878e+25 -1.60507 -5.88449 272.07 
1.60074e-05 2.38917e-07 2.68693e+25 -0.325079 -2.48478 272.151 
7.1675e-07 7.1675e-07 2.68799e+25 -7.50328 1.50778 272.077 
2.62808e-06 7.1675e-07 2.68852e+25 -8.14456 -0.970551 272.063 
4.53942e-06 7.1675e-07 2.68892e+25 -8.04637 -3.14621 272.168 
6.45075e-06 7.1675e-07 2.68899e+25 -7.3683 -5.18552 272.143 
8.36208e-06 7.1675e-07 2.68877e+25 -6.99372 -7.52286 272.216 
1.02734e-05 7.1675e-07 2.69108e+25 -5.6612 -8.75308 272.038 
1.21847e-05 7.1675e-07 2.69011e+25 -3.88554 -8.28926 272.216 
1.40961e-05 7.1675e-07 2.69056e+25 -1.78681 -6.37905 272.133 
1.60074e-05 7.1675e-07 2.69015e+25 -0.220165 -2.64225 272.195 
7.1675e-07 1.19458e-06 2.68813e+25 -7.35389 1.59107 272.087 
2.62808e-06 1.19458e-06 2.68961e+25 -7.96966 -0.884915 271.97 
4.53942e-06 1.19458e-06 2.68933e+25 -8.22117 -3.20694 272.033 
6.45075e-06 1.19458e-06 2.68905e+25 -7.59233 -5.34808 272.177 
8.36208e-06 1.19458e-06 2.68993e+25 -6.91489 -7.71397 272.22 
1.02734e-05 1.19458e-06 2.69143e+25 -5.85711 -9.08908 272.134 
1.21847e-05 1.19458e-06 2.6892e+25 -3.92304 -8.75599 272.247 
1.40961e-05 1.19458e-06 2.69003e+25 -1.87508 -6.81564 272.223 
1.60074e-05 1.19458e-06 2.68816e+25 -0.43523 -2.88195 272.424 
7.1675e-07 1.67242e-06 2.68866e+25 -7.10147 1.78132 272.028 
2.62808e-06 1.67242e-06 2.69145e+25 -7.93069 -0.724554 272.065 
4.53942e-06 1.67242e-06 2.68938e+25 -8.20795 -3.11389 271.974 
6.45075e-06 1.67242e-06 2.68943e+25 -7.83729 -5.45228 272.173 
8.36208e-06 1.67242e-06 2.68812e+25 -6.93532 -7.83455 272.37 
1.02734e-05 1.67242e-06 2.69066e+25 -6.06099 -9.43269 272.136 
1.21847e-05 1.67242e-06 2.68927e+25 -4.0285 -9.3778 272.297 
1.40961e-05 1.67242e-06 2.68767e+25 -2.05102 -7.27184 272.279 
1.60074e-05 1.67242e-06 2.68813e+25 -0.419224 -3.09353 272.485 
7.1675e-07 2.15025e-06 2.69052e+25 -6.8969 1.97162 271.941 
2.62808e-06 2.15025e-06 2.68978e+25 -7.78703 -0.610785 272.099 
4.53942e-06 2.15025e-06 2.68937e+25 -8.325 -3.19046 271.938 
6.45075e-06 2.15025e-06 2.68729e+25 -7.90258 -5.60238 272.238 
8.36208e-06 2.15025e-06 2.6884e+25 -7.12671 -8.12286 272.336 
1.02734e-05 2.15025e-06 2.6873e+25 -6.28879 -9.81242 272.396 
1.21847e-05 2.15025e-06 2.69034e+25 -4.39835 -9.95894 272.164 
1.40961e-05 2.15025e-06 2.69027e+25 -2.25446 -7.74263 272.056 
1.60074e-05 2.15025e-06 2.68747e+25 -0.381534 -3.36878 272.537 
7.1675e-07 2.62808e-06 2.68731e+25 -6.66737 2.14412 271.998 
2.62808e-06 2.62808e-06 2.68994e+25 -7.57017 -0.386184 271.902 
4.53942e-06 2.62808e-06 2.68974e+25 -7.98398 -3.20875 271.977 
6.45075e-06 2.62808e-06 2.68802e+25 -7.93394 -5.72782 272.049 
8.36208e-06 2.62808e-06 2.68655e+25 -7.37015 -8.391 272.373 
1.02734e-05 2.62808e-06 2.68819e+25 -6.44932 -10.1007 272.231 
1.21847e-05 2.62808e-06 2.69135e+25 -4.55288 -10.5041 272.048 
1.40961e-05 2.62808e-06 2.6914e+25 -2.43316 -8.38233 272.107 
1.60074e-05 2.62808e-06 2.68876e+25 -0.415508 -3.657 272.356 
7.1675e-07 3.10592e-06 2.68827e+25 -6.32464 2.35246 271.959 
2.62808e-06 3.10592e-06 2.68931e+25 -7.19175 -0.125653 272.015 
4.53942e-06 3.10592e-06 2.68768e+25 -7.81356 -3.16962 272.011 
6.45075e-06 3.10592e-06 2.68932e+25 -7.91423 -5.8187 272.14 
8.36208e-06 3.10592e-06 2.68957e+25 -7.32734 -8.60545 272.216 
1.02734e-05 3.10592e-06 2.6902e+25 -6.73191 -10.5911 272.216 
1.21847e-05 3.10592e-06 2.68993e+25 -4.7108 -11.0099 272.137 
1.40961e-05 3.10592e-06 2.69126e+25 -2.44772 -9.07255 272.131 
1.60074e-05 3.10592e-06 2.69067e+25 -0.366903 -4.0596 272.336 
7.1675e-07 3.58375e-06 2.68911e+25 -6.0616 2.52903 272.071 
2.62808e-06 3.58375e-06 2.68593e+25 -6.44584 0.054536 272.105 
4.53942e-06 3.58375e-06 2.68553e+25 -7.51866 -3.00776 272.305 
6.45075e-06 3.58375e-06 2.68713e+25 -7.78803 -5.94277 272.32 
8.36208e-06 3.58375e-06 2.68802e+25 -7.46426 -8.67863 272.339 
1.02734e-05 3.58375e-06 2.68938e+25 -6.76692 -10.9486 272.291 
1.21847e-05 3.58375e-06 2.69045e+25 -5.07973 -11.406 272.196 
1.40961e-05 3.58375e-06 2.69214e+25 -2.52792 -9.71734 272.161 
1.60074e-05 3.58375e-06 2.69008e+25 -0.510433 -4.52315 272.213 
7.1675e-07 4.06158e-06 2.68649e+25 -5.50584 2.69785 272.134 
2.62808e-06 4.06158e-06 2.6881e+25 -5.9323 0.221014 272.046 
4.53942e-06 4.06158e-06 2.68586e+25 -7.0522 -2.73035 272.317 
6.45075e-06 4.06158e-06 2.68566e+25 -7.37117 -6.03559 272.247 
8.36208e-06 4.06158e-06 2.68734e+25 -7.32533 -8.75312 272.368 
1.02734e-05 4.06158e-06 2.68741e+25 -6.64367 -11.2418 272.505 
1.21847e-05 4.06158e-06 2.69062e+25 -5.22056 -11.9186 272.111 
1.40961e-05 4.06158e-06 2.69125e+25 -2.57799 -10.3539 272.122 
1.60074e-05 4.06158e-06 2.68862e+25 -0.435842 -4.84385 272.358 
7.1675e-07 4.53942e-06 2.68719e+25 -4.91376 2.85719 272.141 
2.62808e-06 4.53942e-06 2.688e+25 -5.55482 0.432212 272.058 
4.53942e-06 4.53942e-06 2.68657e+25 -6.39665 -2.54349 272.213 
6.45075e-06 4.53942e-06 2.68623e+25 -6.89609 -5.94846 272.269 
8.36208e-06 4.53942e-06 2.68659e+25 -7.13032 -8.79349 272.28 
1.02734e-05 4.53942e-06 2.68803e+25 -6.58203 -11.4839 272.316 
1.21847e-05 4.53942e-06 2.69212e+25 -5.24392 -12.5314 272.177 
1.40961e-05 4.53942e-06 2.69096e+25 -2.7898 -10.9921 272.081 
1.60074e-05 4.53942e-06 2.69018e+25 -0.458423 -5.14141 272.176 
7.1675e-07 5.01725e-06 2.68669e+25 -4.44875 2.95955 272.189 
2.62808e-06 5.01725e-06 2.68677e+25 -5.00558 0.692512 272.082 
4.53942e-06 5.01725e-06 2.68906e+25 -5.69761 -2.33901 272.073 
6.45075e-06 5.01725e-06 2.68556e+25 -6.58303 -5.78299 272.362 
8.36208e-06 5.01725e-06 2.68859e+25 -7.0706 -8.70182 272.151 
1.02734e-05 5.01725e-06 2.68705e+25 -6.49173 -11.6071 272.386 
1.21847e-05 5.01725e-06 2.68904e+25 -5.08612 -13.1991 272.277 
1.40961e-05 5.01725e-06 2.6913e+25 -2.61289 -11.6999 272.168 
1.60074e-05 5.01725e-06 2.68961e+25 -0.489663 -5.45322 272.349 
7.1675e-07 5.49508e-06 2.68638e+25 -3.96086 2.99962 272.176 
2.62808e-06 5.49508e-06 2.68925e+25 -4.49579 0.741232 271.973 
4.53942e-06 5.49508e-06 2.68873e+25 -5.04231 -2.08049 272.046 
6.45075e-06 5.49508e-06 2.68565e+25 -6.23526 -5.45855 272.226 
8.36208e-06 5.49508e-06 2.68562e+25 -6.82164 -8.65896 272.354 
1.02734e-05 5.49508e-06 2.68732e+25 -6.25724 -11.8082 272.339 
1.21847e-05 5.49508e-06 2.68838e+25 -4.88214 -13.6909 272.359 
1.40961e-05 5.49508e-06 2.69035e+25 -2.7149 -12.2972 272.178 
1.60074e-05 5.49508e-06 2.69032e+25 -0.493371 -5.81024 272.221 
7.1675e-07 5.97292e-06 2.68563e+25 -3.4374 3.08656 272.182 
2.62808e-06 5.97292e-06 2.6889e+25 -3.64164 0.858041 271.894 
4.53942e-06 5.97292e-06 2.68709e+25 -4.48073 -1.78473 272.083 
6.45075e-06 5.97292e-06 2.68677e+25 -5.81824 -5.25991 272.139 
8.36208e-06 5.97292e-06 2.68647e+25 -6.26009 -8.57541 272.239 
1.02734e-05 5.97292e-06 2.68596e+25 -6.14295 -12.0377 272.378 
1.21847e-05 5.97292e-06 2.68934e+25 -4.77708 -14.1371 272.25 
1.40961e-05 5.97292e-06 2.69074e+25 -2.7509 -12.8408 272.285 
1.60074e-05 5.97292e-06 2.68905e+25 -0.62414 -6.19665 272.287 
7.1675e-07 6.45075e-06 2.68641e+25 -2.70415 3.07933 272.066 
2.62808e-06 6.45075e-06 2.68752e+25 -2.94344 1.01071 271.933 
4.53942e-06 6.45075e-06 2.68731e+25 -3.71422 -1.59597 272.056 
6.45075e-06 6.45075e-06 2.68605e+25 -5.08984 -5.06481 272.101 
8.36208e-06 6.45075e-06 2.68855e+25 -5.86353 -8.43567 272.088 
1.02734e-05 6.45075e-06 2.68824e+25 -5.92126 -12.2149 272.279 
1.21847e-05 6.45075e-06 2.68962e+25 -4.9751 -14.6231 272.235 
1.40961e-05 6.45075e-06 2.69085e+25 -2.55617 -13.4757 272.29 
1.60074e-05 6.45075e-06 2.69202e+25 -0.629077 -6.59574 272.068 
7.1675e-07 6.92858e-06 2.68856e+25 -2.14563 3.0621 271.921 
2.62808e-06 6.92858e-06 2.68565e+25 -2.1895 1.1619 272.034 
4.53942e-06 6.92858e-06 2.68497e+25 -3.2751 -1.47227 272.273 
6.45075e-06 6.92858e-06 2.68502e+25 -4.22698 -4.74027 272.2 
8.36208e-06 6.92858e-06 2.68688e+25 -5.27292 -8.26086 272.226 
1.02734e-05 6.92858e-06 2.68548e+25 -5.43833 -12.3078 272.424 
1.21847e-05 6.92858e-06 2.68755e+25 -5.08553 -14.9615 272.318 
1.40961e-05 6.92858e-06 2.6912e+25 -2.89241 -14.1931 272.261 
1.60074e-05 6.92858e-06 2.69244e+25 -0.621078 -6.93194 272.125 
7.1675e-07 7.40642e-06 2.68793e+25 -1.50542 2.95504 271.921 
2.62808e-06 7.40642e-06 2.68574e+25 -1.57413 1.44677 272.069 
4.53942e-06 7.40642e-06 2.68376e+25 -2.32283 -1.22988 272.353 
6.45075e-06 7.40642e-06 2.68371e+25 -3.21246 -4.37273 272.308 
8.36208e-06 7.40642e-06 2.68848e+25 -4.28848 -8.04926 272.112 
1.02734e-05 7.40642e-06 2.68738e+25 -5.0617 -12.2984 272.348 
1.21847e-05 7.40642e-06 2.68885e+25 -4.99717 -15.1149 272.424 
1.40961e-05 7.40642e-06 2.69123e+25 -3.15962 -14.8444 272.215 
1.60074e-05 7.40642e-06 2.69204e+25 -0.707916 -7.37898 272.191 
7.1675e-07 7.88425e-06 2.68673e+25 -0.869196 2.82856 272.038 
2.62808e-06 7.88425e-06 2.68388e+25 -0.881813 1.64431 272.196 
4.53942e-06 7.88425e-06 2.68165e+25 -1.35834 -1.08065 272.526 
6.45075e-06 7.88425e-06 2.68289e+25 -2.13657 -4.09235 272.386 
8.36208e-06 7.88425e-06 2.68832e+25 -3.36341 -7.85183 271.969 
1.02734e-05 7.88425e-06 2.68875e+25 -4.62609 -12.1418 272.344 
1.21847e-05 7.88425e-06 2.68778e+25 -4.7223 -15.152 272.481 
1.40961e-05 7.88425e-06 2.69312e+25 -3.17806 -15.2459 272.115 
1.60074e-05 7.88425e-06 2.69344e+25 -0.76409 -7.89113 272.183 
7.1675e-07 8.36208e-06 2.68652e+25 0.0122327 2.73378 271.94 
2.62808e-06 8.36208e-06 2.68353e+25 -0.0820755 1.60047 272.179 
4.53942e-06 8.36208e-06 2.68227e+25 -0.445348 -0.831964 272.548 
6.45075e-06 8.36208e-06 2.68627e+25 -1.15449 -3.8022 272.23 
8.36208e-06 8.36208e-06 2.68808e+25 -2.49996 -7.7035 272.054 
1.02734e-05 8.36208e-06 2.68667e+25 -4.02045 -11.8943 272.29 
1.21847e-05 8.36208e-06 2.68977e+25 -4.47313 -15.3328 272.3 
1.40961e-05 8.36208e-06 2.69275e+25 -3.29321 -15.8346 272.29 
1.60074e-05 8.36208e-06 2.69086e+25 -0.822789 -8.43041 272.306 
7.1675e-07 8.83992e-06 2.68725e+25 0.988769 2.88132 271.933 
2.62808e-06 8.83992e-06 2.68613e+25 0.795631 1.5657 272.12 
4.53942e-06 8.83992e-06 2.68601e+25 0.70461 -0.641423 272.164 
6.45075e-06 8.83992e-06 2.68467e+25 -0.0295716 -3.5091 272.206 
8.36208e-06 8.83992e-06 2.68739e+25 -1.55824 -7.42045 272.091 
1.02734e-05 8.83992e-06 2.68711e+25 -3.2204 -11.4483 272.332 
1.21847e-05 8.83992e-06 2.68996e+25 -4.31986 -15.3885 272.271 
1.40961e-05 8.83992e-06 2.69042e+25 -3.45463 -16.3964 272.43 
1.60074e-05 8.83992e-06 2.69052e+25 -0.853037 -9.00304 272.494 
7.1675e-07 9.31775e-06 2.68965e+25 1.77795 3.05309 271.786 
2.62808e-06 9.31775e-06 2.68505e+25 1.6443 1.52399 272.089 
4.53942e-06 9.31775e-06 2.68426e+25 1.89271 -0.552298 272.257 
6.45075e-06 9.31775e-06 2.68409e+25 0.938537 -3.13832 272.355 
8.36208e-06 9.31775e-06 2.68643e+25 -0.563888 -6.87318 272.218 
1.02734e-05 9.31775e-06 2.68837e+25 -2.15408 -11.0327 272.294 
1.21847e-05 9.31775e-06 2.68883e+25 -3.78639 -15.3008 272.382 
1.40961e-05 9.31775e-06 2.69009e+25 -3.40425 -16.9389 272.608 
1.60074e-05 9.31775e-06 2.69177e+25 -0.92676 -9.66536 272.424 
7.1675e-07 9.79558e-06 2.68856e+25 2.6501 3.08886 271.937 
2.62808e-06 9.79558e-06 2.68695e+25 2.93382 1.43642 272.024 
4.53942e-06 9.79558e-06 2.68617e+25 2.89063 -0.537733 272.134 
6.45075e-06 9.79558e-06 2.68272e+25 2.07421 -2.88248 272.41 
8.36208e-06 9.79558e-06 2.6872e+25 0.783907 -6.36738 272.172 
1.02734e-05 9.79558e-06 2.68678e+25 -1.24827 -10.53 272.344 
1.21847e-05 9.79558e-06 2.68941e+25 -3.38547 -15.079 272.367 
1.40961e-05 9.79558e-06 2.69046e+25 -3.24748 -17.3964 272.576 
1.60074e-05 9.79558e-06 2.69402e+25 -0.840372 -10.2566 272.24 
7.1675e-07 1.02734e-05 2.68748e+25 3.55451 2.84789 271.939 
2.62808e-06 1.02734e-05 2.68582e+25 4.09989 1.4642 272.046 
4.53942e-06 1.02734e-05 2.68477e+25 3.94171 -0.510914 272.305 
6.45075e-06 1.02734e-05 2.68305e+25 3.30125 -2.63789 272.439 
8.36208e-06 1.02734e-05 2.68647e+25 2.02372 -5.84312 272.215 
1.02734e-05 1.02734e-05 2.68736e+25 -0.264753 -9.94937 272.345 
1.21847e-05 1.02734e-05 2.69041e+25 -2.5546 -14.6926 272.407 
1.40961e-05 1.02734e-05 2.69412e+25 -3.02079 -17.7335 272.448 
1.60074e-05 1.02734e-05 2.69472e+25 -0.77567 -10.8076 272.372 
7.1675e-07 1.07512e-05 2.68815e+25 4.6491 2.55377 271.96 
2.62808e-06 1.07512e-05 2.685e+25 5.37819 1.42212 272.059 
4.53942e-06 1.07512e-05 2.68381e+25 5.27643 -0.450349 272.232 
6.45075e-06 1.07512e-05 2.68478e+25 4.79197 -2.46322 272.372 
8.36208e-06 1.07512e-05 2.68728e+25 3.30818 -5.39391 272.292 
1.02734e-05 1.07512e-05 2.68818e+25 0.73891 -9.22054 272.467 
1.21847e-05 1.07512e-05 2.69057e+25 -1.76272 -14.2065 272.465 
1.40961e-05 1.07512e-05 2.69249e+25 -2.82797 -17.9893 272.426 
1.60074e-05 1.07512e-05 2.69481e+25 -0.89896 -11.3045 272.447 
7.1675e-07 1.12291e-05 2.68851e+25 5.85623 2.46969 271.892 
2.62808e-06 1.12291e-05 2.68553e+25 6.61336 1.33844 272.093 
4.53942e-06 1.12291e-05 2.6857e+25 6.59303 -0.30681 272.19 
6.45075e-06 1.12291e-05 2.68389e+25 6.07587 -2.29318 272.456 
8.36208e-06 1.12291e-05 2.68485e+25 4.60631 -4.93314 272.455 
1.02734e-05 1.12291e-05 2.6884e+25 1.93804 -8.44933 272.464 
1.21847e-05 1.12291e-05 2.69105e+25 -0.751771 -13.5824 272.395 
1.40961e-05 1.12291e-05 2.69465e+25 -2.60569 -18.0722 272.418 
1.60074e-05 1.12291e-05 2.69523e+25 -0.982464 -11.7973 272.547 
7.1675e-07 1.17069e-05 2.68643e+25 7.52043 2.21743 272.071 
2.62808e-06 1.17069e-05 2.68792e+25 8.11121 1.15882 271.889 
4.53942e-06 1.17069e-05 2.68804e+25 7.9559 -0.0507517 272.062 
6.45075e-06 1.17069e-05 2.6881e+25 7.58167 -2.07204 272.161 
8.36208e-06 1.17069e-05 2.68851e+25 5.98161 -4.41914 272.27 
1.02734e-05 1.17069e-05 2.69128e+25 3.40396 -7.65816 272.18 
1.21847e-05 1.17069e-05 2.69069e+25 0.172714 -12.8477 272.421 
1.40961e-05 1.17069e-05 2.69465e+25 -2.25545 -17.8823 272.461 
1.60074e-05 1.17069e-05 2.6946e+25 -1.11475 -12.4331 272.636 
7.1675e-07 1.21847e-05 2.68844e+25 8.93112 2.00846 272.023 
2.62808e-06 1.21847e-05 2.6877e+25 9.52925 0.979052 271.87 
4.53942e-06 1.21847e-05 2.68678e+25 9.56007 0.0142809 272.061 
6.45075e-06 1.21847e-05 2.68541e+25 9.0274 -1.76583 272.142 
8.36208e-06 1.21847e-05 2.68877e+25 7.49851 -3.96486 272.178 
1.02734e-05 1.21847e-05 2.68953e+25 4.97309 -6.76655 272.326 
1.21847e-05 1.21847e-05 2.6908e+25 1.26254 -11.9059 272.449 
1.40961e-05 1.21847e-05 2.6978e+25 -1.72971 -17.4935 272.407 
1.60074e-05 1.21847e-05 2.6966e+25 -1.2098 -13.1531 272.606 
7.1675e-07 1.26626e-05 2.68458e+25 10.6194 1.89856 272.211 
2.62808e-06 1.26626e-05 2.6871e+25 11.1217 0.868855 271.946 
4.53942e-06 1.26626e-05 2.688e+25 11.4638 0.0123906 272.044 
6.45075e-06 1.26626e-05 2.68609e+25 10.8385 -1.46982 272.138 
8.36208e-06 1.26626e-05 2.68882e+25 9.38992 -3.61883 272.186 
1.02734e-05 1.26626e-05 2.6909e+25 6.75787 -6.04279 272.259 
1.21847e-05 1.26626e-05 2.6911e+25 2.87889 -10.8527 272.546 
1.40961e-05 1.26626e-05 2.69715e+25 -1.34191 -16.8483 272.56 
1.60074e-05 1.26626e-05 2.69933e+25 -1.29981 -13.8386 272.681 
7.1675e-07 1.31404e-05 2.68468e+25 12.2897 1.72736 272.234 
2.62808e-06 1.31404e-05 2.68781e+25 12.7019 0.7165 272.01 
4.53942e-06 1.31404e-05 2.68784e+25 13.3226 -0.0188857 272.069 
6.45075e-06 1.31404e-05 2.68479e+25 12.8311 -1.20207 272.396 
8.36208e-06 1.31404e-05 2.68836e+25 11.2596 -3.25413 272.288 
1.02734e-05 1.31404e-05 2.69262e+25 8.75047 -5.20493 272.117 
1.21847e-05 1.31404e-05 2.69346e+25 4.63223 -9.65195 272.594 
1.40961e-05 1.31404e-05 2.69994e+25 -0.632673 -15.8656 272.494 
1.60074e-05 1.31404e-05 2.6997e+25 -1.42276 -14.5584 272.765 
7.1675e-07 1.36182e-05 2.68375e+25 14.219 1.47811 272.412 
2.62808e-06 1.36182e-05 2.68671e+25 14.8086 0.5539 272.123 
4.53942e-06 1.36182e-05 2.68439e+25 15.3551 -0.00976174 272.257 
6.45075e-06 1.36182e-05 2.68367e+25 14.806 -0.975012 272.423 
8.36208e-06 1.36182e-05 2.68689e+25 13.4789 -2.66671 272.163 
1.02734e-05 1.36182e-05 2.69257e+25 10.7243 -4.36809 272.079 
1.21847e-05 1.36182e-05 2.69311e+25 6.40689 -8.35975 272.619 
1.40961e-05 1.36182e-05 2.70187e+25 0.161188 -14.5798 272.444 
1.60074e-05 1.36182e-05 2.70493e+25 -1.67864 -15.1955 272.581 
7.1675e-07 1.40961e-05 2.68416e+25 16.2616 1.27863 272.38 
2.62808e-06 1.40961e-05 2.68732e+25 16.963 0.333239 272.011 
4.53942e-06 1.40961e-05 2.68635e+25 17.4316 -0.0349689 272.153 
6.45075e-06 1.40961e-05 2.68456e+25 16.7937 -0.861685 272.404 
8.36208e-06 1.40961e-05 2.68769e+25 15.5975 -2.05775 272.261 
1.02734e-05 1.40961e-05 2.6933e+25 13.0611 -3.46667 272.145 
1.21847e-05 1.40961e-05 2.69303e+25 8.54235 -7.00872 272.749 
1.40961e-05 1.40961e-05 2.69837e+25 1.53409 -12.9592 272.674 
1.60074e-05 1.40961e-05 2.70712e+25 -1.69145 -15.7237 272.603 
7.1675e-07 1.45739e-05 2.68337e+25 18.6696 0.940141 272.481 
2.62808e-06 1.45739e-05 2.68765e+25 19.3391 0.228628 272.072 
4.53942e-06 1.45739e-05 2.6882e+25 19.6034 -0.171854 272.057 
6.45075e-06 1.45739e-05 2.68439e+25 19.0364 -0.757701 272.477 
8.36208e-06 1.45739e-05 2.68727e+25 18.0156 -1.58114 272.353 
1.02734e-05 1.45739e-05 2.68963e+25 15.6717 -2.71833 272.475 
1.21847e-05 1.45739e-05 2.69186e+25 11.2078 -5.59188 272.796 
1.40961e-05 1.45739e-05 2.70136e+25 3.61645 -10.9162 272.703 
1.60074e-05 1.45739e-05 2.7127e+25 -1.64162 -16.1298 272.611 
7.1675e-07 1.50518e-05 2.68471e+25 21.1958 0.564857 272.449 
2.62808e-06 1.50518e-05 2.68498e+25 22.0452 0.195645 272.2 
4.53942e-06 1.50518e-05 2.68666e+25 22.0776 -0.0842189 272.134 
6.45075e-06 1.50518e-05 2.68691e+25 21.6937 -0.612323 272.301 
8.36208e-06 1.50518e-05 2.68869e+25 20.6574 -1.05996 272.36 
1.02734e-05 1.50518e-05 2.6892e+25 18.4993 -2.03839 272.54 
1.21847e-05 1.50518e-05 2.6926e+25 14.2593 -4.16867 272.724 
1.40961e-05 1.50518e-05 2.70216e+25 6.48188 -8.55276 272.844 
1.60074e-05 1.50518e-05 2.71829e+25 -1.58566 -15.9638 272.569 
7.1675e-07 1.55296e-05 2.68413e+25 24.1462 0.299019 272.428 
2.62808e-06 1.55296e-05 2.68265e+25 24.7924 0.129135 272.514 
4.53942e-06 1.55296e-05 2.68773e+25 24.6808 -0.0126627 272.146 
6.45075e-06 1.55296e-05 2.68668e+25 24.6098 -0.43002 272.309 
8.36208e-06 1.55296e-05 2.68724e+25 23.6439 -0.625938 272.373 
1.02734e-05 1.55296e-05 2.68678e+25 21.4832 -1.29736 272.69 
1.21847e-05 1.55296e-05 2.69153e+25 17.8702 -2.82741 272.83 
1.40961e-05 1.55296e-05 2.70124e+25 10.4099 -6.12114 272.947 
1.60074e-05 1.55296e-05 2.72162e+25 -0.696375 -14.9027 272.869 
7.1675e-07 1.60074e-05 2.68284e+25 26.896 0.0690044 272.557 
2.62808e-06 1.60074e-05 2.68354e+25 27.4919 0.0321417 272.503 
4.53942e-06 1.60074e-05 2.68518e+25 27.5343 -0.0130558 272.234 
6.45075e-06 1.60074e-05 2.68666e+25 27.4845 -0.103233 272.507 
8.36208e-06 1.60074e-05 2.68739e+25 26.5769 -0.35397 272.426 
1.02734e-05 1.60074e-05 2.68732e+25 24.9741 -0.742023 272.63 
1.21847e-05 1.60074e-05 2.69436e+25 21.9265 -1.6477 272.753 
1.40961e-05 1.60074e-05 2.70175e+25 15.5343 -3.76366 273.049 
1.60074e-05 1.60074e-05 2.72637e+25 1.58929 -12.4297 273.149 
7.1675e-07 1.64852e-05 2.68121e+25 29.9788 -0.0198348 272.729 
2.62808e-06 1.64852e-05 2.6828e+25 30.5126 -0.0477856 272.588 
4.53942e-06 1.64852e-05 2.68467e+25 30.5063 0.0291482 272.39 
6.45075e-06 1.64852e-05 2.68521e+25 30.2791 0.0624033 272.57 
8.36208e-06 1.64852e-05 2.68626e+25 29.5741 -0.118245 272.564 
1.02734e-05 1.64852e-05 2.68726e+25 28.6796 -0.400907 272.786 
1.21847e-05 1.64852e-05 2.69278e+25 26.4469 -0.595134 272.767 
1.40961e-05 1.64852e-05 2.70105e+25 22.0309 -1.6702 273.165 
1.60074e-05 1.64852e-05 2.73002e+25 7.59613 -7.94102 273.558 
7.1675e-07 1.69631e-05 2.68021e+25 32.9379 0.0174562 272.883 
2.62808e-06 1.69631e-05 2.68084e+25 33.0408 -0.010177 272.709 
4.53942e-06 1.69631e-05 2.68197e+25 33.0535 0.00942992 272.695 
6.45075e-06 1.69631e-05 2.68417e+25 32.9037 0.0181059 272.837 
8.36208e-06 1.69631e-05 2.68377e+25 32.6402 -0.00466011 272.835 
1.02734e-05 1.69631e-05 2.68589e+25 32.1414 -0.139711 272.969 
1.21847e-05 1.69631e-05 2.69333e+25 31.2874 -0.0990212 272.874 
1.40961e-05 1.69631e-05 2.69813e+25 29.4392 -0.322074 273.287 
1.60074e-05 1.69631e-05 2.73312e+25 20.0795 -2.36764 273.644 
1.19458e-06 2.38917e-07 2.68961e+25 -7.93324 0.575076 271.826 
3.10592e-06 2.38917e-07 2.68675e+25 -8.28311 -1.69629 272.162 
5.01725e-06 2.38917e-07 2.68663e+25 -7.72913 -3.48645 272.221 
6.92858e-06 2.38917e-07 2.68898e+25 -7.34336 -5.71112 272.012 
8.83992e-06 2.38917e-07 2.68775e+25 -6.46773 -7.81907 272.249 
1.07512e-05 2.38917e-07 2.6885e+25 -5.02209 -8.30208 272.029 
1.26626e-05 2.38917e-07 2.68827e+25 -3.24618 -7.6574 272.172 
1.45739e-05 2.38917e-07 2.69006e+25 -1.17981 -5.13688 272.007 
1.64852e-05 2.38917e-07 2.68524e+25 -0.134216 -1.47867 272.408 
1.19458e-06 7.1675e-07 2.69003e+25 -7.75323 0.859111 271.988 
3.10592e-06 7.1675e-07 2.68874e+25 -8.11131 -1.59332 272.115 
5.01725e-06 7.1675e-07 2.68903e+25 -7.93448 -3.59981 272.165 
6.92858e-06 7.1675e-07 2.6898e+25 -7.30289 -5.76552 272.155 
8.83992e-06 7.1675e-07 2.69112e+25 -6.74619 -8.22397 272.256 
1.07512e-05 7.1675e-07 2.69285e+25 -5.32763 -8.69199 272.066 
1.26626e-05 7.1675e-07 2.69016e+25 -3.3971 -8.12621 272.229 
1.45739e-05 7.1675e-07 2.69094e+25 -1.32379 -5.59887 272.111 
1.64852e-05 7.1675e-07 2.68586e+25 -0.113845 -1.52958 272.605 
1.19458e-06 1.19458e-06 2.68932e+25 -7.48884 1.14508 272.046 
3.10592e-06 1.19458e-06 2.68949e+25 -8.14077 -1.49706 272.005 
5.01725e-06 1.19458e-06 2.68952e+25 -8.1803 -3.73759 272.137 
6.92858e-06 1.19458e-06 2.69032e+25 -7.45085 -5.81841 272.071 
8.83992e-06 1.19458e-06 2.68924e+25 -6.75473 -8.38969 272.218 
1.07512e-05 1.19458e-06 2.69149e+25 -5.47123 -9.10597 272.101 
1.26626e-05 1.19458e-06 2.68965e+25 -3.35693 -8.68658 272.331 
1.45739e-05 1.19458e-06 2.68972e+25 -1.3634 -6.13832 272.212 
1.64852e-05 1.19458e-06 2.68484e+25 -0.212795 -1.64238 272.691 
1.19458e-06 1.67242e-06 2.68877e+25 -7.31569 1.3617 271.987 
3.10592e-06 1.67242e-06 2.691e+25 -8.03923 -1.37798 271.941 
5.01725e-06 1.67242e-06 2.68977e+25 -8.25138 -3.77521 272.072 
6.92858e-06 1.67242e-06 2.68693e+25 -7.69192 -6.01967 272.33 
8.83992e-06 1.67242e-06 2.68783e+25 -6.76115 -8.62561 272.255 
1.07512e-05 1.67242e-06 2.68917e+25 -5.66831 -9.55135 272.163 
1.26626e-05 1.67242e-06 2.69155e+25 -3.45917 -9.21693 272.222 
1.45739e-05 1.67242e-06 2.68813e+25 -1.61573 -6.58751 272.244 
1.64852e-05 1.67242e-06 2.68555e+25 -0.185928 -1.92921 272.689 
1.19458e-06 2.15025e-06 2.6891e+25 -7.07845 1.53503 272.142 
3.10592e-06 2.15025e-06 2.68858e+25 -7.97918 -1.20611 272.036 
5.01725e-06 2.15025e-06 2.69063e+25 -8.21895 -3.79249 271.94 
6.92858e-06 2.15025e-06 2.68651e+25 -7.69157 -6.2785 272.421 
8.83992e-06 2.15025e-06 2.68878e+25 -6.90594 -8.71923 272.434 
1.07512e-05 2.15025e-06 2.68895e+25 -5.85993 -9.99384 272.194 
1.26626e-05 2.15025e-06 2.69038e+25 -3.81679 -9.75256 272.105 
1.45739e-05 2.15025e-06 2.69004e+25 -1.70222 -7.10161 272.09 
1.64852e-05 2.15025e-06 2.68455e+25 -0.147981 -2.08317 272.703 
1.19458e-06 2.62808e-06 2.69005e+25 -6.81998 1.7137 271.87 
3.10592e-06 2.62808e-06 2.68901e+25 -7.76732 -1.0335 272.02 
5.01725e-06 2.62808e-06 2.68962e+25 -8.00189 -3.84268 272.082 
6.92858e-06 2.62808e-06 2.68628e+25 -7.80391 -6.45577 272.221 
8.83992e-06 2.62808e-06 2.68799e+25 -7.07209 -8.9295 272.329 
1.07512e-05 2.62808e-06 2.6898e+25 -6.05992 -10.4605 272.213 
1.26626e-05 2.62808e-06 2.68996e+25 -4.08792 -10.3205 272.197 
1.45739e-05 2.62808e-06 2.69176e+25 -1.81027 -7.58682 272.141 
1.64852e-05 2.62808e-06 2.686e+25 -0.105695 -2.27477 272.52 
1.19458e-06 3.10592e-06 2.68852e+25 -6.49011 1.85382 271.944 
3.10592e-06 3.10592e-06 2.68663e+25 -7.34676 -0.99683 272.143 
5.01725e-06 3.10592e-06 2.68857e+25 -7.93577 -3.78217 272.036 
6.92858e-06 3.10592e-06 2.68848e+25 -7.80563 -6.58015 272.12 
8.83992e-06 3.10592e-06 2.68815e+25 -7.20304 -9.13066 272.299 
1.07512e-05 3.10592e-06 2.68965e+25 -6.31785 -10.8511 272.252 
1.26626e-05 3.10592e-06 2.69239e+25 -4.27213 -10.7186 272.067 
1.45739e-05 3.10592e-06 2.69077e+25 -1.82857 -8.15125 272.043 
1.64852e-05 3.10592e-06 2.68839e+25 -0.0878578 -2.47683 272.454 
1.19458e-06 3.58375e-06 2.68828e+25 -6.13538 1.96054 271.999 
3.10592e-06 3.58375e-06 2.68837e+25 -6.70405 -0.719893 272.024 
5.01725e-06 3.58375e-06 2.68712e+25 -7.68699 -3.6612 272.176 
6.92858e-06 3.58375e-06 2.68746e+25 -7.6508 -6.64087 272.177 
8.83992e-06 3.58375e-06 2.68699e+25 -7.41198 -9.26868 272.453 
1.07512e-05 3.58375e-06 2.68854e+25 -6.40468 -11.2554 272.248 
1.26626e-05 3.58375e-06 2.69075e+25 -4.56631 -11.2487 272.225 
1.45739e-05 3.58375e-06 2.69208e+25 -1.93979 -8.7204 272.029 
1.64852e-05 3.58375e-06 2.68784e+25 -0.169999 -2.66086 272.607 
1.19458e-06 4.06158e-06 2.68725e+25 -5.61389 1.95455 272.061 
3.10592e-06 4.06158e-06 2.68814e+25 -6.18831 -0.348286 272.026 
5.01725e-06 4.06158e-06 2.68658e+25 -7.2193 -3.58704 272.276 
6.92858e-06 4.06158e-06 2.68612e+25 -7.42643 -6.69134 272.219 
8.83992e-06 4.06158e-06 2.68834e+25 -7.2945 -9.2631 272.352 
1.07512e-05 4.06158e-06 2.68801e+25 -6.37691 -11.5999 272.365 
1.26626e-05 4.06158e-06 2.69134e+25 -4.59661 -11.8908 272.059 
1.45739e-05 4.06158e-06 2.6922e+25 -1.98972 -9.2335 272.081 
1.64852e-05 4.06158e-06 2.68817e+25 -0.230101 -2.93245 272.607 
1.19458e-06 4.53942e-06 2.68528e+25 -5.16896 2.15608 272.21 
3.10592e-06 4.53942e-06 2.68697e+25 -5.70524 -0.186842 272.179 
5.01725e-06 4.53942e-06 2.68374e+25 -6.53493 -3.47127 272.37 
6.92858e-06 4.53942e-06 2.68686e+25 -7.04038 -6.56481 272.287 
8.83992e-06 4.53942e-06 2.68596e+25 -7.16617 -9.26389 272.228 
1.07512e-05 4.53942e-06 2.6899e+25 -6.40949 -11.8147 272.251 
1.26626e-05 4.53942e-06 2.69113e+25 -4.63792 -12.4842 272.172 
1.45739e-05 4.53942e-06 2.6909e+25 -2.01238 -9.95625 272.126 
1.64852e-05 4.53942e-06 2.68628e+25 -0.197731 -3.07586 272.564 
1.19458e-06 5.01725e-06 2.6867e+25 -4.55586 2.40899 272.082 
3.10592e-06 5.01725e-06 2.68838e+25 -5.19232 -0.109843 272.051 
5.01725e-06 5.01725e-06 2.68786e+25 -5.93007 -3.3241 272.183 
6.92858e-06 5.01725e-06 2.68573e+25 -6.82013 -6.42362 272.328 
8.83992e-06 5.01725e-06 2.68763e+25 -7.0681 -9.35991 272.334 
1.07512e-05 5.01725e-06 2.68675e+25 -6.32609 -12.0681 272.306 
1.26626e-05 5.01725e-06 2.68949e+25 -4.46708 -13.0428 272.148 
1.45739e-05 5.01725e-06 2.6908e+25 -1.98169 -10.6788 272.268 
1.64852e-05 5.01725e-06 2.68773e+25 -0.213507 -3.26075 272.539 
1.19458e-06 5.49508e-06 2.68784e+25 -4.08168 2.57096 272.092 
3.10592e-06 5.49508e-06 2.68845e+25 -4.5584 0.0920168 271.99 
5.01725e-06 5.49508e-06 2.687e+25 -5.40152 -2.991 272.262 
6.92858e-06 5.49508e-06 2.68689e+25 -6.41307 -6.29583 272.274 
8.83992e-06 5.49508e-06 2.68597e+25 -6.85362 -9.3979 272.338 
1.07512e-05 5.49508e-06 2.68815e+25 -6.03808 -12.2838 272.266 
1.26626e-05 5.49508e-06 2.69056e+25 -4.45292 -13.5756 272.217 
1.45739e-05 5.49508e-06 2.6912e+25 -2.1225 -11.2985 272.228 
1.64852e-05 5.49508e-06 2.68793e+25 -0.203414 -3.46748 272.419 
1.19458e-06 5.97292e-06 2.68561e+25 -3.4392 2.56105 272.166 
3.10592e-06 5.97292e-06 2.68882e+25 -3.85599 0.227084 271.935 
5.01725e-06 5.97292e-06 2.68658e+25 -4.74932 -2.63352 272.095 
6.92858e-06 5.97292e-06 2.68788e+25 -5.98125 -6.13673 272.18 
8.83992e-06 5.97292e-06 2.68933e+25 -6.34607 -9.33831 272.05 
1.07512e-05 5.97292e-06 2.68833e+25 -5.87065 -12.5151 272.271 
1.26626e-05 5.97292e-06 2.68852e+25 -4.23899 -14.0716 272.263 
1.45739e-05 5.97292e-06 2.6922e+25 -2.22531 -11.8048 272.141 
1.64852e-05 5.97292e-06 2.687e+25 -0.251755 -3.78513 272.465 
1.19458e-06 6.45075e-06 2.68729e+25 -2.7659 2.62927 272.029 
3.10592e-06 6.45075e-06 2.68649e+25 -3.14211 0.495198 272.119 
5.01725e-06 6.45075e-06 2.68613e+25 -3.96946 -2.33769 272.131 
6.92858e-06 6.45075e-06 2.68684e+25 -5.34361 -5.8792 272.081 
8.83992e-06 6.45075e-06 2.689e+25 -5.96894 -9.29637 272 
1.07512e-05 6.45075e-06 2.68761e+25 -5.73812 -12.7833 272.323 
1.26626e-05 6.45075e-06 2.69095e+25 -4.57434 -14.5566 272.138 
1.45739e-05 6.45075e-06 2.69168e+25 -2.00981 -12.2991 272.168 
1.64852e-05 6.45075e-06 2.68784e+25 -0.261122 -4.15509 272.582 
1.19458e-06 6.92858e-06 2.68758e+25 -2.1314 2.68922 272.067 
3.10592e-06 6.92858e-06 2.68528e+25 -2.4638 0.720659 272.11 
5.01725e-06 6.92858e-06 2.68496e+25 -3.43798 -2.12201 272.316 
6.92858e-06 6.92858e-06 2.68653e+25 -4.53235 -5.65254 272.225 
8.83992e-06 6.92858e-06 2.68794e+25 -5.3574 -9.31234 272.155 
1.07512e-05 6.92858e-06 2.68769e+25 -5.34692 -12.9532 272.245 
1.26626e-05 6.92858e-06 2.69144e+25 -4.68556 -15.0405 272.178 
1.45739e-05 6.92858e-06 2.68989e+25 -2.16232 -12.8508 272.327 
1.64852e-05 6.92858e-06 2.68811e+25 -0.252081 -4.46376 272.475 
1.19458e-06 7.40642e-06 2.68915e+25 -1.3674 2.66151 271.911 
3.10592e-06 7.40642e-06 2.68504e+25 -1.81235 0.981251 272.084 
5.01725e-06 7.40642e-06 2.68486e+25 -2.48077 -1.99674 272.293 
6.92858e-06 7.40642e-06 2.68644e+25 -3.55439 -5.30281 272.291 
8.83992e-06 7.40642e-06 2.68696e+25 -4.49063 -9.19402 272.27 
1.07512e-05 7.40642e-06 2.68869e+25 -5.12036 -13.0071 272.414 
1.26626e-05 7.40642e-06 2.68994e+25 -4.73566 -15.5477 272.278 
1.45739e-05 7.40642e-06 2.69015e+25 -2.6301 -13.4754 272.298 
1.64852e-05 7.40642e-06 2.68784e+25 -0.411798 -4.66087 272.515 
1.19458e-06 7.88425e-06 2.6874e+25 -0.735239 2.4782 272.03 
3.10592e-06 7.88425e-06 2.68491e+25 -0.916377 1.07998 272.182 
5.01725e-06 7.88425e-06 2.68451e+25 -1.5926 -1.78427 272.263 
6.92858e-06 7.88425e-06 2.68268e+25 -2.3974 -4.98853 272.445 
8.83992e-06 7.88425e-06 2.6888e+25 -3.55415 -9.00686 272.062 
1.07512e-05 7.88425e-06 2.68873e+25 -4.78824 -12.9138 272.252 
1.26626e-05 7.88425e-06 2.68864e+25 -4.49151 -16.0642 272.458 
1.45739e-05 7.88425e-06 2.69206e+25 -2.51407 -14.2152 272.21 
1.64852e-05 7.88425e-06 2.68976e+25 -0.300221 -4.96645 272.438 
1.19458e-06 8.36208e-06 2.68886e+25 0.0381075 2.44572 271.81 
3.10592e-06 8.36208e-06 2.68631e+25 -0.0804097 1.09662 272.164 
5.01725e-06 8.36208e-06 2.6838e+25 -0.552571 -1.59079 272.42 
6.92858e-06 8.36208e-06 2.68468e+25 -1.4597 -4.67025 272.309 
8.83992e-06 8.36208e-06 2.6864e+25 -2.756 -8.64454 272.147 
1.07512e-05 8.36208e-06 2.68915e+25 -4.3484 -12.736 272.187 
1.26626e-05 8.36208e-06 2.68826e+25 -4.38639 -16.2355 272.446 
1.45739e-05 8.36208e-06 2.6916e+25 -2.68957 -14.946 272.295 
1.64852e-05 8.36208e-06 2.68607e+25 -0.243204 -5.41354 272.727 
1.19458e-06 8.83992e-06 2.68841e+25 0.816397 2.5435 271.825 
3.10592e-06 8.83992e-06 2.68498e+25 0.83957 1.09107 272.136 
5.01725e-06 8.83992e-06 2.68549e+25 0.506302 -1.40907 272.251 
6.92858e-06 8.83992e-06 2.68442e+25 -0.41264 -4.32002 272.316 
8.83992e-06 8.83992e-06 2.68839e+25 -2.03518 -8.21594 272.093 
1.07512e-05 8.83992e-06 2.68841e+25 -3.5872 -12.4786 272.324 
1.26626e-05 8.83992e-06 2.69037e+25 -4.31497 -16.2657 272.284 
1.45739e-05 8.83992e-06 2.69099e+25 -2.77924 -15.6464 272.425 
1.64852e-05 8.83992e-06 2.68979e+25 -0.32002 -5.85084 272.516 
1.19458e-06 9.31775e-06 2.68881e+25 1.63793 2.58751 271.881 
3.10592e-06 9.31775e-06 2.68497e+25 1.70528 1.06003 272.145 
5.01725e-06 9.31775e-06 2.68668e+25 1.74793 -1.19258 272.163 
6.92858e-06 9.31775e-06 2.68372e+25 0.559697 -3.96395 272.38 
8.83992e-06 9.31775e-06 2.68631e+25 -1.07346 -7.80529 272.134 
1.07512e-05 9.31775e-06 2.68945e+25 -2.6756 -11.9994 272.329 
1.26626e-05 9.31775e-06 2.69116e+25 -3.88735 -16.2519 272.32 
1.45739e-05 9.31775e-06 2.69037e+25 -2.82742 -16.2972 272.503 
1.64852e-05 9.31775e-06 2.68845e+25 -0.441374 -6.25369 272.673 
1.19458e-06 9.79558e-06 2.68837e+25 2.72367 2.62291 271.837 
3.10592e-06 9.79558e-06 2.68519e+25 2.94796 1.05853 272.124 
5.01725e-06 9.79558e-06 2.68647e+25 2.75346 -0.972889 272.127 
6.92858e-06 9.79558e-06 2.68514e+25 1.85104 -3.7055 272.2 
8.83992e-06 9.79558e-06 2.68773e+25 0.257273 -7.27724 272.209 
1.07512e-05 9.79558e-06 2.6908e+25 -1.80608 -11.5012 272.197 
1.26626e-05 9.79558e-06 2.68987e+25 -3.63827 -16.1684 272.427 
1.45739e-05 9.79558e-06 2.69002e+25 -2.88188 -16.8519 272.583 
1.64852e-05 9.79558e-06 2.69127e+25 -0.362428 -6.59256 272.516 
1.19458e-06 1.02734e-05 2.68682e+25 3.83953 2.4772 271.973 
3.10592e-06 1.02734e-05 2.68587e+25 4.08419 1.13142 272.058 
5.01725e-06 1.02734e-05 2.68459e+25 4.0147 -0.906434 272.239 
6.92858e-06 1.02734e-05 2.68647e+25 3.15595 -3.54494 272.222 
8.83992e-06 1.02734e-05 2.68459e+25 1.55665 -6.7896 272.34 
1.07512e-05 1.02734e-05 2.68842e+25 -0.862838 -10.8776 272.303 
1.26626e-05 1.02734e-05 2.69081e+25 -2.91863 -15.9336 272.437 
1.45739e-05 1.02734e-05 2.69212e+25 -2.62508 -17.2469 272.525 
1.64852e-05 1.02734e-05 2.69229e+25 -0.364766 -6.94424 272.685 
1.19458e-06 1.07512e-05 2.68838e+25 4.9188 2.28547 271.892 
3.10592e-06 1.07512e-05 2.68624e+25 5.35779 1.11614 272.001 
5.01725e-06 1.07512e-05 2.68477e+25 5.11605 -0.820815 272.172 
6.92858e-06 1.07512e-05 2.68681e+25 4.49103 -3.24003 272.193 
8.83992e-06 1.07512e-05 2.68516e+25 2.74226 -6.20412 272.339 
1.07512e-05 1.07512e-05 2.68823e+25 -0.0309738 -10.2864 272.404 
1.26626e-05 1.07512e-05 2.68918e+25 -2.2216 -15.5957 272.487 
1.45739e-05 1.07512e-05 2.6943e+25 -2.51597 -17.719 272.391 
1.64852e-05 1.07512e-05 2.69205e+25 -0.371306 -7.35046 272.594 
1.19458e-06 1.12291e-05 2.68704e+25 6.11118 1.95455 272.015 
3.10592e-06 1.12291e-05 2.68748e+25 6.79527 0.985448 271.911 
5.01725e-06 1.12291e-05 2.68453e+25 6.39781 -0.673118 272.24 
6.92858e-06 1.12291e-05 2.68519e+25 5.85459 -2.94372 272.356 
8.83992e-06 1.12291e-05 2.68371e+25 4.13602 -5.64548 272.614 
1.07512e-05 1.12291e-05 2.689e+25 1.22008 -9.56968 272.479 
1.26626e-05 1.12291e-05 2.69165e+25 -1.40228 -15.0878 272.499 
1.45739e-05 1.12291e-05 2.69499e+25 -2.50305 -18.0346 272.444 
1.64852e-05 1.12291e-05 2.69502e+25 -0.422692 -7.86705 272.625 
1.19458e-06 1.17069e-05 2.6871e+25 7.62219 1.80408 271.983 
3.10592e-06 1.17069e-05 2.68711e+25 8.22735 0.905906 271.953 
5.01725e-06 1.17069e-05 2.68778e+25 7.88803 -0.611268 272.135 
6.92858e-06 1.17069e-05 2.68785e+25 7.26872 -2.61797 272.148 
8.83992e-06 1.17069e-05 2.68618e+25 5.47426 -5.09283 272.47 
1.07512e-05 1.17069e-05 2.69005e+25 2.45844 -8.69243 272.287 
1.26626e-05 1.17069e-05 2.69073e+25 -0.683879 -14.3161 272.511 
1.45739e-05 1.17069e-05 2.6955e+25 -2.37993 -18.2261 272.464 
1.64852e-05 1.17069e-05 2.6944e+25 -0.54259 -8.33745 272.806 
1.19458e-06 1.21847e-05 2.6873e+25 9.08423 1.76898 272.024 
3.10592e-06 1.21847e-05 2.68617e+25 9.68065 0.767602 271.97 
5.01725e-06 1.21847e-05 2.68535e+25 9.51848 -0.568892 272.233 
6.92858e-06 1.21847e-05 2.68744e+25 8.67098 -2.29566 272.173 
8.83992e-06 1.21847e-05 2.68618e+25 7.07451 -4.59159 272.384 
1.07512e-05 1.21847e-05 2.69141e+25 4.13813 -7.77901 272.289 
1.26626e-05 1.21847e-05 2.69025e+25 0.27031 -13.4078 272.575 
1.45739e-05 1.21847e-05 2.69693e+25 -2.15792 -18.0773 272.452 
1.64852e-05 1.21847e-05 2.69416e+25 -0.496234 -8.85178 272.85 
1.19458e-06 1.26626e-05 2.68772e+25 10.6894 1.6577 272.031 
3.10592e-06 1.26626e-05 2.68754e+25 11.196 0.697287 272.053 
5.01725e-06 1.26626e-05 2.68716e+25 11.4413 -0.517199 272.107 
6.92858e-06 1.26626e-05 2.68636e+25 10.5097 -1.86752 272.261 
8.83992e-06 1.26626e-05 2.68791e+25 8.90508 -3.99594 272.269 
1.07512e-05 1.26626e-05 2.69251e+25 5.98992 -6.93833 272.265 
1.26626e-05 1.26626e-05 2.6921e+25 1.73704 -12.4133 272.597 
1.45739e-05 1.26626e-05 2.69718e+25 -1.89052 -17.7335 272.567 
1.64852e-05 1.26626e-05 2.69973e+25 -0.676515 -9.43957 272.573 
1.19458e-06 1.31404e-05 2.68647e+25 12.4832 1.53074 272.137 
3.10592e-06 1.31404e-05 2.68757e+25 12.9039 0.573084 271.994 
5.01725e-06 1.31404e-05 2.68485e+25 13.2962 -0.395925 272.224 
6.92858e-06 1.31404e-05 2.68559e+25 12.5155 -1.48524 272.33 
8.83992e-06 1.31404e-05 2.68931e+25 10.7722 -3.45168 272.219 
1.07512e-05 1.31404e-05 2.69354e+25 7.8377 -6.08906 272.157 
1.26626e-05 1.31404e-05 2.69229e+25 3.31468 -11.1607 272.713 
1.45739e-05 1.31404e-05 2.69949e+25 -1.60249 -17.2265 272.532 
1.64852e-05 1.31404e-05 2.70038e+25 -0.627363 -10.1122 272.684 
1.19458e-06 1.36182e-05 2.68555e+25 14.39 1.44299 272.166 
3.10592e-06 1.36182e-05 2.6868e+25 15.0049 0.353113 272.039 
5.01725e-06 1.36182e-05 2.68546e+25 15.3013 -0.297519 272.313 
6.92858e-06 1.36182e-05 2.68469e+25 14.5641 -1.15787 272.405 
8.83992e-06 1.36182e-05 2.688e+25 12.8738 -2.91193 272.264 
1.07512e-05 1.36182e-05 2.6935e+25 9.87478 -5.23774 272.121 
1.26626e-05 1.36182e-05 2.693e+25 4.98267 -9.66839 272.797 
1.45739e-05 1.36182e-05 2.70194e+25 -1.13141 -16.2841 272.533 
1.64852e-05 1.36182e-05 2.70245e+25 -0.972906 -10.8976 272.802 
1.19458e-06 1.40961e-05 2.68447e+25 16.4835 1.22369 272.33 
3.10592e-06 1.40961e-05 2.68925e+25 17.0797 0.268423 271.87 
5.01725e-06 1.40961e-05 2.68618e+25 17.4302 -0.158105 272.233 
6.92858e-06 1.40961e-05 2.68566e+25 16.6216 -0.918557 272.4 
8.83992e-06 1.40961e-05 2.68735e+25 15.1291 -2.42296 272.401 
1.07512e-05 1.40961e-05 2.69289e+25 12.2617 -4.36193 272.25 
1.26626e-05 1.40961e-05 2.69325e+25 7.10252 -8.17936 272.759 
1.45739e-05 1.40961e-05 2.70242e+25 -0.0641534 -15.0959 272.685 
1.64852e-05 1.40961e-05 2.70914e+25 -0.963727 -11.7315 272.56 
1.19458e-06 1.45739e-05 2.68178e+25 19.0458 0.937333 272.426 
3.10592e-06 1.45739e-05 2.68639e+25 19.4739 0.171554 272.028 
5.01725e-06 1.45739e-05 2.68609e+25 19.635 -0.0997954 272.132 
6.92858e-06 1.45739e-05 2.686e+25 18.9637 -0.826181 272.26 
8.83992e-06 1.45739e-05 2.68907e+25 17.4402 -1.8865 272.357 
1.07512e-05 1.45739e-05 2.69251e+25 14.7357 -3.40156 272.353 
1.26626e-05 1.45739e-05 2.69168e+25 9.65739 -6.6284 272.894 
1.45739e-05 1.45739e-05 2.70402e+25 1.49201 -13.3955 272.572 
1.64852e-05 1.45739e-05 2.7135e+25 -1.07966 -12.4806 272.683 
1.19458e-06 1.50518e-05 2.68282e+25 21.5798 0.680079 272.513 
3.10592e-06 1.50518e-05 2.68716e+25 22.0595 0.0685833 272.197 
5.01725e-06 1.50518e-05 2.68584e+25 21.9603 -0.0879468 272.144 
6.92858e-06 1.50518e-05 2.68659e+25 21.5238 -0.675042 272.279 
8.83992e-06 1.50518e-05 2.68749e+25 20.2321 -1.327 272.468 
1.07512e-05 1.50518e-05 2.6891e+25 17.613 -2.3252 272.535 
1.26626e-05 1.50518e-05 2.69371e+25 12.6758 -4.89339 272.89 
1.45739e-05 1.50518e-05 2.70798e+25 3.99681 -11.1523 272.64 
1.64852e-05 1.50518e-05 2.72026e+25 -1.41709 -13.2733 272.608 
1.19458e-06 1.55296e-05 2.68178e+25 24.3871 0.401329 272.481 
3.10592e-06 1.55296e-05 2.68435e+25 24.8317 0.0519137 272.402 
5.01725e-06 1.55296e-05 2.68657e+25 24.7171 -0.0259753 272.214 
6.92858e-06 1.55296e-05 2.68767e+25 24.288 -0.426464 272.316 
8.83992e-06 1.55296e-05 2.68839e+25 23.1682 -0.889593 272.357 
1.07512e-05 1.55296e-05 2.68938e+25 20.7789 -1.4617 272.704 
1.26626e-05 1.55296e-05 2.69517e+25 16.4286 -3.22483 272.842 
1.45739e-05 1.55296e-05 2.70589e+25 7.66646 -8.35668 272.886 
1.64852e-05 1.55296e-05 2.72674e+25 -1.39381 -13.7819 272.851 
1.19458e-06 1.60074e-05 2.68132e+25 27.1419 0.179454 272.62 
3.10592e-06 1.60074e-05 2.68557e+25 27.6485 -0.0573597 272.286 
5.01725e-06 1.60074e-05 2.6853e+25 27.5503 -0.0407056 272.378 
6.92858e-06 1.60074e-05 2.68515e+25 27.3299 -0.277008 272.491 
8.83992e-06 1.60074e-05 2.68894e+25 26.2365 -0.435518 272.322 
1.07512e-05 1.60074e-05 2.68858e+25 24.4734 -0.799808 272.803 
1.26626e-05 1.60074e-05 2.69462e+25 20.6843 -1.69219 272.896 
1.45739e-05 1.60074e-05 2.70596e+25 12.8175 -5.24565 273.111 
1.64852e-05 1.60074e-05 2.73592e+25 -0.810791 -13.3615 272.976 
1.19458e-06 1.64852e-05 2.67898e+25 30.0414 0.0316075 272.837 
3.10592e-06 1.64852e-05 2.68365e+25 30.4623 -0.125544 272.463 
5.01725e-06 1.64852e-05 2.68371e+25 30.4801 -0.0503572 272.545 
6.92858e-06 1.64852e-05 2.68323e+25 30.1969 -0.110795 272.647 
8.83992e-06 1.64852e-05 2.68651e+25 29.3429 -0.126666 272.547 
1.07512e-05 1.64852e-05 2.68817e+25 28.2923 -0.23778 272.894 
1.26626e-05 1.64852e-05 2.69403e+25 25.6548 -0.678937 272.934 
1.45739e-05 1.64852e-05 2.70358e+25 19.9066 -2.38996 273.306 
1.64852e-05 1.64852e-05 2.74717e+25 2.32263 -10.6268 273.468 
1.19458e-06 1.69631e-05 2.68061e+25 32.8907 -0.033846 272.934 
3.10592e-06 1.69631e-05 2.68122e+25 32.9333 -0.0712905 272.631 
5.01725e-06 1.69631e-05 2.68172e+25 33.0751 -0.0483407 272.849 
6.92858e-06 1.69631e-05 2.68327e+25 32.9622 -0.0107719 272.7 
8.83992e-06 1.69631e-05 2.68506e+25 32.587 -0.0597552 272.803 
1.07512e-05 1.69631e-05 2.68514e+25 31.9643 0.0131884 273.045 
1.26626e-05 1.69631e-05 2.69302e+25 30.9937 -0.132033 272.947 
1.45739e-05 1.69631e-05 2.70214e+25 28.364 -0.519618 273.282 
1.64852e-05 1.69631e-05 2.76686e+25 13.3856 -3.65112 273.931 
