ITEM: TIMESTEP
610000
ITEM: NUMBER OF CELLS
5184
ITEM: BOX BOUNDS ss ss pp
-1.7202e-05 1.7202e-05
-1.7202e-05 1.7202e-05
-0.5 0.5
ITEM: CELLS xc yc f_1[1] f_1[2] f_1[3] f_1[4] 
-1.69631e-05 -1.69631e-05 2.68347e+25 0.0624199 -0.0651127 272.958 
-1.50517e-05 -1.69631e-05 2.68481e+25 -0.0424826 -0.00053516 272.769 
-1.31404e-05 -1.69631e-05 2.68416e+25 0.0139198 0.0176792 272.871 
-1.12291e-05 -1.69631e-05 2.68392e+25 -0.015892 0.0404039 272.832 
-9.31775e-06 -1.69631e-05 2.68494e+25 -0.104103 -0.0104123 272.785 
-7.40642e-06 -1.69631e-05 2.68618e+25 -0.0398428 0.00111454 272.761 
-5.49508e-06 -1.69631e-05 2.68458e+25 -0.202686 -0.00868086 272.844 
-3.58375e-06 -1.69631e-05 2.6856e+25 -0.133789 0.051537 272.84 
-1.67242e-06 -1.69631e-05 2.68494e+25 -0.21989 -0.0163674 272.82 
-1.69631e-05 -1.64852e-05 2.68387e+25 0.00883446 -0.102772 272.812 
-1.50517e-05 -1.64852e-05 2.68816e+25 -0.00247117 0.028112 272.447 
-1.31404e-05 -1.64852e-05 2.68702e+25 0.0235113 0.020846 272.479 
-1.12291e-05 -1.64852e-05 2.68615e+25 -0.030008 0.0487176 272.602 
-9.31775e-06 -1.64852e-05 2.68747e+25 -0.288971 -0.0614857 272.512 
-7.40642e-06 -1.64852e-05 2.68851e+25 -0.161277 -0.0379301 272.367 
-5.49508e-06 -1.64852e-05 2.68789e+25 -0.356973 0.0372756 272.391 
-3.58375e-06 -1.64852e-05 2.6875e+25 -0.367181 0.0941069 272.52 
-1.67242e-06 -1.64852e-05 2.6864e+25 -0.417876 -0.0625602 272.698 
-1.69631e-05 -1.60074e-05 2.6854e+25 -0.0447888 -0.080546 272.722 
-1.50517e-05 -1.60074e-05 2.68919e+25 0.0870428 0.136175 272.431 
-1.31404e-05 -1.60074e-05 2.69003e+25 -0.0320235 -0.0244472 272.223 
-1.12291e-05 -1.60074e-05 2.68915e+25 0.0725522 0.0596133 272.345 
-9.31775e-06 -1.60074e-05 2.68774e+25 -0.367524 -0.0885736 272.415 
-7.40642e-06 -1.60074e-05 2.69063e+25 -0.428175 -0.0332801 272.175 
-5.49508e-06 -1.60074e-05 2.69061e+25 -0.62199 0.0937478 272.162 
-3.58375e-06 -1.60074e-05 2.68886e+25 -0.685862 0.0884022 272.348 
-1.67242e-06 -1.60074e-05 2.68825e+25 -0.695848 -0.083139 272.468 
-1.69631e-05 -1.55296e-05 2.68513e+25 -0.0123913 -0.0249154 272.783 
-1.50517e-05 -1.55296e-05 2.69124e+25 0.0286911 0.194953 272.246 
-1.31404e-05 -1.55296e-05 2.69004e+25 -0.034323 -0.0664302 272.238 
-1.12291e-05 -1.55296e-05 2.68863e+25 -0.141592 0.107899 272.373 
-9.31775e-06 -1.55296e-05 2.68938e+25 -0.28946 -0.0435757 272.258 
-7.40642e-06 -1.55296e-05 2.68986e+25 -0.507436 0.025994 272.241 
-5.49508e-06 -1.55296e-05 2.69054e+25 -0.925574 0.169011 272.105 
-3.58375e-06 -1.55296e-05 2.6906e+25 -1.00653 0.108035 272.159 
-1.67242e-06 -1.55296e-05 2.68895e+25 -0.933858 -0.0381316 272.355 
-1.69631e-05 -1.50517e-05 2.6855e+25 -0.0061062 -0.0272097 272.791 
-1.50517e-05 -1.50517e-05 2.69229e+25 0.110739 0.172592 272.07 
-1.31404e-05 -1.50517e-05 2.6908e+25 0.039546 -0.0503764 272.15 
-1.12291e-05 -1.50517e-05 2.68972e+25 -0.291522 0.0658748 272.24 
-9.31775e-06 -1.50517e-05 2.69083e+25 -0.332247 0.0503472 272.141 
-7.40642e-06 -1.50517e-05 2.68963e+25 -0.768863 0.13567 272.226 
-5.49508e-06 -1.50517e-05 2.69159e+25 -1.09897 0.217321 272.058 
-3.58375e-06 -1.50517e-05 2.69305e+25 -1.19904 0.0669914 271.876 
-1.67242e-06 -1.50517e-05 2.68956e+25 -1.38787 0.0345635 272.27 
-1.69631e-05 -1.45739e-05 2.68638e+25 0.0174715 -0.0347812 272.708 
-1.50517e-05 -1.45739e-05 2.69179e+25 0.0807975 0.106778 272.034 
-1.31404e-05 -1.45739e-05 2.69268e+25 -0.0745111 0.0855754 271.946 
-1.12291e-05 -1.45739e-05 2.68956e+25 -0.308595 0.120726 272.258 
-9.31775e-06 -1.45739e-05 2.69144e+25 -0.469727 0.205531 272.093 
-7.40642e-06 -1.45739e-05 2.68996e+25 -1.06112 0.223364 272.245 
-5.49508e-06 -1.45739e-05 2.69268e+25 -1.39874 0.331069 271.957 
-3.58375e-06 -1.45739e-05 2.69329e+25 -1.44637 0.0215516 271.916 
-1.67242e-06 -1.45739e-05 2.69056e+25 -1.61159 0.0683367 272.166 
-1.69631e-05 -1.40961e-05 2.6857e+25 0.0344443 -0.0551319 272.763 
-1.50517e-05 -1.40961e-05 2.69203e+25 -0.0702753 0.0892729 272.055 
-1.31404e-05 -1.40961e-05 2.69271e+25 -0.270601 0.176337 271.947 
-1.12291e-05 -1.40961e-05 2.68953e+25 -0.361734 0.234437 272.233 
-9.31775e-06 -1.40961e-05 2.69052e+25 -0.677967 0.37035 272.015 
-7.40642e-06 -1.40961e-05 2.68979e+25 -1.1966 0.285756 272.246 
-5.49508e-06 -1.40961e-05 2.69309e+25 -1.49129 0.441131 271.854 
-3.58375e-06 -1.40961e-05 2.69203e+25 -1.79648 -0.0297889 272.054 
-1.67242e-06 -1.40961e-05 2.69228e+25 -1.75128 0.0411435 272.034 
-1.69631e-05 -1.36182e-05 2.68428e+25 -0.000656843 -0.0997282 272.801 
-1.50517e-05 -1.36182e-05 2.69032e+25 -0.241804 0.10561 272.23 
-1.31404e-05 -1.36182e-05 2.69334e+25 -0.381514 0.199418 271.959 
-1.12291e-05 -1.36182e-05 2.69164e+25 -0.543038 0.320444 272.057 
-9.31775e-06 -1.36182e-05 2.69283e+25 -0.897741 0.42245 271.925 
-7.40642e-06 -1.36182e-05 2.69353e+25 -1.39805 0.37736 271.944 
-5.49508e-06 -1.36182e-05 2.69302e+25 -1.59274 0.513373 271.924 
-3.58375e-06 -1.36182e-05 2.69293e+25 -2.00578 -0.0526215 271.931 
-1.67242e-06 -1.36182e-05 2.69275e+25 -1.86564 0.0566228 271.956 
-1.69631e-05 -1.31404e-05 2.68468e+25 -0.00177878 -0.0806026 272.817 
-1.50517e-05 -1.31404e-05 2.69091e+25 -0.259208 0.211925 272.11 
-1.31404e-05 -1.31404e-05 2.692e+25 -0.346079 0.220459 271.997 
-1.12291e-05 -1.31404e-05 2.69212e+25 -0.644162 0.363153 271.949 
-9.31775e-06 -1.31404e-05 2.69343e+25 -1.16868 0.455082 271.951 
-7.40642e-06 -1.31404e-05 2.69379e+25 -1.58761 0.495438 271.892 
-5.49508e-06 -1.31404e-05 2.69248e+25 -1.70114 0.495595 271.897 
-3.58375e-06 -1.31404e-05 2.69351e+25 -2.07124 -0.0251513 271.917 
-1.67242e-06 -1.31404e-05 2.69241e+25 -2.16347 0.156631 271.918 
-1.69631e-05 -1.26626e-05 2.68393e+25 0.00313662 -0.0843009 272.831 
-1.50517e-05 -1.26626e-05 2.6896e+25 -0.168562 0.253891 272.214 
-1.31404e-05 -1.26626e-05 2.69158e+25 -0.340308 0.265087 272.062 
-1.12291e-05 -1.26626e-05 2.69198e+25 -0.729739 0.514164 272.005 
-9.31775e-06 -1.26626e-05 2.6928e+25 -1.22874 0.585097 271.925 
-7.40642e-06 -1.26626e-05 2.69283e+25 -1.75338 0.600634 271.9 
-5.49508e-06 -1.26626e-05 2.69167e+25 -1.8971 0.511783 271.976 
-3.58375e-06 -1.26626e-05 2.69346e+25 -2.20101 0.125701 271.829 
-1.67242e-06 -1.26626e-05 2.69168e+25 -2.44134 0.211783 272.024 
-1.69631e-05 -1.21847e-05 2.68497e+25 0.00567141 -0.064881 272.823 
-1.50517e-05 -1.21847e-05 2.6918e+25 -0.0973343 0.254547 271.997 
-1.31404e-05 -1.21847e-05 2.69112e+25 -0.424521 0.31895 272.006 
-1.12291e-05 -1.21847e-05 2.69197e+25 -0.838893 0.675225 272.02 
-9.31775e-06 -1.21847e-05 2.69321e+25 -1.4822 0.730203 271.905 
-7.40642e-06 -1.21847e-05 2.69345e+25 -1.90316 0.701201 271.889 
-5.49508e-06 -1.21847e-05 2.69246e+25 -2.10084 0.511836 272.01 
-3.58375e-06 -1.21847e-05 2.69458e+25 -2.26375 0.241392 271.925 
-1.67242e-06 -1.21847e-05 2.69196e+25 -2.55811 0.199977 271.968 
-1.69631e-05 -1.17069e-05 2.68455e+25 0.0101633 -0.081467 272.868 
-1.50517e-05 -1.17069e-05 2.69261e+25 -0.180008 0.420004 271.948 
-1.31404e-05 -1.17069e-05 2.69249e+25 -0.54387 0.381419 272.052 
-1.12291e-05 -1.17069e-05 2.6917e+25 -0.995812 0.840042 272.046 
-9.31775e-06 -1.17069e-05 2.69345e+25 -1.6059 0.838457 271.854 
-7.40642e-06 -1.17069e-05 2.69216e+25 -2.07142 0.763278 271.959 
-5.49508e-06 -1.17069e-05 2.69181e+25 -2.24038 0.487454 272.063 
-3.58375e-06 -1.17069e-05 2.69286e+25 -2.59371 0.308215 272.028 
-1.67242e-06 -1.17069e-05 2.69165e+25 -2.7585 0.202285 271.994 
-1.69631e-05 -1.12291e-05 2.68565e+25 -0.0192007 -0.0383344 272.787 
-1.50517e-05 -1.12291e-05 2.69214e+25 -0.22469 0.50051 272.073 
-1.31404e-05 -1.12291e-05 2.69306e+25 -0.626214 0.431998 271.986 
-1.12291e-05 -1.12291e-05 2.69181e+25 -1.04965 0.939932 272.019 
-9.31775e-06 -1.12291e-05 2.69196e+25 -1.59806 1.02848 272.001 
-7.40642e-06 -1.12291e-05 2.69276e+25 -2.10726 0.873901 272.049 
-5.49508e-06 -1.12291e-05 2.69251e+25 -2.47776 0.611418 271.998 
-3.58375e-06 -1.12291e-05 2.69152e+25 -2.7888 0.335406 272.144 
-1.67242e-06 -1.12291e-05 2.69102e+25 -3.04163 0.205959 272.1 
-1.69631e-05 -1.07512e-05 2.68519e+25 0.0223627 -0.076646 272.73 
-1.50517e-05 -1.07512e-05 2.69188e+25 -0.229415 0.513656 272.035 
-1.31404e-05 -1.07512e-05 2.69226e+25 -0.572187 0.520625 272 
-1.12291e-05 -1.07512e-05 2.69269e+25 -1.18782 1.02953 271.952 
-9.31775e-06 -1.07512e-05 2.69177e+25 -1.65141 1.2837 271.964 
-7.40642e-06 -1.07512e-05 2.69215e+25 -2.38097 0.920405 272.011 
-5.49508e-06 -1.07512e-05 2.69296e+25 -2.58408 0.785453 271.92 
-3.58375e-06 -1.07512e-05 2.69193e+25 -3.03188 0.449706 272.1 
-1.67242e-06 -1.07512e-05 2.69047e+25 -3.41939 0.278909 272.176 
-1.69631e-05 -1.02734e-05 2.68502e+25 -0.0481118 -0.0310059 272.764 
-1.50517e-05 -1.02734e-05 2.69236e+25 -0.103154 0.542654 272.005 
-1.31404e-05 -1.02734e-05 2.69136e+25 -0.63638 0.635778 272.067 
-1.12291e-05 -1.02734e-05 2.69129e+25 -1.25285 1.16967 272.103 
-9.31775e-06 -1.02734e-05 2.69173e+25 -1.89508 1.474 272.05 
-7.40642e-06 -1.02734e-05 2.69166e+25 -2.42311 1.00867 271.985 
-5.49508e-06 -1.02734e-05 2.69311e+25 -2.81923 0.870269 271.94 
-3.58375e-06 -1.02734e-05 2.69248e+25 -3.22437 0.601115 271.925 
-1.67242e-06 -1.02734e-05 2.69066e+25 -3.79208 0.332933 272.126 
-1.69631e-05 -9.79558e-06 2.68551e+25 -0.0395774 0.0794943 272.744 
-1.50517e-05 -9.79558e-06 2.69217e+25 -0.107625 0.648635 272.038 
-1.31404e-05 -9.79558e-06 2.69311e+25 -0.645102 0.860645 271.941 
-1.12291e-05 -9.79558e-06 2.69278e+25 -1.34545 1.26143 271.947 
-9.31775e-06 -9.79558e-06 2.69168e+25 -1.98836 1.67841 272.091 
-7.40642e-06 -9.79558e-06 2.69131e+25 -2.49103 1.16631 272.023 
-5.49508e-06 -9.79558e-06 2.69372e+25 -3.21481 0.913495 271.842 
-3.58375e-06 -9.79558e-06 2.6927e+25 -3.451 0.803599 271.975 
-1.67242e-06 -9.79558e-06 2.69029e+25 -3.95406 0.417767 272.131 
-1.69631e-05 -9.31775e-06 2.68585e+25 -0.00536319 0.114835 272.714 
-1.50517e-05 -9.31775e-06 2.69096e+25 -0.108415 0.65672 272.147 
-1.31404e-05 -9.31775e-06 2.69406e+25 -0.603681 1.10163 271.872 
-1.12291e-05 -9.31775e-06 2.69449e+25 -1.37506 1.426 271.751 
-9.31775e-06 -9.31775e-06 2.6912e+25 -2.02973 1.73597 272.075 
-7.40642e-06 -9.31775e-06 2.69081e+25 -2.53722 1.34505 272.113 
-5.49508e-06 -9.31775e-06 2.69427e+25 -3.45285 1.05412 271.766 
-3.58375e-06 -9.31775e-06 2.69174e+25 -3.84845 0.925542 272.031 
-1.67242e-06 -9.31775e-06 2.69133e+25 -4.20113 0.38753 272.096 
-1.69631e-05 -8.83992e-06 2.68397e+25 -0.00237183 0.146035 272.825 
-1.50517e-05 -8.83992e-06 2.69088e+25 -0.166023 0.697143 272.082 
-1.31404e-05 -8.83992e-06 2.69416e+25 -0.596371 1.30295 271.795 
-1.12291e-05 -8.83992e-06 2.69404e+25 -1.38318 1.6768 271.819 
-9.31775e-06 -8.83992e-06 2.6927e+25 -2.0658 1.7903 272.037 
-7.40642e-06 -8.83992e-06 2.69039e+25 -2.73647 1.62851 272.15 
-5.49508e-06 -8.83992e-06 2.69457e+25 -3.5564 1.19695 271.754 
-3.58375e-06 -8.83992e-06 2.69315e+25 -4.13998 0.996335 271.951 
-1.67242e-06 -8.83992e-06 2.68982e+25 -4.53614 0.405792 272.232 
-1.69631e-05 -8.36208e-06 2.6848e+25 0.00360192 0.157314 272.861 
-1.50517e-05 -8.36208e-06 2.69185e+25 -0.248971 0.781938 272.06 
-1.31404e-05 -8.36208e-06 2.69329e+25 -0.770636 1.44583 271.882 
-1.12291e-05 -8.36208e-06 2.69281e+25 -1.50114 1.91158 271.939 
-9.31775e-06 -8.36208e-06 2.69332e+25 -2.03259 1.98074 271.893 
-7.40642e-06 -8.36208e-06 2.69011e+25 -2.89585 1.91968 272.138 
-5.49508e-06 -8.36208e-06 2.69327e+25 -3.56277 1.37237 271.891 
-3.58375e-06 -8.36208e-06 2.69302e+25 -4.3278 1.10992 272.071 
-1.67242e-06 -8.36208e-06 2.69088e+25 -4.83968 0.513363 272.159 
-1.69631e-05 -7.88425e-06 2.68551e+25 -0.000142032 0.15357 272.822 
-1.50517e-05 -7.88425e-06 2.69081e+25 -0.182016 0.909326 272.06 
-1.31404e-05 -7.88425e-06 2.69285e+25 -0.869703 1.63016 271.941 
-1.12291e-05 -7.88425e-06 2.69259e+25 -1.55658 2.02905 271.943 
-9.31775e-06 -7.88425e-06 2.693e+25 -2.17276 2.19347 271.938 
-7.40642e-06 -7.88425e-06 2.69233e+25 -3.03092 2.10275 272.007 
-5.49508e-06 -7.88425e-06 2.69183e+25 -3.77761 1.57085 271.983 
-3.58375e-06 -7.88425e-06 2.69159e+25 -4.44826 1.31015 272.053 
-1.67242e-06 -7.88425e-06 2.69225e+25 -4.92701 0.663272 272.103 
-1.69631e-05 -7.40642e-06 2.68643e+25 0.0203926 0.125786 272.776 
-1.50517e-05 -7.40642e-06 2.69359e+25 -0.22088 1.08763 271.889 
-1.31404e-05 -7.40642e-06 2.69315e+25 -0.953777 1.75241 271.896 
-1.12291e-05 -7.40642e-06 2.69195e+25 -1.57613 2.13978 272.007 
-9.31775e-06 -7.40642e-06 2.6943e+25 -2.27448 2.44179 271.821 
-7.40642e-06 -7.40642e-06 2.6929e+25 -3.14368 2.27727 271.991 
-5.49508e-06 -7.40642e-06 2.69242e+25 -3.83654 1.72346 271.959 
-3.58375e-06 -7.40642e-06 2.69179e+25 -4.53753 1.51906 272.04 
-1.67242e-06 -7.40642e-06 2.69116e+25 -5.09976 0.766174 272.083 
-1.69631e-05 -6.92858e-06 2.68547e+25 0.0263496 0.098992 272.791 
-1.50517e-05 -6.92858e-06 2.69278e+25 -0.20598 1.32447 271.922 
-1.31404e-05 -6.92858e-06 2.69389e+25 -0.920186 1.91743 271.844 
-1.12291e-05 -6.92858e-06 2.69235e+25 -1.48385 2.28759 271.977 
-9.31775e-06 -6.92858e-06 2.69403e+25 -2.37865 2.57958 271.836 
-7.40642e-06 -6.92858e-06 2.69176e+25 -3.23512 2.51829 272.09 
-5.49508e-06 -6.92858e-06 2.69306e+25 -3.93504 1.86915 271.986 
-3.58375e-06 -6.92858e-06 2.69247e+25 -4.68924 1.65614 271.947 
-1.67242e-06 -6.92858e-06 2.69146e+25 -5.19474 0.903545 272.036 
-1.69631e-05 -6.45075e-06 2.68563e+25 -0.017189 0.134326 272.752 
-1.50517e-05 -6.45075e-06 2.69368e+25 -0.26446 1.4666 271.853 
-1.31404e-05 -6.45075e-06 2.69525e+25 -0.948048 2.08066 271.718 
-1.12291e-05 -6.45075e-06 2.69073e+25 -1.58291 2.45837 271.954 
-9.31775e-06 -6.45075e-06 2.69299e+25 -2.55748 2.7877 271.875 
-7.40642e-06 -6.45075e-06 2.69221e+25 -3.19682 2.71691 271.964 
-5.49508e-06 -6.45075e-06 2.69249e+25 -4.07269 2.01903 271.979 
-3.58375e-06 -6.45075e-06 2.69239e+25 -4.91104 1.79819 271.943 
-1.67242e-06 -6.45075e-06 2.69008e+25 -5.46133 1.06326 272.116 
-1.69631e-05 -5.97292e-06 2.68647e+25 -0.0163476 0.187735 272.744 
-1.50517e-05 -5.97292e-06 2.69303e+25 -0.361174 1.58489 271.922 
-1.31404e-05 -5.97292e-06 2.69351e+25 -0.920316 2.23749 271.857 
-1.12291e-05 -5.97292e-06 2.69219e+25 -1.75323 2.72846 271.948 
-9.31775e-06 -5.97292e-06 2.69365e+25 -2.61676 3.07095 271.827 
-7.40642e-06 -5.97292e-06 2.69315e+25 -3.40775 2.95892 271.852 
-5.49508e-06 -5.97292e-06 2.6912e+25 -4.31838 2.24189 272.019 
-3.58375e-06 -5.97292e-06 2.69331e+25 -4.99736 1.94148 271.951 
-1.67242e-06 -5.97292e-06 2.69261e+25 -5.68283 1.19063 271.983 
-1.69631e-05 -5.49508e-06 2.68491e+25 0.0400183 0.177084 272.805 
-1.50517e-05 -5.49508e-06 2.69195e+25 -0.396013 1.69526 272.056 
-1.31404e-05 -5.49508e-06 2.69087e+25 -0.968961 2.38901 272.069 
-1.12291e-05 -5.49508e-06 2.69148e+25 -2.03119 2.992 272.011 
-9.31775e-06 -5.49508e-06 2.69376e+25 -2.70009 3.28251 271.773 
-7.40642e-06 -5.49508e-06 2.69368e+25 -3.53559 3.14526 271.784 
-5.49508e-06 -5.49508e-06 2.69233e+25 -4.45726 2.48149 272.015 
-3.58375e-06 -5.49508e-06 2.69223e+25 -5.19561 2.07527 271.998 
-1.67242e-06 -5.49508e-06 2.69138e+25 -5.76553 1.32305 272.069 
-1.69631e-05 -5.01725e-06 2.68596e+25 -0.00231605 0.158142 272.808 
-1.50517e-05 -5.01725e-06 2.69239e+25 -0.465704 1.77549 272.023 
-1.31404e-05 -5.01725e-06 2.69136e+25 -1.11222 2.64501 272.027 
-1.12291e-05 -5.01725e-06 2.69294e+25 -1.98054 3.21845 271.929 
-9.31775e-06 -5.01725e-06 2.69465e+25 -2.71892 3.44739 271.728 
-7.40642e-06 -5.01725e-06 2.69237e+25 -3.63147 3.28581 271.911 
-5.49508e-06 -5.01725e-06 2.68989e+25 -4.63302 2.69299 272.136 
-3.58375e-06 -5.01725e-06 2.69091e+25 -5.44742 2.21696 272.01 
-1.67242e-06 -5.01725e-06 2.69093e+25 -5.93441 1.5334 272.017 
-1.69631e-05 -4.53942e-06 2.68483e+25 -0.0216394 0.176125 272.81 
-1.50517e-05 -4.53942e-06 2.69206e+25 -0.463769 1.78674 272.077 
-1.31404e-05 -4.53942e-06 2.69155e+25 -1.03011 2.84979 272.026 
-1.12291e-05 -4.53942e-06 2.69206e+25 -2.00157 3.5127 271.998 
-9.31775e-06 -4.53942e-06 2.69362e+25 -2.81296 3.57197 271.806 
-7.40642e-06 -4.53942e-06 2.69202e+25 -3.77836 3.53614 271.996 
-5.49508e-06 -4.53942e-06 2.69087e+25 -4.73066 2.96416 272.042 
-3.58375e-06 -4.53942e-06 2.69117e+25 -5.50751 2.3827 272.039 
-1.67242e-06 -4.53942e-06 2.68963e+25 -6.03319 1.68165 272.08 
-1.69631e-05 -4.06158e-06 2.68514e+25 -0.00534131 0.212866 272.784 
-1.50517e-05 -4.06158e-06 2.69228e+25 -0.445421 1.96741 272.07 
-1.31404e-05 -4.06158e-06 2.69128e+25 -1.06578 3.02845 272.082 
-1.12291e-05 -4.06158e-06 2.69267e+25 -1.95003 3.80847 271.926 
-9.31775e-06 -4.06158e-06 2.69392e+25 -2.84415 3.78775 271.786 
-7.40642e-06 -4.06158e-06 2.69061e+25 -3.76068 3.72842 272.066 
-5.49508e-06 -4.06158e-06 2.68984e+25 -4.68095 3.31093 272.197 
-3.58375e-06 -4.06158e-06 2.69211e+25 -5.50136 2.55685 271.997 
-1.67242e-06 -4.06158e-06 2.69031e+25 -6.15245 1.79816 271.962 
-1.69631e-05 -3.58375e-06 2.68608e+25 -0.0289847 0.250592 272.725 
-1.50517e-05 -3.58375e-06 2.69119e+25 -0.42634 2.17882 272.081 
-1.31404e-05 -3.58375e-06 2.69137e+25 -0.872465 3.19045 272.041 
-1.12291e-05 -3.58375e-06 2.69271e+25 -1.78504 4.07627 271.924 
-9.31775e-06 -3.58375e-06 2.69308e+25 -2.92486 4.08055 271.831 
-7.40642e-06 -3.58375e-06 2.69124e+25 -3.87596 3.84841 272.037 
-5.49508e-06 -3.58375e-06 2.68985e+25 -4.76161 3.59018 272.203 
-3.58375e-06 -3.58375e-06 2.69163e+25 -5.7155 2.75253 271.93 
-1.67242e-06 -3.58375e-06 2.69107e+25 -6.3873 1.91489 272.065 
-1.69631e-05 -3.10592e-06 2.68389e+25 -0.0169126 0.347081 272.861 
-1.50517e-05 -3.10592e-06 2.69201e+25 -0.455972 2.33023 272.046 
-1.31404e-05 -3.10592e-06 2.69017e+25 -0.966606 3.32405 272.166 
-1.12291e-05 -3.10592e-06 2.69093e+25 -1.80952 4.24089 272.043 
-9.31775e-06 -3.10592e-06 2.69335e+25 -2.81067 4.345 271.821 
-7.40642e-06 -3.10592e-06 2.69169e+25 -3.83296 4.14694 272.036 
-5.49508e-06 -3.10592e-06 2.68991e+25 -4.83106 3.78426 272.159 
-3.58375e-06 -3.10592e-06 2.69084e+25 -5.8046 2.99035 271.971 
-1.67242e-06 -3.10592e-06 2.68976e+25 -6.50086 1.95213 272.085 
-1.69631e-05 -2.62808e-06 2.68429e+25 0.0103653 0.395428 272.828 
-1.50517e-05 -2.62808e-06 2.69123e+25 -0.383173 2.46826 272.094 
-1.31404e-05 -2.62808e-06 2.68992e+25 -1.07762 3.56868 272.16 
-1.12291e-05 -2.62808e-06 2.69252e+25 -1.71647 4.36668 271.91 
-9.31775e-06 -2.62808e-06 2.69146e+25 -2.74656 4.72581 271.94 
-7.40642e-06 -2.62808e-06 2.69177e+25 -3.91704 4.40808 272.007 
-5.49508e-06 -2.62808e-06 2.69014e+25 -4.91587 4.10025 272.109 
-3.58375e-06 -2.62808e-06 2.69131e+25 -5.82908 3.17278 271.988 
-1.67242e-06 -2.62808e-06 2.69035e+25 -6.49335 2.06159 272.029 
-1.69631e-05 -2.15025e-06 2.68447e+25 0.0247892 0.378361 272.829 
-1.50517e-05 -2.15025e-06 2.69041e+25 -0.297006 2.52682 272.132 
-1.31404e-05 -2.15025e-06 2.69072e+25 -0.996657 3.75741 272.036 
-1.12291e-05 -2.15025e-06 2.69261e+25 -1.89325 4.46126 271.885 
-9.31775e-06 -2.15025e-06 2.69229e+25 -2.74776 5.02767 271.904 
-7.40642e-06 -2.15025e-06 2.69208e+25 -3.9059 4.65516 271.975 
-5.49508e-06 -2.15025e-06 2.69086e+25 -4.90823 4.33684 271.961 
-3.58375e-06 -2.15025e-06 2.69002e+25 -5.84689 3.3727 272.052 
-1.67242e-06 -2.15025e-06 2.69157e+25 -6.51952 2.21378 271.914 
-1.69631e-05 -1.67242e-06 2.68509e+25 -0.0142944 0.361835 272.816 
-1.50517e-05 -1.67242e-06 2.68942e+25 -0.129366 2.60832 272.259 
-1.31404e-05 -1.67242e-06 2.69311e+25 -0.999101 4.00724 271.946 
-1.12291e-05 -1.67242e-06 2.69263e+25 -1.95423 4.71031 271.832 
-9.31775e-06 -1.67242e-06 2.69202e+25 -2.75866 5.18883 271.916 
-7.40642e-06 -1.67242e-06 2.69123e+25 -3.88923 4.87627 271.929 
-5.49508e-06 -1.67242e-06 2.69209e+25 -4.8619 4.50316 271.962 
-3.58375e-06 -1.67242e-06 2.68838e+25 -5.78248 3.62489 272.199 
-1.67242e-06 -1.67242e-06 2.691e+25 -6.62869 2.44321 272.005 
-1.69631e-05 -1.19458e-06 2.68441e+25 0.0457829 0.315037 272.833 
-1.50517e-05 -1.19458e-06 2.68917e+25 -0.105503 2.7462 272.22 
-1.31404e-05 -1.19458e-06 2.69222e+25 -0.973049 4.18413 272.01 
-1.12291e-05 -1.19458e-06 2.69248e+25 -1.83035 5.01782 271.839 
-9.31775e-06 -1.19458e-06 2.69224e+25 -2.801 5.36057 271.898 
-7.40642e-06 -1.19458e-06 2.69185e+25 -3.67284 5.21034 271.886 
-5.49508e-06 -1.19458e-06 2.69161e+25 -4.90245 4.64705 271.941 
-3.58375e-06 -1.19458e-06 2.68936e+25 -5.93943 3.90255 272.077 
-1.67242e-06 -1.19458e-06 2.69037e+25 -6.75422 2.67766 271.967 
-1.69631e-05 -7.1675e-07 2.6848e+25 -0.0350792 0.328351 272.79 
-1.50517e-05 -7.1675e-07 2.69082e+25 -0.0917601 2.92245 272.141 
-1.31404e-05 -7.1675e-07 2.6929e+25 -0.957769 4.37717 271.92 
-1.12291e-05 -7.1675e-07 2.69023e+25 -1.76884 5.32308 272.028 
-9.31775e-06 -7.1675e-07 2.69223e+25 -2.7856 5.61517 271.886 
-7.40642e-06 -7.1675e-07 2.69111e+25 -3.68786 5.52999 271.929 
-5.49508e-06 -7.1675e-07 2.69049e+25 -4.8825 4.9512 271.987 
-3.58375e-06 -7.1675e-07 2.69021e+25 -5.89579 4.1577 271.984 
-1.67242e-06 -7.1675e-07 2.68986e+25 -6.84918 2.92658 272.017 
-1.69631e-05 -2.38917e-07 2.68262e+25 0.000750085 0.36802 272.763 
-1.50517e-05 -2.38917e-07 2.68952e+25 -0.209112 3.08246 272.004 
-1.31404e-05 -2.38917e-07 2.69046e+25 -0.859673 4.64096 271.922 
-1.12291e-05 -2.38917e-07 2.6869e+25 -1.77957 5.51899 272.158 
-9.31775e-06 -2.38917e-07 2.68913e+25 -2.83394 5.82718 271.95 
-7.40642e-06 -2.38917e-07 2.69014e+25 -3.75516 5.81501 271.959 
-5.49508e-06 -2.38917e-07 2.69042e+25 -4.86393 5.31033 271.979 
-3.58375e-06 -2.38917e-07 2.68889e+25 -5.74635 4.36498 271.972 
-1.67242e-06 -2.38917e-07 2.68716e+25 -6.73799 3.18038 272.068 
-1.64852e-05 -1.69631e-05 2.68416e+25 0.0756889 0.0213614 272.931 
-1.45739e-05 -1.69631e-05 2.68499e+25 -0.0129183 -0.0199946 272.742 
-1.26626e-05 -1.69631e-05 2.68542e+25 -0.00266549 -0.00154951 272.76 
-1.07512e-05 -1.69631e-05 2.68547e+25 -0.085188 0.0407333 272.813 
-8.83992e-06 -1.69631e-05 2.68355e+25 -0.107413 0.0151784 272.981 
-6.92858e-06 -1.69631e-05 2.68527e+25 -0.0436077 0.0142105 272.756 
-5.01725e-06 -1.69631e-05 2.6842e+25 -0.197808 -0.0163706 272.805 
-3.10592e-06 -1.69631e-05 2.685e+25 -0.20859 0.0125811 272.808 
-1.19458e-06 -1.69631e-05 2.68442e+25 -0.167954 0.00864671 272.873 
-1.64852e-05 -1.64852e-05 2.68763e+25 0.0451849 -0.00262331 272.571 
-1.45739e-05 -1.64852e-05 2.68738e+25 -0.0578627 -0.0618267 272.53 
-1.26626e-05 -1.64852e-05 2.68763e+25 0.0186855 -0.00768576 272.482 
-1.07512e-05 -1.64852e-05 2.68748e+25 -0.0539351 0.0813875 272.555 
-8.83992e-06 -1.64852e-05 2.68703e+25 -0.202736 0.00633349 272.58 
-6.92858e-06 -1.64852e-05 2.6877e+25 -0.185859 0.0763752 272.389 
-5.01725e-06 -1.64852e-05 2.68821e+25 -0.424349 -0.0189716 272.476 
-3.10592e-06 -1.64852e-05 2.68685e+25 -0.43189 0.081867 272.589 
-1.19458e-06 -1.64852e-05 2.68606e+25 -0.40493 -0.017725 272.618 
-1.64852e-05 -1.60074e-05 2.68978e+25 -0.00207875 -0.11978 272.314 
-1.45739e-05 -1.60074e-05 2.68925e+25 -0.0178518 -0.00830391 272.373 
-1.26626e-05 -1.60074e-05 2.68946e+25 0.0121731 0.0343459 272.316 
-1.07512e-05 -1.60074e-05 2.68813e+25 0.00534782 0.18655 272.441 
-8.83992e-06 -1.60074e-05 2.68898e+25 -0.31085 -0.0572136 272.38 
-6.92858e-06 -1.60074e-05 2.69024e+25 -0.416177 0.109773 272.176 
-5.01725e-06 -1.60074e-05 2.69058e+25 -0.662754 0.0461029 272.182 
-3.10592e-06 -1.60074e-05 2.68905e+25 -0.689922 0.157499 272.318 
-1.19458e-06 -1.60074e-05 2.68783e+25 -0.702579 -0.00646766 272.509 
-1.64852e-05 -1.55296e-05 2.6884e+25 -0.0328522 -0.185959 272.448 
-1.45739e-05 -1.55296e-05 2.69037e+25 -0.0105858 0.0604396 272.196 
-1.26626e-05 -1.55296e-05 2.68981e+25 -0.0199132 0.014085 272.258 
-1.07512e-05 -1.55296e-05 2.68921e+25 -0.132885 0.217222 272.318 
-8.83992e-06 -1.55296e-05 2.68905e+25 -0.370676 -0.104122 272.289 
-6.92858e-06 -1.55296e-05 2.69172e+25 -0.637824 0.135203 272.001 
-5.01725e-06 -1.55296e-05 2.69009e+25 -0.973337 0.120838 272.146 
-3.10592e-06 -1.55296e-05 2.69091e+25 -0.941352 0.107258 272.074 
-1.19458e-06 -1.55296e-05 2.68915e+25 -1.01143 0.0456052 272.46 
-1.64852e-05 -1.50517e-05 2.68762e+25 -0.0203765 -0.170252 272.506 
-1.45739e-05 -1.50517e-05 2.69249e+25 0.177571 0.0413155 271.916 
-1.26626e-05 -1.50517e-05 2.69017e+25 -0.0745836 0.10255 272.236 
-1.07512e-05 -1.50517e-05 2.69021e+25 -0.280661 0.216146 272.151 
-8.83992e-06 -1.50517e-05 2.69033e+25 -0.471252 -0.00571491 272.166 
-6.92858e-06 -1.50517e-05 2.69154e+25 -0.831208 0.211378 272.096 
-5.01725e-06 -1.50517e-05 2.6908e+25 -1.15577 0.149204 272.139 
-3.10592e-06 -1.50517e-05 2.69208e+25 -1.18872 0.0789388 272.053 
-1.19458e-06 -1.50517e-05 2.69098e+25 -1.40071 0.0571256 272.206 
-1.64852e-05 -1.45739e-05 2.68784e+25 0.00116626 -0.100633 272.472 
-1.45739e-05 -1.45739e-05 2.69177e+25 0.0920094 0.019066 271.979 
-1.26626e-05 -1.45739e-05 2.69135e+25 -0.119497 0.127834 272.097 
-1.07512e-05 -1.45739e-05 2.69073e+25 -0.37534 0.210686 272.146 
-8.83992e-06 -1.45739e-05 2.6901e+25 -0.726476 0.255944 272.182 
-6.92858e-06 -1.45739e-05 2.6908e+25 -1.10934 0.270417 272.114 
-5.01725e-06 -1.45739e-05 2.69149e+25 -1.45826 0.178646 272.019 
-3.10592e-06 -1.45739e-05 2.69132e+25 -1.43006 0.0998588 272.052 
-1.19458e-06 -1.45739e-05 2.69202e+25 -1.64284 0.0525044 272.133 
-1.64852e-05 -1.40961e-05 2.6887e+25 0.0366772 -0.0777723 272.512 
-1.45739e-05 -1.40961e-05 2.69316e+25 -0.0821375 0.0758591 271.968 
-1.26626e-05 -1.40961e-05 2.69145e+25 -0.292043 0.114658 272.055 
-1.07512e-05 -1.40961e-05 2.69081e+25 -0.499692 0.259896 272.16 
-8.83992e-06 -1.40961e-05 2.69119e+25 -0.751227 0.414195 272.104 
-6.92858e-06 -1.40961e-05 2.69068e+25 -1.24486 0.318532 272.111 
-5.01725e-06 -1.40961e-05 2.69441e+25 -1.60152 0.197308 271.851 
-3.10592e-06 -1.40961e-05 2.6917e+25 -1.75219 0.0945711 272.089 
-1.19458e-06 -1.40961e-05 2.69319e+25 -1.74815 0.0884831 272.034 
-1.64852e-05 -1.36182e-05 2.68754e+25 -0.015052 -0.0234486 272.596 
-1.45739e-05 -1.36182e-05 2.69222e+25 -0.295755 0.0788668 272.054 
-1.26626e-05 -1.36182e-05 2.69157e+25 -0.450962 0.169881 272.073 
-1.07512e-05 -1.36182e-05 2.69144e+25 -0.59507 0.410927 272.134 
-8.83992e-06 -1.36182e-05 2.69328e+25 -1.0045 0.54463 271.942 
-6.92858e-06 -1.36182e-05 2.69118e+25 -1.53719 0.44131 272.043 
-5.01725e-06 -1.36182e-05 2.6934e+25 -1.6709 0.300793 271.826 
-3.10592e-06 -1.36182e-05 2.69118e+25 -1.94248 -0.0188858 272.056 
-1.19458e-06 -1.36182e-05 2.6914e+25 -1.89425 0.123793 272.111 
-1.64852e-05 -1.31404e-05 2.68707e+25 -0.00283591 -0.0231327 272.525 
-1.45739e-05 -1.31404e-05 2.69258e+25 -0.315187 0.112342 272.008 
-1.26626e-05 -1.31404e-05 2.69173e+25 -0.407234 0.267436 271.989 
-1.07512e-05 -1.31404e-05 2.69163e+25 -0.705046 0.488465 272.063 
-8.83992e-06 -1.31404e-05 2.69154e+25 -1.24014 0.617598 271.96 
-6.92858e-06 -1.31404e-05 2.69406e+25 -1.65843 0.492145 271.816 
-5.01725e-06 -1.31404e-05 2.69444e+25 -1.73712 0.448534 271.771 
-3.10592e-06 -1.31404e-05 2.69164e+25 -2.17545 0.00488679 271.958 
-1.19458e-06 -1.31404e-05 2.69134e+25 -2.22091 0.14174 272.103 
-1.64852e-05 -1.26626e-05 2.68929e+25 0.00314588 -0.00163633 272.438 
-1.45739e-05 -1.26626e-05 2.69209e+25 -0.219755 0.158478 272.029 
-1.26626e-05 -1.26626e-05 2.69289e+25 -0.403631 0.313997 271.981 
-1.07512e-05 -1.26626e-05 2.69245e+25 -0.8913 0.594913 272.035 
-8.83992e-06 -1.26626e-05 2.69362e+25 -1.29657 0.667623 271.879 
-6.92858e-06 -1.26626e-05 2.69324e+25 -1.85856 0.585305 271.936 
-5.01725e-06 -1.26626e-05 2.69284e+25 -1.88831 0.43797 271.958 
-3.10592e-06 -1.26626e-05 2.69254e+25 -2.28062 0.0403644 271.911 
-1.19458e-06 -1.26626e-05 2.69138e+25 -2.40037 0.0995739 272.093 
-1.64852e-05 -1.21847e-05 2.68735e+25 0.00423667 -0.0275464 272.527 
-1.45739e-05 -1.21847e-05 2.69339e+25 -0.209342 0.31336 271.945 
-1.26626e-05 -1.21847e-05 2.69097e+25 -0.45554 0.381268 272.048 
-1.07512e-05 -1.21847e-05 2.69157e+25 -1.03191 0.764513 272.066 
-8.83992e-06 -1.21847e-05 2.6913e+25 -1.63108 0.769339 272.004 
-6.92858e-06 -1.21847e-05 2.69181e+25 -1.96854 0.719241 271.936 
-5.01725e-06 -1.21847e-05 2.6916e+25 -2.11223 0.480056 272.072 
-3.10592e-06 -1.21847e-05 2.69237e+25 -2.37337 0.125641 271.959 
-1.19458e-06 -1.21847e-05 2.69137e+25 -2.56615 0.0657642 272.096 
-1.64852e-05 -1.17069e-05 2.68603e+25 -0.0661562 0.0572819 272.59 
-1.45739e-05 -1.17069e-05 2.69285e+25 -0.283573 0.350478 271.939 
-1.26626e-05 -1.17069e-05 2.69145e+25 -0.617312 0.473783 272.068 
-1.07512e-05 -1.17069e-05 2.6911e+25 -1.15887 0.935984 272.117 
-8.83992e-06 -1.17069e-05 2.69325e+25 -1.72873 0.871893 271.996 
-6.92858e-06 -1.17069e-05 2.69305e+25 -2.08584 0.702983 271.979 
-5.01725e-06 -1.17069e-05 2.69224e+25 -2.32686 0.596196 271.998 
-3.10592e-06 -1.17069e-05 2.69274e+25 -2.6078 0.207634 271.942 
-1.19458e-06 -1.17069e-05 2.69137e+25 -2.77182 0.10733 272.073 
-1.64852e-05 -1.12291e-05 2.68796e+25 -0.0253476 0.0663537 272.552 
-1.45739e-05 -1.12291e-05 2.69175e+25 -0.288334 0.437499 272.046 
-1.26626e-05 -1.12291e-05 2.69235e+25 -0.662909 0.506237 272.008 
-1.07512e-05 -1.12291e-05 2.69248e+25 -1.09363 1.06173 271.997 
-8.83992e-06 -1.12291e-05 2.6918e+25 -1.80716 1.01988 272.037 
-6.92858e-06 -1.12291e-05 2.69207e+25 -2.15568 0.672264 272.076 
-5.01725e-06 -1.12291e-05 2.69233e+25 -2.60591 0.684589 271.954 
-3.10592e-06 -1.12291e-05 2.69155e+25 -2.85272 0.270763 272.09 
-1.19458e-06 -1.12291e-05 2.69181e+25 -3.08812 0.167331 272.042 
-1.64852e-05 -1.07512e-05 2.68683e+25 0.0426677 0.108682 272.507 
-1.45739e-05 -1.07512e-05 2.69217e+25 -0.267616 0.545075 272.039 
-1.26626e-05 -1.07512e-05 2.69181e+25 -0.726165 0.576338 272.033 
-1.07512e-05 -1.07512e-05 2.69352e+25 -1.31148 1.13146 271.896 
-8.83992e-06 -1.07512e-05 2.69225e+25 -1.89264 1.22694 271.99 
-6.92858e-06 -1.07512e-05 2.69279e+25 -2.44847 0.758133 271.875 
-5.01725e-06 -1.07512e-05 2.69372e+25 -2.69872 0.759373 271.851 
-3.10592e-06 -1.07512e-05 2.6917e+25 -3.13927 0.342689 272.111 
-1.19458e-06 -1.07512e-05 2.6911e+25 -3.48783 0.234366 272.035 
-1.64852e-05 -1.02734e-05 2.68839e+25 -0.119632 0.105467 272.459 
-1.45739e-05 -1.02734e-05 2.69186e+25 -0.217347 0.696104 272.06 
-1.26626e-05 -1.02734e-05 2.6918e+25 -0.837491 0.801701 271.986 
-1.07512e-05 -1.02734e-05 2.6921e+25 -1.40163 1.29276 271.947 
-8.83992e-06 -1.02734e-05 2.69306e+25 -2.06215 1.44366 271.959 
-6.92858e-06 -1.02734e-05 2.69246e+25 -2.58929 0.875036 271.927 
-5.01725e-06 -1.02734e-05 2.69376e+25 -2.92561 0.863651 271.863 
-3.10592e-06 -1.02734e-05 2.69171e+25 -3.44417 0.528435 272.004 
-1.19458e-06 -1.02734e-05 2.6926e+25 -3.80029 0.233745 272.024 
-1.64852e-05 -9.79558e-06 2.6881e+25 -0.118392 0.136059 272.45 
-1.45739e-05 -9.79558e-06 2.69205e+25 -0.115567 0.784668 272.025 
-1.26626e-05 -9.79558e-06 2.69324e+25 -0.857864 1.01174 271.876 
-1.07512e-05 -9.79558e-06 2.69106e+25 -1.4746 1.50572 272.008 
-8.83992e-06 -9.79558e-06 2.69329e+25 -2.13187 1.56058 271.962 
-6.92858e-06 -9.79558e-06 2.69104e+25 -2.70815 1.05517 272.026 
-5.01725e-06 -9.79558e-06 2.69495e+25 -3.22338 0.925666 271.744 
-3.10592e-06 -9.79558e-06 2.69169e+25 -3.62655 0.711678 272.054 
-1.19458e-06 -9.79558e-06 2.69357e+25 -4.00224 0.241707 271.944 
-1.64852e-05 -9.31775e-06 2.68683e+25 -0.06149 0.225114 272.545 
-1.45739e-05 -9.31775e-06 2.6927e+25 -0.174245 0.808004 272.015 
-1.26626e-05 -9.31775e-06 2.69316e+25 -0.835473 1.22658 271.912 
-1.07512e-05 -9.31775e-06 2.69336e+25 -1.53419 1.66102 271.844 
-8.83992e-06 -9.31775e-06 2.69042e+25 -2.11892 1.70226 272.061 
-6.92858e-06 -9.31775e-06 2.69101e+25 -2.75234 1.33857 272.115 
-5.01725e-06 -9.31775e-06 2.69415e+25 -3.57382 0.942333 271.788 
-3.10592e-06 -9.31775e-06 2.69197e+25 -3.95386 0.859014 272.048 
-1.19458e-06 -9.31775e-06 2.6918e+25 -4.16381 0.237106 271.991 
-1.64852e-05 -8.83992e-06 2.68633e+25 -0.0190228 0.257836 272.609 
-1.45739e-05 -8.83992e-06 2.69224e+25 -0.257671 0.913916 272.046 
-1.26626e-05 -8.83992e-06 2.69363e+25 -0.787715 1.40497 271.81 
-1.07512e-05 -8.83992e-06 2.69312e+25 -1.63035 1.82163 271.868 
-8.83992e-06 -8.83992e-06 2.69256e+25 -2.14465 1.82297 272.002 
-6.92858e-06 -8.83992e-06 2.69077e+25 -3.03371 1.54646 272.116 
-5.01725e-06 -8.83992e-06 2.69456e+25 -3.6906 1.0322 271.747 
-3.10592e-06 -8.83992e-06 2.69145e+25 -4.19502 0.924276 272.026 
-1.19458e-06 -8.83992e-06 2.69167e+25 -4.53704 0.250302 272.091 
-1.64852e-05 -8.36208e-06 2.68752e+25 -0.0663633 0.335387 272.571 
-1.45739e-05 -8.36208e-06 2.69192e+25 -0.356037 1.01294 272.095 
-1.26626e-05 -8.36208e-06 2.69304e+25 -0.91265 1.52738 271.888 
-1.07512e-05 -8.36208e-06 2.69315e+25 -1.63813 1.98922 271.866 
-8.83992e-06 -8.36208e-06 2.69245e+25 -2.25015 1.96194 271.985 
-6.92858e-06 -8.36208e-06 2.6909e+25 -3.06484 1.74109 272.123 
-5.01725e-06 -8.36208e-06 2.69283e+25 -3.83803 1.24472 271.927 
-3.10592e-06 -8.36208e-06 2.69154e+25 -4.4974 1.04438 272.072 
-1.19458e-06 -8.36208e-06 2.69094e+25 -4.91924 0.232513 272.169 
-1.64852e-05 -7.88425e-06 2.68883e+25 0.00875696 0.408919 272.499 
-1.45739e-05 -7.88425e-06 2.69265e+25 -0.362604 1.13982 271.966 
-1.26626e-05 -7.88425e-06 2.69225e+25 -1.03833 1.6614 271.866 
-1.07512e-05 -7.88425e-06 2.69281e+25 -1.63201 2.11474 271.934 
-8.83992e-06 -7.88425e-06 2.69211e+25 -2.42493 2.17691 272.018 
-6.92858e-06 -7.88425e-06 2.69085e+25 -3.18475 1.89299 272.107 
-5.01725e-06 -7.88425e-06 2.69175e+25 -3.90865 1.44488 272.043 
-3.10592e-06 -7.88425e-06 2.69137e+25 -4.59677 1.17959 272.078 
-1.19458e-06 -7.88425e-06 2.69109e+25 -5.06812 0.300497 272.131 
-1.64852e-05 -7.40642e-06 2.68799e+25 0.0667101 0.383414 272.458 
-1.45739e-05 -7.40642e-06 2.69206e+25 -0.461912 1.33662 272.029 
-1.26626e-05 -7.40642e-06 2.69471e+25 -1.11808 1.90479 271.797 
-1.07512e-05 -7.40642e-06 2.69228e+25 -1.69692 2.28055 271.962 
-8.83992e-06 -7.40642e-06 2.69364e+25 -2.46738 2.41164 271.943 
-6.92858e-06 -7.40642e-06 2.69024e+25 -3.35562 2.08411 272.127 
-5.01725e-06 -7.40642e-06 2.69261e+25 -4.04256 1.63664 272.002 
-3.10592e-06 -7.40642e-06 2.69171e+25 -4.72815 1.27478 272.032 
-1.19458e-06 -7.40642e-06 2.69164e+25 -5.19429 0.439868 272.046 
-1.64852e-05 -6.92858e-06 2.6894e+25 0.00345646 0.378989 272.401 
-1.45739e-05 -6.92858e-06 2.69359e+25 -0.42241 1.61335 271.867 
-1.26626e-05 -6.92858e-06 2.69321e+25 -1.10059 2.02744 271.816 
-1.07512e-05 -6.92858e-06 2.69113e+25 -1.72703 2.44916 272.04 
-8.83992e-06 -6.92858e-06 2.69278e+25 -2.53545 2.57366 271.84 
-6.92858e-06 -6.92858e-06 2.69151e+25 -3.47001 2.29355 272.07 
-5.01725e-06 -6.92858e-06 2.69142e+25 -4.10432 1.8492 272.051 
-3.10592e-06 -6.92858e-06 2.69331e+25 -4.86635 1.44229 271.874 
-1.19458e-06 -6.92858e-06 2.69206e+25 -5.32268 0.570451 271.993 
-1.64852e-05 -6.45075e-06 2.68982e+25 -0.0381896 0.305919 272.415 
-1.45739e-05 -6.45075e-06 2.69285e+25 -0.354912 1.77589 271.856 
-1.26626e-05 -6.45075e-06 2.69593e+25 -1.08149 2.17542 271.747 
-1.07512e-05 -6.45075e-06 2.69172e+25 -1.79374 2.72721 272.006 
-8.83992e-06 -6.45075e-06 2.69436e+25 -2.77881 2.77727 271.827 
-6.92858e-06 -6.45075e-06 2.6925e+25 -3.46834 2.54527 271.955 
-5.01725e-06 -6.45075e-06 2.69237e+25 -4.22135 2.01244 271.967 
-3.10592e-06 -6.45075e-06 2.69311e+25 -4.99984 1.61107 271.927 
-1.19458e-06 -6.45075e-06 2.69195e+25 -5.58495 0.677536 271.991 
-1.64852e-05 -5.97292e-06 2.68839e+25 -0.0904982 0.345393 272.499 
-1.45739e-05 -5.97292e-06 2.69288e+25 -0.470438 1.84449 271.867 
-1.26626e-05 -5.97292e-06 2.69416e+25 -1.08861 2.38958 271.788 
-1.07512e-05 -5.97292e-06 2.69266e+25 -2.05633 2.97308 271.951 
-8.83992e-06 -5.97292e-06 2.69476e+25 -2.86499 3.02807 271.744 
-6.92858e-06 -5.97292e-06 2.69347e+25 -3.65639 2.81491 271.792 
-5.01725e-06 -5.97292e-06 2.69227e+25 -4.51545 2.18871 271.942 
-3.10592e-06 -5.97292e-06 2.69074e+25 -5.13494 1.74521 272.081 
-1.19458e-06 -5.97292e-06 2.69297e+25 -5.78479 0.743195 271.97 
-1.64852e-05 -5.49508e-06 2.6881e+25 -0.017287 0.477799 272.528 
-1.45739e-05 -5.49508e-06 2.69245e+25 -0.45764 1.98548 271.951 
-1.26626e-05 -5.49508e-06 2.69402e+25 -1.22194 2.62236 271.862 
-1.07512e-05 -5.49508e-06 2.69412e+25 -2.17072 3.15561 271.791 
-8.83992e-06 -5.49508e-06 2.69391e+25 -2.91006 3.22537 271.748 
-6.92858e-06 -5.49508e-06 2.69229e+25 -3.69411 3.02393 271.792 
-5.01725e-06 -5.49508e-06 2.69427e+25 -4.68397 2.35734 271.801 
-3.10592e-06 -5.49508e-06 2.69178e+25 -5.35225 1.89885 272.007 
-1.19458e-06 -5.49508e-06 2.69078e+25 -5.97481 0.925245 272.088 
-1.64852e-05 -5.01725e-06 2.68809e+25 -0.0397833 0.596081 272.373 
-1.45739e-05 -5.01725e-06 2.69106e+25 -0.518905 1.99124 272.029 
-1.26626e-05 -5.01725e-06 2.69251e+25 -1.30303 2.82602 271.968 
-1.07512e-05 -5.01725e-06 2.69468e+25 -2.27479 3.312 271.78 
-8.83992e-06 -5.01725e-06 2.6945e+25 -2.89716 3.48548 271.659 
-6.92858e-06 -5.01725e-06 2.69189e+25 -3.86417 3.28952 271.915 
-5.01725e-06 -5.01725e-06 2.69231e+25 -4.89004 2.63507 271.937 
-3.10592e-06 -5.01725e-06 2.69169e+25 -5.58792 2.02709 272.018 
-1.19458e-06 -5.01725e-06 2.69074e+25 -6.16197 1.11848 272.083 
-1.64852e-05 -4.53942e-06 2.68834e+25 -0.0484617 0.63499 272.382 
-1.45739e-05 -4.53942e-06 2.69209e+25 -0.519688 2.06998 272.034 
-1.26626e-05 -4.53942e-06 2.69115e+25 -1.1836 2.96627 272.01 
-1.07512e-05 -4.53942e-06 2.69396e+25 -2.25123 3.57756 271.855 
-8.83992e-06 -4.53942e-06 2.69329e+25 -2.94767 3.67002 271.785 
-6.92858e-06 -4.53942e-06 2.68988e+25 -3.97457 3.48344 272.062 
-5.01725e-06 -4.53942e-06 2.69094e+25 -4.93358 2.83857 272.106 
-3.10592e-06 -4.53942e-06 2.69124e+25 -5.65481 2.15119 272.051 
-1.19458e-06 -4.53942e-06 2.6903e+25 -6.15741 1.33775 272.076 
-1.64852e-05 -4.06158e-06 2.68832e+25 -0.024055 0.681229 272.343 
-1.45739e-05 -4.06158e-06 2.6925e+25 -0.651785 2.20777 272.025 
-1.26626e-05 -4.06158e-06 2.69261e+25 -1.27289 3.17794 271.979 
-1.07512e-05 -4.06158e-06 2.69302e+25 -2.18667 3.77673 271.812 
-8.83992e-06 -4.06158e-06 2.69335e+25 -3.20336 3.9145 271.871 
-6.92858e-06 -4.06158e-06 2.68858e+25 -3.9107 3.61096 272.236 
-5.01725e-06 -4.06158e-06 2.68876e+25 -4.97904 2.99789 272.176 
-3.10592e-06 -4.06158e-06 2.69194e+25 -5.70221 2.33016 271.921 
-1.19458e-06 -4.06158e-06 2.69078e+25 -6.22955 1.45625 272.095 
-1.64852e-05 -3.58375e-06 2.68869e+25 -0.149986 0.739132 272.441 
-1.45739e-05 -3.58375e-06 2.69058e+25 -0.609034 2.37682 272.119 
-1.26626e-05 -3.58375e-06 2.69107e+25 -1.08885 3.4415 272.008 
-1.07512e-05 -3.58375e-06 2.69192e+25 -2.01429 3.99666 271.954 
-8.83992e-06 -3.58375e-06 2.69159e+25 -3.16587 4.28421 271.93 
-6.92858e-06 -3.58375e-06 2.68881e+25 -4.01169 3.79878 272.192 
-5.01725e-06 -3.58375e-06 2.68803e+25 -5.01091 3.28061 272.267 
-3.10592e-06 -3.58375e-06 2.69238e+25 -5.92302 2.54236 271.848 
-1.19458e-06 -3.58375e-06 2.69088e+25 -6.47895 1.48292 272.121 
-1.64852e-05 -3.10592e-06 2.68723e+25 -0.168139 0.898942 272.518 
-1.45739e-05 -3.10592e-06 2.69017e+25 -0.613742 2.57064 272.157 
-1.26626e-05 -3.10592e-06 2.69292e+25 -1.16376 3.67936 271.99 
-1.07512e-05 -3.10592e-06 2.69272e+25 -1.94507 4.22067 271.903 
-8.83992e-06 -3.10592e-06 2.69345e+25 -3.11336 4.55557 271.858 
-6.92858e-06 -3.10592e-06 2.69029e+25 -4.16866 4.00958 272.056 
-5.01725e-06 -3.10592e-06 2.68952e+25 -5.15486 3.597 272.192 
-3.10592e-06 -3.10592e-06 2.69126e+25 -5.974 2.73467 271.996 
-1.19458e-06 -3.10592e-06 2.68921e+25 -6.57717 1.59568 272.136 
-1.64852e-05 -2.62808e-06 2.68762e+25 -0.0240812 1.02526 272.474 
-1.45739e-05 -2.62808e-06 2.69249e+25 -0.485866 2.69079 272.049 
-1.26626e-05 -2.62808e-06 2.69099e+25 -1.28626 3.83276 272.043 
-1.07512e-05 -2.62808e-06 2.69176e+25 -1.95799 4.45218 271.928 
-8.83992e-06 -2.62808e-06 2.69286e+25 -3.00725 4.72609 271.868 
-6.92858e-06 -2.62808e-06 2.69036e+25 -4.1525 4.31019 272.084 
-5.01725e-06 -2.62808e-06 2.69076e+25 -5.20168 3.86741 272.058 
-3.10592e-06 -2.62808e-06 2.69082e+25 -6.02044 2.92917 272.026 
-1.19458e-06 -2.62808e-06 2.6911e+25 -6.64868 1.74167 272.047 
-1.64852e-05 -2.15025e-06 2.68738e+25 0.0343183 1.07093 272.534 
-1.45739e-05 -2.15025e-06 2.69168e+25 -0.448516 2.86264 272.107 
-1.26626e-05 -2.15025e-06 2.69145e+25 -1.22368 4.06307 272.017 
-1.07512e-05 -2.15025e-06 2.69151e+25 -2.04831 4.73688 271.965 
-8.83992e-06 -2.15025e-06 2.69286e+25 -3.01778 4.99584 271.862 
-6.92858e-06 -2.15025e-06 2.69163e+25 -4.1492 4.59467 272.029 
-5.01725e-06 -2.15025e-06 2.69149e+25 -5.10482 4.14864 272.047 
-3.10592e-06 -2.15025e-06 2.68991e+25 -6.0276 3.09875 272.108 
-1.19458e-06 -2.15025e-06 2.68985e+25 -6.72604 1.96214 272.069 
-1.64852e-05 -1.67242e-06 2.68689e+25 0.0157604 1.05158 272.534 
-1.45739e-05 -1.67242e-06 2.68945e+25 -0.303812 3.12827 272.191 
-1.26626e-05 -1.67242e-06 2.6919e+25 -1.22433 4.28048 271.94 
-1.07512e-05 -1.67242e-06 2.69163e+25 -2.23299 4.90843 271.97 
-8.83992e-06 -1.67242e-06 2.69245e+25 -2.98776 5.3085 271.864 
-6.92858e-06 -1.67242e-06 2.69086e+25 -4.1917 4.83395 271.964 
-5.01725e-06 -1.67242e-06 2.691e+25 -5.07986 4.40966 271.996 
-3.10592e-06 -1.67242e-06 2.68997e+25 -6.03747 3.27367 272.115 
-1.19458e-06 -1.67242e-06 2.69088e+25 -6.87885 2.21117 272.033 
-1.64852e-05 -1.19458e-06 2.6867e+25 0.0538859 1.02322 272.61 
-1.45739e-05 -1.19458e-06 2.68877e+25 -0.295407 3.31349 272.239 
-1.26626e-05 -1.19458e-06 2.69244e+25 -1.13305 4.47962 271.923 
-1.07512e-05 -1.19458e-06 2.69271e+25 -2.09501 5.15624 271.891 
-8.83992e-06 -1.19458e-06 2.69334e+25 -2.98519 5.54209 271.824 
-6.92858e-06 -1.19458e-06 2.69318e+25 -3.99869 5.15582 271.813 
-5.01725e-06 -1.19458e-06 2.69177e+25 -5.07043 4.60575 271.915 
-3.10592e-06 -1.19458e-06 2.69128e+25 -6.11333 3.47182 271.988 
-1.19458e-06 -1.19458e-06 2.69023e+25 -6.95333 2.39734 272.052 
-1.64852e-05 -7.1675e-07 2.68666e+25 0.00429135 0.98769 272.533 
-1.45739e-05 -7.1675e-07 2.69021e+25 -0.256281 3.51906 272.145 
-1.26626e-05 -7.1675e-07 2.69276e+25 -1.19464 4.66195 271.923 
-1.07512e-05 -7.1675e-07 2.69118e+25 -2.0217 5.34657 271.973 
-8.83992e-06 -7.1675e-07 2.69195e+25 -3.01273 5.73586 271.887 
-6.92858e-06 -7.1675e-07 2.69137e+25 -4.01547 5.5105 271.86 
-5.01725e-06 -7.1675e-07 2.68972e+25 -5.15047 4.74794 272.038 
-3.10592e-06 -7.1675e-07 2.69189e+25 -6.18368 3.64481 271.93 
-1.19458e-06 -7.1675e-07 2.69001e+25 -7.03519 2.54961 272.04 
-1.64852e-05 -2.38917e-07 2.68544e+25 -0.0829266 0.992845 272.463 
-1.45739e-05 -2.38917e-07 2.6894e+25 -0.276439 3.61363 272.015 
-1.26626e-05 -2.38917e-07 2.68945e+25 -1.10572 4.92125 271.947 
-1.07512e-05 -2.38917e-07 2.68854e+25 -1.99942 5.62324 271.998 
-8.83992e-06 -2.38917e-07 2.68914e+25 -2.99591 5.96076 271.954 
-6.92858e-06 -2.38917e-07 2.68896e+25 -3.95623 5.77779 271.868 
-5.01725e-06 -2.38917e-07 2.68889e+25 -5.14713 5.00898 272.013 
-3.10592e-06 -2.38917e-07 2.69037e+25 -6.02482 3.98019 271.889 
-1.19458e-06 -2.38917e-07 2.68729e+25 -6.988 2.78903 272.096 
-1.60074e-05 -1.69631e-05 2.68434e+25 0.0441756 0.0419906 272.86 
-1.40961e-05 -1.69631e-05 2.68508e+25 0.0371119 -0.0252343 272.734 
-1.21847e-05 -1.69631e-05 2.68441e+25 0.00431906 -0.0227095 272.82 
-1.02734e-05 -1.69631e-05 2.68432e+25 -0.0929018 -0.0278797 272.805 
-8.36208e-06 -1.69631e-05 2.68467e+25 -0.123263 0.0240225 272.892 
-6.45075e-06 -1.69631e-05 2.68565e+25 -0.103967 0.0306712 272.709 
-4.53942e-06 -1.69631e-05 2.68561e+25 -0.149103 -0.0309262 272.727 
-2.62808e-06 -1.69631e-05 2.68493e+25 -0.214507 0.00605498 272.817 
-7.1675e-07 -1.69631e-05 2.68543e+25 -0.168935 -0.0141688 272.823 
-1.60074e-05 -1.64852e-05 2.68854e+25 0.097181 0.0444625 272.42 
-1.40961e-05 -1.64852e-05 2.68731e+25 -0.0402289 -0.0383182 272.518 
-1.21847e-05 -1.64852e-05 2.68748e+25 -0.0162452 0.00739406 272.484 
-1.02734e-05 -1.64852e-05 2.68582e+25 -0.163606 0.0308611 272.655 
-8.36208e-06 -1.64852e-05 2.68771e+25 -0.16399 -0.00690551 272.514 
-6.45075e-06 -1.64852e-05 2.68858e+25 -0.234875 0.117832 272.428 
-4.53942e-06 -1.64852e-05 2.68838e+25 -0.423277 -0.067932 272.401 
-2.62808e-06 -1.64852e-05 2.68662e+25 -0.509699 0.0226563 272.544 
-7.1675e-07 -1.64852e-05 2.68754e+25 -0.382208 -0.0624974 272.49 
-1.60074e-05 -1.60074e-05 2.6914e+25 0.146828 0.00832167 272.227 
-1.40961e-05 -1.60074e-05 2.68826e+25 -0.0710181 -0.0454544 272.349 
-1.21847e-05 -1.60074e-05 2.68895e+25 0.0273684 0.0060161 272.28 
-1.02734e-05 -1.60074e-05 2.68703e+25 -0.14056 0.219033 272.529 
-8.36208e-06 -1.60074e-05 2.68873e+25 -0.272119 -0.053752 272.347 
-6.45075e-06 -1.60074e-05 2.68973e+25 -0.441484 0.146534 272.219 
-4.53942e-06 -1.60074e-05 2.69067e+25 -0.709482 -0.131772 272.207 
-2.62808e-06 -1.60074e-05 2.68971e+25 -0.751499 0.0398933 272.293 
-7.1675e-07 -1.60074e-05 2.68868e+25 -0.745534 -0.0537395 272.443 
-1.60074e-05 -1.55296e-05 2.68969e+25 0.00201045 -0.0829208 272.242 
-1.40961e-05 -1.55296e-05 2.6911e+25 -0.0282274 -0.0405836 272.131 
-1.21847e-05 -1.55296e-05 2.68926e+25 -0.0836527 0.0236154 272.232 
-1.02734e-05 -1.55296e-05 2.68774e+25 -0.150927 0.32197 272.436 
-8.36208e-06 -1.55296e-05 2.68977e+25 -0.393154 -0.0581706 272.25 
-6.45075e-06 -1.55296e-05 2.69134e+25 -0.678537 0.220372 272.071 
-4.53942e-06 -1.55296e-05 2.69105e+25 -1.04641 -0.0962514 272.129 
-2.62808e-06 -1.55296e-05 2.69035e+25 -0.880768 0.0668195 272.14 
-7.1675e-07 -1.55296e-05 2.68872e+25 -1.0674 0.0203744 272.369 
-1.60074e-05 -1.50517e-05 2.68886e+25 -0.0687309 -0.0985523 272.371 
-1.40961e-05 -1.50517e-05 2.69226e+25 0.176233 0.0116718 272.085 
-1.21847e-05 -1.50517e-05 2.68994e+25 -0.121476 0.0884923 272.213 
-1.02734e-05 -1.50517e-05 2.68934e+25 -0.217407 0.340169 272.311 
-8.36208e-06 -1.50517e-05 2.69072e+25 -0.665793 0.0574221 272.207 
-6.45075e-06 -1.50517e-05 2.6914e+25 -0.962803 0.307092 272.115 
-4.53942e-06 -1.50517e-05 2.6927e+25 -1.2063 -0.0115716 272.057 
-2.62808e-06 -1.50517e-05 2.6922e+25 -1.19011 0.0331257 272.053 
-7.1675e-07 -1.50517e-05 2.69047e+25 -1.39989 0.0990036 272.222 
-1.60074e-05 -1.45739e-05 2.69024e+25 0.000749919 -0.158226 272.292 
-1.40961e-05 -1.45739e-05 2.69182e+25 0.0559636 0.0593452 272.058 
-1.21847e-05 -1.45739e-05 2.6904e+25 -0.145908 0.126408 272.196 
-1.02734e-05 -1.45739e-05 2.69077e+25 -0.383644 0.290758 272.134 
-8.36208e-06 -1.45739e-05 2.68955e+25 -0.872174 0.183768 272.254 
-6.45075e-06 -1.45739e-05 2.69157e+25 -1.1624 0.424186 271.98 
-4.53942e-06 -1.45739e-05 2.69197e+25 -1.45089 -0.00146654 272.069 
-2.62808e-06 -1.45739e-05 2.69201e+25 -1.49369 0.106237 272.009 
-7.1675e-07 -1.45739e-05 2.68946e+25 -1.60613 0.0706408 272.187 
-1.60074e-05 -1.40961e-05 2.68931e+25 -0.034827 -0.11595 272.365 
-1.40961e-05 -1.40961e-05 2.69293e+25 -0.117957 0.0607604 272.051 
-1.21847e-05 -1.40961e-05 2.69212e+25 -0.273461 0.176908 272.111 
-1.02734e-05 -1.40961e-05 2.691e+25 -0.555059 0.313127 272.09 
-8.36208e-06 -1.40961e-05 2.69e+25 -0.92165 0.317126 272.175 
-6.45075e-06 -1.40961e-05 2.69364e+25 -1.33504 0.518836 271.929 
-4.53942e-06 -1.40961e-05 2.69364e+25 -1.64623 0.0628513 271.918 
-2.62808e-06 -1.40961e-05 2.69151e+25 -1.67165 0.137173 272.043 
-7.1675e-07 -1.40961e-05 2.6914e+25 -1.79341 0.0808452 272.056 
-1.60074e-05 -1.36182e-05 2.68808e+25 -0.0382401 -0.0488359 272.413 
-1.40961e-05 -1.36182e-05 2.69235e+25 -0.317639 0.122278 271.992 
-1.21847e-05 -1.36182e-05 2.69173e+25 -0.529425 0.19633 272.042 
-1.02734e-05 -1.36182e-05 2.69121e+25 -0.790684 0.395701 272.079 
-8.36208e-06 -1.36182e-05 2.69161e+25 -1.15569 0.499283 272.031 
-6.45075e-06 -1.36182e-05 2.69287e+25 -1.61513 0.569451 271.92 
-4.53942e-06 -1.36182e-05 2.69353e+25 -1.84769 0.172854 271.95 
-2.62808e-06 -1.36182e-05 2.69179e+25 -1.89229 0.10047 272.037 
-7.1675e-07 -1.36182e-05 2.69005e+25 -1.94099 0.110715 272.08 
-1.60074e-05 -1.31404e-05 2.68827e+25 -0.070764 0.0333633 272.371 
-1.40961e-05 -1.31404e-05 2.69253e+25 -0.325506 0.126495 271.98 
-1.21847e-05 -1.31404e-05 2.693e+25 -0.450067 0.217097 271.945 
-1.02734e-05 -1.31404e-05 2.69213e+25 -0.813338 0.592533 272.04 
-8.36208e-06 -1.31404e-05 2.69272e+25 -1.30756 0.677071 271.928 
-6.45075e-06 -1.31404e-05 2.69258e+25 -1.70285 0.630404 271.871 
-4.53942e-06 -1.31404e-05 2.69539e+25 -1.81752 0.312934 271.729 
-2.62808e-06 -1.31404e-05 2.69374e+25 -2.15041 0.0201955 271.98 
-7.1675e-07 -1.31404e-05 2.69108e+25 -2.1721 0.109066 272.089 
-1.60074e-05 -1.26626e-05 2.68987e+25 -0.0585467 0.13981 272.317 
-1.40961e-05 -1.26626e-05 2.6924e+25 -0.279433 0.158633 272.049 
-1.21847e-05 -1.26626e-05 2.69421e+25 -0.505883 0.257511 271.827 
-1.02734e-05 -1.26626e-05 2.69118e+25 -1.04618 0.725466 272.078 
-8.36208e-06 -1.26626e-05 2.69399e+25 -1.43695 0.786028 271.881 
-6.45075e-06 -1.26626e-05 2.69284e+25 -1.97036 0.682379 271.95 
-4.53942e-06 -1.26626e-05 2.69247e+25 -1.94142 0.411833 271.865 
-2.62808e-06 -1.26626e-05 2.69293e+25 -2.37169 0.0527803 271.987 
-7.1675e-07 -1.26626e-05 2.69219e+25 -2.29332 0.0273184 272.008 
-1.60074e-05 -1.21847e-05 2.68849e+25 -0.0356743 0.237101 272.386 
-1.40961e-05 -1.21847e-05 2.69309e+25 -0.313266 0.19975 272.047 
-1.21847e-05 -1.21847e-05 2.69249e+25 -0.547556 0.416886 271.916 
-1.02734e-05 -1.21847e-05 2.69135e+25 -1.16475 0.894895 272.035 
-8.36208e-06 -1.21847e-05 2.69179e+25 -1.71214 0.944155 271.924 
-6.45075e-06 -1.21847e-05 2.69328e+25 -2.0204 0.691744 271.88 
-4.53942e-06 -1.21847e-05 2.69192e+25 -2.1968 0.458255 271.964 
-2.62808e-06 -1.21847e-05 2.69169e+25 -2.44434 0.105161 272.064 
-7.1675e-07 -1.21847e-05 2.69207e+25 -2.62347 -0.00472071 271.978 
-1.60074e-05 -1.17069e-05 2.68915e+25 -0.0538408 0.198603 272.281 
-1.40961e-05 -1.17069e-05 2.69278e+25 -0.335064 0.270725 271.904 
-1.21847e-05 -1.17069e-05 2.69116e+25 -0.755345 0.541397 272.07 
-1.02734e-05 -1.17069e-05 2.69232e+25 -1.3221 0.993187 272.043 
-8.36208e-06 -1.17069e-05 2.69218e+25 -1.85205 1.02599 271.965 
-6.45075e-06 -1.17069e-05 2.69287e+25 -2.06557 0.751713 271.99 
-4.53942e-06 -1.17069e-05 2.69258e+25 -2.38455 0.510505 272.01 
-2.62808e-06 -1.17069e-05 2.69278e+25 -2.68349 0.194836 271.997 
-7.1675e-07 -1.17069e-05 2.69249e+25 -2.85574 0.0790287 271.994 
-1.60074e-05 -1.12291e-05 2.68972e+25 -0.0844039 0.247598 272.272 
-1.40961e-05 -1.12291e-05 2.69194e+25 -0.411798 0.421822 272.002 
-1.21847e-05 -1.12291e-05 2.69018e+25 -0.716824 0.681871 272.214 
-1.02734e-05 -1.12291e-05 2.69227e+25 -1.19493 1.15446 272.035 
-8.36208e-06 -1.12291e-05 2.69154e+25 -1.96655 1.13183 272.029 
-6.45075e-06 -1.12291e-05 2.69209e+25 -2.22615 0.811256 272.039 
-4.53942e-06 -1.12291e-05 2.69279e+25 -2.66565 0.58755 271.882 
-2.62808e-06 -1.12291e-05 2.69231e+25 -2.97137 0.302734 272.087 
-7.1675e-07 -1.12291e-05 2.69288e+25 -3.17188 0.191224 271.993 
-1.60074e-05 -1.07512e-05 2.68925e+25 -0.0232046 0.304063 272.338 
-1.40961e-05 -1.07512e-05 2.69202e+25 -0.422924 0.529639 272.104 
-1.21847e-05 -1.07512e-05 2.69151e+25 -0.86217 0.837971 272.08 
-1.02734e-05 -1.07512e-05 2.69284e+25 -1.36545 1.25941 271.971 
-8.36208e-06 -1.07512e-05 2.6906e+25 -2.08457 1.28942 272.118 
-6.45075e-06 -1.07512e-05 2.69296e+25 -2.45338 0.807397 272.002 
-4.53942e-06 -1.07512e-05 2.69249e+25 -2.78686 0.662546 271.899 
-2.62808e-06 -1.07512e-05 2.69098e+25 -3.26225 0.404748 272.14 
-7.1675e-07 -1.07512e-05 2.69182e+25 -3.49182 0.193836 271.907 
-1.60074e-05 -1.02734e-05 2.68968e+25 -0.124145 0.374855 272.251 
-1.40961e-05 -1.02734e-05 2.69225e+25 -0.340808 0.653347 272.087 
-1.21847e-05 -1.02734e-05 2.69183e+25 -1.03463 0.944993 272.027 
-1.02734e-05 -1.02734e-05 2.69236e+25 -1.60508 1.30138 271.965 
-8.36208e-06 -1.02734e-05 2.69194e+25 -2.24752 1.46869 271.968 
-6.45075e-06 -1.02734e-05 2.6927e+25 -2.72248 0.827678 271.916 
-4.53942e-06 -1.02734e-05 2.6942e+25 -2.97558 0.746886 271.795 
-2.62808e-06 -1.02734e-05 2.69087e+25 -3.63767 0.554487 272.155 
-7.1675e-07 -1.02734e-05 2.69274e+25 -3.783 0.190094 271.955 
-1.60074e-05 -9.79558e-06 2.6894e+25 -0.183325 0.366853 272.259 
-1.40961e-05 -9.79558e-06 2.69119e+25 -0.22058 0.751654 272.066 
-1.21847e-05 -9.79558e-06 2.6924e+25 -1.08884 1.12163 271.894 
-1.02734e-05 -9.79558e-06 2.69267e+25 -1.65882 1.48478 272 
-8.36208e-06 -9.79558e-06 2.69171e+25 -2.22329 1.62657 271.968 
-6.45075e-06 -9.79558e-06 2.69195e+25 -2.95336 1.00829 272.029 
-4.53942e-06 -9.79558e-06 2.69376e+25 -3.322 0.791217 271.774 
-2.62808e-06 -9.79558e-06 2.6903e+25 -3.77614 0.697062 272.189 
-7.1675e-07 -9.79558e-06 2.69204e+25 -3.95256 0.105955 271.943 
-1.60074e-05 -9.31775e-06 2.68927e+25 -0.0877435 0.40223 272.321 
-1.40961e-05 -9.31775e-06 2.69179e+25 -0.291235 0.925053 271.95 
-1.21847e-05 -9.31775e-06 2.69418e+25 -0.979939 1.30547 271.787 
-1.02734e-05 -9.31775e-06 2.69204e+25 -1.80207 1.72824 271.98 
-8.36208e-06 -9.31775e-06 2.69279e+25 -2.22703 1.7142 272.051 
-6.45075e-06 -9.31775e-06 2.69231e+25 -2.97811 1.21037 272.009 
-4.53942e-06 -9.31775e-06 2.69299e+25 -3.63822 0.906039 271.826 
-2.62808e-06 -9.31775e-06 2.69082e+25 -4.0348 0.80947 272.139 
-7.1675e-07 -9.31775e-06 2.69315e+25 -4.13899 0.0539753 271.978 
-1.60074e-05 -8.83992e-06 2.68864e+25 -0.0795042 0.406983 272.385 
-1.40961e-05 -8.83992e-06 2.69126e+25 -0.352386 1.04589 271.961 
-1.21847e-05 -8.83992e-06 2.69423e+25 -0.935679 1.43956 271.82 
-1.02734e-05 -8.83992e-06 2.69283e+25 -1.79171 1.96387 271.983 
-8.36208e-06 -8.83992e-06 2.6923e+25 -2.28125 1.81179 272.108 
-6.45075e-06 -8.83992e-06 2.69176e+25 -3.20408 1.41789 271.999 
-4.53942e-06 -8.83992e-06 2.69349e+25 -3.8416 1.04512 271.912 
-2.62808e-06 -8.83992e-06 2.69115e+25 -4.32823 0.921179 272.146 
-7.1675e-07 -8.83992e-06 2.69257e+25 -4.5548 0.0259867 272.04 
-1.60074e-05 -8.36208e-06 2.68903e+25 -0.111523 0.446886 272.399 
-1.40961e-05 -8.36208e-06 2.69141e+25 -0.489051 1.1555 272.09 
-1.21847e-05 -8.36208e-06 2.69343e+25 -1.05008 1.65689 271.912 
-1.02734e-05 -8.36208e-06 2.6938e+25 -1.72756 2.04136 271.812 
-8.36208e-06 -8.36208e-06 2.69188e+25 -2.40946 1.97455 272.023 
-6.45075e-06 -8.36208e-06 2.69209e+25 -3.29771 1.63462 272.038 
-4.53942e-06 -8.36208e-06 2.69121e+25 -3.98128 1.17582 272.048 
-2.62808e-06 -8.36208e-06 2.69091e+25 -4.5655 0.994834 272.093 
-7.1675e-07 -8.36208e-06 2.69138e+25 -4.9249 0.0335321 272.069 
-1.60074e-05 -7.88425e-06 2.68868e+25 -0.0216608 0.438535 272.292 
-1.40961e-05 -7.88425e-06 2.69235e+25 -0.499488 1.33705 271.952 
-1.21847e-05 -7.88425e-06 2.6931e+25 -1.21873 1.83351 271.849 
-1.02734e-05 -7.88425e-06 2.69339e+25 -1.81586 2.18491 271.89 
-8.36208e-06 -7.88425e-06 2.69292e+25 -2.62055 2.15933 271.953 
-6.45075e-06 -7.88425e-06 2.69221e+25 -3.35559 1.86786 271.99 
-4.53942e-06 -7.88425e-06 2.69193e+25 -4.11852 1.34993 272.05 
-2.62808e-06 -7.88425e-06 2.69216e+25 -4.71656 1.07928 272.059 
-7.1675e-07 -7.88425e-06 2.69121e+25 -5.14982 0.0957924 272.086 
-1.60074e-05 -7.40642e-06 2.68884e+25 0.028932 0.508383 272.254 
-1.40961e-05 -7.40642e-06 2.69206e+25 -0.729987 1.55245 272.014 
-1.21847e-05 -7.40642e-06 2.69396e+25 -1.3147 1.94996 271.845 
-1.02734e-05 -7.40642e-06 2.69168e+25 -1.87698 2.32914 271.941 
-8.36208e-06 -7.40642e-06 2.69361e+25 -2.67461 2.33412 271.885 
-6.45075e-06 -7.40642e-06 2.69246e+25 -3.50243 2.02917 271.983 
-4.53942e-06 -7.40642e-06 2.6909e+25 -4.19965 1.53174 272.103 
-2.62808e-06 -7.40642e-06 2.69203e+25 -4.83532 1.20323 272.134 
-7.1675e-07 -7.40642e-06 2.69166e+25 -5.38081 0.214461 272.034 
-1.60074e-05 -6.92858e-06 2.69093e+25 0.0320333 0.541905 272.203 
-1.40961e-05 -6.92858e-06 2.69402e+25 -0.585257 1.70206 271.848 
-1.21847e-05 -6.92858e-06 2.69288e+25 -1.22948 2.16247 271.83 
-1.02734e-05 -6.92858e-06 2.69099e+25 -1.96944 2.6067 272.071 
-8.36208e-06 -6.92858e-06 2.69308e+25 -2.72988 2.60718 271.857 
-6.45075e-06 -6.92858e-06 2.69133e+25 -3.67846 2.14646 272.034 
-4.53942e-06 -6.92858e-06 2.69169e+25 -4.33658 1.70611 271.984 
-2.62808e-06 -6.92858e-06 2.69147e+25 -4.99689 1.3057 272.01 
-7.1675e-07 -6.92858e-06 2.69043e+25 -5.43072 0.322617 272.125 
-1.60074e-05 -6.45075e-06 2.69123e+25 -0.0278461 0.602246 272.168 
-1.40961e-05 -6.45075e-06 2.69269e+25 -0.481184 1.87267 271.857 
-1.21847e-05 -6.45075e-06 2.69337e+25 -1.28612 2.34266 271.901 
-1.02734e-05 -6.45075e-06 2.69186e+25 -2.06025 2.78325 271.985 
-8.36208e-06 -6.45075e-06 2.69408e+25 -2.97584 2.78055 271.785 
-6.45075e-06 -6.45075e-06 2.69274e+25 -3.72737 2.34901 271.956 
-4.53942e-06 -6.45075e-06 2.69127e+25 -4.434 1.97223 272.016 
-2.62808e-06 -6.45075e-06 2.69095e+25 -5.19937 1.42213 272.079 
-7.1675e-07 -6.45075e-06 2.69098e+25 -5.63803 0.422647 272.075 
-1.60074e-05 -5.97292e-06 2.69016e+25 -0.17938 0.634071 272.171 
-1.40961e-05 -5.97292e-06 2.69334e+25 -0.628853 2.05803 271.849 
-1.21847e-05 -5.97292e-06 2.69191e+25 -1.31948 2.51378 271.905 
-1.02734e-05 -5.97292e-06 2.69332e+25 -2.24799 3.00413 271.855 
-8.36208e-06 -5.97292e-06 2.69298e+25 -3.06734 2.86721 271.786 
-6.45075e-06 -5.97292e-06 2.69277e+25 -3.8537 2.56756 271.884 
-4.53942e-06 -5.97292e-06 2.69257e+25 -4.68118 2.16125 271.933 
-2.62808e-06 -5.97292e-06 2.69014e+25 -5.31497 1.61057 272.103 
-7.1675e-07 -5.97292e-06 2.69143e+25 -5.89471 0.511064 272.059 
-1.60074e-05 -5.49508e-06 2.69047e+25 -0.207904 0.753378 272.25 
-1.40961e-05 -5.49508e-06 2.69235e+25 -0.596368 2.21038 272.025 
-1.21847e-05 -5.49508e-06 2.69259e+25 -1.4583 2.76554 271.975 
-1.02734e-05 -5.49508e-06 2.69425e+25 -2.29775 3.17572 271.76 
-8.36208e-06 -5.49508e-06 2.69487e+25 -3.15168 3.08512 271.723 
-6.45075e-06 -5.49508e-06 2.69204e+25 -3.9696 2.80475 271.907 
-4.53942e-06 -5.49508e-06 2.69306e+25 -4.8417 2.31905 271.834 
-2.62808e-06 -5.49508e-06 2.68945e+25 -5.49177 1.80997 272.106 
-7.1675e-07 -5.49508e-06 2.69155e+25 -6.10269 0.589998 272.092 
-1.60074e-05 -5.01725e-06 2.69113e+25 -0.128315 0.91789 272.128 
-1.40961e-05 -5.01725e-06 2.69146e+25 -0.561589 2.37837 272.084 
-1.21847e-05 -5.01725e-06 2.69141e+25 -1.46097 2.98226 272.019 
-1.02734e-05 -5.01725e-06 2.69461e+25 -2.49676 3.36126 271.655 
-8.36208e-06 -5.01725e-06 2.69394e+25 -3.20758 3.36936 271.719 
-6.45075e-06 -5.01725e-06 2.69133e+25 -4.09146 3.04725 271.975 
-4.53942e-06 -5.01725e-06 2.69239e+25 -5.11356 2.48795 271.945 
-2.62808e-06 -5.01725e-06 2.69054e+25 -5.67588 1.88831 272.052 
-7.1675e-07 -5.01725e-06 2.69233e+25 -6.34297 0.721288 272.024 
-1.60074e-05 -4.53942e-06 2.6917e+25 -0.12814 1.06776 272.072 
-1.40961e-05 -4.53942e-06 2.69148e+25 -0.640183 2.50722 272.057 
-1.21847e-05 -4.53942e-06 2.69181e+25 -1.42557 3.26687 272.006 
-1.02734e-05 -4.53942e-06 2.69412e+25 -2.47876 3.57477 271.73 
-8.36208e-06 -4.53942e-06 2.69268e+25 -3.18367 3.705 271.883 
-6.45075e-06 -4.53942e-06 2.69135e+25 -4.14728 3.29808 272.087 
-4.53942e-06 -4.53942e-06 2.69257e+25 -5.16378 2.74277 271.884 
-2.62808e-06 -4.53942e-06 2.69066e+25 -5.78111 1.98171 272.05 
-7.1675e-07 -4.53942e-06 2.69081e+25 -6.35976 0.900436 272.042 
-1.60074e-05 -4.06158e-06 2.6894e+25 -0.151194 1.20698 272.205 
-1.40961e-05 -4.06158e-06 2.69136e+25 -0.783237 2.63246 272.124 
-1.21847e-05 -4.06158e-06 2.69152e+25 -1.48265 3.48197 271.99 
-1.02734e-05 -4.06158e-06 2.6937e+25 -2.3938 3.79562 271.808 
-8.36208e-06 -4.06158e-06 2.69391e+25 -3.46871 3.95483 271.783 
-6.45075e-06 -4.06158e-06 2.68885e+25 -4.12921 3.52419 272.209 
-4.53942e-06 -4.06158e-06 2.69036e+25 -5.17052 3.00243 272.088 
-2.62808e-06 -4.06158e-06 2.69247e+25 -5.8958 2.08748 271.947 
-7.1675e-07 -4.06158e-06 2.69058e+25 -6.29202 1.03909 272.092 
-1.60074e-05 -3.58375e-06 2.68927e+25 -0.243883 1.34703 272.237 
-1.40961e-05 -3.58375e-06 2.68949e+25 -0.735575 2.70898 272.157 
-1.21847e-05 -3.58375e-06 2.69184e+25 -1.29662 3.68173 271.935 
-1.02734e-05 -3.58375e-06 2.69271e+25 -2.24788 4.01712 271.916 
-8.36208e-06 -3.58375e-06 2.69389e+25 -3.45471 4.14937 271.773 
-6.45075e-06 -3.58375e-06 2.68944e+25 -4.23668 3.80501 272.132 
-4.53942e-06 -3.58375e-06 2.6902e+25 -5.26275 3.18005 272.164 
-2.62808e-06 -3.58375e-06 2.69194e+25 -6.12162 2.27861 271.958 
-7.1675e-07 -3.58375e-06 2.69016e+25 -6.54976 1.1395 272.21 
-1.60074e-05 -3.10592e-06 2.68913e+25 -0.279306 1.39366 272.222 
-1.40961e-05 -3.10592e-06 2.69117e+25 -0.790498 2.83631 272.054 
-1.21847e-05 -3.10592e-06 2.69212e+25 -1.38054 3.90383 271.974 
-1.02734e-05 -3.10592e-06 2.69128e+25 -2.17117 4.27527 271.935 
-8.36208e-06 -3.10592e-06 2.69391e+25 -3.33678 4.37834 271.795 
-6.45075e-06 -3.10592e-06 2.69007e+25 -4.4304 4.04833 272.153 
-4.53942e-06 -3.10592e-06 2.69035e+25 -5.43466 3.36429 272.166 
-2.62808e-06 -3.10592e-06 2.69194e+25 -6.17929 2.48155 271.949 
-7.1675e-07 -3.10592e-06 2.68897e+25 -6.67135 1.22869 272.187 
-1.60074e-05 -2.62808e-06 2.68924e+25 -0.148827 1.46207 272.293 
-1.40961e-05 -2.62808e-06 2.69047e+25 -0.667443 3.03532 272.044 
-1.21847e-05 -2.62808e-06 2.6913e+25 -1.45519 4.14041 272.071 
-1.02734e-05 -2.62808e-06 2.69186e+25 -2.19233 4.47532 272.003 
-8.36208e-06 -2.62808e-06 2.69216e+25 -3.19995 4.62511 271.827 
-6.45075e-06 -2.62808e-06 2.69055e+25 -4.40868 4.24267 272.076 
-4.53942e-06 -2.62808e-06 2.69062e+25 -5.43382 3.62034 272.143 
-2.62808e-06 -2.62808e-06 2.69147e+25 -6.24149 2.67455 271.989 
-7.1675e-07 -2.62808e-06 2.68979e+25 -6.89274 1.3973 272.199 
-1.60074e-05 -2.15025e-06 2.68726e+25 -0.068946 1.64212 272.449 
-1.40961e-05 -2.15025e-06 2.68893e+25 -0.658474 3.2113 272.186 
-1.21847e-05 -2.15025e-06 2.69179e+25 -1.4767 4.32119 271.971 
-1.02734e-05 -2.15025e-06 2.69245e+25 -2.29097 4.66765 271.978 
-8.36208e-06 -2.15025e-06 2.69327e+25 -3.32823 4.87704 271.774 
-6.45075e-06 -2.15025e-06 2.69121e+25 -4.41294 4.48012 272.056 
-4.53942e-06 -2.15025e-06 2.69028e+25 -5.41197 3.84125 272.136 
-2.62808e-06 -2.15025e-06 2.69086e+25 -6.19118 2.8767 271.985 
-7.1675e-07 -2.15025e-06 2.68969e+25 -6.96543 1.62922 272.103 
-1.60074e-05 -1.67242e-06 2.68686e+25 0.0470934 1.73286 272.39 
-1.40961e-05 -1.67242e-06 2.69082e+25 -0.503798 3.3547 272.142 
-1.21847e-05 -1.67242e-06 2.69199e+25 -1.42531 4.56333 271.927 
-1.02734e-05 -1.67242e-06 2.69171e+25 -2.42655 4.93301 271.924 
-8.36208e-06 -1.67242e-06 2.69275e+25 -3.30504 5.22912 271.883 
-6.45075e-06 -1.67242e-06 2.69051e+25 -4.43332 4.76811 271.995 
-4.53942e-06 -1.67242e-06 2.69017e+25 -5.25418 4.04809 272.126 
-2.62808e-06 -1.67242e-06 2.69079e+25 -6.24132 3.04003 272.044 
-7.1675e-07 -1.67242e-06 2.69087e+25 -7.06918 1.8337 271.99 
-1.60074e-05 -1.19458e-06 2.68743e+25 0.136288 1.69807 272.413 
-1.40961e-05 -1.19458e-06 2.68935e+25 -0.526729 3.59572 272.205 
-1.21847e-05 -1.19458e-06 2.6918e+25 -1.34197 4.78497 271.907 
-1.02734e-05 -1.19458e-06 2.69313e+25 -2.33802 5.15698 271.762 
-8.36208e-06 -1.19458e-06 2.69296e+25 -3.19815 5.50483 271.844 
-6.45075e-06 -1.19458e-06 2.6913e+25 -4.40038 5.07988 271.986 
-4.53942e-06 -1.19458e-06 2.6899e+25 -5.32593 4.32128 272.068 
-2.62808e-06 -1.19458e-06 2.69166e+25 -6.23722 3.1954 271.828 
-7.1675e-07 -1.19458e-06 2.69022e+25 -7.1692 2.08377 272.056 
-1.60074e-05 -7.1675e-07 2.68836e+25 -0.00385505 1.67113 272.293 
-1.40961e-05 -7.1675e-07 2.69005e+25 -0.447847 3.82663 272.099 
-1.21847e-05 -7.1675e-07 2.69222e+25 -1.3677 4.97693 271.988 
-1.02734e-05 -7.1675e-07 2.69238e+25 -2.23487 5.45662 271.893 
-8.36208e-06 -7.1675e-07 2.69139e+25 -3.19259 5.69592 271.793 
-6.45075e-06 -7.1675e-07 2.69177e+25 -4.23697 5.32997 271.905 
-4.53942e-06 -7.1675e-07 2.6895e+25 -5.35565 4.60564 272.111 
-2.62808e-06 -7.1675e-07 2.69364e+25 -6.38701 3.36529 271.766 
-7.1675e-07 -7.1675e-07 2.69064e+25 -7.19863 2.32705 271.951 
-1.60074e-05 -2.38917e-07 2.6854e+25 -0.0963167 1.68647 272.316 
-1.40961e-05 -2.38917e-07 2.68807e+25 -0.399912 4.04216 272.007 
-1.21847e-05 -2.38917e-07 2.68943e+25 -1.34957 5.16985 272.005 
-1.02734e-05 -2.38917e-07 2.68972e+25 -2.31186 5.70622 271.908 
-8.36208e-06 -2.38917e-07 2.69029e+25 -3.26604 5.9149 271.846 
-6.45075e-06 -2.38917e-07 2.68813e+25 -4.23742 5.605 271.953 
-4.53942e-06 -2.38917e-07 2.68975e+25 -5.36339 4.79548 271.874 
-2.62808e-06 -2.38917e-07 2.68959e+25 -6.3588 3.63386 271.856 
-7.1675e-07 -2.38917e-07 2.6872e+25 -7.18446 2.46553 272.098 
-1.55296e-05 -1.69631e-05 2.68515e+25 -0.0195392 0.00599119 272.751 
-1.36182e-05 -1.69631e-05 2.68365e+25 0.0282445 0.0342505 272.837 
-1.17069e-05 -1.69631e-05 2.68539e+25 0.0376665 0.0163242 272.823 
-9.79558e-06 -1.69631e-05 2.68494e+25 -0.104504 0.0132106 272.764 
-7.88425e-06 -1.69631e-05 2.68581e+25 -0.0957478 -0.036663 272.81 
-5.97292e-06 -1.69631e-05 2.68638e+25 -0.188753 0.0301674 272.676 
-4.06158e-06 -1.69631e-05 2.68537e+25 -0.119441 -0.00752087 272.759 
-2.15025e-06 -1.69631e-05 2.68411e+25 -0.22778 0.00296194 272.841 
-2.38917e-07 -1.69631e-05 2.68299e+25 -0.112544 -0.0444763 272.82 
-1.55296e-05 -1.64852e-05 2.68788e+25 0.0745711 0.0968492 272.475 
-1.36182e-05 -1.64852e-05 2.68775e+25 0.00443336 0.0162859 272.539 
-1.17069e-05 -1.64852e-05 2.68755e+25 -0.0501252 0.0261943 272.485 
-9.79558e-06 -1.64852e-05 2.68648e+25 -0.272547 0.061128 272.569 
-7.88425e-06 -1.64852e-05 2.68701e+25 -0.151863 -0.066929 272.56 
-5.97292e-06 -1.64852e-05 2.68764e+25 -0.283786 0.0498284 272.465 
-4.06158e-06 -1.64852e-05 2.68811e+25 -0.378695 -0.0495567 272.443 
-2.15025e-06 -1.64852e-05 2.6869e+25 -0.469211 -0.0284807 272.649 
-2.38917e-07 -1.64852e-05 2.68468e+25 -0.398751 0.0199768 272.479 
-1.55296e-05 -1.60074e-05 2.6889e+25 0.131802 0.133094 272.338 
-1.36182e-05 -1.60074e-05 2.68875e+25 -0.0954139 -0.0256642 272.364 
-1.17069e-05 -1.60074e-05 2.68927e+25 0.0528822 -0.0133186 272.334 
-9.79558e-06 -1.60074e-05 2.68906e+25 -0.316193 0.157134 272.373 
-7.88425e-06 -1.60074e-05 2.68797e+25 -0.328675 0.028995 272.381 
-5.97292e-06 -1.60074e-05 2.68979e+25 -0.518505 0.186897 272.17 
-4.06158e-06 -1.60074e-05 2.69018e+25 -0.661535 -0.0175755 272.281 
-2.15025e-06 -1.60074e-05 2.68904e+25 -0.743551 -0.0815492 272.359 
-2.38917e-07 -1.60074e-05 2.68632e+25 -0.786412 0.089177 272.368 
-1.55296e-05 -1.55296e-05 2.68871e+25 0.0533482 0.148409 272.281 
-1.36182e-05 -1.55296e-05 2.68946e+25 -0.00487819 -0.0319993 272.237 
-1.17069e-05 -1.55296e-05 2.68842e+25 -0.127168 -0.0449496 272.339 
-9.79558e-06 -1.55296e-05 2.68933e+25 -0.233895 0.266226 272.258 
-7.88425e-06 -1.55296e-05 2.68915e+25 -0.427013 0.137668 272.272 
-5.97292e-06 -1.55296e-05 2.69202e+25 -0.799373 0.292798 272.049 
-4.06158e-06 -1.55296e-05 2.69107e+25 -1.03856 -0.0810731 272.089 
-2.15025e-06 -1.55296e-05 2.68953e+25 -0.876614 -0.120849 272.203 
-2.38917e-07 -1.55296e-05 2.68816e+25 -1.12432 0.0828948 272.164 
-1.55296e-05 -1.50517e-05 2.69085e+25 0.00656398 0.0760166 272.147 
-1.36182e-05 -1.50517e-05 2.69108e+25 0.0993056 0.0107846 272.139 
-1.17069e-05 -1.50517e-05 2.68979e+25 -0.243047 0.0522541 272.248 
-9.79558e-06 -1.50517e-05 2.69051e+25 -0.234014 0.342935 272.148 
-7.88425e-06 -1.50517e-05 2.69066e+25 -0.744531 0.140325 272.202 
-5.97292e-06 -1.50517e-05 2.69138e+25 -1.04917 0.428044 272.109 
-4.06158e-06 -1.50517e-05 2.69318e+25 -1.26739 -0.131415 271.926 
-2.15025e-06 -1.50517e-05 2.69196e+25 -1.27446 -0.0262076 272.135 
-2.38917e-07 -1.50517e-05 2.68937e+25 -1.36055 0.0435708 272.097 
-1.55296e-05 -1.45739e-05 2.69006e+25 0.0607614 0.0363148 272.212 
-1.36182e-05 -1.45739e-05 2.69135e+25 0.0491627 0.0528131 272.036 
-1.17069e-05 -1.45739e-05 2.68913e+25 -0.199981 0.187946 272.271 
-9.79558e-06 -1.45739e-05 2.69276e+25 -0.360502 0.3638 272.046 
-7.88425e-06 -1.45739e-05 2.68989e+25 -0.978041 0.172793 272.206 
-5.97292e-06 -1.45739e-05 2.69187e+25 -1.25648 0.46793 271.968 
-4.06158e-06 -1.45739e-05 2.69239e+25 -1.43909 -0.120285 272.038 
-2.15025e-06 -1.45739e-05 2.69115e+25 -1.59176 0.0864703 272.154 
-2.38917e-07 -1.45739e-05 2.68885e+25 -1.6317 0.0193105 272.148 
-1.55296e-05 -1.40961e-05 2.68995e+25 -0.106487 -0.0244375 272.231 
-1.36182e-05 -1.40961e-05 2.69215e+25 -0.215895 0.141102 271.966 
-1.17069e-05 -1.40961e-05 2.69115e+25 -0.296775 0.210945 272.156 
-9.79558e-06 -1.40961e-05 2.69205e+25 -0.629338 0.407675 272.012 
-7.88425e-06 -1.40961e-05 2.68944e+25 -1.07033 0.288673 272.162 
-5.97292e-06 -1.40961e-05 2.69353e+25 -1.45729 0.612398 271.914 
-4.06158e-06 -1.40961e-05 2.69341e+25 -1.75717 -0.0667086 271.936 
-2.15025e-06 -1.40961e-05 2.69155e+25 -1.69928 0.162125 272.045 
-2.38917e-07 -1.40961e-05 2.68917e+25 -1.82588 0.104825 272.048 
-1.55296e-05 -1.36182e-05 2.69073e+25 -0.137464 0.0589995 272.197 
-1.36182e-05 -1.36182e-05 2.69231e+25 -0.343028 0.20564 271.959 
-1.17069e-05 -1.36182e-05 2.69148e+25 -0.536963 0.213861 272.069 
-9.79558e-06 -1.36182e-05 2.69249e+25 -0.879138 0.450931 272 
-7.88425e-06 -1.36182e-05 2.69225e+25 -1.29165 0.427145 272.104 
-5.97292e-06 -1.36182e-05 2.6919e+25 -1.55268 0.598625 272.017 
-4.06158e-06 -1.36182e-05 2.69285e+25 -1.98456 0.0430494 271.934 
-2.15025e-06 -1.36182e-05 2.69114e+25 -1.8288 0.221008 272.111 
-2.38917e-07 -1.36182e-05 2.69065e+25 -1.92031 0.118355 272.036 
-1.55296e-05 -1.31404e-05 2.68967e+25 -0.148778 0.147655 272.288 
-1.36182e-05 -1.31404e-05 2.69199e+25 -0.338235 0.243184 272.058 
-1.17069e-05 -1.31404e-05 2.69342e+25 -0.493118 0.280431 271.922 
-9.79558e-06 -1.31404e-05 2.69198e+25 -1.00515 0.582692 271.984 
-7.88425e-06 -1.31404e-05 2.69277e+25 -1.48166 0.559761 271.977 
-5.97292e-06 -1.31404e-05 2.69316e+25 -1.76801 0.573334 271.916 
-4.06158e-06 -1.31404e-05 2.69388e+25 -1.95394 0.148498 271.922 
-2.15025e-06 -1.31404e-05 2.69168e+25 -2.12644 0.166032 272.051 
-2.38917e-07 -1.31404e-05 2.69011e+25 -2.10529 0.029755 272.111 
-1.55296e-05 -1.26626e-05 2.68856e+25 -0.188816 0.233721 272.37 
-1.36182e-05 -1.26626e-05 2.69231e+25 -0.296254 0.244129 271.963 
-1.17069e-05 -1.26626e-05 2.69322e+25 -0.607894 0.416981 271.838 
-9.79558e-06 -1.26626e-05 2.69154e+25 -1.12478 0.703703 271.974 
-7.88425e-06 -1.26626e-05 2.69393e+25 -1.59489 0.718829 271.841 
-5.97292e-06 -1.26626e-05 2.69276e+25 -1.90335 0.499735 271.985 
-4.06158e-06 -1.26626e-05 2.69176e+25 -2.00937 0.301897 271.981 
-2.15025e-06 -1.26626e-05 2.69235e+25 -2.42175 0.174805 271.987 
-2.38917e-07 -1.26626e-05 2.69027e+25 -2.24481 -0.0059007 272.048 
-1.55296e-05 -1.21847e-05 2.68992e+25 -0.0456805 0.255189 272.214 
-1.36182e-05 -1.21847e-05 2.69215e+25 -0.384157 0.283708 271.985 
-1.17069e-05 -1.21847e-05 2.69284e+25 -0.712102 0.503604 271.969 
-9.79558e-06 -1.21847e-05 2.69205e+25 -1.33976 0.792021 272.001 
-7.88425e-06 -1.21847e-05 2.69319e+25 -1.79639 0.845626 271.914 
-5.97292e-06 -1.21847e-05 2.69196e+25 -2.0928 0.505332 271.927 
-4.06158e-06 -1.21847e-05 2.69328e+25 -2.23048 0.379513 271.908 
-2.15025e-06 -1.21847e-05 2.6929e+25 -2.49091 0.237878 271.991 
-2.38917e-07 -1.21847e-05 2.69017e+25 -2.60816 -0.0253525 271.995 
-1.55296e-05 -1.17069e-05 2.69041e+25 -0.0494346 0.302616 272.192 
-1.36182e-05 -1.17069e-05 2.69159e+25 -0.437618 0.370233 272.02 
-1.17069e-05 -1.17069e-05 2.69095e+25 -0.841228 0.636771 272.065 
-9.79558e-06 -1.17069e-05 2.69301e+25 -1.4726 0.986853 271.937 
-7.88425e-06 -1.17069e-05 2.69125e+25 -1.95464 0.966517 271.999 
-5.97292e-06 -1.17069e-05 2.69153e+25 -2.18753 0.60307 272.03 
-4.06158e-06 -1.17069e-05 2.69303e+25 -2.49393 0.449129 271.986 
-2.15025e-06 -1.17069e-05 2.69204e+25 -2.76875 0.276642 272.016 
-2.38917e-07 -1.17069e-05 2.69041e+25 -2.93375 -0.0134052 271.993 
-1.55296e-05 -1.12291e-05 2.69009e+25 -0.175946 0.358478 272.146 
-1.36182e-05 -1.12291e-05 2.69253e+25 -0.557278 0.477825 272.056 
-1.17069e-05 -1.12291e-05 2.69121e+25 -0.945669 0.790636 272.136 
-9.79558e-06 -1.12291e-05 2.69343e+25 -1.37566 1.1567 271.913 
-7.88425e-06 -1.12291e-05 2.69165e+25 -2.0708 1.0761 272.063 
-5.97292e-06 -1.12291e-05 2.69325e+25 -2.28901 0.724148 271.973 
-4.06158e-06 -1.12291e-05 2.69209e+25 -2.75318 0.541464 271.993 
-2.15025e-06 -1.12291e-05 2.6914e+25 -3.04795 0.287288 272.09 
-2.38917e-07 -1.12291e-05 2.69095e+25 -3.22731 0.00494834 271.954 
-1.55296e-05 -1.07512e-05 2.69019e+25 -0.136039 0.524223 272.231 
-1.36182e-05 -1.07512e-05 2.69148e+25 -0.523508 0.572003 272.089 
-1.17069e-05 -1.07512e-05 2.69115e+25 -0.99221 0.979503 272.095 
-9.79558e-06 -1.07512e-05 2.69336e+25 -1.45611 1.35314 271.925 
-7.88425e-06 -1.07512e-05 2.69164e+25 -2.24932 1.16643 272.063 
-5.97292e-06 -1.07512e-05 2.69366e+25 -2.46596 0.840316 271.964 
-4.06158e-06 -1.07512e-05 2.69257e+25 -2.8793 0.605948 271.933 
-2.15025e-06 -1.07512e-05 2.68987e+25 -3.31558 0.337737 272.239 
-2.38917e-07 -1.07512e-05 2.69167e+25 -3.44046 0.0429927 271.916 
-1.55296e-05 -1.02734e-05 2.69061e+25 -0.0660486 0.541214 272.136 
-1.36182e-05 -1.02734e-05 2.69113e+25 -0.472825 0.676596 272.086 
-1.17069e-05 -1.02734e-05 2.69158e+25 -1.1551 1.13021 272.093 
-9.79558e-06 -1.02734e-05 2.69292e+25 -1.71081 1.49497 271.955 
-7.88425e-06 -1.02734e-05 2.69209e+25 -2.37515 1.27655 272.024 
-5.97292e-06 -1.02734e-05 2.69281e+25 -2.78677 0.882272 271.926 
-4.06158e-06 -1.02734e-05 2.69309e+25 -3.06764 0.753779 271.858 
-2.15025e-06 -1.02734e-05 2.68953e+25 -3.77942 0.395111 272.215 
-2.38917e-07 -1.02734e-05 2.69016e+25 -3.74449 -0.0389449 271.98 
-1.55296e-05 -9.79558e-06 2.69118e+25 -0.137564 0.485146 272.089 
-1.36182e-05 -9.79558e-06 2.69114e+25 -0.369735 0.88027 272.084 
-1.17069e-05 -9.79558e-06 2.69324e+25 -1.21222 1.22943 271.907 
-9.79558e-06 -9.79558e-06 2.6924e+25 -1.8567 1.61151 272.018 
-7.88425e-06 -9.79558e-06 2.69204e+25 -2.3415 1.36102 272.076 
-5.97292e-06 -9.79558e-06 2.69259e+25 -3.12867 0.977324 271.96 
-4.06158e-06 -9.79558e-06 2.69374e+25 -3.32272 0.844968 271.851 
-2.15025e-06 -9.79558e-06 2.68904e+25 -3.86034 0.46297 272.237 
-2.38917e-07 -9.79558e-06 2.69002e+25 -3.83746 -0.114606 271.973 
-1.55296e-05 -9.31775e-06 2.6895e+25 -0.127232 0.433413 272.198 
-1.36182e-05 -9.31775e-06 2.69216e+25 -0.444873 1.04052 271.993 
-1.17069e-05 -9.31775e-06 2.69481e+25 -1.15088 1.36946 271.742 
-9.79558e-06 -9.31775e-06 2.69117e+25 -1.94955 1.75647 272.049 
-7.88425e-06 -9.31775e-06 2.6911e+25 -2.34112 1.49865 272.118 
-5.97292e-06 -9.31775e-06 2.69382e+25 -3.23933 1.16063 271.806 
-4.06158e-06 -9.31775e-06 2.69128e+25 -3.75383 0.875899 272.01 
-2.15025e-06 -9.31775e-06 2.69006e+25 -4.17239 0.57618 272.233 
-2.38917e-07 -9.31775e-06 2.68959e+25 -4.15478 -0.134167 272.016 
-1.55296e-05 -8.83992e-06 2.68862e+25 -0.113067 0.467413 272.209 
-1.36182e-05 -8.83992e-06 2.69209e+25 -0.46519 1.16241 271.932 
-1.17069e-05 -8.83992e-06 2.69376e+25 -1.16127 1.61862 271.813 
-9.79558e-06 -8.83992e-06 2.69181e+25 -1.93323 1.86232 271.969 
-7.88425e-06 -8.83992e-06 2.69028e+25 -2.45029 1.7108 272.205 
-5.97292e-06 -8.83992e-06 2.69355e+25 -3.38298 1.41466 271.89 
-4.06158e-06 -8.83992e-06 2.69211e+25 -4.02485 1.02892 271.993 
-2.15025e-06 -8.83992e-06 2.69172e+25 -4.42577 0.691638 272.06 
-2.38917e-07 -8.83992e-06 2.69002e+25 -4.55081 -0.0610297 272.003 
-1.55296e-05 -8.36208e-06 2.69008e+25 -0.144855 0.526136 272.208 
-1.36182e-05 -8.36208e-06 2.69266e+25 -0.634622 1.31881 272.028 
-1.17069e-05 -8.36208e-06 2.69387e+25 -1.26279 1.83736 271.858 
-9.79558e-06 -8.36208e-06 2.69266e+25 -1.84799 2.01873 271.929 
-7.88425e-06 -8.36208e-06 2.69042e+25 -2.6414 1.92225 272.064 
-5.97292e-06 -8.36208e-06 2.69262e+25 -3.44388 1.5206 272.013 
-4.06158e-06 -8.36208e-06 2.69177e+25 -4.14091 1.21408 272.071 
-2.15025e-06 -8.36208e-06 2.69113e+25 -4.66789 0.83425 272.123 
-2.38917e-07 -8.36208e-06 2.68968e+25 -4.93149 -0.0751931 271.996 
-1.55296e-05 -7.88425e-06 2.68998e+25 -0.0939447 0.626398 272.235 
-1.36182e-05 -7.88425e-06 2.69183e+25 -0.676291 1.46744 272.042 
-1.17069e-05 -7.88425e-06 2.69417e+25 -1.42194 2.04948 271.88 
-9.79558e-06 -7.88425e-06 2.69319e+25 -1.96617 2.16941 271.888 
-7.88425e-06 -7.88425e-06 2.69321e+25 -2.83422 2.17904 271.92 
-5.97292e-06 -7.88425e-06 2.69213e+25 -3.57442 1.66439 272.008 
-4.06158e-06 -7.88425e-06 2.68983e+25 -4.28278 1.35261 272.147 
-2.15025e-06 -7.88425e-06 2.69174e+25 -4.82167 0.967858 272.08 
-2.38917e-07 -7.88425e-06 2.69007e+25 -5.20723 -0.0993913 271.948 
-1.55296e-05 -7.40642e-06 2.69095e+25 -0.0312527 0.732 272.114 
-1.36182e-05 -7.40642e-06 2.69349e+25 -0.868957 1.58518 271.974 
-1.17069e-05 -7.40642e-06 2.69139e+25 -1.42991 2.21985 272.002 
-9.79558e-06 -7.40642e-06 2.69327e+25 -2.07815 2.34656 271.906 
-7.88425e-06 -7.40642e-06 2.69303e+25 -2.93065 2.42582 271.873 
-5.97292e-06 -7.40642e-06 2.69239e+25 -3.6588 1.87354 272.013 
-4.06158e-06 -7.40642e-06 2.69023e+25 -4.43094 1.48944 272.167 
-2.15025e-06 -7.40642e-06 2.68957e+25 -4.94972 1.08991 272.199 
-2.38917e-07 -7.40642e-06 2.68849e+25 -5.4681 -0.0218839 272.143 
-1.55296e-05 -6.92858e-06 2.6926e+25 -0.0610277 0.824103 271.996 
-1.36182e-05 -6.92858e-06 2.69387e+25 -0.771675 1.70174 271.879 
-1.17069e-05 -6.92858e-06 2.69172e+25 -1.41067 2.32631 271.96 
-9.79558e-06 -6.92858e-06 2.6912e+25 -2.19511 2.54648 271.976 
-7.88425e-06 -6.92858e-06 2.69338e+25 -2.9664 2.66101 271.875 
-5.97292e-06 -6.92858e-06 2.69022e+25 -3.80787 2.02744 272.126 
-4.06158e-06 -6.92858e-06 2.69021e+25 -4.5018 1.70271 272.064 
-2.15025e-06 -6.92858e-06 2.68987e+25 -5.10152 1.20823 272.127 
-2.38917e-07 -6.92858e-06 2.68727e+25 -5.56506 0.0758632 272.142 
-1.55296e-05 -6.45075e-06 2.69305e+25 -0.111811 0.955153 271.94 
-1.36182e-05 -6.45075e-06 2.69406e+25 -0.726367 1.93099 271.799 
-1.17069e-05 -6.45075e-06 2.69394e+25 -1.40881 2.42245 271.903 
-9.79558e-06 -6.45075e-06 2.6928e+25 -2.28842 2.82129 271.926 
-7.88425e-06 -6.45075e-06 2.69384e+25 -3.08286 2.83376 271.89 
-5.97292e-06 -6.45075e-06 2.69189e+25 -3.90406 2.18636 271.988 
-4.06158e-06 -6.45075e-06 2.69077e+25 -4.72785 1.92633 272.013 
-2.15025e-06 -6.45075e-06 2.68988e+25 -5.28083 1.28036 272.188 
-2.38917e-07 -6.45075e-06 2.68956e+25 -5.74173 0.219019 272.046 
-1.55296e-05 -5.97292e-06 2.69176e+25 -0.249463 1.09921 272.076 
-1.36182e-05 -5.97292e-06 2.69307e+25 -0.789457 2.12004 271.884 
-1.17069e-05 -5.97292e-06 2.69317e+25 -1.51836 2.59658 271.934 
-9.79558e-06 -5.97292e-06 2.69291e+25 -2.44248 3.00671 271.938 
-7.88425e-06 -5.97292e-06 2.69367e+25 -3.20875 2.94867 271.879 
-5.97292e-06 -5.97292e-06 2.69201e+25 -4.0731 2.36407 271.943 
-4.06158e-06 -5.97292e-06 2.69261e+25 -4.84941 2.13494 271.936 
-2.15025e-06 -5.97292e-06 2.6911e+25 -5.54334 1.43391 272.042 
-2.38917e-07 -5.97292e-06 2.68954e+25 -5.97733 0.327806 272.067 
-1.55296e-05 -5.49508e-06 2.69141e+25 -0.3193 1.14022 272.164 
-1.36182e-05 -5.49508e-06 2.69217e+25 -0.778285 2.31539 272.054 
-1.17069e-05 -5.49508e-06 2.69218e+25 -1.73922 2.82277 271.933 
-9.79558e-06 -5.49508e-06 2.69425e+25 -2.50747 3.18989 271.715 
-7.88425e-06 -5.49508e-06 2.69494e+25 -3.34045 3.14435 271.755 
-5.97292e-06 -5.49508e-06 2.69201e+25 -4.21141 2.60599 272.032 
-4.06158e-06 -5.49508e-06 2.69219e+25 -5.02175 2.32637 271.877 
-2.15025e-06 -5.49508e-06 2.69091e+25 -5.5918 1.62173 272.082 
-2.38917e-07 -5.49508e-06 2.68875e+25 -6.16115 0.401831 272.067 
-1.55296e-05 -5.01725e-06 2.69148e+25 -0.342447 1.29239 272.077 
-1.36182e-05 -5.01725e-06 2.69161e+25 -0.806772 2.56726 272.053 
-1.17069e-05 -5.01725e-06 2.69277e+25 -1.73171 3.14242 271.981 
-9.79558e-06 -5.01725e-06 2.69516e+25 -2.59625 3.33604 271.652 
-7.88425e-06 -5.01725e-06 2.69373e+25 -3.47152 3.32652 271.755 
-5.97292e-06 -5.01725e-06 2.69168e+25 -4.35482 2.86882 271.971 
-4.06158e-06 -5.01725e-06 2.69147e+25 -5.29346 2.51005 271.973 
-2.15025e-06 -5.01725e-06 2.69123e+25 -5.78405 1.7529 272.039 
-2.38917e-07 -5.01725e-06 2.68831e+25 -6.48845 0.469821 272.088 
-1.55296e-05 -4.53942e-06 2.69032e+25 -0.320009 1.53965 272.077 
-1.36182e-05 -4.53942e-06 2.69064e+25 -0.836866 2.84658 272.221 
-1.17069e-05 -4.53942e-06 2.69202e+25 -1.72183 3.38714 271.957 
-9.79558e-06 -4.53942e-06 2.69366e+25 -2.65956 3.42453 271.806 
-7.88425e-06 -4.53942e-06 2.69141e+25 -3.494 3.56045 271.941 
-5.97292e-06 -4.53942e-06 2.69141e+25 -4.42856 3.15175 272.024 
-4.06158e-06 -4.53942e-06 2.69294e+25 -5.36753 2.61861 271.941 
-2.15025e-06 -4.53942e-06 2.6899e+25 -5.90344 1.8636 272.06 
-2.38917e-07 -4.53942e-06 2.6876e+25 -6.42567 0.485738 272.138 
-1.55296e-05 -4.06158e-06 2.69166e+25 -0.242396 1.6824 272.036 
-1.36182e-05 -4.06158e-06 2.69097e+25 -0.88874 3.02182 272.15 
-1.17069e-05 -4.06158e-06 2.69214e+25 -1.6919 3.65384 271.963 
-9.79558e-06 -4.06158e-06 2.69394e+25 -2.61839 3.60773 271.803 
-7.88425e-06 -4.06158e-06 2.69218e+25 -3.64548 3.7814 271.889 
-5.97292e-06 -4.06158e-06 2.69083e+25 -4.35724 3.44184 272.08 
-4.06158e-06 -4.06158e-06 2.69112e+25 -5.34714 2.75211 271.992 
-2.15025e-06 -4.06158e-06 2.69346e+25 -6.01021 2.01992 271.879 
-2.38917e-07 -4.06158e-06 2.6885e+25 -6.44983 0.593689 272.117 
-1.55296e-05 -3.58375e-06 2.69107e+25 -0.320965 1.76266 272.102 
-1.36182e-05 -3.58375e-06 2.68987e+25 -0.774987 3.13364 272.121 
-1.17069e-05 -3.58375e-06 2.6914e+25 -1.53783 3.89583 271.984 
-9.79558e-06 -3.58375e-06 2.69293e+25 -2.60341 3.89757 271.874 
-7.88425e-06 -3.58375e-06 2.69292e+25 -3.65998 3.95077 271.927 
-5.97292e-06 -3.58375e-06 2.68973e+25 -4.55949 3.69366 272.15 
-4.06158e-06 -3.58375e-06 2.69067e+25 -5.44525 2.94739 272.051 
-2.15025e-06 -3.58375e-06 2.69187e+25 -6.30152 2.09964 271.967 
-2.38917e-07 -3.58375e-06 2.68737e+25 -6.64306 0.730618 272.131 
-1.55296e-05 -3.10592e-06 2.68981e+25 -0.320262 1.8076 272.187 
-1.36182e-05 -3.10592e-06 2.69125e+25 -0.869494 3.13188 272.087 
-1.17069e-05 -3.10592e-06 2.69133e+25 -1.63717 4.15038 272.009 
-9.79558e-06 -3.10592e-06 2.69075e+25 -2.45366 4.31883 272.007 
-7.88425e-06 -3.10592e-06 2.69332e+25 -3.55208 4.12951 271.87 
-5.97292e-06 -3.10592e-06 2.68897e+25 -4.59838 3.94856 272.159 
-4.06158e-06 -3.10592e-06 2.69004e+25 -5.61987 3.18061 272.146 
-2.15025e-06 -3.10592e-06 2.69177e+25 -6.37937 2.30094 271.946 
-2.38917e-07 -3.10592e-06 2.68803e+25 -6.84824 0.881004 272.141 
-1.55296e-05 -2.62808e-06 2.68986e+25 -0.285835 1.95906 272.178 
-1.36182e-05 -2.62808e-06 2.69051e+25 -0.896956 3.24399 272.156 
-1.17069e-05 -2.62808e-06 2.6923e+25 -1.60764 4.30811 271.93 
-9.79558e-06 -2.62808e-06 2.69184e+25 -2.38458 4.63162 272 
-7.88425e-06 -2.62808e-06 2.69198e+25 -3.56877 4.49263 271.935 
-5.97292e-06 -2.62808e-06 2.69021e+25 -4.6331 4.16906 272.122 
-4.06158e-06 -2.62808e-06 2.69011e+25 -5.66406 3.34314 272.095 
-2.15025e-06 -2.62808e-06 2.68996e+25 -6.37469 2.42437 271.994 
-2.38917e-07 -2.62808e-06 2.68699e+25 -7.05601 1.05946 272.153 
-1.55296e-05 -2.15025e-06 2.68989e+25 -0.238213 2.06425 272.229 
-1.36182e-05 -2.15025e-06 2.68975e+25 -0.802636 3.44388 272.165 
-1.17069e-05 -2.15025e-06 2.69157e+25 -1.72135 4.50821 271.925 
-9.79558e-06 -2.15025e-06 2.69125e+25 -2.5254 4.88116 271.996 
-7.88425e-06 -2.15025e-06 2.69311e+25 -3.64758 4.86819 271.918 
-5.97292e-06 -2.15025e-06 2.68945e+25 -4.65142 4.41186 272.014 
-4.06158e-06 -2.15025e-06 2.69058e+25 -5.61827 3.53387 272.023 
-2.15025e-06 -2.15025e-06 2.69025e+25 -6.35199 2.53877 272.031 
-2.38917e-07 -2.15025e-06 2.68766e+25 -7.16241 1.26774 272.024 
-1.55296e-05 -1.67242e-06 2.688e+25 -0.00602239 2.17954 272.394 
-1.36182e-05 -1.67242e-06 2.69122e+25 -0.717863 3.66905 272.07 
-1.17069e-05 -1.67242e-06 2.69316e+25 -1.66879 4.72874 271.831 
-9.79558e-06 -1.67242e-06 2.69227e+25 -2.6311 5.07403 271.919 
-7.88425e-06 -1.67242e-06 2.69296e+25 -3.60571 5.15958 271.874 
-5.97292e-06 -1.67242e-06 2.69074e+25 -4.7361 4.65859 272.014 
-4.06158e-06 -1.67242e-06 2.68954e+25 -5.51026 3.8131 272.151 
-2.15025e-06 -1.67242e-06 2.68961e+25 -6.41748 2.70956 272.047 
-2.38917e-07 -1.67242e-06 2.68908e+25 -7.31764 1.49968 272.017 
-1.55296e-05 -1.19458e-06 2.68895e+25 0.0514867 2.34454 272.252 
-1.36182e-05 -1.19458e-06 2.69032e+25 -0.77708 3.92722 272.124 
-1.17069e-05 -1.19458e-06 2.6924e+25 -1.5586 4.97627 271.871 
-9.79558e-06 -1.19458e-06 2.69322e+25 -2.5559 5.23113 271.855 
-7.88425e-06 -1.19458e-06 2.69378e+25 -3.39391 5.40285 271.76 
-5.97292e-06 -1.19458e-06 2.69117e+25 -4.66311 4.89187 272.014 
-4.06158e-06 -1.19458e-06 2.69027e+25 -5.63321 4.06707 272.122 
-2.15025e-06 -1.19458e-06 2.69158e+25 -6.44979 2.96714 271.87 
-2.38917e-07 -1.19458e-06 2.6879e+25 -7.40362 1.68845 271.977 
-1.55296e-05 -7.1675e-07 2.69057e+25 -0.00346317 2.42903 272.122 
-1.36182e-05 -7.1675e-07 2.69058e+25 -0.699328 4.19064 272.004 
-1.17069e-05 -7.1675e-07 2.69107e+25 -1.54233 5.20446 272.026 
-9.79558e-06 -7.1675e-07 2.6937e+25 -2.54389 5.48142 271.802 
-7.88425e-06 -7.1675e-07 2.69254e+25 -3.37841 5.62137 271.914 
-5.97292e-06 -7.1675e-07 2.69185e+25 -4.51465 5.21587 271.899 
-4.06158e-06 -7.1675e-07 2.69045e+25 -5.63955 4.40329 272.048 
-2.15025e-06 -7.1675e-07 2.69137e+25 -6.61007 3.24112 271.865 
-2.38917e-07 -7.1675e-07 2.68697e+25 -7.3912 1.86782 271.956 
-1.55296e-05 -2.38917e-07 2.68885e+25 -0.0930513 2.46129 272.184 
-1.36182e-05 -2.38917e-07 2.68985e+25 -0.596953 4.47214 271.903 
-1.17069e-05 -2.38917e-07 2.68726e+25 -1.60901 5.44752 272.167 
-9.79558e-06 -2.38917e-07 2.68964e+25 -2.58581 5.79654 271.961 
-7.88425e-06 -2.38917e-07 2.69016e+25 -3.54831 5.90762 271.888 
-5.97292e-06 -2.38917e-07 2.6899e+25 -4.53487 5.53775 271.856 
-4.06158e-06 -2.38917e-07 2.68857e+25 -5.55212 4.67717 272.033 
-2.15025e-06 -2.38917e-07 2.68874e+25 -6.54137 3.39073 271.91 
-2.38917e-07 -2.38917e-07 2.68579e+25 -7.32944 2.0456 272.06 
-1.64852e-05 2.38917e-07 2.68533e+25 -0.125335 1.10362 272.415 
-1.45739e-05 2.38917e-07 2.68774e+25 -0.401681 3.70669 272.034 
-1.26626e-05 2.38917e-07 2.68987e+25 -1.09897 5.15583 271.921 
-1.07512e-05 2.38917e-07 2.68994e+25 -2.18723 5.92531 271.975 
-8.83992e-06 2.38917e-07 2.68805e+25 -3.17497 6.16131 272.007 
-6.92858e-06 2.38917e-07 2.69087e+25 -3.9389 5.95121 271.851 
-5.01725e-06 2.38917e-07 2.68909e+25 -4.98837 5.29027 271.916 
-3.10592e-06 2.38917e-07 2.6883e+25 -5.90097 4.2862 271.95 
-1.19458e-06 2.38917e-07 2.68625e+25 -6.96871 3.02577 272.177 
-1.64852e-05 7.1675e-07 2.68677e+25 -0.0141259 1.16368 272.397 
-1.45739e-05 7.1675e-07 2.69198e+25 -0.46658 3.78609 271.929 
-1.26626e-05 7.1675e-07 2.69031e+25 -1.20087 5.4699 271.925 
-1.07512e-05 7.1675e-07 2.69255e+25 -2.4208 6.21277 271.859 
-8.83992e-06 7.1675e-07 2.6909e+25 -3.14196 6.35342 271.987 
-6.92858e-06 7.1675e-07 2.69148e+25 -3.95027 6.16855 271.889 
-5.01725e-06 7.1675e-07 2.6938e+25 -4.81638 5.57473 271.76 
-3.10592e-06 7.1675e-07 2.69077e+25 -5.76399 4.54673 271.955 
-1.19458e-06 7.1675e-07 2.6881e+25 -6.77837 3.26957 272.187 
-1.64852e-05 1.19458e-06 2.68775e+25 -0.1022 1.2429 272.344 
-1.45739e-05 1.19458e-06 2.6922e+25 -0.479141 3.89253 271.952 
-1.26626e-05 1.19458e-06 2.6918e+25 -1.31869 5.82221 271.911 
-1.07512e-05 1.19458e-06 2.69203e+25 -2.32702 6.44436 271.88 
-8.83992e-06 1.19458e-06 2.6911e+25 -3.03733 6.51615 271.983 
-6.92858e-06 1.19458e-06 2.69194e+25 -3.86545 6.36516 271.858 
-5.01725e-06 1.19458e-06 2.69227e+25 -4.76464 5.848 271.765 
-3.10592e-06 1.19458e-06 2.6901e+25 -5.76635 4.73714 271.959 
-1.19458e-06 1.19458e-06 2.68872e+25 -6.58384 3.44058 272.198 
-1.64852e-05 1.67242e-06 2.6869e+25 0.017564 1.27888 272.443 
-1.45739e-05 1.67242e-06 2.69175e+25 -0.452288 4.09346 272.027 
-1.26626e-05 1.67242e-06 2.69169e+25 -1.29625 6.08231 271.898 
-1.07512e-05 1.67242e-06 2.69189e+25 -2.15381 6.66084 271.972 
-8.83992e-06 1.67242e-06 2.69104e+25 -3.00411 6.67085 271.881 
-6.92858e-06 1.67242e-06 2.6923e+25 -3.83447 6.54768 271.838 
-5.01725e-06 1.67242e-06 2.69204e+25 -4.53033 6.10802 271.754 
-3.10592e-06 1.67242e-06 2.68946e+25 -5.56367 4.89271 272.024 
-1.19458e-06 1.67242e-06 2.68769e+25 -6.28504 3.56356 272.141 
-1.64852e-05 2.15025e-06 2.686e+25 0.022944 1.22963 272.438 
-1.45739e-05 2.15025e-06 2.69026e+25 -0.315299 4.22366 272.091 
-1.26626e-05 2.15025e-06 2.69204e+25 -1.24225 6.31059 271.817 
-1.07512e-05 2.15025e-06 2.69104e+25 -2.05457 6.82473 271.949 
-8.83992e-06 2.15025e-06 2.69284e+25 -2.87002 6.816 271.724 
-6.92858e-06 2.15025e-06 2.69252e+25 -3.90147 6.79957 271.755 
-5.01725e-06 2.15025e-06 2.69168e+25 -4.44829 6.26812 271.792 
-3.10592e-06 2.15025e-06 2.68923e+25 -5.43495 5.0805 272.04 
-1.19458e-06 2.15025e-06 2.68905e+25 -6.011 3.72779 272.121 
-1.64852e-05 2.62808e-06 2.68542e+25 -0.0287391 1.24272 272.497 
-1.45739e-05 2.62808e-06 2.69095e+25 -0.389592 4.41145 271.945 
-1.26626e-05 2.62808e-06 2.69326e+25 -1.06825 6.43657 271.705 
-1.07512e-05 2.62808e-06 2.69083e+25 -1.90974 7.02406 272.031 
-8.83992e-06 2.62808e-06 2.69164e+25 -2.81484 6.97567 271.779 
-6.92858e-06 2.62808e-06 2.69213e+25 -3.7891 7.11187 271.814 
-5.01725e-06 2.62808e-06 2.6912e+25 -4.54193 6.38439 271.867 
-3.10592e-06 2.62808e-06 2.68866e+25 -5.1798 5.39395 272.056 
-1.19458e-06 2.62808e-06 2.68749e+25 -5.62152 3.86866 272.235 
-1.64852e-05 3.10592e-06 2.68557e+25 -0.0647216 1.31663 272.551 
-1.45739e-05 3.10592e-06 2.69121e+25 -0.445835 4.60727 271.974 
-1.26626e-05 3.10592e-06 2.6926e+25 -1.06948 6.59376 271.775 
-1.07512e-05 3.10592e-06 2.69207e+25 -1.80706 7.2055 271.847 
-8.83992e-06 3.10592e-06 2.69231e+25 -2.66034 7.23608 271.762 
-6.92858e-06 3.10592e-06 2.69138e+25 -3.58891 7.4274 271.94 
-5.01725e-06 3.10592e-06 2.69034e+25 -4.47496 6.49135 271.879 
-3.10592e-06 3.10592e-06 2.68897e+25 -4.82033 5.5158 272.096 
-1.19458e-06 3.10592e-06 2.68614e+25 -5.33976 3.94642 272.208 
-1.64852e-05 3.58375e-06 2.6853e+25 -0.0196547 1.35924 272.533 
-1.45739e-05 3.58375e-06 2.69144e+25 -0.378649 4.8251 271.936 
-1.26626e-05 3.58375e-06 2.69229e+25 -1.01145 6.75735 271.776 
-1.07512e-05 3.58375e-06 2.69255e+25 -1.63016 7.44973 271.842 
-8.83992e-06 3.58375e-06 2.69206e+25 -2.6198 7.5291 271.763 
-6.92858e-06 3.58375e-06 2.68929e+25 -3.47937 7.56937 271.986 
-5.01725e-06 3.58375e-06 2.69063e+25 -4.21518 6.54529 271.868 
-3.10592e-06 3.58375e-06 2.68646e+25 -4.59226 5.61984 272.251 
-1.19458e-06 3.58375e-06 2.68513e+25 -5.14537 4.0592 272.297 
-1.64852e-05 4.06158e-06 2.68609e+25 -0.0401954 1.41707 272.423 
-1.45739e-05 4.06158e-06 2.69107e+25 -0.369888 4.94251 271.951 
-1.26626e-05 4.06158e-06 2.69158e+25 -1.00058 6.89855 271.86 
-1.07512e-05 4.06158e-06 2.69289e+25 -1.49609 7.68836 271.789 
-8.83992e-06 4.06158e-06 2.69187e+25 -2.60564 7.76719 271.795 
-6.92858e-06 4.06158e-06 2.69048e+25 -3.30277 7.67197 271.995 
-5.01725e-06 4.06158e-06 2.68925e+25 -3.86873 6.64906 271.976 
-3.10592e-06 4.06158e-06 2.68685e+25 -4.25064 5.79953 272.21 
-1.19458e-06 4.06158e-06 2.68677e+25 -4.84045 4.16604 272.262 
-1.64852e-05 4.53942e-06 2.68463e+25 0.0581235 1.43975 272.518 
-1.45739e-05 4.53942e-06 2.68912e+25 -0.453447 5.06364 272.111 
-1.26626e-05 4.53942e-06 2.68992e+25 -0.994219 7.03716 271.911 
-1.07512e-05 4.53942e-06 2.69231e+25 -1.51797 7.81602 271.859 
-8.83992e-06 4.53942e-06 2.69227e+25 -2.42541 8.05753 271.723 
-6.92858e-06 4.53942e-06 2.68808e+25 -3.09362 7.86297 272.071 
-5.01725e-06 4.53942e-06 2.68823e+25 -3.50109 6.78403 272.114 
-3.10592e-06 4.53942e-06 2.68705e+25 -3.91996 6.0039 272.177 
-1.19458e-06 4.53942e-06 2.68697e+25 -4.4598 4.25633 272.254 
-1.64852e-05 5.01725e-06 2.68528e+25 -0.0412849 1.48203 272.494 
-1.45739e-05 5.01725e-06 2.68913e+25 -0.547816 5.18611 272.058 
-1.26626e-05 5.01725e-06 2.68992e+25 -0.862124 7.12614 271.977 
-1.07512e-05 5.01725e-06 2.68968e+25 -1.60151 7.95038 271.928 
-8.83992e-06 5.01725e-06 2.69228e+25 -2.24105 8.27745 271.702 
-6.92858e-06 5.01725e-06 2.68822e+25 -2.87301 8.04852 272.116 
-5.01725e-06 5.01725e-06 2.68891e+25 -3.1922 6.9298 272.049 
-3.10592e-06 5.01725e-06 2.68926e+25 -3.5794 6.10567 272.101 
-1.19458e-06 5.01725e-06 2.68762e+25 -4.18256 4.45956 272.062 
-1.64852e-05 5.49508e-06 2.68597e+25 -0.137567 1.58245 272.488 
-1.45739e-05 5.49508e-06 2.68783e+25 -0.634296 5.28502 272.116 
-1.26626e-05 5.49508e-06 2.69112e+25 -0.855306 7.23866 271.836 
-1.07512e-05 5.49508e-06 2.6911e+25 -1.65328 8.13628 271.843 
-8.83992e-06 5.49508e-06 2.69095e+25 -2.09196 8.39635 271.842 
-6.92858e-06 5.49508e-06 2.69007e+25 -2.66165 8.14364 272.052 
-5.01725e-06 5.49508e-06 2.68919e+25 -2.94827 7.06961 271.997 
-3.10592e-06 5.49508e-06 2.68757e+25 -3.17071 6.20792 272.051 
-1.19458e-06 5.49508e-06 2.68897e+25 -3.77161 4.63658 271.85 
-1.64852e-05 5.97292e-06 2.68632e+25 -0.152506 1.69005 272.358 
-1.45739e-05 5.97292e-06 2.68823e+25 -0.599229 5.31085 272.118 
-1.26626e-05 5.97292e-06 2.69062e+25 -0.965794 7.38039 271.854 
-1.07512e-05 5.97292e-06 2.69175e+25 -1.63049 8.28987 271.81 
-8.83992e-06 5.97292e-06 2.68989e+25 -2.08106 8.50349 271.859 
-6.92858e-06 5.97292e-06 2.68901e+25 -2.49822 8.13854 271.918 
-5.01725e-06 5.97292e-06 2.68814e+25 -2.71191 7.1557 272.037 
-3.10592e-06 5.97292e-06 2.68716e+25 -2.88856 6.22531 272.052 
-1.19458e-06 5.97292e-06 2.68885e+25 -3.30457 4.69953 271.932 
-1.64852e-05 6.45075e-06 2.68574e+25 -0.00933579 1.7503 272.384 
-1.45739e-05 6.45075e-06 2.68802e+25 -0.622243 5.42291 272.094 
-1.26626e-05 6.45075e-06 2.69157e+25 -1.12226 7.46476 271.869 
-1.07512e-05 6.45075e-06 2.69083e+25 -1.51035 8.47932 271.833 
-8.83992e-06 6.45075e-06 2.68968e+25 -2.05919 8.61163 271.963 
-6.92858e-06 6.45075e-06 2.68869e+25 -2.19377 8.11562 271.976 
-5.01725e-06 6.45075e-06 2.68907e+25 -2.50093 7.24349 272.014 
-3.10592e-06 6.45075e-06 2.6886e+25 -2.65444 6.28962 272.07 
-1.19458e-06 6.45075e-06 2.69014e+25 -2.76303 4.75926 271.77 
-1.64852e-05 6.92858e-06 2.68431e+25 0.0182566 1.7867 272.563 
-1.45739e-05 6.92858e-06 2.68829e+25 -0.560304 5.67899 272.056 
-1.26626e-05 6.92858e-06 2.68973e+25 -1.25282 7.55057 271.887 
-1.07512e-05 6.92858e-06 2.69007e+25 -1.48799 8.55013 271.917 
-8.83992e-06 6.92858e-06 2.68836e+25 -1.87614 8.68955 272.003 
-6.92858e-06 6.92858e-06 2.69011e+25 -1.99389 8.09957 271.788 
-5.01725e-06 6.92858e-06 2.68877e+25 -2.06141 7.30427 271.908 
-3.10592e-06 6.92858e-06 2.6887e+25 -2.15741 6.2906 272.032 
-1.19458e-06 6.92858e-06 2.68931e+25 -2.19386 4.81861 271.878 
-1.64852e-05 7.40642e-06 2.68479e+25 -0.0661225 1.8555 272.556 
-1.45739e-05 7.40642e-06 2.68988e+25 -0.511026 5.86645 272.051 
-1.26626e-05 7.40642e-06 2.69002e+25 -1.34672 7.65788 271.992 
-1.07512e-05 7.40642e-06 2.69032e+25 -1.41574 8.55373 271.918 
-8.83992e-06 7.40642e-06 2.68876e+25 -1.74902 8.76711 271.912 
-6.92858e-06 7.40642e-06 2.69128e+25 -1.7372 8.11075 271.778 
-5.01725e-06 7.40642e-06 2.68732e+25 -1.64711 7.30586 272.062 
-3.10592e-06 7.40642e-06 2.68969e+25 -1.74056 6.22345 271.85 
-1.19458e-06 7.40642e-06 2.6903e+25 -1.54537 4.80471 271.827 
-1.64852e-05 7.88425e-06 2.68374e+25 -0.0928917 1.89766 272.59 
-1.45739e-05 7.88425e-06 2.68997e+25 -0.586645 5.99417 271.912 
-1.26626e-05 7.88425e-06 2.68864e+25 -1.43726 7.79142 272.077 
-1.07512e-05 7.88425e-06 2.6894e+25 -1.56354 8.58811 271.908 
-8.83992e-06 7.88425e-06 2.68776e+25 -1.69708 8.77626 272.136 
-6.92858e-06 7.88425e-06 2.69084e+25 -1.49908 8.13 271.825 
-5.01725e-06 7.88425e-06 2.68773e+25 -1.3056 7.25694 271.989 
-3.10592e-06 7.88425e-06 2.68923e+25 -1.24414 6.14742 271.929 
-1.19458e-06 7.88425e-06 2.68921e+25 -0.751703 4.78116 271.873 
-1.64852e-05 8.36208e-06 2.68537e+25 -0.0434535 2.0206 272.444 
-1.45739e-05 8.36208e-06 2.68935e+25 -0.58792 6.15907 272.006 
-1.26626e-05 8.36208e-06 2.68878e+25 -1.53035 8.05531 272.053 
-1.07512e-05 8.36208e-06 2.6891e+25 -1.7306 8.65916 271.942 
-8.83992e-06 8.36208e-06 2.68827e+25 -1.59875 8.7639 272.104 
-6.92858e-06 8.36208e-06 2.68974e+25 -1.21522 8.0762 271.855 
-5.01725e-06 8.36208e-06 2.68723e+25 -0.990607 7.19983 272.035 
-3.10592e-06 8.36208e-06 2.68771e+25 -0.633703 6.01196 272.015 
-1.19458e-06 8.36208e-06 2.68886e+25 -0.0249235 4.64144 271.869 
-1.64852e-05 8.83992e-06 2.68406e+25 -0.1484 2.15679 272.527 
-1.45739e-05 8.83992e-06 2.68843e+25 -0.77481 6.36704 272.074 
-1.26626e-05 8.83992e-06 2.68828e+25 -1.55247 8.30598 271.941 
-1.07512e-05 8.83992e-06 2.69043e+25 -2.07331 8.65462 271.965 
-8.83992e-06 8.83992e-06 2.68876e+25 -1.77177 8.6794 272.016 
-6.92858e-06 8.83992e-06 2.68735e+25 -1.02311 7.94681 272.093 
-5.01725e-06 8.83992e-06 2.68797e+25 -0.602856 7.04104 272.064 
-3.10592e-06 8.83992e-06 2.68649e+25 0.0903523 5.94042 272.143 
-1.19458e-06 8.83992e-06 2.68851e+25 0.596816 4.49854 271.861 
-1.64852e-05 9.31775e-06 2.68221e+25 -0.126705 2.29501 272.603 
-1.45739e-05 9.31775e-06 2.68529e+25 -0.885168 6.63509 272.137 
-1.26626e-05 9.31775e-06 2.68709e+25 -1.74371 8.54921 272.014 
-1.07512e-05 9.31775e-06 2.69013e+25 -2.18285 8.71999 271.905 
-8.83992e-06 9.31775e-06 2.69029e+25 -1.71703 8.49016 271.92 
-6.92858e-06 9.31775e-06 2.68717e+25 -0.907602 7.72533 272.136 
-5.01725e-06 9.31775e-06 2.68978e+25 -0.166553 6.84836 271.901 
-3.10592e-06 9.31775e-06 2.6866e+25 0.665295 5.83439 272.097 
-1.19458e-06 9.31775e-06 2.68779e+25 1.40316 4.39613 271.981 
-1.64852e-05 9.79558e-06 2.68266e+25 -0.124552 2.3704 272.566 
-1.45739e-05 9.79558e-06 2.6873e+25 -0.981972 6.87985 272.121 
-1.26626e-05 9.79558e-06 2.68919e+25 -1.79478 8.67924 271.919 
-1.07512e-05 9.79558e-06 2.69095e+25 -2.44411 8.65682 271.806 
-8.83992e-06 9.79558e-06 2.69005e+25 -1.56484 8.29323 271.905 
-6.92858e-06 9.79558e-06 2.68954e+25 -0.792691 7.61214 272.001 
-5.01725e-06 9.79558e-06 2.68947e+25 0.375779 6.61923 271.913 
-3.10592e-06 9.79558e-06 2.68879e+25 1.40425 5.59216 271.991 
-1.19458e-06 9.79558e-06 2.68724e+25 2.22326 4.27285 271.986 
-1.64852e-05 1.02734e-05 2.68227e+25 -0.247974 2.50375 272.626 
-1.45739e-05 1.02734e-05 2.68747e+25 -1.23221 7.10261 272.043 
-1.26626e-05 1.02734e-05 2.68862e+25 -1.94298 8.71228 271.925 
-1.07512e-05 1.02734e-05 2.68976e+25 -2.20268 8.54481 271.872 
-8.83992e-06 1.02734e-05 2.69003e+25 -1.49616 8.08746 271.99 
-6.92858e-06 1.02734e-05 2.68829e+25 -0.500187 7.3948 271.979 
-5.01725e-06 1.02734e-05 2.69108e+25 0.90644 6.31071 271.816 
-3.10592e-06 1.02734e-05 2.68812e+25 2.26387 5.28706 271.964 
-1.19458e-06 1.02734e-05 2.68715e+25 3.26943 4.08709 272.061 
-1.64852e-05 1.07512e-05 2.68106e+25 -0.189559 2.72525 272.645 
-1.45739e-05 1.07512e-05 2.68722e+25 -1.49465 7.31728 272.025 
-1.26626e-05 1.07512e-05 2.68891e+25 -2.14989 8.70909 271.89 
-1.07512e-05 1.07512e-05 2.69001e+25 -1.9946 8.41777 271.84 
-8.83992e-06 1.07512e-05 2.68925e+25 -1.25973 7.77308 271.988 
-6.92858e-06 1.07512e-05 2.68824e+25 -0.0220368 7.00171 272.024 
-5.01725e-06 1.07512e-05 2.6911e+25 1.4979 5.89973 271.795 
-3.10592e-06 1.07512e-05 2.68681e+25 3.15072 4.92682 272.104 
-1.19458e-06 1.07512e-05 2.68688e+25 4.28213 3.81232 272.044 
-1.64852e-05 1.12291e-05 2.68102e+25 -0.193688 2.95954 272.626 
-1.45739e-05 1.12291e-05 2.68675e+25 -1.71573 7.69168 272.063 
-1.26626e-05 1.12291e-05 2.68807e+25 -2.23984 8.73515 271.904 
-1.07512e-05 1.12291e-05 2.68979e+25 -1.9604 8.2019 271.883 
-8.83992e-06 1.12291e-05 2.68889e+25 -0.885265 7.47635 272.06 
-6.92858e-06 1.12291e-05 2.68928e+25 0.738678 6.57982 272.07 
-5.01725e-06 1.12291e-05 2.68951e+25 2.25576 5.48534 271.875 
-3.10592e-06 1.12291e-05 2.68836e+25 3.84651 4.58836 272.091 
-1.19458e-06 1.12291e-05 2.68758e+25 5.20359 3.59411 272.056 
-1.64852e-05 1.17069e-05 2.68141e+25 -0.168245 3.226 272.54 
-1.45739e-05 1.17069e-05 2.68588e+25 -1.8437 8.02594 272.069 
-1.26626e-05 1.17069e-05 2.68849e+25 -2.38958 8.82674 271.948 
-1.07512e-05 1.17069e-05 2.68988e+25 -1.90144 8.02284 271.906 
-8.83992e-06 1.17069e-05 2.68782e+25 -0.400586 7.13493 272.067 
-6.92858e-06 1.17069e-05 2.6891e+25 1.5649 6.17696 272.076 
-5.01725e-06 1.17069e-05 2.68842e+25 3.15407 5.13249 271.958 
-3.10592e-06 1.17069e-05 2.68789e+25 4.94401 4.17855 272.051 
-1.19458e-06 1.17069e-05 2.68793e+25 6.53278 3.33926 271.931 
-1.64852e-05 1.21847e-05 2.68135e+25 -0.306829 3.54596 272.491 
-1.45739e-05 1.21847e-05 2.68621e+25 -2.05478 8.37291 272.04 
-1.26626e-05 1.21847e-05 2.68768e+25 -2.62364 8.93048 272 
-1.07512e-05 1.21847e-05 2.68871e+25 -1.67175 7.77669 271.93 
-8.83992e-06 1.21847e-05 2.68922e+25 0.168386 6.67435 272.082 
-6.92858e-06 1.21847e-05 2.68738e+25 2.1967 5.64046 272.107 
-5.01725e-06 1.21847e-05 2.68865e+25 4.22129 4.72783 271.955 
-3.10592e-06 1.21847e-05 2.68684e+25 6.08768 3.75253 272.114 
-1.19458e-06 1.21847e-05 2.68677e+25 7.84651 3.04167 272.079 
-1.64852e-05 1.26626e-05 2.6822e+25 -0.426695 4.00975 272.393 
-1.45739e-05 1.26626e-05 2.68487e+25 -2.37503 8.73362 272.02 
-1.26626e-05 1.26626e-05 2.68782e+25 -2.76613 8.77082 271.933 
-1.07512e-05 1.26626e-05 2.68859e+25 -1.26348 7.44857 272.058 
-8.83992e-06 1.26626e-05 2.68869e+25 0.980283 6.08024 272.085 
-6.92858e-06 1.26626e-05 2.68816e+25 3.25315 5.09435 272.065 
-5.01725e-06 1.26626e-05 2.68647e+25 5.60774 4.31408 272.191 
-3.10592e-06 1.26626e-05 2.68747e+25 7.54726 3.24159 272.128 
-1.19458e-06 1.26626e-05 2.68661e+25 9.29339 2.69602 272.1 
-1.64852e-05 1.31404e-05 2.68157e+25 -0.596749 4.49906 272.428 
-1.45739e-05 1.31404e-05 2.68614e+25 -2.98264 9.02181 271.966 
-1.26626e-05 1.31404e-05 2.68748e+25 -2.71241 8.40173 271.943 
-1.07512e-05 1.31404e-05 2.68905e+25 -0.4388 6.87655 272.033 
-8.83992e-06 1.31404e-05 2.68863e+25 2.18368 5.38819 272.059 
-6.92858e-06 1.31404e-05 2.68702e+25 4.73909 4.51604 272.228 
-5.01725e-06 1.31404e-05 2.68712e+25 7.18877 3.71118 272.212 
-3.10592e-06 1.31404e-05 2.68706e+25 9.30459 2.75212 272.199 
-1.19458e-06 1.31404e-05 2.68578e+25 11.1148 2.27427 272.192 
-1.64852e-05 1.36182e-05 2.67953e+25 -0.759058 5.20592 272.439 
-1.45739e-05 1.36182e-05 2.68514e+25 -3.29567 9.23141 272.008 
-1.26626e-05 1.36182e-05 2.68729e+25 -2.13896 7.89525 271.962 
-1.07512e-05 1.36182e-05 2.68661e+25 0.73755 6.13329 272.142 
-8.83992e-06 1.36182e-05 2.68853e+25 3.85247 4.63264 272.117 
-6.92858e-06 1.36182e-05 2.68674e+25 6.61676 3.93778 272.267 
-5.01725e-06 1.36182e-05 2.68739e+25 9.09171 3.05223 272.202 
-3.10592e-06 1.36182e-05 2.68634e+25 11.2289 2.18978 272.179 
-1.19458e-06 1.36182e-05 2.68543e+25 12.9827 1.85753 272.234 
-1.64852e-05 1.40961e-05 2.67785e+25 -0.908162 6.05699 272.422 
-1.45739e-05 1.40961e-05 2.68393e+25 -3.32539 9.22774 271.988 
-1.26626e-05 1.40961e-05 2.68771e+25 -1.16127 7.2323 271.983 
-1.07512e-05 1.40961e-05 2.68668e+25 2.4162 5.23687 272.195 
-8.83992e-06 1.40961e-05 2.68849e+25 5.74266 3.87582 272.177 
-6.92858e-06 1.40961e-05 2.68666e+25 8.79516 3.26931 272.288 
-5.01725e-06 1.40961e-05 2.68742e+25 11.4659 2.45558 272.25 
-3.10592e-06 1.40961e-05 2.68685e+25 13.4695 1.7784 272.137 
-1.19458e-06 1.40961e-05 2.68565e+25 15.0371 1.46329 272.21 
-1.64852e-05 1.45739e-05 2.67546e+25 -1.33638 7.11915 272.451 
-1.45739e-05 1.45739e-05 2.68229e+25 -2.98231 8.97451 272.085 
-1.26626e-05 1.45739e-05 2.68727e+25 0.536371 6.27992 272.022 
-1.07512e-05 1.45739e-05 2.6862e+25 4.8555 4.29833 272.338 
-8.83992e-06 1.45739e-05 2.68768e+25 8.33438 3.0419 272.244 
-6.92858e-06 1.45739e-05 2.68529e+25 11.524 2.53932 272.452 
-5.01725e-06 1.45739e-05 2.68778e+25 14.1389 1.89151 272.2 
-3.10592e-06 1.45739e-05 2.68766e+25 15.9796 1.3512 272.108 
-1.19458e-06 1.45739e-05 2.68521e+25 17.5045 1.09374 272.319 
-1.64852e-05 1.50518e-05 2.6714e+25 -1.77788 8.36029 272.541 
-1.45739e-05 1.50518e-05 2.68009e+25 -1.899 8.33727 272.182 
-1.26626e-05 1.50518e-05 2.68532e+25 3.27724 5.03819 272.222 
-1.07512e-05 1.50518e-05 2.68528e+25 7.97295 3.35659 272.359 
-8.83992e-06 1.50518e-05 2.68661e+25 11.6521 2.19303 272.4 
-6.92858e-06 1.50518e-05 2.68483e+25 14.5671 1.7933 272.461 
-5.01725e-06 1.50518e-05 2.68676e+25 16.9955 1.35839 272.237 
-3.10592e-06 1.50518e-05 2.68752e+25 18.9465 1.02548 272.17 
-1.19458e-06 1.50518e-05 2.68471e+25 20.1631 0.736036 272.394 
-1.64852e-05 1.55296e-05 2.66709e+25 -2.09071 9.65726 272.484 
-1.45739e-05 1.55296e-05 2.67689e+25 0.828874 6.96936 272.422 
-1.26626e-05 1.55296e-05 2.68242e+25 7.42797 3.6289 272.482 
-1.07512e-05 1.55296e-05 2.68279e+25 12.241 2.35271 272.634 
-8.83992e-06 1.55296e-05 2.68513e+25 15.8077 1.39564 272.425 
-6.92858e-06 1.55296e-05 2.68606e+25 18.4693 1.15793 272.512 
-5.01725e-06 1.55296e-05 2.68583e+25 20.4545 0.835343 272.389 
-3.10592e-06 1.55296e-05 2.68503e+25 22.0324 0.701749 272.397 
-1.19458e-06 1.55296e-05 2.68447e+25 23.2151 0.451725 272.421 
-1.64852e-05 1.60074e-05 2.65909e+25 -1.85286 10.4698 272.585 
-1.45739e-05 1.60074e-05 2.67645e+25 6.01549 4.993 272.603 
-1.26626e-05 1.60074e-05 2.68212e+25 13.2371 2.19145 272.652 
-1.07512e-05 1.60074e-05 2.68239e+25 17.6533 1.39147 272.737 
-8.83992e-06 1.60074e-05 2.6866e+25 20.5318 0.722677 272.426 
-6.92858e-06 1.60074e-05 2.68356e+25 22.7568 0.642931 272.71 
-5.01725e-06 1.60074e-05 2.68372e+25 24.5103 0.406705 272.574 
-3.10592e-06 1.60074e-05 2.68464e+25 25.5916 0.425471 272.483 
-1.19458e-06 1.60074e-05 2.68449e+25 26.4419 0.18416 272.414 
-1.64852e-05 1.64852e-05 2.64643e+25 0.785542 9.23733 272.824 
-1.45739e-05 1.64852e-05 2.67419e+25 14.5213 2.49461 272.964 
-1.26626e-05 1.64852e-05 2.68133e+25 20.7573 0.873074 272.803 
-1.07512e-05 1.64852e-05 2.68345e+25 24.0691 0.594405 272.72 
-8.83992e-06 1.64852e-05 2.68493e+25 26.0813 0.250636 272.691 
-6.92858e-06 1.64852e-05 2.68426e+25 27.4713 0.27527 272.829 
-5.01725e-06 1.64852e-05 2.68139e+25 28.5487 0.11698 272.846 
-3.10592e-06 1.64852e-05 2.68344e+25 29.2249 0.239601 272.596 
-1.19458e-06 1.64852e-05 2.68349e+25 29.8453 0.0624597 272.607 
-1.64852e-05 1.69631e-05 2.62359e+25 12.4259 3.51017 273.456 
-1.45739e-05 1.69631e-05 2.67447e+25 25.9405 0.55593 273.109 
-1.26626e-05 1.69631e-05 2.68122e+25 29.1403 0.150396 272.952 
-1.07512e-05 1.69631e-05 2.68349e+25 30.5677 0.107591 272.889 
-8.83992e-06 1.69631e-05 2.68329e+25 31.3868 0.0466707 272.886 
-6.92858e-06 1.69631e-05 2.68223e+25 31.9023 0.0391189 273.015 
-5.01725e-06 1.69631e-05 2.68208e+25 32.2115 -0.0077113 272.938 
-3.10592e-06 1.69631e-05 2.68245e+25 32.5566 0.0579659 272.823 
-1.19458e-06 1.69631e-05 2.68205e+25 32.8143 0.00774584 272.778 
-1.69631e-05 2.38917e-07 2.68282e+25 -0.0548333 0.378927 272.724 
-1.50517e-05 2.38917e-07 2.68867e+25 -0.312521 3.13081 272.031 
-1.31404e-05 2.38917e-07 2.6893e+25 -0.815876 4.88506 271.911 
-1.12291e-05 2.38917e-07 2.68905e+25 -1.91935 5.68878 271.988 
-9.31775e-06 2.38917e-07 2.68984e+25 -2.96548 6.00276 271.876 
-7.40642e-06 2.38917e-07 2.69064e+25 -3.75321 5.9693 271.859 
-5.49508e-06 2.38917e-07 2.68868e+25 -4.69945 5.56866 271.873 
-3.58375e-06 2.38917e-07 2.68894e+25 -5.65442 4.59016 271.946 
-1.67242e-06 2.38917e-07 2.68694e+25 -6.71931 3.37679 272.068 
-1.69631e-05 7.1675e-07 2.68523e+25 0.00634521 0.433683 272.699 
-1.50517e-05 7.1675e-07 2.6902e+25 -0.412605 3.21301 272.068 
-1.31404e-05 7.1675e-07 2.69036e+25 -0.88342 5.16729 271.941 
-1.12291e-05 7.1675e-07 2.69203e+25 -2.12026 5.98207 271.886 
-9.31775e-06 7.1675e-07 2.69094e+25 -2.92869 6.19557 271.955 
-7.40642e-06 7.1675e-07 2.69253e+25 -3.68829 6.1748 271.822 
-5.49508e-06 7.1675e-07 2.69207e+25 -4.55643 5.81504 271.86 
-3.58375e-06 7.1675e-07 2.68981e+25 -5.59179 4.75513 271.997 
-1.67242e-06 7.1675e-07 2.68796e+25 -6.59127 3.59066 272.165 
-1.69631e-05 1.19458e-06 2.68461e+25 -0.00428991 0.46479 272.697 
-1.50517e-05 1.19458e-06 2.69054e+25 -0.351275 3.32477 272.119 
-1.31404e-05 1.19458e-06 2.69174e+25 -1.01781 5.42559 271.918 
-1.12291e-05 1.19458e-06 2.69214e+25 -2.08037 6.31703 271.867 
-9.31775e-06 1.19458e-06 2.69057e+25 -2.89887 6.36705 272.015 
-7.40642e-06 1.19458e-06 2.69076e+25 -3.64166 6.45119 271.914 
-5.49508e-06 1.19458e-06 2.69162e+25 -4.4827 6.09217 271.82 
-3.58375e-06 1.19458e-06 2.69082e+25 -5.54817 4.97274 271.947 
-1.67242e-06 1.19458e-06 2.68858e+25 -6.42295 3.78203 272.085 
-1.69631e-05 1.67242e-06 2.68362e+25 0.00688197 0.487202 272.765 
-1.50517e-05 1.67242e-06 2.68975e+25 -0.278122 3.43837 272.007 
-1.31404e-05 1.67242e-06 2.69087e+25 -1.10293 5.66402 271.994 
-1.12291e-05 1.67242e-06 2.69133e+25 -1.95476 6.54993 271.932 
-9.31775e-06 1.67242e-06 2.69172e+25 -2.78069 6.57329 271.937 
-7.40642e-06 1.67242e-06 2.69315e+25 -3.57961 6.71547 271.729 
-5.49508e-06 1.67242e-06 2.69274e+25 -4.32702 6.34881 271.762 
-3.58375e-06 1.67242e-06 2.69064e+25 -5.37552 5.22592 271.899 
-1.67242e-06 1.67242e-06 2.68823e+25 -6.15808 3.97378 272.064 
-1.69631e-05 2.15025e-06 2.68429e+25 0.00734112 0.484443 272.759 
-1.50517e-05 2.15025e-06 2.69121e+25 -0.177855 3.63489 272.015 
-1.31404e-05 2.15025e-06 2.69215e+25 -1.05667 5.91436 271.905 
-1.12291e-05 2.15025e-06 2.6918e+25 -1.89207 6.74419 271.887 
-9.31775e-06 2.15025e-06 2.69267e+25 -2.71544 6.79524 271.792 
-7.40642e-06 2.15025e-06 2.69356e+25 -3.62646 6.98598 271.688 
-5.49508e-06 2.15025e-06 2.69193e+25 -4.38309 6.43001 271.782 
-3.58375e-06 2.15025e-06 2.69021e+25 -5.16112 5.46737 271.945 
-1.67242e-06 2.15025e-06 2.68858e+25 -5.81814 4.08922 272.073 
-1.69631e-05 2.62808e-06 2.68298e+25 -0.00755848 0.492092 272.825 
-1.50517e-05 2.62808e-06 2.69231e+25 -0.279525 3.67811 271.877 
-1.31404e-05 2.62808e-06 2.69299e+25 -0.944789 6.09565 271.799 
-1.12291e-05 2.62808e-06 2.69242e+25 -1.67825 6.90735 271.881 
-9.31775e-06 2.62808e-06 2.69188e+25 -2.60173 6.99066 271.841 
-7.40642e-06 2.62808e-06 2.69334e+25 -3.44567 7.29263 271.685 
-5.49508e-06 2.62808e-06 2.6916e+25 -4.39348 6.5389 271.902 
-3.58375e-06 2.62808e-06 2.68977e+25 -4.93584 5.67397 272.021 
-1.67242e-06 2.62808e-06 2.6881e+25 -5.53835 4.24252 272.094 
-1.69631e-05 3.10592e-06 2.68198e+25 -0.0104255 0.513693 272.935 
-1.50517e-05 3.10592e-06 2.69e+25 -0.224741 3.87258 272.023 
-1.31404e-05 3.10592e-06 2.69283e+25 -0.90871 6.22289 271.802 
-1.12291e-05 3.10592e-06 2.69228e+25 -1.62826 7.12709 271.886 
-9.31775e-06 3.10592e-06 2.69274e+25 -2.37637 7.24893 271.744 
-7.40642e-06 3.10592e-06 2.69389e+25 -3.39362 7.54185 271.728 
-5.49508e-06 3.10592e-06 2.69085e+25 -4.37275 6.65875 271.901 
-3.58375e-06 3.10592e-06 2.6889e+25 -4.7362 5.85531 272.083 
-1.67242e-06 3.10592e-06 2.68819e+25 -5.25417 4.39074 272.122 
-1.69631e-05 3.58375e-06 2.68217e+25 0.00352053 0.521765 272.854 
-1.50517e-05 3.58375e-06 2.69127e+25 -0.202282 4.03885 272.001 
-1.31404e-05 3.58375e-06 2.69208e+25 -0.877237 6.33176 271.809 
-1.12291e-05 3.58375e-06 2.69007e+25 -1.34568 7.33151 271.889 
-9.31775e-06 3.58375e-06 2.69358e+25 -2.35143 7.50098 271.737 
-7.40642e-06 3.58375e-06 2.69171e+25 -3.35024 7.70958 271.824 
-5.49508e-06 3.58375e-06 2.692e+25 -4.0927 6.83886 271.845 
-3.58375e-06 3.58375e-06 2.68859e+25 -4.44982 5.94456 272.106 
-1.67242e-06 3.58375e-06 2.686e+25 -5.02067 4.4781 272.255 
-1.69631e-05 4.06158e-06 2.68354e+25 0.0035198 0.536618 272.755 
-1.50517e-05 4.06158e-06 2.69017e+25 -0.262083 4.17331 272.018 
-1.31404e-05 4.06158e-06 2.69176e+25 -0.908673 6.45758 271.852 
-1.12291e-05 4.06158e-06 2.69116e+25 -1.37869 7.48746 271.872 
-9.31775e-06 4.06158e-06 2.69283e+25 -2.34963 7.80316 271.752 
-7.40642e-06 4.06158e-06 2.69094e+25 -3.17336 7.85723 271.923 
-5.49508e-06 4.06158e-06 2.69097e+25 -3.71365 7.00533 271.975 
-3.58375e-06 4.06158e-06 2.68816e+25 -4.11941 6.03056 272.148 
-1.67242e-06 4.06158e-06 2.68608e+25 -4.71926 4.61856 272.203 
-1.69631e-05 4.53942e-06 2.68203e+25 0.00808296 0.527742 272.876 
-1.50517e-05 4.53942e-06 2.68746e+25 -0.367891 4.2685 272.195 
-1.31404e-05 4.53942e-06 2.68997e+25 -0.860054 6.57061 271.909 
-1.12291e-05 4.53942e-06 2.69114e+25 -1.34833 7.64508 271.877 
-9.31775e-06 4.53942e-06 2.69314e+25 -2.12899 8.07467 271.745 
-7.40642e-06 4.53942e-06 2.68949e+25 -2.94679 7.97253 271.991 
-5.49508e-06 4.53942e-06 2.68955e+25 -3.41998 7.09144 272.041 
-3.58375e-06 4.53942e-06 2.68849e+25 -3.76636 6.12478 272.066 
-1.67242e-06 4.53942e-06 2.6869e+25 -4.32644 4.77209 272.174 
-1.69631e-05 5.01725e-06 2.683e+25 0.0399664 0.498103 272.843 
-1.50517e-05 5.01725e-06 2.68779e+25 -0.441099 4.3363 272.142 
-1.31404e-05 5.01725e-06 2.69062e+25 -0.779326 6.68474 271.973 
-1.12291e-05 5.01725e-06 2.69196e+25 -1.48434 7.81803 271.861 
-9.31775e-06 5.01725e-06 2.69141e+25 -2.13632 8.27266 271.857 
-7.40642e-06 5.01725e-06 2.68929e+25 -2.72209 8.08787 272.035 
-5.49508e-06 5.01725e-06 2.68773e+25 -3.02174 7.18268 272.044 
-3.58375e-06 5.01725e-06 2.68839e+25 -3.44158 6.27527 271.994 
-1.67242e-06 5.01725e-06 2.68629e+25 -3.98115 4.88505 272.131 
-1.69631e-05 5.49508e-06 2.68398e+25 -0.0501432 0.528642 272.788 
-1.50517e-05 5.49508e-06 2.68786e+25 -0.49389 4.45935 272.144 
-1.31404e-05 5.49508e-06 2.68962e+25 -0.760055 6.74368 271.968 
-1.12291e-05 5.49508e-06 2.69063e+25 -1.45697 7.97983 271.93 
-9.31775e-06 5.49508e-06 2.68958e+25 -1.98976 8.39059 271.924 
-7.40642e-06 5.49508e-06 2.69105e+25 -2.59848 8.15689 271.883 
-5.49508e-06 5.49508e-06 2.68804e+25 -2.86198 7.32825 272.06 
-3.58375e-06 5.49508e-06 2.68892e+25 -3.12287 6.35783 271.979 
-1.67242e-06 5.49508e-06 2.68769e+25 -3.59772 5.08023 272.046 
-1.69631e-05 5.97292e-06 2.68401e+25 -0.0533207 0.642307 272.697 
-1.50517e-05 5.97292e-06 2.6866e+25 -0.514421 4.65004 272.27 
-1.31404e-05 5.97292e-06 2.69018e+25 -0.792964 6.83714 271.931 
-1.12291e-05 5.97292e-06 2.69084e+25 -1.44213 8.23213 271.928 
-9.31775e-06 5.97292e-06 2.69057e+25 -1.97333 8.5084 271.926 
-7.40642e-06 5.97292e-06 2.68918e+25 -2.46821 8.25048 271.926 
-5.49508e-06 5.97292e-06 2.6872e+25 -2.5984 7.40059 272.06 
-3.58375e-06 5.97292e-06 2.688e+25 -2.88039 6.39476 272.081 
-1.67242e-06 5.97292e-06 2.68904e+25 -3.29975 5.21475 271.902 
-1.69631e-05 6.45075e-06 2.68148e+25 0.0167638 0.696435 272.765 
-1.50517e-05 6.45075e-06 2.68782e+25 -0.418418 4.82582 272.201 
-1.31404e-05 6.45075e-06 2.69124e+25 -1.09177 6.9622 271.935 
-1.12291e-05 6.45075e-06 2.69103e+25 -1.40763 8.36811 271.846 
-9.31775e-06 6.45075e-06 2.69142e+25 -1.97371 8.56702 271.894 
-7.40642e-06 6.45075e-06 2.68996e+25 -2.21221 8.30699 271.897 
-5.49508e-06 6.45075e-06 2.68917e+25 -2.46531 7.46347 272.014 
-3.58375e-06 6.45075e-06 2.68813e+25 -2.60883 6.38037 272.062 
-1.67242e-06 6.45075e-06 2.6904e+25 -2.67689 5.23693 271.799 
-1.69631e-05 6.92858e-06 2.68222e+25 0.00462267 0.648518 272.757 
-1.50517e-05 6.92858e-06 2.68693e+25 -0.350919 5.00193 272.259 
-1.31404e-05 6.92858e-06 2.68819e+25 -1.12708 7.10483 272.059 
-1.12291e-05 6.92858e-06 2.69097e+25 -1.43076 8.38745 271.854 
-9.31775e-06 6.92858e-06 2.69002e+25 -1.78756 8.69479 271.83 
-7.40642e-06 6.92858e-06 2.69051e+25 -1.99839 8.33719 271.82 
-5.49508e-06 6.92858e-06 2.68825e+25 -2.02921 7.53258 271.968 
-3.58375e-06 6.92858e-06 2.68698e+25 -2.14472 6.39447 272.064 
-1.67242e-06 6.92858e-06 2.68875e+25 -2.17044 5.3208 271.783 
-1.69631e-05 7.40642e-06 2.68187e+25 0.0023201 0.659663 272.791 
-1.50517e-05 7.40642e-06 2.68811e+25 -0.405199 5.13674 272.224 
-1.31404e-05 7.40642e-06 2.6895e+25 -1.20594 7.23369 272.073 
-1.12291e-05 7.40642e-06 2.69062e+25 -1.43402 8.40189 271.863 
-9.31775e-06 7.40642e-06 2.69133e+25 -1.71069 8.73657 271.821 
-7.40642e-06 7.40642e-06 2.69132e+25 -1.68551 8.34877 271.787 
-5.49508e-06 7.40642e-06 2.68929e+25 -1.6629 7.53589 271.962 
-3.58375e-06 7.40642e-06 2.68793e+25 -1.81741 6.43007 271.988 
-1.67242e-06 7.40642e-06 2.69119e+25 -1.50653 5.36906 271.8 
-1.69631e-05 7.88425e-06 2.68096e+25 -0.0367248 0.705575 272.877 
-1.50517e-05 7.88425e-06 2.68891e+25 -0.416628 5.27069 272.035 
-1.31404e-05 7.88425e-06 2.68859e+25 -1.18174 7.4723 272.052 
-1.12291e-05 7.88425e-06 2.6899e+25 -1.50414 8.42511 271.927 
-9.31775e-06 7.88425e-06 2.68932e+25 -1.60827 8.84198 271.978 
-7.40642e-06 7.88425e-06 2.6909e+25 -1.52467 8.39624 271.839 
-5.49508e-06 7.88425e-06 2.68819e+25 -1.37332 7.50927 271.937 
-3.58375e-06 7.88425e-06 2.68844e+25 -1.29116 6.43929 271.992 
-1.67242e-06 7.88425e-06 2.69021e+25 -0.869012 5.31782 271.831 
-1.69631e-05 8.36208e-06 2.68143e+25 0.0350958 0.724104 272.804 
-1.50517e-05 8.36208e-06 2.6884e+25 -0.458019 5.44267 272.012 
-1.31404e-05 8.36208e-06 2.6889e+25 -1.27075 7.77104 272.048 
-1.12291e-05 8.36208e-06 2.68878e+25 -1.74341 8.45095 271.987 
-9.31775e-06 8.36208e-06 2.68821e+25 -1.68879 8.83918 271.997 
-7.40642e-06 8.36208e-06 2.68933e+25 -1.33576 8.268 271.931 
-5.49508e-06 8.36208e-06 2.68829e+25 -1.08559 7.38726 271.999 
-3.58375e-06 8.36208e-06 2.6881e+25 -0.701342 6.47559 272.007 
-1.67242e-06 8.36208e-06 2.68931e+25 -0.222585 5.16343 271.838 
-1.69631e-05 8.83992e-06 2.68248e+25 -0.0405816 0.754371 272.74 
-1.50517e-05 8.83992e-06 2.68702e+25 -0.542891 5.55594 272.144 
-1.31404e-05 8.83992e-06 2.68855e+25 -1.32305 8.00238 272.025 
-1.12291e-05 8.83992e-06 2.68872e+25 -1.99345 8.47455 272.027 
-9.31775e-06 8.83992e-06 2.68908e+25 -1.85973 8.71765 271.991 
-7.40642e-06 8.83992e-06 2.68831e+25 -1.18207 8.09968 271.993 
-5.49508e-06 8.83992e-06 2.68813e+25 -0.686602 7.32881 272.039 
-3.58375e-06 8.83992e-06 2.68766e+25 -0.0227851 6.34278 272.062 
-1.67242e-06 8.83992e-06 2.68942e+25 0.472826 4.97671 271.892 
-1.69631e-05 9.31775e-06 2.68109e+25 -0.042434 0.833958 272.697 
-1.50517e-05 9.31775e-06 2.6846e+25 -0.650325 5.75439 272.255 
-1.31404e-05 9.31775e-06 2.6887e+25 -1.57168 8.14192 271.979 
-1.12291e-05 9.31775e-06 2.68984e+25 -2.20537 8.4546 271.88 
-9.31775e-06 9.31775e-06 2.68854e+25 -1.88802 8.6542 271.943 
-7.40642e-06 9.31775e-06 2.68893e+25 -1.13155 7.92475 272.035 
-5.49508e-06 9.31775e-06 2.68863e+25 -0.347051 7.26693 271.942 
-3.58375e-06 9.31775e-06 2.68766e+25 0.445718 6.11044 272.038 
-1.67242e-06 9.31775e-06 2.68949e+25 1.22651 4.76671 271.921 
-1.69631e-05 9.79558e-06 2.68091e+25 -0.0257293 0.92059 272.743 
-1.50517e-05 9.79558e-06 2.68645e+25 -0.771498 5.96314 272.187 
-1.31404e-05 9.79558e-06 2.68853e+25 -1.67412 8.28381 272 
-1.12291e-05 9.79558e-06 2.69066e+25 -2.40605 8.52505 271.847 
-9.31775e-06 9.79558e-06 2.68943e+25 -1.74093 8.48466 271.941 
-7.40642e-06 9.79558e-06 2.68951e+25 -0.901394 7.7273 271.988 
-5.49508e-06 9.79558e-06 2.69067e+25 0.0539087 6.99782 271.927 
-3.58375e-06 9.79558e-06 2.68903e+25 1.13887 5.8633 271.927 
-1.67242e-06 9.79558e-06 2.68995e+25 2.0653 4.56098 271.862 
-1.69631e-05 1.02734e-05 2.67993e+25 -0.0792573 1.03912 272.806 
-1.50517e-05 1.02734e-05 2.68533e+25 -1.01352 6.17561 272.184 
-1.31404e-05 1.02734e-05 2.68895e+25 -1.87907 8.45027 272.037 
-1.12291e-05 1.02734e-05 2.68872e+25 -2.2524 8.64737 271.915 
-9.31775e-06 1.02734e-05 2.69002e+25 -1.74381 8.27936 271.941 
-7.40642e-06 1.02734e-05 2.68799e+25 -0.841805 7.53734 272.079 
-5.49508e-06 1.02734e-05 2.68965e+25 0.538733 6.57146 271.878 
-3.58375e-06 1.02734e-05 2.68941e+25 1.9036 5.55017 271.89 
-1.67242e-06 1.02734e-05 2.68842e+25 3.01644 4.35593 271.975 
-1.69631e-05 1.07512e-05 2.68094e+25 -0.0335622 1.17443 272.787 
-1.50517e-05 1.07512e-05 2.68558e+25 -1.15274 6.51132 272.076 
-1.31404e-05 1.07512e-05 2.68955e+25 -2.08225 8.60977 271.931 
-1.12291e-05 1.07512e-05 2.68837e+25 -2.1121 8.62663 271.93 
-9.31775e-06 1.07512e-05 2.68991e+25 -1.54099 8.07391 271.819 
-7.40642e-06 1.07512e-05 2.68721e+25 -0.395863 7.25828 272.192 
-5.49508e-06 1.07512e-05 2.69059e+25 1.09339 6.23273 271.832 
-3.58375e-06 1.07512e-05 2.68831e+25 2.76561 5.2438 272.011 
-1.67242e-06 1.07512e-05 2.68872e+25 4.01027 4.13844 271.918 
-1.69631e-05 1.12291e-05 2.68025e+25 -0.0388084 1.25348 272.79 
-1.50517e-05 1.12291e-05 2.68669e+25 -1.30571 6.91764 272.068 
-1.31404e-05 1.12291e-05 2.68795e+25 -2.15592 8.73445 272.01 
-1.12291e-05 1.12291e-05 2.69001e+25 -2.08351 8.5741 271.899 
-9.31775e-06 1.12291e-05 2.68925e+25 -1.18652 7.77637 271.943 
-7.40642e-06 1.12291e-05 2.68812e+25 0.323676 6.83055 272.148 
-5.49508e-06 1.12291e-05 2.68988e+25 1.90661 5.90589 271.806 
-3.58375e-06 1.12291e-05 2.6884e+25 3.47805 4.79222 272.01 
-1.67242e-06 1.12291e-05 2.68806e+25 4.95703 3.85542 271.924 
-1.69631e-05 1.17069e-05 2.67955e+25 -0.00774196 1.31259 272.833 
-1.50517e-05 1.17069e-05 2.68581e+25 -1.44956 7.36438 272.159 
-1.31404e-05 1.17069e-05 2.68661e+25 -2.28338 8.82267 272.102 
-1.12291e-05 1.17069e-05 2.69004e+25 -2.10087 8.43285 271.792 
-9.31775e-06 1.17069e-05 2.68884e+25 -0.864211 7.38083 272.036 
-7.40642e-06 1.17069e-05 2.68792e+25 1.00574 6.33609 272.185 
-5.49508e-06 1.17069e-05 2.69051e+25 2.77727 5.56281 271.886 
-3.58375e-06 1.17069e-05 2.68877e+25 4.47815 4.34476 272.007 
-1.67242e-06 1.17069e-05 2.68663e+25 6.14355 3.50759 272.051 
-1.69631e-05 1.21847e-05 2.6793e+25 -0.0415751 1.40684 272.801 
-1.50517e-05 1.21847e-05 2.68581e+25 -1.65721 7.80583 272.027 
-1.31404e-05 1.21847e-05 2.68603e+25 -2.6284 8.86776 272.204 
-1.12291e-05 1.21847e-05 2.6883e+25 -1.96708 8.16454 271.895 
-9.31775e-06 1.21847e-05 2.68919e+25 -0.384614 6.82622 271.937 
-7.40642e-06 1.21847e-05 2.68684e+25 1.65341 5.77957 272.213 
-5.49508e-06 1.21847e-05 2.68936e+25 3.73617 5.10022 272.009 
-3.58375e-06 1.21847e-05 2.68656e+25 5.62195 3.86463 272.163 
-1.67242e-06 1.21847e-05 2.68724e+25 7.55453 3.13866 272.122 
-1.69631e-05 1.26626e-05 2.67984e+25 -0.0872128 1.54673 272.732 
-1.50517e-05 1.26626e-05 2.68433e+25 -2.01316 8.20142 272.078 
-1.31404e-05 1.26626e-05 2.68717e+25 -2.89857 8.84457 271.99 
-1.12291e-05 1.26626e-05 2.68786e+25 -1.65913 7.79764 271.942 
-9.31775e-06 1.26626e-05 2.68883e+25 0.361024 6.27719 272.056 
-7.40642e-06 1.26626e-05 2.68752e+25 2.73218 5.27324 272.204 
-5.49508e-06 1.26626e-05 2.68783e+25 5.05413 4.51606 272.13 
-3.58375e-06 1.26626e-05 2.68793e+25 7.10751 3.43123 272.151 
-1.67242e-06 1.26626e-05 2.68663e+25 8.8561 2.74314 272.155 
-1.69631e-05 1.31404e-05 2.67821e+25 -0.120477 1.84644 272.72 
-1.50517e-05 1.31404e-05 2.68409e+25 -2.52743 8.71045 272.029 
-1.31404e-05 1.31404e-05 2.68614e+25 -3.06483 8.75126 271.957 
-1.12291e-05 1.31404e-05 2.6876e+25 -1.07253 7.30075 272.06 
-9.31775e-06 1.31404e-05 2.68947e+25 1.49721 5.6653 272.04 
-7.40642e-06 1.31404e-05 2.68611e+25 4.19698 4.81049 272.173 
-5.49508e-06 1.31404e-05 2.68788e+25 6.5231 3.86408 272.176 
-3.58375e-06 1.31404e-05 2.6863e+25 8.77971 2.94072 272.173 
-1.67242e-06 1.31404e-05 2.68707e+25 10.7488 2.36773 272.101 
-1.69631e-05 1.36182e-05 2.67792e+25 -0.183519 2.19068 272.705 
-1.50517e-05 1.36182e-05 2.68442e+25 -3.0367 9.2263 271.988 
-1.31404e-05 1.36182e-05 2.68755e+25 -2.65108 8.37768 271.938 
-1.12291e-05 1.36182e-05 2.68702e+25 -0.075423 6.6035 272.214 
-9.31775e-06 1.36182e-05 2.68859e+25 3.12141 4.97339 272.05 
-7.40642e-06 1.36182e-05 2.68782e+25 5.99132 4.19645 272.123 
-5.49508e-06 1.36182e-05 2.68761e+25 8.42576 3.17821 272.194 
-3.58375e-06 1.36182e-05 2.68654e+25 10.7388 2.43604 272.219 
-1.67242e-06 1.36182e-05 2.68705e+25 12.5598 1.94755 272.173 
-1.69631e-05 1.40961e-05 2.67548e+25 -0.18668 2.61499 272.753 
-1.50517e-05 1.40961e-05 2.68341e+25 -3.28895 9.54898 272.036 
-1.31404e-05 1.40961e-05 2.68819e+25 -1.93187 7.78312 271.852 
-1.12291e-05 1.40961e-05 2.68545e+25 1.44095 5.70972 272.286 
-9.31775e-06 1.40961e-05 2.68858e+25 4.95379 4.19141 272.189 
-7.40642e-06 1.40961e-05 2.68853e+25 8.05008 3.48055 272.155 
-5.49508e-06 1.40961e-05 2.68802e+25 10.8783 2.54783 272.229 
-3.58375e-06 1.40961e-05 2.68618e+25 13.0555 1.97362 272.255 
-1.67242e-06 1.40961e-05 2.6855e+25 14.6573 1.58371 272.317 
-1.69631e-05 1.45739e-05 2.67282e+25 -0.333473 3.22516 272.8 
-1.50517e-05 1.45739e-05 2.68201e+25 -3.22551 9.65423 272.089 
-1.31404e-05 1.45739e-05 2.68695e+25 -0.548886 6.91086 271.912 
-1.12291e-05 1.45739e-05 2.68571e+25 3.85788 4.67584 272.313 
-9.31775e-06 1.45739e-05 2.68775e+25 7.4735 3.35468 272.141 
-7.40642e-06 1.45739e-05 2.68688e+25 10.7731 2.70562 272.306 
-5.49508e-06 1.45739e-05 2.68755e+25 13.5696 1.93796 272.272 
-3.58375e-06 1.45739e-05 2.6854e+25 15.6133 1.59798 272.286 
-1.67242e-06 1.45739e-05 2.68681e+25 17.0815 1.17257 272.268 
-1.69631e-05 1.50518e-05 2.66997e+25 -0.477923 4.15624 272.815 
-1.50517e-05 1.50518e-05 2.67771e+25 -2.71794 9.33947 272.251 
-1.31404e-05 1.50518e-05 2.6852e+25 1.91593 5.70082 272.109 
-1.12291e-05 1.50518e-05 2.6855e+25 6.96276 3.61629 272.319 
-9.31775e-06 1.50518e-05 2.68713e+25 10.8068 2.52114 272.254 
-7.40642e-06 1.50518e-05 2.68497e+25 13.8694 2.01248 272.558 
-5.49508e-06 1.50518e-05 2.68567e+25 16.4332 1.36832 272.351 
-3.58375e-06 1.50518e-05 2.68603e+25 18.5196 1.14764 272.284 
-1.67242e-06 1.50518e-05 2.68566e+25 19.8892 0.827833 272.369 
-1.69631e-05 1.55296e-05 2.66239e+25 -0.681653 5.45795 272.797 
-1.50517e-05 1.55296e-05 2.67482e+25 -0.793607 8.29999 272.523 
-1.31404e-05 1.55296e-05 2.68223e+25 5.904 4.20123 272.487 
-1.12291e-05 1.55296e-05 2.68257e+25 11.2615 2.60346 272.707 
-9.31775e-06 1.55296e-05 2.68799e+25 14.9848 1.63693 272.364 
-7.40642e-06 1.55296e-05 2.68449e+25 17.8893 1.35029 272.642 
-5.49508e-06 1.55296e-05 2.68629e+25 20.0498 0.902441 272.416 
-3.58375e-06 1.55296e-05 2.68508e+25 21.6889 0.72016 272.451 
-1.67242e-06 1.55296e-05 2.68534e+25 22.8891 0.553316 272.402 
-1.69631e-05 1.60074e-05 2.65063e+25 -0.811305 7.06134 272.827 
-1.50517e-05 1.60074e-05 2.67378e+25 3.55041 6.20662 272.696 
-1.31404e-05 1.60074e-05 2.67973e+25 11.7225 2.54944 272.7 
-1.12291e-05 1.60074e-05 2.68161e+25 16.7104 1.60853 272.887 
-9.31775e-06 1.60074e-05 2.68541e+25 19.9406 0.884582 272.553 
-7.40642e-06 1.60074e-05 2.68376e+25 22.2124 0.736994 272.685 
-5.49508e-06 1.60074e-05 2.6834e+25 24.0787 0.492888 272.631 
-3.58375e-06 1.60074e-05 2.68583e+25 25.3707 0.381257 272.487 
-1.67242e-06 1.60074e-05 2.68476e+25 26.2305 0.291548 272.509 
-1.69631e-05 1.64852e-05 2.62842e+25 -0.376629 8.50536 272.786 
-1.50517e-05 1.64852e-05 2.67047e+25 11.8671 3.41628 272.979 
-1.31404e-05 1.64852e-05 2.67894e+25 19.6215 1.1002 272.858 
-1.12291e-05 1.64852e-05 2.68208e+25 23.337 0.704936 272.846 
-9.31775e-06 1.64852e-05 2.68451e+25 25.7116 0.355079 272.629 
-7.40642e-06 1.64852e-05 2.68319e+25 27.1786 0.297693 272.808 
-5.49508e-06 1.64852e-05 2.68196e+25 28.3103 0.176956 272.841 
-3.58375e-06 1.64852e-05 2.68441e+25 29.0352 0.200744 272.621 
-1.67242e-06 1.64852e-05 2.68389e+25 29.7398 0.0959154 272.565 
-1.69631e-05 1.69631e-05 2.55318e+25 4.03837 6.21758 273.048 
-1.50517e-05 1.69631e-05 2.67158e+25 24.3693 0.853194 273.185 
-1.31404e-05 1.69631e-05 2.67888e+25 28.7147 0.227619 273.135 
-1.12291e-05 1.69631e-05 2.68128e+25 30.2822 0.144922 272.996 
-9.31775e-06 1.69631e-05 2.68368e+25 31.2628 0.0451661 272.855 
-7.40642e-06 1.69631e-05 2.68208e+25 31.7859 0.056452 272.995 
-5.49508e-06 1.69631e-05 2.68069e+25 32.2149 0.0392297 273.021 
-3.58375e-06 1.69631e-05 2.68196e+25 32.4237 0.0407263 272.902 
-1.67242e-06 1.69631e-05 2.68172e+25 32.7745 -0.000361652 272.836 
-1.60074e-05 2.38917e-07 2.68635e+25 -0.221077 1.70578 272.254 
-1.40961e-05 2.38917e-07 2.68922e+25 -0.548772 4.1887 271.962 
-1.21847e-05 2.38917e-07 2.68887e+25 -1.40529 5.43078 272.04 
-1.02734e-05 2.38917e-07 2.68879e+25 -2.51206 6.03704 271.918 
-8.36208e-06 2.38917e-07 2.68984e+25 -3.40033 6.17171 271.943 
-6.45075e-06 2.38917e-07 2.68971e+25 -4.21918 5.89968 271.931 
-4.53942e-06 2.38917e-07 2.68916e+25 -5.31038 5.01966 271.902 
-2.62808e-06 2.38917e-07 2.68806e+25 -6.20626 3.8754 271.983 
-7.1675e-07 2.38917e-07 2.68743e+25 -7.20149 2.63655 272.111 
-1.60074e-05 7.1675e-07 2.68956e+25 -0.133317 1.85378 272.271 
-1.40961e-05 7.1675e-07 2.69196e+25 -0.54847 4.33799 271.857 
-1.21847e-05 7.1675e-07 2.69076e+25 -1.51065 5.75124 272 
-1.02734e-05 7.1675e-07 2.69178e+25 -2.65035 6.26095 271.847 
-8.36208e-06 7.1675e-07 2.69091e+25 -3.33555 6.39655 271.961 
-6.45075e-06 7.1675e-07 2.69177e+25 -4.12811 6.13486 271.833 
-4.53942e-06 7.1675e-07 2.69175e+25 -5.08902 5.31329 271.844 
-2.62808e-06 7.1675e-07 2.69043e+25 -6.06909 4.20074 271.944 
-7.1675e-07 7.1675e-07 2.68949e+25 -7.01006 2.85584 272.126 
-1.60074e-05 1.19458e-06 2.69008e+25 -0.16504 2.00068 272.147 
-1.40961e-05 1.19458e-06 2.6911e+25 -0.634193 4.46086 271.934 
-1.21847e-05 1.19458e-06 2.69177e+25 -1.5989 5.99844 271.885 
-1.02734e-05 1.19458e-06 2.693e+25 -2.52743 6.46532 271.834 
-8.36208e-06 1.19458e-06 2.69109e+25 -3.15294 6.54211 271.966 
-6.45075e-06 1.19458e-06 2.69254e+25 -3.9579 6.27183 271.802 
-4.53942e-06 1.19458e-06 2.69241e+25 -5.01705 5.59905 271.806 
-2.62808e-06 1.19458e-06 2.69157e+25 -5.9248 4.48215 271.952 
-7.1675e-07 1.19458e-06 2.69e+25 -6.69822 3.01622 272.134 
-1.60074e-05 1.67242e-06 2.68979e+25 0.0126997 2.02732 272.17 
-1.40961e-05 1.67242e-06 2.69118e+25 -0.661554 4.59709 271.946 
-1.21847e-05 1.67242e-06 2.69278e+25 -1.58012 6.27859 271.901 
-1.02734e-05 1.67242e-06 2.69086e+25 -2.31873 6.65134 271.936 
-8.36208e-06 1.67242e-06 2.69214e+25 -3.14154 6.67389 271.796 
-6.45075e-06 1.67242e-06 2.69189e+25 -4.04547 6.41689 271.79 
-4.53942e-06 1.67242e-06 2.69215e+25 -4.75788 5.83038 271.77 
-2.62808e-06 1.67242e-06 2.69061e+25 -5.71335 4.64676 271.984 
-7.1675e-07 1.67242e-06 2.6878e+25 -6.41928 3.15775 272.134 
-1.60074e-05 2.15025e-06 2.68869e+25 0.0523693 2.0583 272.271 
-1.40961e-05 2.15025e-06 2.69045e+25 -0.457294 4.8225 271.962 
-1.21847e-05 2.15025e-06 2.69316e+25 -1.41192 6.48308 271.773 
-1.02734e-05 2.15025e-06 2.69114e+25 -2.21738 6.81737 271.883 
-8.36208e-06 2.15025e-06 2.69325e+25 -3.06393 6.86927 271.699 
-6.45075e-06 2.15025e-06 2.69352e+25 -4.22054 6.6511 271.746 
-4.53942e-06 2.15025e-06 2.69207e+25 -4.64343 6.11698 271.813 
-2.62808e-06 2.15025e-06 2.68987e+25 -5.65278 4.84393 271.926 
-7.1675e-07 2.15025e-06 2.68795e+25 -6.16595 3.32341 272.131 
-1.60074e-05 2.62808e-06 2.68877e+25 -0.109275 2.13832 272.257 
-1.40961e-05 2.62808e-06 2.69159e+25 -0.613645 5.02606 271.938 
-1.21847e-05 2.62808e-06 2.6942e+25 -1.23946 6.67324 271.687 
-1.02734e-05 2.62808e-06 2.69117e+25 -2.12514 7.06072 271.87 
-8.36208e-06 2.62808e-06 2.69225e+25 -2.97157 7.09243 271.764 
-6.45075e-06 2.62808e-06 2.69229e+25 -4.0358 6.88114 271.785 
-4.53942e-06 2.62808e-06 2.69015e+25 -4.64261 6.27665 271.923 
-2.62808e-06 2.62808e-06 2.68903e+25 -5.30965 4.9615 272.096 
-7.1675e-07 2.62808e-06 2.68746e+25 -5.79443 3.50088 272.191 
-1.60074e-05 3.10592e-06 2.68838e+25 -0.102968 2.15004 272.23 
-1.40961e-05 3.10592e-06 2.6924e+25 -0.654025 5.20879 271.868 
-1.21847e-05 3.10592e-06 2.69284e+25 -1.20836 6.84105 271.762 
-1.02734e-05 3.10592e-06 2.69148e+25 -1.97163 7.21884 271.835 
-8.36208e-06 3.10592e-06 2.69104e+25 -2.98458 7.32678 271.82 
-6.45075e-06 3.10592e-06 2.69133e+25 -3.85525 7.09003 271.918 
-4.53942e-06 3.10592e-06 2.68909e+25 -4.55433 6.37005 272.019 
-2.62808e-06 3.10592e-06 2.68806e+25 -4.94332 5.07685 272.131 
-7.1675e-07 3.10592e-06 2.68635e+25 -5.5034 3.77164 272.243 
-1.60074e-05 3.58375e-06 2.68879e+25 -0.0838687 2.20757 272.197 
-1.40961e-05 3.58375e-06 2.69135e+25 -0.569138 5.36382 271.896 
-1.21847e-05 3.58375e-06 2.6904e+25 -1.14045 6.99673 271.893 
-1.02734e-05 3.58375e-06 2.69225e+25 -1.91052 7.45528 271.795 
-8.36208e-06 3.58375e-06 2.69199e+25 -2.89229 7.62196 271.829 
-6.45075e-06 3.58375e-06 2.68984e+25 -3.66196 7.38903 271.893 
-4.53942e-06 3.58375e-06 2.68966e+25 -4.27639 6.48669 272.014 
-2.62808e-06 3.58375e-06 2.68677e+25 -4.7614 5.27828 272.22 
-7.1675e-07 3.58375e-06 2.68575e+25 -5.18331 3.87481 272.317 
-1.60074e-05 4.06158e-06 2.68835e+25 -0.104525 2.29387 272.212 
-1.40961e-05 4.06158e-06 2.69111e+25 -0.559764 5.62033 271.927 
-1.21847e-05 4.06158e-06 2.69234e+25 -1.19315 7.11135 271.795 
-1.02734e-05 4.06158e-06 2.69154e+25 -1.73481 7.72132 271.847 
-8.36208e-06 4.06158e-06 2.69185e+25 -2.82944 7.83768 271.815 
-6.45075e-06 4.06158e-06 2.68972e+25 -3.4394 7.58272 271.982 
-4.53942e-06 4.06158e-06 2.68874e+25 -3.96418 6.56194 272.09 
-2.62808e-06 4.06158e-06 2.68805e+25 -4.37981 5.41252 272.197 
-7.1675e-07 4.06158e-06 2.686e+25 -4.9331 3.89662 272.349 
-1.60074e-05 4.53942e-06 2.68789e+25 -0.0388229 2.40147 272.284 
-1.40961e-05 4.53942e-06 2.68902e+25 -0.613328 5.85196 272.044 
-1.21847e-05 4.53942e-06 2.6928e+25 -1.10312 7.25128 271.769 
-1.02734e-05 4.53942e-06 2.69068e+25 -1.67199 7.98104 271.88 
-8.36208e-06 4.53942e-06 2.69318e+25 -2.69398 8.0111 271.722 
-6.45075e-06 4.53942e-06 2.68926e+25 -3.28333 7.76007 272.04 
-4.53942e-06 4.53942e-06 2.68767e+25 -3.57309 6.59741 272.127 
-2.62808e-06 4.53942e-06 2.68777e+25 -4.06661 5.51191 272.096 
-7.1675e-07 4.53942e-06 2.68574e+25 -4.61594 4.01059 272.324 
-1.60074e-05 5.01725e-06 2.68856e+25 -0.146196 2.55866 272.232 
-1.40961e-05 5.01725e-06 2.68945e+25 -0.610122 5.92564 272.039 
-1.21847e-05 5.01725e-06 2.6907e+25 -1.00316 7.40992 271.954 
-1.02734e-05 5.01725e-06 2.69014e+25 -1.78222 8.15578 271.897 
-8.36208e-06 5.01725e-06 2.6896e+25 -2.41414 8.23371 271.892 
-6.45075e-06 5.01725e-06 2.68812e+25 -2.95898 7.81504 272.102 
-4.53942e-06 5.01725e-06 2.68996e+25 -3.33896 6.67201 271.99 
-2.62808e-06 5.01725e-06 2.68904e+25 -3.73135 5.7187 271.981 
-7.1675e-07 5.01725e-06 2.68717e+25 -4.31276 4.12187 272.094 
-1.60074e-05 5.49508e-06 2.68785e+25 -0.247795 2.68663 272.201 
-1.40961e-05 5.49508e-06 2.68788e+25 -0.650783 5.94359 272.119 
-1.21847e-05 5.49508e-06 2.69119e+25 -1.04183 7.61641 271.864 
-1.02734e-05 5.49508e-06 2.68971e+25 -1.81661 8.30515 271.951 
-8.36208e-06 5.49508e-06 2.69038e+25 -2.2587 8.42966 271.859 
-6.45075e-06 5.49508e-06 2.68826e+25 -2.70568 7.86323 272.121 
-4.53942e-06 5.49508e-06 2.68914e+25 -3.10262 6.78885 271.971 
-2.62808e-06 5.49508e-06 2.68793e+25 -3.27273 5.84646 272.058 
-7.1675e-07 5.49508e-06 2.68771e+25 -3.88244 4.20518 271.994 
-1.60074e-05 5.97292e-06 2.68791e+25 -0.277284 2.79495 272.251 
-1.40961e-05 5.97292e-06 2.68748e+25 -0.676629 6.0167 272.105 
-1.21847e-05 5.97292e-06 2.68922e+25 -1.06938 7.79788 271.966 
-1.02734e-05 5.97292e-06 2.69081e+25 -1.75508 8.41587 271.889 
-8.36208e-06 5.97292e-06 2.69081e+25 -2.18459 8.62883 271.853 
-6.45075e-06 5.97292e-06 2.68783e+25 -2.48299 7.90267 272.02 
-4.53942e-06 5.97292e-06 2.68869e+25 -2.77662 6.90388 272.017 
-2.62808e-06 5.97292e-06 2.68978e+25 -2.96933 6.01386 271.911 
-7.1675e-07 5.97292e-06 2.68749e+25 -3.319 4.24196 272.016 
-1.60074e-05 6.45075e-06 2.68746e+25 -0.0726212 2.88955 272.236 
-1.40961e-05 6.45075e-06 2.68784e+25 -0.806524 6.0869 272.104 
-1.21847e-05 6.45075e-06 2.68946e+25 -1.24611 7.9405 272.007 
-1.02734e-05 6.45075e-06 2.69129e+25 -1.67785 8.53946 271.805 
-8.36208e-06 6.45075e-06 2.69123e+25 -2.10643 8.66477 271.856 
-6.45075e-06 6.45075e-06 2.69022e+25 -2.19476 7.91975 271.927 
-4.53942e-06 6.45075e-06 2.68914e+25 -2.52524 6.95554 272.003 
-2.62808e-06 6.45075e-06 2.68971e+25 -2.67162 6.07197 271.938 
-7.1675e-07 6.45075e-06 2.6888e+25 -2.79024 4.19511 271.858 
-1.60074e-05 6.92858e-06 2.68583e+25 -0.0915551 3.03916 272.305 
-1.40961e-05 6.92858e-06 2.68977e+25 -0.743566 6.23475 271.96 
-1.21847e-05 6.92858e-06 2.6898e+25 -1.29891 8.01562 271.965 
-1.02734e-05 6.92858e-06 2.68978e+25 -1.53183 8.70075 271.835 
-8.36208e-06 6.92858e-06 2.68956e+25 -1.92445 8.69325 271.954 
-6.45075e-06 6.92858e-06 2.68993e+25 -2.007 7.9368 271.859 
-4.53942e-06 6.92858e-06 2.6897e+25 -2.11918 6.96195 271.968 
-2.62808e-06 6.92858e-06 2.68915e+25 -2.13081 6.07663 271.894 
-7.1675e-07 6.92858e-06 2.68878e+25 -2.25705 4.2375 271.896 
-1.60074e-05 7.40642e-06 2.68805e+25 -0.112206 3.12934 272.235 
-1.40961e-05 7.40642e-06 2.68923e+25 -0.735229 6.45636 272.061 
-1.21847e-05 7.40642e-06 2.68934e+25 -1.4286 8.04696 272.032 
-1.02734e-05 7.40642e-06 2.69078e+25 -1.48148 8.82714 271.95 
-8.36208e-06 7.40642e-06 2.68958e+25 -1.77787 8.68383 271.927 
-6.45075e-06 7.40642e-06 2.69041e+25 -1.72937 7.95778 271.766 
-4.53942e-06 7.40642e-06 2.6875e+25 -1.6702 7.04823 272.118 
-2.62808e-06 7.40642e-06 2.68983e+25 -1.63292 6.02181 271.877 
-7.1675e-07 7.40642e-06 2.68826e+25 -1.50715 4.2871 271.868 
-1.60074e-05 7.88425e-06 2.6854e+25 -0.15182 3.17849 272.357 
-1.40961e-05 7.88425e-06 2.68824e+25 -0.718596 6.70702 272.01 
-1.21847e-05 7.88425e-06 2.68923e+25 -1.5036 8.08633 271.977 
-1.02734e-05 7.88425e-06 2.69045e+25 -1.56276 8.85893 271.865 
-8.36208e-06 7.88425e-06 2.68779e+25 -1.6455 8.65519 272.039 
-6.45075e-06 7.88425e-06 2.69148e+25 -1.46853 7.88764 271.746 
-4.53942e-06 7.88425e-06 2.68739e+25 -1.231 7.0317 272.125 
-2.62808e-06 7.88425e-06 2.68926e+25 -1.12207 5.86463 271.843 
-7.1675e-07 7.88425e-06 2.6878e+25 -0.726506 4.27224 271.911 
-1.60074e-05 8.36208e-06 2.68552e+25 -0.227595 3.29361 272.331 
-1.40961e-05 8.36208e-06 2.68909e+25 -0.818168 6.93231 272.014 
-1.21847e-05 8.36208e-06 2.68931e+25 -1.73846 8.06561 271.959 
-1.02734e-05 8.36208e-06 2.6899e+25 -1.77658 8.86653 271.873 
-8.36208e-06 8.36208e-06 2.68906e+25 -1.58563 8.61925 272.06 
-6.45075e-06 8.36208e-06 2.68952e+25 -1.11552 7.84784 271.907 
-4.53942e-06 8.36208e-06 2.68858e+25 -0.853643 6.89058 271.993 
-2.62808e-06 8.36208e-06 2.68761e+25 -0.501588 5.70036 271.913 
-7.1675e-07 8.36208e-06 2.68824e+25 0.0628114 4.28772 271.962 
-1.60074e-05 8.83992e-06 2.68544e+25 -0.287684 3.47514 272.343 
-1.40961e-05 8.83992e-06 2.68758e+25 -0.940709 7.06571 272.07 
-1.21847e-05 8.83992e-06 2.68862e+25 -1.82026 8.25333 271.994 
-1.02734e-05 8.83992e-06 2.68975e+25 -2.03409 8.85259 271.943 
-8.36208e-06 8.83992e-06 2.68822e+25 -1.5917 8.51823 272.057 
-6.45075e-06 8.83992e-06 2.68767e+25 -0.916212 7.81792 272.033 
-4.53942e-06 8.83992e-06 2.68788e+25 -0.419134 6.75323 272.024 
-2.62808e-06 8.83992e-06 2.68743e+25 0.150153 5.60943 272.043 
-7.1675e-07 8.83992e-06 2.68847e+25 0.709138 4.19557 271.995 
-1.60074e-05 9.31775e-06 2.68605e+25 -0.292823 3.62731 272.284 
-1.40961e-05 9.31775e-06 2.68717e+25 -1.1587 7.31157 272.034 
-1.21847e-05 9.31775e-06 2.68914e+25 -1.97945 8.53426 271.882 
-1.02734e-05 9.31775e-06 2.69063e+25 -2.14355 8.76235 271.96 
-8.36208e-06 9.31775e-06 2.68961e+25 -1.55018 8.29566 271.967 
-6.45075e-06 9.31775e-06 2.68842e+25 -0.712215 7.68569 272.017 
-4.53942e-06 9.31775e-06 2.68949e+25 0.0384065 6.55733 271.924 
-2.62808e-06 9.31775e-06 2.68657e+25 0.814215 5.49412 272.099 
-7.1675e-07 9.31775e-06 2.68894e+25 1.54235 4.07542 271.952 
-1.60074e-05 9.79558e-06 2.6851e+25 -0.260335 3.83306 272.337 
-1.40961e-05 9.79558e-06 2.68691e+25 -1.24312 7.60276 272.111 
-1.21847e-05 9.79558e-06 2.68927e+25 -1.88854 8.74545 271.925 
-1.02734e-05 9.79558e-06 2.69088e+25 -2.25715 8.61033 271.79 
-8.36208e-06 9.79558e-06 2.68959e+25 -1.34787 8.13966 271.873 
-6.45075e-06 9.79558e-06 2.68948e+25 -0.590947 7.41621 271.916 
-4.53942e-06 9.79558e-06 2.68993e+25 0.652494 6.30631 271.892 
-2.62808e-06 9.79558e-06 2.68687e+25 1.67271 5.30405 272.101 
-7.1675e-07 9.79558e-06 2.68718e+25 2.35559 3.92745 272.005 
-1.60074e-05 1.02734e-05 2.68502e+25 -0.391939 3.99934 272.348 
-1.40961e-05 1.02734e-05 2.68662e+25 -1.49631 7.89493 272.134 
-1.21847e-05 1.02734e-05 2.69005e+25 -1.99908 8.89656 271.897 
-1.02734e-05 1.02734e-05 2.68913e+25 -2.07394 8.36765 271.927 
-8.36208e-06 1.02734e-05 2.6889e+25 -1.20877 7.85336 272.046 
-6.45075e-06 1.02734e-05 2.68959e+25 -0.187392 7.1379 271.91 
-4.53942e-06 1.02734e-05 2.69053e+25 1.23725 6.01438 271.87 
-2.62808e-06 1.02734e-05 2.68692e+25 2.59191 5.01933 272.046 
-7.1675e-07 1.02734e-05 2.68766e+25 3.51649 3.73753 272.007 
-1.60074e-05 1.07512e-05 2.68339e+25 -0.524954 4.228 272.428 
-1.40961e-05 1.07512e-05 2.68726e+25 -1.7002 8.11788 272.044 
-1.21847e-05 1.07512e-05 2.69036e+25 -2.11342 8.92968 271.848 
-1.02734e-05 1.07512e-05 2.69012e+25 -1.82878 8.21946 271.795 
-8.36208e-06 1.07512e-05 2.68851e+25 -0.974222 7.62298 272.089 
-6.45075e-06 1.07512e-05 2.68962e+25 0.382293 6.77773 271.935 
-4.53942e-06 1.07512e-05 2.69006e+25 1.91919 5.64648 271.842 
-2.62808e-06 1.07512e-05 2.68747e+25 3.45381 4.74774 271.989 
-7.1675e-07 1.07512e-05 2.68659e+25 4.50853 3.5187 272.076 
-1.60074e-05 1.12291e-05 2.6842e+25 -0.497585 4.63584 272.309 
-1.40961e-05 1.12291e-05 2.68629e+25 -1.93816 8.19511 272.049 
-1.21847e-05 1.12291e-05 2.68826e+25 -2.23947 8.88403 271.977 
-1.02734e-05 1.12291e-05 2.69066e+25 -1.7596 8.07386 271.778 
-8.36208e-06 1.12291e-05 2.68817e+25 -0.55897 7.29291 272.122 
-6.45075e-06 1.12291e-05 2.6898e+25 1.13735 6.40678 271.962 
-4.53942e-06 1.12291e-05 2.6898e+25 2.64104 5.24875 271.886 
-2.62808e-06 1.12291e-05 2.68671e+25 4.21321 4.40872 272.08 
-7.1675e-07 1.12291e-05 2.68661e+25 5.43049 3.30299 272.084 
-1.60074e-05 1.17069e-05 2.68323e+25 -0.508637 5.00468 272.351 
-1.40961e-05 1.17069e-05 2.68595e+25 -2.10313 8.34081 272.046 
-1.21847e-05 1.17069e-05 2.68876e+25 -2.4374 8.8639 271.969 
-1.02734e-05 1.17069e-05 2.68947e+25 -1.60613 7.80545 271.899 
-8.36208e-06 1.17069e-05 2.68758e+25 0.0269499 6.87052 272.071 
-6.45075e-06 1.17069e-05 2.6884e+25 2.0063 5.95547 272.05 
-4.53942e-06 1.17069e-05 2.68838e+25 3.54918 4.86776 271.979 
-2.62808e-06 1.17069e-05 2.68886e+25 5.37717 3.9991 272.04 
-7.1675e-07 1.17069e-05 2.6878e+25 6.74313 3.08943 272.029 
-1.60074e-05 1.21847e-05 2.68389e+25 -0.749727 5.44655 272.312 
-1.40961e-05 1.21847e-05 2.68673e+25 -2.39453 8.58839 271.96 
-1.21847e-05 1.21847e-05 2.68868e+25 -2.54425 8.70814 271.9 
-1.02734e-05 1.21847e-05 2.68916e+25 -1.3128 7.43789 271.98 
-8.36208e-06 1.21847e-05 2.68878e+25 0.631353 6.44056 272.144 
-6.45075e-06 1.21847e-05 2.68868e+25 2.74803 5.47422 272.029 
-4.53942e-06 1.21847e-05 2.68973e+25 4.62253 4.41553 271.941 
-2.62808e-06 1.21847e-05 2.68795e+25 6.58933 3.51801 272.121 
-7.1675e-07 1.21847e-05 2.68745e+25 8.11931 2.90311 272.021 
-1.60074e-05 1.26626e-05 2.68252e+25 -0.990284 5.93763 272.293 
-1.40961e-05 1.26626e-05 2.68531e+25 -2.65487 8.87472 272.055 
-1.21847e-05 1.26626e-05 2.6886e+25 -2.43692 8.47305 271.931 
-1.02734e-05 1.26626e-05 2.68772e+25 -0.741664 6.93172 272.059 
-8.36208e-06 1.26626e-05 2.6867e+25 1.61795 5.88428 272.19 
-6.45075e-06 1.26626e-05 2.68846e+25 3.81329 4.92991 272.054 
-4.53942e-06 1.26626e-05 2.68786e+25 6.12014 3.93961 272.097 
-2.62808e-06 1.26626e-05 2.68682e+25 8.07118 3.01715 272.136 
-7.1675e-07 1.26626e-05 2.68559e+25 9.75935 2.52326 272.202 
-1.60074e-05 1.31404e-05 2.68382e+25 -1.25625 6.63038 272.191 
-1.40961e-05 1.31404e-05 2.68675e+25 -3.18131 9.07668 271.911 
-1.21847e-05 1.31404e-05 2.68804e+25 -2.22553 8.04857 271.945 
-1.02734e-05 1.31404e-05 2.68726e+25 0.199555 6.36166 272.108 
-8.36208e-06 1.31404e-05 2.6876e+25 2.95105 5.18128 272.165 
-6.45075e-06 1.31404e-05 2.68787e+25 5.2798 4.36431 272.159 
-4.53942e-06 1.31404e-05 2.68529e+25 7.78775 3.41338 272.279 
-2.62808e-06 1.31404e-05 2.6872e+25 9.77176 2.57469 272.119 
-7.1675e-07 1.31404e-05 2.68623e+25 11.5173 2.093 272.244 
-1.60074e-05 1.36182e-05 2.68141e+25 -1.61967 7.3866 272.29 
-1.40961e-05 1.36182e-05 2.68623e+25 -3.23262 9.05777 271.883 
-1.21847e-05 1.36182e-05 2.68637e+25 -1.52918 7.48554 272.067 
-1.02734e-05 1.36182e-05 2.68676e+25 1.54949 5.67265 272.116 
-8.36208e-06 1.36182e-05 2.68839e+25 4.5792 4.47061 272.21 
-6.45075e-06 1.36182e-05 2.68575e+25 7.21048 3.82954 272.323 
-4.53942e-06 1.36182e-05 2.68616e+25 9.74076 2.8377 272.261 
-2.62808e-06 1.36182e-05 2.68729e+25 11.7258 2.09576 272.073 
-7.1675e-07 1.36182e-05 2.68537e+25 13.3567 1.75273 272.253 
-1.60074e-05 1.40961e-05 2.68021e+25 -1.95503 8.3439 272.238 
-1.40961e-05 1.40961e-05 2.685e+25 -3.11658 8.85854 271.89 
-1.21847e-05 1.40961e-05 2.68666e+25 -0.337909 6.74505 272.176 
-1.02734e-05 1.40961e-05 2.68582e+25 3.2727 4.87331 272.252 
-8.36208e-06 1.40961e-05 2.68892e+25 6.5078 3.74282 272.251 
-6.45075e-06 1.40961e-05 2.68567e+25 9.4995 3.20861 272.368 
-4.53942e-06 1.40961e-05 2.68684e+25 12.053 2.23054 272.289 
-2.62808e-06 1.40961e-05 2.68749e+25 13.8745 1.5893 272.165 
-7.1675e-07 1.40961e-05 2.68501e+25 15.4356 1.36684 272.268 
-1.60074e-05 1.45739e-05 2.67879e+25 -2.34743 9.32191 272.117 
-1.40961e-05 1.45739e-05 2.68412e+25 -2.40952 8.36338 272.05 
-1.21847e-05 1.45739e-05 2.68571e+25 1.64528 5.76812 272.211 
-1.02734e-05 1.45739e-05 2.68616e+25 5.72538 4.04469 272.316 
-8.36208e-06 1.45739e-05 2.68733e+25 9.15483 2.95972 272.293 
-6.45075e-06 1.45739e-05 2.68641e+25 12.2499 2.48357 272.343 
-4.53942e-06 1.45739e-05 2.68679e+25 14.6594 1.67908 272.233 
-2.62808e-06 1.45739e-05 2.68616e+25 16.3406 1.25425 272.195 
-7.1675e-07 1.45739e-05 2.68507e+25 17.8602 0.984884 272.309 
-1.60074e-05 1.50518e-05 2.674e+25 -2.83754 10.1835 272.268 
-1.40961e-05 1.50518e-05 2.68137e+25 -0.729952 7.34653 272.263 
-1.21847e-05 1.50518e-05 2.68368e+25 4.60372 4.53845 272.438 
-1.02734e-05 1.50518e-05 2.68667e+25 8.94673 3.1452 272.319 
-8.36208e-06 1.50518e-05 2.68502e+25 12.4794 2.15342 272.397 
-6.45075e-06 1.50518e-05 2.6866e+25 15.2876 1.79992 272.36 
-4.53942e-06 1.50518e-05 2.68633e+25 17.5243 1.17559 272.267 
-2.62808e-06 1.50518e-05 2.68783e+25 19.2211 0.92034 272.243 
-7.1675e-07 1.50518e-05 2.68508e+25 20.4873 0.679823 272.369 
-1.60074e-05 1.55296e-05 2.6714e+25 -2.70533 10.593 272.378 
-1.40961e-05 1.55296e-05 2.67962e+25 2.55636 5.8287 272.463 
-1.21847e-05 1.55296e-05 2.68305e+25 8.85663 3.20171 272.608 
-1.02734e-05 1.55296e-05 2.68522e+25 13.2355 2.15307 272.484 
-8.36208e-06 1.55296e-05 2.6861e+25 16.5199 1.41034 272.482 
-6.45075e-06 1.55296e-05 2.68428e+25 19.0343 1.1524 272.475 
-4.53942e-06 1.55296e-05 2.6861e+25 20.8733 0.746446 272.348 
-2.62808e-06 1.55296e-05 2.6844e+25 22.3746 0.587912 272.401 
-7.1675e-07 1.55296e-05 2.68388e+25 23.53 0.331149 272.436 
-1.60074e-05 1.60074e-05 2.66377e+25 -1.03565 9.88485 272.724 
-1.40961e-05 1.60074e-05 2.67827e+25 8.17041 3.91226 272.615 
-1.21847e-05 1.60074e-05 2.68247e+25 14.5458 1.88344 272.721 
-1.02734e-05 1.60074e-05 2.68439e+25 18.5105 1.22415 272.67 
-8.36208e-06 1.60074e-05 2.68553e+25 21.1657 0.785405 272.537 
-6.45075e-06 1.60074e-05 2.68309e+25 23.2228 0.656575 272.706 
-4.53942e-06 1.60074e-05 2.68448e+25 24.7999 0.393818 272.647 
-2.62808e-06 1.60074e-05 2.68423e+25 25.7741 0.359441 272.461 
-7.1675e-07 1.60074e-05 2.68493e+25 26.565 0.147534 272.441 
-1.60074e-05 1.64852e-05 2.65731e+25 4.66591 7.01273 273.042 
-1.40961e-05 1.64852e-05 2.67818e+25 16.6195 1.97169 272.812 
-1.21847e-05 1.64852e-05 2.68206e+25 21.7163 0.818726 272.829 
-1.02734e-05 1.64852e-05 2.68274e+25 24.7224 0.503999 272.829 
-8.36208e-06 1.64852e-05 2.68445e+25 26.4502 0.246941 272.659 
-6.45075e-06 1.64852e-05 2.68215e+25 27.8268 0.239919 272.862 
-4.53942e-06 1.64852e-05 2.68313e+25 28.7249 0.1868 272.723 
-2.62808e-06 1.64852e-05 2.6833e+25 29.3843 0.188003 272.604 
-7.1675e-07 1.64852e-05 2.68216e+25 29.9351 0.0932151 272.622 
-1.60074e-05 1.69631e-05 2.65141e+25 18.252 2.16406 273.402 
-1.40961e-05 1.69631e-05 2.67858e+25 27.0991 0.462694 272.961 
-1.21847e-05 1.69631e-05 2.68168e+25 29.549 0.154503 272.924 
-1.02734e-05 1.69631e-05 2.68192e+25 30.8246 0.0860756 272.981 
-8.36208e-06 1.69631e-05 2.68314e+25 31.4718 0.0184486 272.911 
-6.45075e-06 1.69631e-05 2.683e+25 31.9882 0.0562604 273 
-4.53942e-06 1.69631e-05 2.68093e+25 32.3171 0.0562911 272.947 
-2.62808e-06 1.69631e-05 2.68094e+25 32.7233 0.0509478 272.809 
-7.1675e-07 1.69631e-05 2.68203e+25 32.8575 0.029722 272.761 
-1.55296e-05 2.38917e-07 2.68745e+25 -0.303207 2.46704 272.114 
-1.36182e-05 2.38917e-07 2.68911e+25 -0.667576 4.59572 271.925 
-1.17069e-05 2.38917e-07 2.68737e+25 -1.66529 5.64972 272.078 
-9.79558e-06 2.38917e-07 2.68889e+25 -2.79968 5.97909 271.952 
-7.88425e-06 2.38917e-07 2.69035e+25 -3.61465 6.09893 271.923 
-5.97292e-06 2.38917e-07 2.69013e+25 -4.43144 5.78796 271.85 
-4.06158e-06 2.38917e-07 2.6896e+25 -5.498 4.79195 271.928 
-2.15025e-06 2.38917e-07 2.68861e+25 -6.48576 3.59221 271.946 
-2.38917e-07 2.38917e-07 2.6853e+25 -7.37948 2.18684 272.136 
-1.55296e-05 7.1675e-07 2.69027e+25 -0.287963 2.5383 272.171 
-1.36182e-05 7.1675e-07 2.69195e+25 -0.664834 4.68596 271.955 
-1.17069e-05 7.1675e-07 2.69085e+25 -1.80426 5.93774 272.007 
-9.79558e-06 7.1675e-07 2.68929e+25 -2.8072 6.1932 272.049 
-7.88425e-06 7.1675e-07 2.69189e+25 -3.494 6.23569 271.943 
-5.97292e-06 7.1675e-07 2.69163e+25 -4.32581 5.99773 271.835 
-4.06158e-06 7.1675e-07 2.69141e+25 -5.37203 4.99535 271.888 
-2.15025e-06 7.1675e-07 2.69085e+25 -6.36002 3.90153 271.972 
-2.38917e-07 7.1675e-07 2.6849e+25 -7.24574 2.40304 272.208 
-1.55296e-05 1.19458e-06 2.69041e+25 -0.275764 2.62414 272.001 
-1.36182e-05 1.19458e-06 2.69185e+25 -0.813669 4.84669 271.959 
-1.17069e-05 1.19458e-06 2.692e+25 -1.83436 6.18433 271.885 
-9.79558e-06 1.19458e-06 2.69047e+25 -2.70733 6.30281 271.918 
-7.88425e-06 1.19458e-06 2.69168e+25 -3.35229 6.46953 271.867 
-5.97292e-06 1.19458e-06 2.69268e+25 -4.17303 6.27189 271.79 
-4.06158e-06 1.19458e-06 2.69039e+25 -5.2809 5.25151 271.981 
-2.15025e-06 1.19458e-06 2.69027e+25 -6.1862 4.12818 271.981 
-2.38917e-07 1.19458e-06 2.68561e+25 -6.82917 2.65719 272.182 
-1.55296e-05 1.67242e-06 2.69091e+25 -0.0551902 2.7937 271.95 
-1.36182e-05 1.67242e-06 2.69145e+25 -0.839295 5.10006 271.946 
-1.17069e-05 1.67242e-06 2.68983e+25 -1.75359 6.36505 272.01 
-9.79558e-06 1.67242e-06 2.6905e+25 -2.53929 6.53787 271.917 
-7.88425e-06 1.67242e-06 2.69268e+25 -3.34231 6.70508 271.821 
-5.97292e-06 1.67242e-06 2.69265e+25 -4.20463 6.48036 271.753 
-4.06158e-06 1.67242e-06 2.69111e+25 -5.09339 5.56142 271.857 
-2.15025e-06 1.67242e-06 2.69011e+25 -5.94411 4.4194 271.967 
-2.38917e-07 1.67242e-06 2.68531e+25 -6.56269 2.77326 272.142 
-1.55296e-05 2.15025e-06 2.68998e+25 -0.0795125 2.95328 272.05 
-1.36182e-05 2.15025e-06 2.69046e+25 -0.752512 5.36142 272.001 
-1.17069e-05 2.15025e-06 2.69191e+25 -1.6727 6.55718 271.83 
-9.79558e-06 2.15025e-06 2.69199e+25 -2.45752 6.79419 271.859 
-7.88425e-06 2.15025e-06 2.69269e+25 -3.33677 6.989 271.697 
-5.97292e-06 2.15025e-06 2.69246e+25 -4.3383 6.52138 271.73 
-4.06158e-06 2.15025e-06 2.69195e+25 -4.91925 5.86427 271.818 
-2.15025e-06 2.15025e-06 2.68835e+25 -5.75545 4.58581 272.077 
-2.38917e-07 2.15025e-06 2.68589e+25 -6.36453 2.93516 272.163 
-1.55296e-05 2.62808e-06 2.69021e+25 -0.180333 3.06644 272 
-1.36182e-05 2.62808e-06 2.69138e+25 -0.783104 5.62376 271.944 
-1.17069e-05 2.62808e-06 2.69414e+25 -1.47798 6.84464 271.668 
-9.79558e-06 2.62808e-06 2.69148e+25 -2.3747 7.07096 271.88 
-7.88425e-06 2.62808e-06 2.69422e+25 -3.1955 7.23325 271.681 
-5.97292e-06 2.62808e-06 2.69143e+25 -4.23157 6.63896 271.831 
-4.06158e-06 2.62808e-06 2.69046e+25 -4.7382 6.09515 271.956 
-2.15025e-06 2.62808e-06 2.68777e+25 -5.41479 4.62145 272.181 
-2.38917e-07 2.62808e-06 2.68465e+25 -6.00691 3.17463 272.225 
-1.55296e-05 3.10592e-06 2.68992e+25 -0.125266 3.09137 272.052 
-1.36182e-05 3.10592e-06 2.69311e+25 -0.765088 5.74075 271.877 
-1.17069e-05 3.10592e-06 2.69299e+25 -1.38576 7.10926 271.794 
-9.79558e-06 3.10592e-06 2.69173e+25 -2.13617 7.29445 271.802 
-7.88425e-06 3.10592e-06 2.69306e+25 -3.19554 7.41762 271.761 
-5.97292e-06 3.10592e-06 2.69045e+25 -4.16051 6.93846 271.87 
-4.06158e-06 3.10592e-06 2.69042e+25 -4.67227 6.19322 271.974 
-2.15025e-06 3.10592e-06 2.68871e+25 -5.09479 4.72857 272.11 
-2.38917e-07 3.10592e-06 2.68315e+25 -5.70608 3.3457 272.339 
-1.55296e-05 3.58375e-06 2.68981e+25 -0.119195 3.11188 272.167 
-1.36182e-05 3.58375e-06 2.69173e+25 -0.754045 5.9157 271.842 
-1.17069e-05 3.58375e-06 2.69165e+25 -1.23691 7.24098 271.838 
-9.79558e-06 3.58375e-06 2.6922e+25 -2.11671 7.45146 271.792 
-7.88425e-06 3.58375e-06 2.69193e+25 -3.15639 7.64984 271.819 
-5.97292e-06 3.58375e-06 2.69045e+25 -3.86307 7.17371 271.833 
-4.06158e-06 3.58375e-06 2.68829e+25 -4.37314 6.25678 272.123 
-2.15025e-06 3.58375e-06 2.68662e+25 -4.92105 4.89465 272.192 
-2.38917e-07 3.58375e-06 2.68194e+25 -5.27952 3.51225 272.424 
-1.55296e-05 4.06158e-06 2.68927e+25 -0.183636 3.16286 272.069 
-1.36182e-05 4.06158e-06 2.69144e+25 -0.778772 6.06533 271.868 
-1.17069e-05 4.06158e-06 2.69281e+25 -1.28159 7.2874 271.803 
-9.79558e-06 4.06158e-06 2.69178e+25 -2.03113 7.71097 271.835 
-7.88425e-06 4.06158e-06 2.6904e+25 -2.99944 7.88523 271.863 
-5.97292e-06 4.06158e-06 2.69061e+25 -3.61841 7.34685 271.956 
-4.06158e-06 4.06158e-06 2.688e+25 -4.03277 6.33215 272.052 
-2.15025e-06 4.06158e-06 2.68758e+25 -4.55512 5.04554 272.173 
-2.38917e-07 4.06158e-06 2.68315e+25 -4.99054 3.64685 272.303 
-1.55296e-05 4.53942e-06 2.68734e+25 -0.239515 3.28748 272.202 
-1.36182e-05 4.53942e-06 2.69022e+25 -0.767659 6.21779 271.934 
-1.17069e-05 4.53942e-06 2.69161e+25 -1.21168 7.36452 271.779 
-9.79558e-06 4.53942e-06 2.69099e+25 -1.89532 8.00456 271.882 
-7.88425e-06 4.53942e-06 2.68947e+25 -2.84649 8.04165 271.982 
-5.97292e-06 4.53942e-06 2.68922e+25 -3.36396 7.41777 272.02 
-4.06158e-06 4.53942e-06 2.68749e+25 -3.6413 6.42918 272.081 
-2.15025e-06 4.53942e-06 2.68574e+25 -4.18658 5.21162 272.164 
-2.38917e-07 4.53942e-06 2.68366e+25 -4.7324 3.72236 272.275 
-1.55296e-05 5.01725e-06 2.68807e+25 -0.318166 3.51548 272.188 
-1.36182e-05 5.01725e-06 2.68842e+25 -0.675283 6.32561 272.067 
-1.17069e-05 5.01725e-06 2.69129e+25 -1.23231 7.56285 271.886 
-9.79558e-06 5.01725e-06 2.69035e+25 -1.95599 8.21047 271.929 
-7.88425e-06 5.01725e-06 2.6894e+25 -2.60807 8.17542 272.019 
-5.97292e-06 5.01725e-06 2.68765e+25 -2.98832 7.46399 272.061 
-4.06158e-06 5.01725e-06 2.68843e+25 -3.37996 6.50168 271.996 
-2.15025e-06 5.01725e-06 2.6879e+25 -3.86867 5.29692 272.102 
-2.38917e-07 5.01725e-06 2.68547e+25 -4.3396 3.78799 272.074 
-1.55296e-05 5.49508e-06 2.68861e+25 -0.3561 3.63673 272.143 
-1.36182e-05 5.49508e-06 2.68894e+25 -0.694391 6.42444 272.046 
-1.17069e-05 5.49508e-06 2.68972e+25 -1.25327 7.80935 271.926 
-9.79558e-06 5.49508e-06 2.68932e+25 -1.88919 8.36071 271.919 
-7.88425e-06 5.49508e-06 2.68969e+25 -2.46664 8.36997 271.911 
-5.97292e-06 5.49508e-06 2.6897e+25 -2.75937 7.46665 272.067 
-4.06158e-06 5.49508e-06 2.68828e+25 -3.10151 6.47176 271.978 
-2.15025e-06 5.49508e-06 2.68797e+25 -3.42014 5.42434 272.04 
-2.38917e-07 5.49508e-06 2.68603e+25 -3.93283 3.79602 272.043 
-1.55296e-05 5.97292e-06 2.68687e+25 -0.374658 3.74286 272.24 
-1.36182e-05 5.97292e-06 2.68978e+25 -0.697453 6.45448 272.002 
-1.17069e-05 5.97292e-06 2.68978e+25 -1.22636 8.03449 271.978 
-9.79558e-06 5.97292e-06 2.69024e+25 -1.90647 8.40519 271.879 
-7.88425e-06 5.97292e-06 2.69038e+25 -2.34726 8.5399 271.842 
-5.97292e-06 5.97292e-06 2.68787e+25 -2.52072 7.55435 271.995 
-4.06158e-06 5.97292e-06 2.68998e+25 -2.86433 6.47391 271.936 
-2.15025e-06 5.97292e-06 2.68883e+25 -3.15737 5.60908 271.953 
-2.38917e-07 5.97292e-06 2.68518e+25 -3.28383 3.79006 271.991 
-1.55296e-05 6.45075e-06 2.68657e+25 -0.209713 3.89178 272.227 
-1.36182e-05 6.45075e-06 2.69029e+25 -0.935832 6.57949 271.935 
-1.17069e-05 6.45075e-06 2.68995e+25 -1.35469 8.14638 271.961 
-9.79558e-06 6.45075e-06 2.69039e+25 -1.82064 8.5784 271.864 
-7.88425e-06 6.45075e-06 2.6908e+25 -2.14272 8.6538 271.867 
-5.97292e-06 6.45075e-06 2.68862e+25 -2.33848 7.70221 272.041 
-4.06158e-06 6.45075e-06 2.68785e+25 -2.58369 6.54454 272.077 
-2.15025e-06 6.45075e-06 2.69007e+25 -2.65147 5.70492 271.844 
-2.38917e-07 6.45075e-06 2.68716e+25 -2.79441 3.81996 271.871 
-1.55296e-05 6.92858e-06 2.68554e+25 -0.211638 4.06768 272.306 
-1.36182e-05 6.92858e-06 2.68891e+25 -0.961134 6.73742 272.019 
-1.17069e-05 6.92858e-06 2.68983e+25 -1.38156 8.23646 271.949 
-9.79558e-06 6.92858e-06 2.69133e+25 -1.6929 8.72849 271.745 
-7.88425e-06 6.92858e-06 2.69057e+25 -1.94104 8.69906 271.829 
-5.97292e-06 6.92858e-06 2.689e+25 -1.96339 7.79959 271.985 
-4.06158e-06 6.92858e-06 2.68826e+25 -2.12241 6.578 272.018 
-2.15025e-06 6.92858e-06 2.68948e+25 -2.1051 5.68917 271.89 
-2.38917e-07 6.92858e-06 2.68631e+25 -2.24363 3.77552 271.821 
-1.55296e-05 7.40642e-06 2.68617e+25 -0.24119 4.20548 272.315 
-1.36182e-05 7.40642e-06 2.68792e+25 -0.981998 6.98391 272.093 
-1.17069e-05 7.40642e-06 2.6905e+25 -1.43836 8.30496 271.972 
-9.79558e-06 7.40642e-06 2.69076e+25 -1.60124 8.85939 271.86 
-7.88425e-06 7.40642e-06 2.69029e+25 -1.70882 8.71258 271.874 
-5.97292e-06 7.40642e-06 2.69005e+25 -1.72127 7.74239 271.891 
-4.06158e-06 7.40642e-06 2.68785e+25 -1.75737 6.58677 272.139 
-2.15025e-06 7.40642e-06 2.68913e+25 -1.53003 5.64626 271.878 
-2.38917e-07 7.40642e-06 2.68705e+25 -1.51137 3.7496 271.854 
-1.55296e-05 7.88425e-06 2.68764e+25 -0.253186 4.40364 272.175 
-1.36182e-05 7.88425e-06 2.68815e+25 -0.951934 7.19582 272.06 
-1.17069e-05 7.88425e-06 2.68994e+25 -1.49723 8.26005 271.928 
-9.79558e-06 7.88425e-06 2.68949e+25 -1.59304 8.94658 271.919 
-7.88425e-06 7.88425e-06 2.68978e+25 -1.57693 8.58701 271.872 
-5.97292e-06 7.88425e-06 2.6898e+25 -1.42161 7.69748 271.93 
-4.06158e-06 7.88425e-06 2.68638e+25 -1.21205 6.70475 272.098 
-2.15025e-06 7.88425e-06 2.68912e+25 -0.975293 5.5688 271.87 
-2.38917e-07 7.88425e-06 2.68619e+25 -0.741694 3.80544 271.872 
-1.55296e-05 8.36208e-06 2.68696e+25 -0.353404 4.49744 272.189 
-1.36182e-05 8.36208e-06 2.68803e+25 -1.01754 7.38765 272.144 
-1.17069e-05 8.36208e-06 2.68964e+25 -1.70236 8.24365 271.91 
-9.79558e-06 8.36208e-06 2.68992e+25 -1.74746 8.91906 271.96 
-7.88425e-06 8.36208e-06 2.6893e+25 -1.52906 8.51026 271.902 
-5.97292e-06 8.36208e-06 2.68849e+25 -1.12343 7.73136 272.082 
-4.06158e-06 8.36208e-06 2.68764e+25 -0.732785 6.69875 272.11 
-2.15025e-06 8.36208e-06 2.68807e+25 -0.382168 5.44472 271.918 
-2.38917e-07 8.36208e-06 2.68628e+25 0.0859171 3.84303 271.946 
-1.55296e-05 8.83992e-06 2.68663e+25 -0.404917 4.60136 272.2 
-1.36182e-05 8.83992e-06 2.68798e+25 -1.12841 7.64211 272.054 
-1.17069e-05 8.83992e-06 2.68926e+25 -2.00838 8.26575 271.985 
-9.79558e-06 8.83992e-06 2.68881e+25 -1.95112 8.86789 272.032 
-7.88425e-06 8.83992e-06 2.68809e+25 -1.38477 8.34699 271.979 
-5.97292e-06 8.83992e-06 2.6873e+25 -0.8327 7.63744 272.105 
-4.06158e-06 8.83992e-06 2.68929e+25 -0.249709 6.56233 271.973 
-2.15025e-06 8.83992e-06 2.68873e+25 0.293172 5.30924 271.872 
-2.38917e-07 8.83992e-06 2.6859e+25 0.890634 3.74652 271.89 
-1.55296e-05 9.31775e-06 2.68534e+25 -0.479848 4.74314 272.215 
-1.36182e-05 9.31775e-06 2.68911e+25 -1.42496 7.82894 272.011 
-1.17069e-05 9.31775e-06 2.68883e+25 -2.14223 8.31727 271.908 
-9.79558e-06 9.31775e-06 2.69005e+25 -2.00764 8.73864 271.881 
-7.88425e-06 9.31775e-06 2.68947e+25 -1.30436 8.11768 271.921 
-5.97292e-06 9.31775e-06 2.68919e+25 -0.493795 7.47069 272.088 
-4.06158e-06 9.31775e-06 2.68941e+25 0.226574 6.36665 271.911 
-2.15025e-06 9.31775e-06 2.68704e+25 0.980702 5.11736 271.97 
-2.38917e-07 9.31775e-06 2.68619e+25 1.69618 3.56746 271.878 
-1.55296e-05 9.79558e-06 2.68547e+25 -0.501514 4.96813 272.181 
-1.36182e-05 9.79558e-06 2.6864e+25 -1.50897 8.05151 272.085 
-1.17069e-05 9.79558e-06 2.68945e+25 -2.17997 8.55117 271.882 
-9.79558e-06 9.79558e-06 2.68972e+25 -2.00817 8.50055 271.84 
-7.88425e-06 9.79558e-06 2.69095e+25 -1.15478 7.85014 271.903 
-5.97292e-06 9.79558e-06 2.68996e+25 -0.33239 7.20141 271.944 
-4.06158e-06 9.79558e-06 2.68992e+25 0.893074 6.16811 271.832 
-2.15025e-06 9.79558e-06 2.68733e+25 1.88795 4.91528 272.05 
-2.38917e-07 9.79558e-06 2.68385e+25 2.51247 3.39169 272.008 
-1.55296e-05 1.02734e-05 2.6859e+25 -0.684828 5.32831 272.271 
-1.36182e-05 1.02734e-05 2.68646e+25 -1.69551 8.21882 272.17 
-1.17069e-05 1.02734e-05 2.68856e+25 -2.11911 8.79863 271.918 
-9.79558e-06 1.02734e-05 2.69068e+25 -1.8835 8.30366 271.893 
-7.88425e-06 1.02734e-05 2.68705e+25 -0.968508 7.67394 272.044 
-5.97292e-06 1.02734e-05 2.68902e+25 0.187472 6.85999 271.943 
-4.06158e-06 1.02734e-05 2.69025e+25 1.57847 5.91384 271.792 
-2.15025e-06 1.02734e-05 2.6875e+25 2.8183 4.74279 271.979 
-2.38917e-07 1.02734e-05 2.68425e+25 3.64067 3.32336 271.999 
-1.55296e-05 1.07512e-05 2.68598e+25 -0.849922 5.66503 272.182 
-1.36182e-05 1.07512e-05 2.68801e+25 -1.86938 8.41629 272.066 
-1.17069e-05 1.07512e-05 2.68927e+25 -2.14345 8.90413 271.901 
-9.79558e-06 1.07512e-05 2.69153e+25 -1.71485 8.16483 271.756 
-7.88425e-06 1.07512e-05 2.68604e+25 -0.73005 7.47825 272.214 
-5.97292e-06 1.07512e-05 2.69026e+25 0.760512 6.50086 271.879 
-4.06158e-06 1.07512e-05 2.68902e+25 2.33264 5.46849 271.915 
-2.15025e-06 1.07512e-05 2.68746e+25 3.76601 4.49593 272.029 
-2.38917e-07 1.07512e-05 2.68479e+25 4.66755 3.24573 271.977 
-1.55296e-05 1.12291e-05 2.6861e+25 -0.86303 5.96166 272.144 
-1.36182e-05 1.12291e-05 2.68715e+25 -2.04503 8.60358 272.083 
-1.17069e-05 1.12291e-05 2.68928e+25 -2.18707 8.84868 271.941 
-9.79558e-06 1.12291e-05 2.69046e+25 -1.52686 7.98217 271.836 
-7.88425e-06 1.12291e-05 2.68706e+25 -0.105114 7.11588 272.193 
-5.97292e-06 1.12291e-05 2.69061e+25 1.54316 6.09625 271.871 
-4.06158e-06 1.12291e-05 2.68773e+25 3.04975 5.05765 271.982 
-2.15025e-06 1.12291e-05 2.68731e+25 4.60164 4.12183 272.045 
-2.38917e-07 1.12291e-05 2.68535e+25 5.68734 3.12477 271.987 
-1.55296e-05 1.17069e-05 2.68606e+25 -0.960631 6.4245 272.091 
-1.36182e-05 1.17069e-05 2.68627e+25 -2.22846 8.71023 272.106 
-1.17069e-05 1.17069e-05 2.69041e+25 -2.28968 8.68436 271.805 
-9.79558e-06 1.17069e-05 2.69043e+25 -1.28651 7.66569 271.847 
-7.88425e-06 1.17069e-05 2.68653e+25 0.47577 6.62793 272.221 
-5.97292e-06 1.17069e-05 2.68804e+25 2.41867 5.71475 272.014 
-4.06158e-06 1.17069e-05 2.68886e+25 3.98889 4.61394 272.056 
-2.15025e-06 1.17069e-05 2.68722e+25 5.79456 3.77952 272.067 
-2.38917e-07 1.17069e-05 2.68411e+25 6.95917 2.91993 272.055 
-1.55296e-05 1.21847e-05 2.68491e+25 -1.22044 6.90272 272.113 
-1.36182e-05 1.21847e-05 2.68639e+25 -2.57242 8.74973 272.111 
-1.17069e-05 1.21847e-05 2.68866e+25 -2.26492 8.4759 271.923 
-9.79558e-06 1.21847e-05 2.68861e+25 -0.881452 7.26187 271.984 
-7.88425e-06 1.21847e-05 2.68744e+25 1.12126 6.13555 272.197 
-5.97292e-06 1.21847e-05 2.68874e+25 3.23022 5.33616 272.039 
-4.06158e-06 1.21847e-05 2.68845e+25 5.14238 4.09752 271.983 
-2.15025e-06 1.21847e-05 2.68697e+25 7.09611 3.30575 272.138 
-2.38917e-07 1.21847e-05 2.6835e+25 8.43528 2.65197 272.155 
-1.55296e-05 1.26626e-05 2.68289e+25 -1.5777 7.39809 272.247 
-1.36182e-05 1.26626e-05 2.68727e+25 -2.85915 8.90041 272.015 
-1.17069e-05 1.26626e-05 2.68855e+25 -2.09807 8.13391 271.991 
-9.79558e-06 1.26626e-05 2.6889e+25 -0.18761 6.77482 272.025 
-7.88425e-06 1.26626e-05 2.68711e+25 2.24642 5.58181 272.255 
-5.97292e-06 1.26626e-05 2.68801e+25 4.41179 4.77296 272.094 
-4.06158e-06 1.26626e-05 2.68854e+25 6.59669 3.61362 272.064 
-2.15025e-06 1.26626e-05 2.68703e+25 8.48115 2.88914 272.129 
-2.38917e-07 1.26626e-05 2.68234e+25 10.1776 2.28862 272.269 
-1.55296e-05 1.31404e-05 2.68344e+25 -1.8957 7.95161 272.143 
-1.36182e-05 1.31404e-05 2.68735e+25 -3.17836 8.90902 271.865 
-1.17069e-05 1.31404e-05 2.68684e+25 -1.66063 7.64015 272.076 
-9.79558e-06 1.31404e-05 2.68859e+25 0.819062 6.16576 271.984 
-7.88425e-06 1.31404e-05 2.68707e+25 3.62588 5.00503 272.196 
-5.97292e-06 1.31404e-05 2.6884e+25 5.87315 4.14629 272.128 
-4.06158e-06 1.31404e-05 2.68675e+25 8.32876 3.09846 272.223 
-2.15025e-06 1.31404e-05 2.68743e+25 10.2587 2.39718 272.071 
-2.38917e-07 1.31404e-05 2.68111e+25 11.9234 1.92054 272.372 
-1.55296e-05 1.36182e-05 2.68268e+25 -2.44819 8.66146 272.094 
-1.36182e-05 1.36182e-05 2.68722e+25 -3.07949 8.79493 271.883 
-1.17069e-05 1.36182e-05 2.68595e+25 -0.845939 6.95733 272.171 
-9.79558e-06 1.36182e-05 2.68793e+25 2.33929 5.4319 272.053 
-7.88425e-06 1.36182e-05 2.68693e+25 5.28658 4.32746 272.247 
-5.97292e-06 1.36182e-05 2.68812e+25 7.79305 3.53759 272.257 
-4.06158e-06 1.36182e-05 2.68647e+25 10.2198 2.6634 272.267 
-2.15025e-06 1.36182e-05 2.68574e+25 12.2133 1.97165 272.199 
-2.38917e-07 1.36182e-05 2.68257e+25 13.7221 1.56238 272.318 
-1.55296e-05 1.40961e-05 2.68067e+25 -2.82455 9.4288 272.202 
-1.36182e-05 1.40961e-05 2.68742e+25 -2.58626 8.30561 271.862 
-1.17069e-05 1.40961e-05 2.68483e+25 0.501829 6.19008 272.306 
-9.79558e-06 1.40961e-05 2.68789e+25 4.10114 4.57592 272.17 
-7.88425e-06 1.40961e-05 2.6869e+25 7.32263 3.57486 272.256 
-5.97292e-06 1.40961e-05 2.68774e+25 10.2224 2.86876 272.265 
-4.06158e-06 1.40961e-05 2.68632e+25 12.6333 2.14551 272.327 
-2.15025e-06 1.40961e-05 2.68666e+25 14.2766 1.59619 272.263 
-2.38917e-07 1.40961e-05 2.68206e+25 15.8327 1.24622 272.315 
-1.55296e-05 1.45739e-05 2.68087e+25 -3.0534 10.006 272.052 
-1.36182e-05 1.45739e-05 2.68496e+25 -1.56365 7.5163 272.065 
-1.17069e-05 1.45739e-05 2.68497e+25 2.77185 5.18892 272.335 
-9.79558e-06 1.45739e-05 2.6875e+25 6.61676 3.71332 272.231 
-7.88425e-06 1.45739e-05 2.68736e+25 9.94694 2.77905 272.345 
-5.97292e-06 1.45739e-05 2.68738e+25 12.9178 2.17276 272.248 
-4.06158e-06 1.45739e-05 2.68629e+25 15.1611 1.6613 272.319 
-2.15025e-06 1.45739e-05 2.68588e+25 16.7158 1.23494 272.269 
-2.38917e-07 1.45739e-05 2.68231e+25 18.2044 0.881761 272.379 
-1.55296e-05 1.50518e-05 2.67678e+25 -3.10655 10.1864 272.269 
-1.36182e-05 1.50518e-05 2.68328e+25 0.567063 6.38251 272.201 
-1.17069e-05 1.50518e-05 2.68389e+25 5.87782 4.05836 272.404 
-9.79558e-06 1.50518e-05 2.68589e+25 9.9003 2.77573 272.346 
-7.88425e-06 1.50518e-05 2.68494e+25 13.2127 2.01324 272.551 
-5.97292e-06 1.50518e-05 2.68718e+25 15.9022 1.52681 272.267 
-4.06158e-06 1.50518e-05 2.68694e+25 17.9943 1.16854 272.287 
-2.15025e-06 1.50518e-05 2.68633e+25 19.5579 0.858455 272.314 
-2.38917e-07 1.50518e-05 2.68322e+25 20.8798 0.520341 272.359 
-1.55296e-05 1.55296e-05 2.67311e+25 -2.12048 9.63234 272.508 
-1.36182e-05 1.55296e-05 2.68191e+25 4.26805 4.92674 272.396 
-1.17069e-05 1.55296e-05 2.68189e+25 10.1063 2.80799 272.678 
-9.79558e-06 1.55296e-05 2.68683e+25 14.1467 1.8666 272.382 
-7.88425e-06 1.55296e-05 2.68459e+25 17.2278 1.33683 272.56 
-5.97292e-06 1.55296e-05 2.68545e+25 19.5711 1.01762 272.468 
-4.06158e-06 1.55296e-05 2.68659e+25 21.2932 0.675335 272.354 
-2.15025e-06 1.55296e-05 2.68545e+25 22.6315 0.561995 272.395 
-2.38917e-07 1.55296e-05 2.68247e+25 23.7889 0.239224 272.374 
-1.55296e-05 1.60074e-05 2.66931e+25 1.03129 7.98696 272.714 
-1.36182e-05 1.60074e-05 2.67928e+25 10.0156 3.18866 272.642 
-1.17069e-05 1.60074e-05 2.68168e+25 15.7322 1.67838 272.87 
-9.79558e-06 1.60074e-05 2.68442e+25 19.275 1.0966 272.592 
-7.88425e-06 1.60074e-05 2.6847e+25 21.7039 0.725194 272.642 
-5.97292e-06 1.60074e-05 2.68488e+25 23.6537 0.506339 272.553 
-4.06158e-06 1.60074e-05 2.68581e+25 25.0732 0.351271 272.468 
-2.15025e-06 1.60074e-05 2.68517e+25 25.9936 0.308046 272.461 
-2.38917e-07 1.60074e-05 2.6827e+25 26.71 0.0718419 272.458 
-1.55296e-05 1.64852e-05 2.66465e+25 8.62655 4.88607 273.064 
-1.36182e-05 1.64852e-05 2.67816e+25 18.2707 1.52566 272.946 
-1.17069e-05 1.64852e-05 2.6828e+25 22.5584 0.731004 272.851 
-9.79558e-06 1.64852e-05 2.68281e+25 25.2554 0.48702 272.764 
-7.88425e-06 1.64852e-05 2.68402e+25 26.8516 0.334518 272.684 
-5.97292e-06 1.64852e-05 2.68398e+25 28.0812 0.187845 272.761 
-4.06158e-06 1.64852e-05 2.68422e+25 28.8704 0.087299 272.712 
-2.15025e-06 1.64852e-05 2.68381e+25 29.5683 0.104136 272.586 
-2.38917e-07 1.64852e-05 2.68106e+25 29.9837 0.0122505 272.548 
-1.55296e-05 1.69631e-05 2.66513e+25 21.9467 1.36623 273.261 
-1.36182e-05 1.69631e-05 2.67951e+25 28.0449 0.316035 273.041 
-1.17069e-05 1.69631e-05 2.68277e+25 29.8913 0.152926 272.96 
-9.79558e-06 1.69631e-05 2.68262e+25 31.0736 0.0924889 272.935 
-7.88425e-06 1.69631e-05 2.6819e+25 31.5892 0.0603865 272.925 
-5.97292e-06 1.69631e-05 2.68159e+25 32.1051 -0.011529 273.027 
-4.06158e-06 1.69631e-05 2.68151e+25 32.3687 0.00250071 272.922 
-2.15025e-06 1.69631e-05 2.68084e+25 32.7693 0.0155142 272.865 
-2.38917e-07 1.69631e-05 2.68101e+25 32.912 -0.0292997 272.655 
1.19458e-06 -1.69631e-05 2.68378e+25 -0.118963 -0.00736503 272.887 
3.10592e-06 -1.69631e-05 2.68563e+25 -0.171138 0.0144497 272.801 
5.01725e-06 -1.69631e-05 2.68585e+25 -0.123987 -0.0130244 272.829 
6.92858e-06 -1.69631e-05 2.68449e+25 -0.109641 0.0293098 272.843 
8.83992e-06 -1.69631e-05 2.68604e+25 -0.12382 -0.0466998 272.795 
1.07512e-05 -1.69631e-05 2.68476e+25 -0.0111128 -0.0705923 272.808 
1.26626e-05 -1.69631e-05 2.68553e+25 0.0107926 -0.0258618 272.828 
1.45739e-05 -1.69631e-05 2.68408e+25 -0.0311791 0.00480808 272.87 
1.64852e-05 -1.69631e-05 2.68296e+25 -0.0633302 -0.012457 272.918 
1.19458e-06 -1.64852e-05 2.68722e+25 -0.391405 -0.00162843 272.603 
3.10592e-06 -1.64852e-05 2.68724e+25 -0.496156 -0.0191842 272.625 
5.01725e-06 -1.64852e-05 2.68609e+25 -0.275347 -0.00690703 272.655 
6.92858e-06 -1.64852e-05 2.68612e+25 -0.315089 0.0690343 272.678 
8.83992e-06 -1.64852e-05 2.68756e+25 -0.177624 -0.0857811 272.585 
1.07512e-05 -1.64852e-05 2.68902e+25 -0.0663916 -0.144842 272.417 
1.26626e-05 -1.64852e-05 2.68636e+25 -0.012438 0.00464745 272.614 
1.45739e-05 -1.64852e-05 2.68742e+25 -0.0956709 0.0597236 272.623 
1.64852e-05 -1.64852e-05 2.68472e+25 -0.0127218 -0.0542275 272.723 
1.19458e-06 -1.60074e-05 2.69032e+25 -0.814484 -0.0597324 272.161 
3.10592e-06 -1.60074e-05 2.68933e+25 -0.750503 0.00520024 272.313 
5.01725e-06 -1.60074e-05 2.68872e+25 -0.554297 -0.0229034 272.388 
6.92858e-06 -1.60074e-05 2.68855e+25 -0.531963 0.0242056 272.616 
8.83992e-06 -1.60074e-05 2.68676e+25 -0.361114 -0.126611 272.566 
1.07512e-05 -1.60074e-05 2.69225e+25 -0.262891 -0.155904 272.116 
1.26626e-05 -1.60074e-05 2.68821e+25 -0.215729 0.0171786 272.425 
1.45739e-05 -1.60074e-05 2.68829e+25 -0.0336279 0.0182851 272.396 
1.64852e-05 -1.60074e-05 2.68728e+25 0.0329434 -0.0346299 272.591 
1.19458e-06 -1.55296e-05 2.692e+25 -1.08055 -0.114584 272.116 
3.10592e-06 -1.55296e-05 2.69012e+25 -0.842291 0.0231582 272.274 
5.01725e-06 -1.55296e-05 2.68932e+25 -0.783606 -0.0703289 272.323 
6.92858e-06 -1.55296e-05 2.68854e+25 -0.704931 0.0355033 272.466 
8.83992e-06 -1.55296e-05 2.68784e+25 -0.508193 -0.183479 272.407 
1.07512e-05 -1.55296e-05 2.69092e+25 -0.237549 -0.13641 272.263 
1.26626e-05 -1.55296e-05 2.68924e+25 -0.291792 -0.0446816 272.314 
1.45739e-05 -1.55296e-05 2.68984e+25 -0.224905 -0.0442857 272.325 
1.64852e-05 -1.55296e-05 2.68789e+25 0.0758242 0.0128059 272.508 
1.19458e-06 -1.50517e-05 2.69213e+25 -1.37005 -0.113167 272.003 
3.10592e-06 -1.50517e-05 2.69122e+25 -0.95733 -0.061784 272.127 
5.01725e-06 -1.50517e-05 2.68975e+25 -0.941096 -0.0927719 272.241 
6.92858e-06 -1.50517e-05 2.69114e+25 -0.796783 0.00350214 272.209 
8.83992e-06 -1.50517e-05 2.68944e+25 -0.611696 -0.33229 272.292 
1.07512e-05 -1.50517e-05 2.68875e+25 -0.316118 -0.0758878 272.354 
1.26626e-05 -1.50517e-05 2.69095e+25 -0.340897 -0.116783 272.204 
1.45739e-05 -1.50517e-05 2.6887e+25 -0.224923 -0.00614489 272.328 
1.64852e-05 -1.50517e-05 2.68722e+25 0.00954268 -0.0498898 272.486 
1.19458e-06 -1.45739e-05 2.69436e+25 -1.5774 -0.121342 271.869 
3.10592e-06 -1.45739e-05 2.69127e+25 -1.29327 -0.215215 272.088 
5.01725e-06 -1.45739e-05 2.69073e+25 -1.06819 -0.152359 272.182 
6.92858e-06 -1.45739e-05 2.69135e+25 -1.03831 -0.0802586 272.224 
8.83992e-06 -1.45739e-05 2.68955e+25 -0.75714 -0.356626 272.291 
1.07512e-05 -1.45739e-05 2.68991e+25 -0.466519 -0.0881557 272.314 
1.26626e-05 -1.45739e-05 2.69062e+25 -0.205287 -0.181371 272.181 
1.45739e-05 -1.45739e-05 2.6902e+25 -0.132469 -0.0569934 272.313 
1.64852e-05 -1.45739e-05 2.68797e+25 -0.0382869 -0.108326 272.414 
1.19458e-06 -1.40961e-05 2.69591e+25 -1.6883 -0.217996 271.766 
3.10592e-06 -1.40961e-05 2.69323e+25 -1.53056 -0.283567 271.895 
5.01725e-06 -1.40961e-05 2.69285e+25 -1.36046 -0.138715 272.045 
6.92858e-06 -1.40961e-05 2.69083e+25 -1.35016 -0.146929 272.237 
8.83992e-06 -1.40961e-05 2.68935e+25 -0.9807 -0.387268 272.274 
1.07512e-05 -1.40961e-05 2.69048e+25 -0.546569 -0.177712 272.214 
1.26626e-05 -1.40961e-05 2.69079e+25 -0.217842 -0.161094 272.144 
1.45739e-05 -1.40961e-05 2.69063e+25 -0.0570213 -0.0555652 272.214 
1.64852e-05 -1.40961e-05 2.68848e+25 -0.0699057 -0.115206 272.484 
1.19458e-06 -1.36182e-05 2.69552e+25 -1.96205 -0.274104 271.704 
3.10592e-06 -1.36182e-05 2.69403e+25 -1.73191 -0.299059 271.875 
5.01725e-06 -1.36182e-05 2.69073e+25 -1.57178 -0.0753175 272.182 
6.92858e-06 -1.36182e-05 2.6918e+25 -1.55076 -0.230703 272.128 
8.83992e-06 -1.36182e-05 2.68982e+25 -1.06494 -0.423443 272.247 
1.07512e-05 -1.36182e-05 2.69e+25 -0.705658 -0.334026 272.273 
1.26626e-05 -1.36182e-05 2.69175e+25 -0.37313 -0.178162 272.089 
1.45739e-05 -1.36182e-05 2.69091e+25 0.0314359 -0.0903094 272.217 
1.64852e-05 -1.36182e-05 2.68735e+25 -0.0711009 -0.0524458 272.477 
1.19458e-06 -1.31404e-05 2.69281e+25 -2.11244 -0.262102 271.937 
3.10592e-06 -1.31404e-05 2.6933e+25 -1.90844 -0.403241 271.868 
5.01725e-06 -1.31404e-05 2.69192e+25 -1.76985 -0.0702077 272.126 
6.92858e-06 -1.31404e-05 2.6912e+25 -1.62489 -0.240453 272.11 
8.83992e-06 -1.31404e-05 2.69069e+25 -1.07047 -0.467893 272.172 
1.07512e-05 -1.31404e-05 2.6906e+25 -0.892189 -0.426167 272.221 
1.26626e-05 -1.31404e-05 2.69142e+25 -0.528779 -0.330382 272.116 
1.45739e-05 -1.31404e-05 2.68979e+25 -0.064064 -0.114641 272.267 
1.64852e-05 -1.31404e-05 2.68687e+25 -0.058939 -0.0469145 272.558 
1.19458e-06 -1.26626e-05 2.69364e+25 -2.37414 -0.244759 271.918 
3.10592e-06 -1.26626e-05 2.69263e+25 -2.11573 -0.424173 271.886 
5.01725e-06 -1.26626e-05 2.69213e+25 -1.88591 -0.17496 272.093 
6.92858e-06 -1.26626e-05 2.69127e+25 -1.57937 -0.336869 272.148 
8.83992e-06 -1.26626e-05 2.69154e+25 -1.15756 -0.607318 272.161 
1.07512e-05 -1.26626e-05 2.69226e+25 -0.908841 -0.455767 272.109 
1.26626e-05 -1.26626e-05 2.69082e+25 -0.513796 -0.455128 272.185 
1.45739e-05 -1.26626e-05 2.68892e+25 -0.138286 -0.240763 272.333 
1.64852e-05 -1.26626e-05 2.686e+25 -0.0118444 -0.110466 272.592 
1.19458e-06 -1.21847e-05 2.69211e+25 -2.53954 -0.235566 271.973 
3.10592e-06 -1.21847e-05 2.69347e+25 -2.34346 -0.47443 271.851 
5.01725e-06 -1.21847e-05 2.69158e+25 -2.05352 -0.274574 272.036 
6.92858e-06 -1.21847e-05 2.69226e+25 -1.5322 -0.503725 272.025 
8.83992e-06 -1.21847e-05 2.69152e+25 -1.21913 -0.753351 272.064 
1.07512e-05 -1.21847e-05 2.69124e+25 -0.835521 -0.519619 272.147 
1.26626e-05 -1.21847e-05 2.69123e+25 -0.554113 -0.578695 272.131 
1.45739e-05 -1.21847e-05 2.68961e+25 -0.209856 -0.256172 272.287 
1.64852e-05 -1.21847e-05 2.68745e+25 0.0823933 -0.159896 272.431 
1.19458e-06 -1.17069e-05 2.69283e+25 -2.80784 -0.335267 271.948 
3.10592e-06 -1.17069e-05 2.69329e+25 -2.72686 -0.522632 271.935 
5.01725e-06 -1.17069e-05 2.69233e+25 -2.04942 -0.419498 272.074 
6.92858e-06 -1.17069e-05 2.69277e+25 -1.63891 -0.600056 271.998 
8.83992e-06 -1.17069e-05 2.69253e+25 -1.34263 -0.860045 272.03 
1.07512e-05 -1.17069e-05 2.69176e+25 -1.00768 -0.649688 272.106 
1.26626e-05 -1.17069e-05 2.69191e+25 -0.525152 -0.726586 272.125 
1.45739e-05 -1.17069e-05 2.69166e+25 -0.182187 -0.245463 272.138 
1.64852e-05 -1.17069e-05 2.68891e+25 0.0518544 -0.196893 272.396 
1.19458e-06 -1.12291e-05 2.69269e+25 -3.17713 -0.304875 271.989 
3.10592e-06 -1.12291e-05 2.69163e+25 -2.94097 -0.66765 272.032 
5.01725e-06 -1.12291e-05 2.69216e+25 -2.52138 -0.581387 272.012 
6.92858e-06 -1.12291e-05 2.69304e+25 -1.79714 -0.616955 271.96 
8.83992e-06 -1.12291e-05 2.694e+25 -1.49296 -0.923682 271.927 
1.07512e-05 -1.12291e-05 2.69291e+25 -1.08675 -0.789505 271.938 
1.26626e-05 -1.12291e-05 2.69324e+25 -0.562665 -0.877778 271.916 
1.45739e-05 -1.12291e-05 2.69225e+25 -0.18882 -0.323055 272.019 
1.64852e-05 -1.12291e-05 2.68905e+25 -0.0479954 -0.195279 272.337 
1.19458e-06 -1.07512e-05 2.69333e+25 -3.4241 -0.283178 271.904 
3.10592e-06 -1.07512e-05 2.69165e+25 -3.04889 -0.775476 272.061 
5.01725e-06 -1.07512e-05 2.69196e+25 -2.80701 -0.762869 272.118 
6.92858e-06 -1.07512e-05 2.69202e+25 -2.04737 -0.731716 271.989 
8.83992e-06 -1.07512e-05 2.69317e+25 -1.78173 -1.02229 271.988 
1.07512e-05 -1.07512e-05 2.69238e+25 -1.26821 -0.919769 271.857 
1.26626e-05 -1.07512e-05 2.69266e+25 -0.587169 -0.967003 271.968 
1.45739e-05 -1.07512e-05 2.69203e+25 -0.0968815 -0.411695 272.058 
1.64852e-05 -1.07512e-05 2.68861e+25 -0.0255306 -0.202981 272.431 
1.19458e-06 -1.02734e-05 2.69195e+25 -3.60565 -0.286407 271.914 
3.10592e-06 -1.02734e-05 2.69246e+25 -3.35825 -0.84349 272.045 
5.01725e-06 -1.02734e-05 2.69158e+25 -3.08312 -0.900452 272.088 
6.92858e-06 -1.02734e-05 2.69225e+25 -2.19602 -0.898315 272.086 
8.83992e-06 -1.02734e-05 2.6913e+25 -1.85031 -1.08572 272.04 
1.07512e-05 -1.02734e-05 2.69421e+25 -1.37041 -1.02546 271.868 
1.26626e-05 -1.02734e-05 2.6925e+25 -0.463523 -1.08565 271.938 
1.45739e-05 -1.02734e-05 2.69135e+25 -0.262868 -0.600678 272.089 
1.64852e-05 -1.02734e-05 2.68826e+25 0.0290216 -0.263898 272.495 
1.19458e-06 -9.79558e-06 2.69296e+25 -3.84513 -0.289621 271.959 
3.10592e-06 -9.79558e-06 2.69252e+25 -3.86604 -0.922705 272.013 
5.01725e-06 -9.79558e-06 2.69234e+25 -3.26666 -1.07104 272.105 
6.92858e-06 -9.79558e-06 2.69197e+25 -2.46986 -1.12892 272.066 
8.83992e-06 -9.79558e-06 2.69163e+25 -1.83011 -1.15866 271.998 
1.07512e-05 -9.79558e-06 2.69423e+25 -1.27974 -1.22905 271.897 
1.26626e-05 -9.79558e-06 2.69416e+25 -0.45423 -1.18436 271.835 
1.45739e-05 -9.79558e-06 2.69261e+25 -0.257545 -0.71018 271.936 
1.64852e-05 -9.79558e-06 2.68712e+25 -0.0391532 -0.275254 272.493 
1.19458e-06 -9.31775e-06 2.69182e+25 -4.1347 -0.259324 272.027 
3.10592e-06 -9.31775e-06 2.69203e+25 -4.33909 -0.980195 271.981 
5.01725e-06 -9.31775e-06 2.69147e+25 -3.49224 -1.30341 272.022 
6.92858e-06 -9.31775e-06 2.69247e+25 -2.73299 -1.34345 272.055 
8.83992e-06 -9.31775e-06 2.69246e+25 -2.06809 -1.36578 271.979 
1.07512e-05 -9.31775e-06 2.694e+25 -1.30207 -1.44015 271.882 
1.26626e-05 -9.31775e-06 2.69213e+25 -0.585238 -1.36355 272.041 
1.45739e-05 -9.31775e-06 2.69306e+25 -0.115093 -0.708577 271.926 
1.64852e-05 -9.31775e-06 2.68723e+25 -0.00994561 -0.268454 272.514 
1.19458e-06 -8.83992e-06 2.69069e+25 -4.47926 -0.245648 272.122 
3.10592e-06 -8.83992e-06 2.69127e+25 -4.44048 -1.08104 272.001 
5.01725e-06 -8.83992e-06 2.69186e+25 -3.80671 -1.41657 272.071 
6.92858e-06 -8.83992e-06 2.69253e+25 -3.06975 -1.52533 272.079 
8.83992e-06 -8.83992e-06 2.69442e+25 -2.22032 -1.58666 271.854 
1.07512e-05 -8.83992e-06 2.69268e+25 -1.40358 -1.62156 271.988 
1.26626e-05 -8.83992e-06 2.69184e+25 -0.661633 -1.50896 271.99 
1.45739e-05 -8.83992e-06 2.69184e+25 0.00999197 -0.824468 272.053 
1.64852e-05 -8.83992e-06 2.68714e+25 0.130296 -0.266748 272.51 
1.19458e-06 -8.36208e-06 2.69095e+25 -4.9133 -0.217253 272.096 
3.10592e-06 -8.36208e-06 2.69078e+25 -4.60356 -1.25787 272.09 
5.01725e-06 -8.36208e-06 2.69037e+25 -4.22231 -1.50354 272.211 
6.92858e-06 -8.36208e-06 2.69105e+25 -3.36701 -1.78749 272.119 
8.83992e-06 -8.36208e-06 2.69301e+25 -2.46428 -1.79898 271.887 
1.07512e-05 -8.36208e-06 2.69203e+25 -1.5308 -1.84897 272.016 
1.26626e-05 -8.36208e-06 2.69351e+25 -0.757761 -1.67777 271.926 
1.45739e-05 -8.36208e-06 2.69198e+25 -0.0461194 -0.945909 272.14 
1.64852e-05 -8.36208e-06 2.68754e+25 0.00240623 -0.238409 272.511 
1.19458e-06 -7.88425e-06 2.69207e+25 -5.19539 -0.268677 272.031 
3.10592e-06 -7.88425e-06 2.69162e+25 -4.76463 -1.35417 272.01 
5.01725e-06 -7.88425e-06 2.69194e+25 -4.50798 -1.6932 272.078 
6.92858e-06 -7.88425e-06 2.69174e+25 -3.85741 -2.02491 272.173 
8.83992e-06 -7.88425e-06 2.69298e+25 -2.72679 -2.05769 271.879 
1.07512e-05 -7.88425e-06 2.69227e+25 -1.62992 -2.07832 272.064 
1.26626e-05 -7.88425e-06 2.6914e+25 -0.948666 -1.84154 272.055 
1.45739e-05 -7.88425e-06 2.69047e+25 -0.179804 -1.06673 272.21 
1.64852e-05 -7.88425e-06 2.68658e+25 -0.0362411 -0.132744 272.558 
1.19458e-06 -7.40642e-06 2.69248e+25 -5.4327 -0.284524 271.969 
3.10592e-06 -7.40642e-06 2.69165e+25 -5.07101 -1.47254 272.07 
5.01725e-06 -7.40642e-06 2.69077e+25 -4.6885 -1.816 272.202 
6.92858e-06 -7.40642e-06 2.69128e+25 -4.06348 -2.23417 272.245 
8.83992e-06 -7.40642e-06 2.6931e+25 -3.02934 -2.23828 271.927 
1.07512e-05 -7.40642e-06 2.69276e+25 -1.90993 -2.34733 271.95 
1.26626e-05 -7.40642e-06 2.69354e+25 -0.95191 -1.95833 272.046 
1.45739e-05 -7.40642e-06 2.69011e+25 -0.353489 -1.2042 272.188 
1.64852e-05 -7.40642e-06 2.68562e+25 -0.00631796 -0.133924 272.635 
1.19458e-06 -6.92858e-06 2.69276e+25 -5.75966 -0.414054 271.977 
3.10592e-06 -6.92858e-06 2.69011e+25 -5.57731 -1.49958 272.174 
5.01725e-06 -6.92858e-06 2.69166e+25 -5.01369 -1.98907 272.143 
6.92858e-06 -6.92858e-06 2.69133e+25 -4.21772 -2.39775 272.106 
8.83992e-06 -6.92858e-06 2.69223e+25 -3.34013 -2.49117 272.013 
1.07512e-05 -6.92858e-06 2.69222e+25 -2.13006 -2.65172 272.028 
1.26626e-05 -6.92858e-06 2.69334e+25 -0.972564 -2.11149 271.924 
1.45739e-05 -6.92858e-06 2.69118e+25 -0.364158 -1.36692 272.157 
1.64852e-05 -6.92858e-06 2.68673e+25 0.0211758 -0.208759 272.546 
1.19458e-06 -6.45075e-06 2.69075e+25 -6.01738 -0.386904 272.053 
3.10592e-06 -6.45075e-06 2.69074e+25 -5.79226 -1.51327 272.108 
5.01725e-06 -6.45075e-06 2.69091e+25 -5.36333 -2.16221 272.093 
6.92858e-06 -6.45075e-06 2.69139e+25 -4.55284 -2.58868 272.079 
8.83992e-06 -6.45075e-06 2.69127e+25 -3.52165 -2.8446 272.094 
1.07512e-05 -6.45075e-06 2.69361e+25 -2.29015 -2.943 271.928 
1.26626e-05 -6.45075e-06 2.69141e+25 -1.25474 -2.29756 272.003 
1.45739e-05 -6.45075e-06 2.69066e+25 -0.538258 -1.54478 272.173 
1.64852e-05 -6.45075e-06 2.68551e+25 -0.0561689 -0.267255 272.644 
1.19458e-06 -5.97292e-06 2.69128e+25 -6.11643 -0.387158 272.133 
3.10592e-06 -5.97292e-06 2.69259e+25 -6.04731 -1.57077 271.956 
5.01725e-06 -5.97292e-06 2.69023e+25 -5.67398 -2.34537 272.188 
6.92858e-06 -5.97292e-06 2.69127e+25 -4.92456 -2.84693 272.125 
8.83992e-06 -5.97292e-06 2.691e+25 -3.79421 -3.1971 272.151 
1.07512e-05 -5.97292e-06 2.691e+25 -2.5339 -3.2629 272.142 
1.26626e-05 -5.97292e-06 2.69145e+25 -1.49047 -2.50717 272.134 
1.45739e-05 -5.97292e-06 2.6907e+25 -0.765661 -1.58553 272.192 
1.64852e-05 -5.97292e-06 2.68602e+25 -0.113008 -0.324671 272.647 
1.19458e-06 -5.49508e-06 2.68938e+25 -6.21747 -0.451359 272.171 
3.10592e-06 -5.49508e-06 2.69277e+25 -6.25758 -1.56253 272.005 
5.01725e-06 -5.49508e-06 2.69089e+25 -6.00605 -2.54501 272.183 
6.92858e-06 -5.49508e-06 2.69117e+25 -5.13645 -3.10356 272.113 
8.83992e-06 -5.49508e-06 2.68957e+25 -4.00065 -3.51502 272.183 
1.07512e-05 -5.49508e-06 2.69125e+25 -2.67353 -3.55912 272.178 
1.26626e-05 -5.49508e-06 2.69047e+25 -1.58004 -2.82224 272.224 
1.45739e-05 -5.49508e-06 2.69122e+25 -0.742885 -1.66167 272.134 
1.64852e-05 -5.49508e-06 2.68672e+25 -0.120969 -0.436761 272.564 
1.19458e-06 -5.01725e-06 2.6889e+25 -6.48616 -0.436879 272.165 
3.10592e-06 -5.01725e-06 2.69102e+25 -6.50598 -1.58136 272.01 
5.01725e-06 -5.01725e-06 2.69088e+25 -6.14567 -2.68259 272.169 
6.92858e-06 -5.01725e-06 2.69038e+25 -5.36579 -3.38037 272.235 
8.83992e-06 -5.01725e-06 2.69049e+25 -4.20281 -3.77256 272.223 
1.07512e-05 -5.01725e-06 2.69106e+25 -2.8871 -3.89621 272.123 
1.26626e-05 -5.01725e-06 2.69195e+25 -1.5596 -3.14647 272.091 
1.45739e-05 -5.01725e-06 2.69082e+25 -0.521515 -1.83003 272.149 
1.64852e-05 -5.01725e-06 2.68885e+25 -0.0894745 -0.538529 272.421 
1.19458e-06 -4.53942e-06 2.69056e+25 -6.60936 -0.421749 272.095 
3.10592e-06 -4.53942e-06 2.69079e+25 -6.75241 -1.64915 272.097 
5.01725e-06 -4.53942e-06 2.69229e+25 -6.46383 -2.79274 272.069 
6.92858e-06 -4.53942e-06 2.68955e+25 -5.69009 -3.58932 272.279 
8.83992e-06 -4.53942e-06 2.69113e+25 -4.58776 -4.11446 272.169 
1.07512e-05 -4.53942e-06 2.69045e+25 -3.05116 -4.27302 272.227 
1.26626e-05 -4.53942e-06 2.69158e+25 -1.62325 -3.48354 272.101 
1.45739e-05 -4.53942e-06 2.69081e+25 -0.508193 -2.01941 272.107 
1.64852e-05 -4.53942e-06 2.68772e+25 -0.0244321 -0.591998 272.398 
1.19458e-06 -4.06158e-06 2.6891e+25 -6.82098 -0.3741 272.25 
3.10592e-06 -4.06158e-06 2.69088e+25 -7.23612 -1.63146 272.12 
5.01725e-06 -4.06158e-06 2.69164e+25 -6.81569 -2.88578 272.103 
6.92858e-06 -4.06158e-06 2.69052e+25 -6.09106 -3.81147 272.182 
8.83992e-06 -4.06158e-06 2.69036e+25 -4.79316 -4.44004 272.171 
1.07512e-05 -4.06158e-06 2.68978e+25 -3.21108 -4.62572 272.18 
1.26626e-05 -4.06158e-06 2.68925e+25 -1.74029 -3.84784 272.235 
1.45739e-05 -4.06158e-06 2.69071e+25 -0.556052 -2.28265 272.087 
1.64852e-05 -4.06158e-06 2.68951e+25 -0.0279464 -0.60162 272.359 
1.19458e-06 -3.58375e-06 2.68926e+25 -7.1191 -0.227587 272.296 
3.10592e-06 -3.58375e-06 2.68909e+25 -7.6525 -1.61871 272.119 
5.01725e-06 -3.58375e-06 2.69139e+25 -7.18874 -3.03406 272.086 
6.92858e-06 -3.58375e-06 2.68983e+25 -6.36022 -4.02527 272.191 
8.83992e-06 -3.58375e-06 2.69151e+25 -5.05905 -4.85401 272.1 
1.07512e-05 -3.58375e-06 2.68956e+25 -3.25119 -4.96083 272.192 
1.26626e-05 -3.58375e-06 2.68967e+25 -1.75075 -4.12304 272.267 
1.45739e-05 -3.58375e-06 2.68962e+25 -0.641236 -2.62826 272.202 
1.64852e-05 -3.58375e-06 2.68947e+25 -0.0604092 -0.668521 272.35 
1.19458e-06 -3.10592e-06 2.68866e+25 -7.43505 -0.0469462 272.303 
3.10592e-06 -3.10592e-06 2.6911e+25 -7.86505 -1.57214 272.077 
5.01725e-06 -3.10592e-06 2.69037e+25 -7.51347 -3.17169 272.094 
6.92858e-06 -3.10592e-06 2.68848e+25 -6.74873 -4.32806 272.305 
8.83992e-06 -3.10592e-06 2.69058e+25 -5.16366 -5.27432 272.074 
1.07512e-05 -3.10592e-06 2.69053e+25 -3.49057 -5.38065 272.223 
1.26626e-05 -3.10592e-06 2.6895e+25 -1.90385 -4.47449 272.236 
1.45739e-05 -3.10592e-06 2.69095e+25 -0.628415 -2.88462 272.131 
1.64852e-05 -3.10592e-06 2.68852e+25 -0.0840636 -0.730888 272.265 
1.19458e-06 -2.62808e-06 2.68908e+25 -7.58537 0.0355713 272.219 
3.10592e-06 -2.62808e-06 2.68972e+25 -7.88753 -1.58798 272.161 
5.01725e-06 -2.62808e-06 2.68988e+25 -7.60306 -3.29901 272.178 
6.92858e-06 -2.62808e-06 2.68861e+25 -7.00894 -4.61476 272.298 
8.83992e-06 -2.62808e-06 2.69116e+25 -5.49071 -5.72494 272.117 
1.07512e-05 -2.62808e-06 2.6903e+25 -3.8698 -5.82765 272.093 
1.26626e-05 -2.62808e-06 2.69037e+25 -2.12973 -4.82389 272.172 
1.45739e-05 -2.62808e-06 2.68982e+25 -0.725878 -3.17142 272.165 
1.64852e-05 -2.62808e-06 2.68663e+25 -0.0506986 -0.734795 272.462 
1.19458e-06 -2.15025e-06 2.69197e+25 -7.72328 0.15408 271.915 
3.10592e-06 -2.15025e-06 2.68834e+25 -7.84789 -1.57979 272.277 
5.01725e-06 -2.15025e-06 2.6895e+25 -7.73857 -3.50005 272.214 
6.92858e-06 -2.15025e-06 2.68897e+25 -7.11688 -4.82818 272.244 
8.83992e-06 -2.15025e-06 2.68969e+25 -5.7189 -6.14497 272.162 
1.07512e-05 -2.15025e-06 2.68975e+25 -4.01841 -6.22011 272.211 
1.26626e-05 -2.15025e-06 2.69036e+25 -2.20594 -5.19622 272.197 
1.45739e-05 -2.15025e-06 2.69174e+25 -0.704399 -3.45766 272.144 
1.64852e-05 -2.15025e-06 2.68677e+25 -0.102931 -0.843867 272.488 
1.19458e-06 -1.67242e-06 2.69155e+25 -7.8097 0.303679 271.912 
3.10592e-06 -1.67242e-06 2.68864e+25 -7.92326 -1.59181 272.293 
5.01725e-06 -1.67242e-06 2.68941e+25 -7.84191 -3.60329 272.16 
6.92858e-06 -1.67242e-06 2.68787e+25 -7.16653 -5.02758 272.371 
8.83992e-06 -1.67242e-06 2.69007e+25 -5.94316 -6.57099 272.263 
1.07512e-05 -1.67242e-06 2.68954e+25 -4.25593 -6.63963 272.317 
1.26626e-05 -1.67242e-06 2.6915e+25 -2.45131 -5.70961 272.124 
1.45739e-05 -1.67242e-06 2.68945e+25 -0.817341 -3.74308 272.159 
1.64852e-05 -1.67242e-06 2.6874e+25 -0.0480225 -0.870002 272.55 
1.19458e-06 -1.19458e-06 2.69021e+25 -7.75691 0.439134 272.054 
3.10592e-06 -1.19458e-06 2.68801e+25 -7.81384 -1.59016 272.255 
5.01725e-06 -1.19458e-06 2.68903e+25 -7.7957 -3.652 272.194 
6.92858e-06 -1.19458e-06 2.68731e+25 -7.304 -5.32658 272.401 
8.83992e-06 -1.19458e-06 2.69125e+25 -6.02317 -6.92515 272.103 
1.07512e-05 -1.19458e-06 2.68978e+25 -4.42157 -7.14413 272.26 
1.26626e-05 -1.19458e-06 2.69142e+25 -2.70612 -6.22575 272.156 
1.45739e-05 -1.19458e-06 2.69071e+25 -0.949867 -4.01577 272.119 
1.64852e-05 -1.19458e-06 2.68639e+25 -0.0836842 -0.982769 272.511 
1.19458e-06 -7.1675e-07 2.68927e+25 -7.82811 0.456938 272.098 
3.10592e-06 -7.1675e-07 2.68728e+25 -7.97063 -1.60768 272.363 
5.01725e-06 -7.1675e-07 2.68877e+25 -7.79532 -3.698 272.284 
6.92858e-06 -7.1675e-07 2.68929e+25 -7.48936 -5.59917 272.23 
8.83992e-06 -7.1675e-07 2.69101e+25 -6.3741 -7.21098 272.089 
1.07512e-05 -7.1675e-07 2.689e+25 -4.66995 -7.51729 272.29 
1.26626e-05 -7.1675e-07 2.69037e+25 -2.82061 -6.74666 272.119 
1.45739e-05 -7.1675e-07 2.69031e+25 -1.14074 -4.31483 272.2 
1.64852e-05 -7.1675e-07 2.68811e+25 -0.0639995 -1.14477 272.416 
1.19458e-06 -2.38917e-07 2.68792e+25 -7.82913 0.498544 272.021 
3.10592e-06 -2.38917e-07 2.68668e+25 -8.01576 -1.60348 272.184 
5.01725e-06 -2.38917e-07 2.68545e+25 -7.87592 -3.63805 272.298 
6.92858e-06 -2.38917e-07 2.68842e+25 -7.62025 -5.75043 272.074 
8.83992e-06 -2.38917e-07 2.68896e+25 -6.55898 -7.55997 272.084 
1.07512e-05 -2.38917e-07 2.68766e+25 -4.91848 -8.0129 272.259 
1.26626e-05 -2.38917e-07 2.68826e+25 -2.9653 -7.28541 272.086 
1.45739e-05 -2.38917e-07 2.68811e+25 -1.28389 -4.64929 272.231 
1.64852e-05 -2.38917e-07 2.68489e+25 -0.101485 -1.29112 272.477 
2.38917e-07 -1.69631e-05 2.68333e+25 -0.0982269 0.0247848 272.797 
2.15025e-06 -1.69631e-05 2.68523e+25 -0.171439 -0.00981945 272.835 
4.06158e-06 -1.69631e-05 2.68431e+25 -0.16129 0.0242491 272.814 
5.97292e-06 -1.69631e-05 2.68402e+25 -0.142875 -0.0415945 272.935 
7.88425e-06 -1.69631e-05 2.68458e+25 -0.146761 -0.0503136 272.849 
9.79558e-06 -1.69631e-05 2.68541e+25 -0.0594635 -0.0151825 272.771 
1.17069e-05 -1.69631e-05 2.68597e+25 0.068574 -0.00404805 272.755 
1.36182e-05 -1.69631e-05 2.68462e+25 0.0195662 -0.00113955 272.837 
1.55296e-05 -1.69631e-05 2.68617e+25 -0.045317 0.0151787 272.755 
2.38917e-07 -1.64852e-05 2.68466e+25 -0.535306 0.0388206 272.479 
2.15025e-06 -1.64852e-05 2.6872e+25 -0.371739 -0.0100141 272.628 
4.06158e-06 -1.64852e-05 2.68733e+25 -0.388052 -0.00265854 272.606 
5.97292e-06 -1.64852e-05 2.68631e+25 -0.339064 -0.0505587 272.652 
7.88425e-06 -1.64852e-05 2.68731e+25 -0.175204 -0.0866945 272.648 
9.79558e-06 -1.64852e-05 2.68823e+25 -0.182951 0.0135092 272.497 
1.17069e-05 -1.64852e-05 2.68866e+25 -0.0577512 0.0147823 272.374 
1.36182e-05 -1.64852e-05 2.68684e+25 -0.0863881 0.0339704 272.562 
1.55296e-05 -1.64852e-05 2.68825e+25 -0.0407794 -0.0037555 272.44 
2.38917e-07 -1.60074e-05 2.68781e+25 -0.84531 0.0780365 272.282 
2.15025e-06 -1.60074e-05 2.69097e+25 -0.741636 0.0436521 272.169 
4.06158e-06 -1.60074e-05 2.68857e+25 -0.683238 -0.11064 272.443 
5.97292e-06 -1.60074e-05 2.68639e+25 -0.519704 -0.0382279 272.603 
7.88425e-06 -1.60074e-05 2.68739e+25 -0.539754 -0.109576 272.524 
9.79558e-06 -1.60074e-05 2.68946e+25 -0.23609 0.0627219 272.319 
1.17069e-05 -1.60074e-05 2.69008e+25 -0.270196 0.0163611 272.256 
1.36182e-05 -1.60074e-05 2.68802e+25 -0.15141 0.0132876 272.499 
1.55296e-05 -1.60074e-05 2.68921e+25 -0.0119251 -0.0726644 272.297 
2.38917e-07 -1.55296e-05 2.68872e+25 -1.08587 0.0798131 272.143 
2.15025e-06 -1.55296e-05 2.692e+25 -1.00442 0.0220643 272.018 
4.06158e-06 -1.55296e-05 2.68984e+25 -0.786345 -0.207618 272.25 
5.97292e-06 -1.55296e-05 2.68971e+25 -0.641931 -0.00350253 272.386 
7.88425e-06 -1.55296e-05 2.68666e+25 -0.674004 -0.119894 272.594 
9.79558e-06 -1.55296e-05 2.68956e+25 -0.300392 0.00113621 272.352 
1.17069e-05 -1.55296e-05 2.69195e+25 -0.32727 0.0308322 272.144 
1.36182e-05 -1.55296e-05 2.68963e+25 -0.221289 0.00889994 272.301 
1.55296e-05 -1.55296e-05 2.68929e+25 -0.108653 -0.124289 272.276 
2.38917e-07 -1.50517e-05 2.6892e+25 -1.32355 0.0347726 272.062 
2.15025e-06 -1.50517e-05 2.69249e+25 -1.26252 -0.0454265 271.943 
4.06158e-06 -1.50517e-05 2.69207e+25 -0.939938 -0.217018 272.115 
5.97292e-06 -1.50517e-05 2.69053e+25 -0.863311 0.0151946 272.19 
7.88425e-06 -1.50517e-05 2.68886e+25 -0.646458 -0.156576 272.433 
9.79558e-06 -1.50517e-05 2.68859e+25 -0.358685 -0.128351 272.286 
1.17069e-05 -1.50517e-05 2.69034e+25 -0.324218 0.026979 272.225 
1.36182e-05 -1.50517e-05 2.69245e+25 -0.255483 0.0294251 272.113 
1.55296e-05 -1.50517e-05 2.68958e+25 -0.153979 -0.228106 272.223 
2.38917e-07 -1.45739e-05 2.6911e+25 -1.66709 0.0323075 272.01 
2.15025e-06 -1.45739e-05 2.69461e+25 -1.49241 -0.191965 271.837 
4.06158e-06 -1.45739e-05 2.69178e+25 -1.17653 -0.12977 272.043 
5.97292e-06 -1.45739e-05 2.69194e+25 -1.05527 -0.0127215 272.09 
7.88425e-06 -1.45739e-05 2.68877e+25 -0.907438 -0.231049 272.383 
9.79558e-06 -1.45739e-05 2.68971e+25 -0.575305 -0.230897 272.277 
1.17069e-05 -1.45739e-05 2.68977e+25 -0.271755 0.000316416 272.289 
1.36182e-05 -1.45739e-05 2.69224e+25 -0.154207 0.0185465 272.112 
1.55296e-05 -1.45739e-05 2.69035e+25 -0.0900006 -0.262837 272.28 
2.38917e-07 -1.40961e-05 2.69162e+25 -1.88503 -0.0162501 271.84 
2.15025e-06 -1.40961e-05 2.69468e+25 -1.47219 -0.227627 271.815 
4.06158e-06 -1.40961e-05 2.69141e+25 -1.31234 -0.196059 272.112 
5.97292e-06 -1.40961e-05 2.69111e+25 -1.45158 0.0094203 272.126 
7.88425e-06 -1.40961e-05 2.68983e+25 -1.18054 -0.315788 272.313 
9.79558e-06 -1.40961e-05 2.69109e+25 -0.92289 -0.384875 272.249 
1.17069e-05 -1.40961e-05 2.69098e+25 -0.365246 -0.0869261 272.17 
1.36182e-05 -1.40961e-05 2.69009e+25 -0.158416 -0.120332 272.322 
1.55296e-05 -1.40961e-05 2.69062e+25 -0.0312932 -0.240904 272.222 
2.38917e-07 -1.36182e-05 2.691e+25 -1.91147 -0.0244984 271.927 
2.15025e-06 -1.36182e-05 2.69476e+25 -1.83816 -0.197113 271.745 
4.06158e-06 -1.36182e-05 2.69273e+25 -1.63587 -0.286769 272.03 
5.97292e-06 -1.36182e-05 2.69048e+25 -1.57998 -0.0508939 272.143 
7.88425e-06 -1.36182e-05 2.69112e+25 -1.28407 -0.452261 272.205 
9.79558e-06 -1.36182e-05 2.6899e+25 -1.02931 -0.481011 272.274 
1.17069e-05 -1.36182e-05 2.69134e+25 -0.568736 -0.185709 272.143 
1.36182e-05 -1.36182e-05 2.68968e+25 -0.191781 -0.242055 272.319 
1.55296e-05 -1.36182e-05 2.68991e+25 0.0263622 -0.249877 272.185 
2.38917e-07 -1.31404e-05 2.68999e+25 -2.08304 0.00708463 271.944 
2.15025e-06 -1.31404e-05 2.69436e+25 -2.07852 -0.292584 271.795 
4.06158e-06 -1.31404e-05 2.6928e+25 -1.79513 -0.342294 271.966 
5.97292e-06 -1.31404e-05 2.69072e+25 -1.64378 -0.0334298 272.165 
7.88425e-06 -1.31404e-05 2.69103e+25 -1.40917 -0.628224 272.142 
9.79558e-06 -1.31404e-05 2.6894e+25 -0.936474 -0.507762 272.268 
1.17069e-05 -1.31404e-05 2.69171e+25 -0.698745 -0.243602 272.097 
1.36182e-05 -1.31404e-05 2.69004e+25 -0.244536 -0.35414 272.183 
1.55296e-05 -1.31404e-05 2.68975e+25 -0.0168376 -0.207308 272.184 
2.38917e-07 -1.26626e-05 2.68992e+25 -2.31592 0.0218257 271.997 
2.15025e-06 -1.26626e-05 2.6934e+25 -2.27335 -0.417692 271.896 
4.06158e-06 -1.26626e-05 2.69312e+25 -2.03551 -0.373059 271.863 
5.97292e-06 -1.26626e-05 2.69106e+25 -1.81183 -0.117667 272.125 
7.88425e-06 -1.26626e-05 2.69189e+25 -1.39394 -0.737768 272.155 
9.79558e-06 -1.26626e-05 2.68833e+25 -0.938066 -0.570596 272.287 
1.17069e-05 -1.26626e-05 2.69181e+25 -0.709238 -0.330288 272.045 
1.36182e-05 -1.26626e-05 2.69079e+25 -0.217393 -0.398339 272.172 
1.55296e-05 -1.26626e-05 2.68998e+25 -0.0939916 -0.161328 272.196 
2.38917e-07 -1.21847e-05 2.68994e+25 -2.61469 0.077001 272.043 
2.15025e-06 -1.21847e-05 2.69235e+25 -2.54259 -0.513473 271.974 
4.06158e-06 -1.21847e-05 2.69204e+25 -2.26155 -0.465608 271.951 
5.97292e-06 -1.21847e-05 2.692e+25 -1.7273 -0.223934 271.988 
7.88425e-06 -1.21847e-05 2.69075e+25 -1.44106 -0.763421 272.052 
9.79558e-06 -1.21847e-05 2.69098e+25 -0.960052 -0.602261 272.103 
1.17069e-05 -1.21847e-05 2.69173e+25 -0.751661 -0.395629 272.056 
1.36182e-05 -1.21847e-05 2.68966e+25 -0.248628 -0.533482 272.229 
1.55296e-05 -1.21847e-05 2.69134e+25 -0.114043 -0.230715 272.137 
2.38917e-07 -1.17069e-05 2.69041e+25 -2.9066 0.0145941 272.051 
2.15025e-06 -1.17069e-05 2.6931e+25 -2.84038 -0.538492 271.94 
4.06158e-06 -1.17069e-05 2.69198e+25 -2.42479 -0.570933 272.045 
5.97292e-06 -1.17069e-05 2.69397e+25 -1.73827 -0.337872 271.888 
7.88425e-06 -1.17069e-05 2.69199e+25 -1.43832 -0.844461 272.037 
9.79558e-06 -1.17069e-05 2.69172e+25 -1.2072 -0.718822 272.117 
1.17069e-05 -1.17069e-05 2.69021e+25 -0.820811 -0.466878 272.178 
1.36182e-05 -1.17069e-05 2.69259e+25 -0.338526 -0.649699 272.087 
1.55296e-05 -1.17069e-05 2.69043e+25 -0.0869167 -0.301618 272.188 
2.38917e-07 -1.12291e-05 2.69028e+25 -3.22293 -0.0304096 272 
2.15025e-06 -1.12291e-05 2.69165e+25 -3.11111 -0.589953 272.013 
4.06158e-06 -1.12291e-05 2.69332e+25 -2.71522 -0.651934 271.975 
5.97292e-06 -1.12291e-05 2.69289e+25 -2.11095 -0.509477 272.037 
7.88425e-06 -1.12291e-05 2.69281e+25 -1.69631 -0.948683 271.934 
9.79558e-06 -1.12291e-05 2.69201e+25 -1.37493 -0.850204 272.031 
1.17069e-05 -1.12291e-05 2.69167e+25 -0.821196 -0.537029 272.037 
1.36182e-05 -1.12291e-05 2.69241e+25 -0.413164 -0.731232 272.043 
1.55296e-05 -1.12291e-05 2.69042e+25 -0.0296197 -0.398096 272.168 
2.38917e-07 -1.07512e-05 2.69072e+25 -3.44677 -0.100862 272 
2.15025e-06 -1.07512e-05 2.69224e+25 -3.27218 -0.667353 272.019 
4.06158e-06 -1.07512e-05 2.69196e+25 -2.95455 -0.749271 272.103 
5.97292e-06 -1.07512e-05 2.69233e+25 -2.43848 -0.71637 272.026 
7.88425e-06 -1.07512e-05 2.69145e+25 -1.79956 -0.968871 272.077 
9.79558e-06 -1.07512e-05 2.69291e+25 -1.56182 -0.943077 271.945 
1.17069e-05 -1.07512e-05 2.69415e+25 -0.867705 -0.679534 271.901 
1.36182e-05 -1.07512e-05 2.69239e+25 -0.397608 -0.800885 272.049 
1.55296e-05 -1.07512e-05 2.69106e+25 -0.00150152 -0.40153 272.169 
2.38917e-07 -1.02734e-05 2.68996e+25 -3.68866 -0.140668 272.031 
2.15025e-06 -1.02734e-05 2.69283e+25 -3.4992 -0.714359 272.004 
4.06158e-06 -1.02734e-05 2.69204e+25 -3.29848 -0.805614 272.002 
5.97292e-06 -1.02734e-05 2.69155e+25 -2.65952 -0.921896 272.056 
7.88425e-06 -1.02734e-05 2.69237e+25 -1.95639 -1.01883 272.045 
9.79558e-06 -1.02734e-05 2.69388e+25 -1.63331 -1.08171 271.931 
1.17069e-05 -1.02734e-05 2.69273e+25 -0.938498 -0.963381 271.904 
1.36182e-05 -1.02734e-05 2.69277e+25 -0.412092 -0.888544 271.988 
1.55296e-05 -1.02734e-05 2.6912e+25 -0.0366127 -0.457625 272.118 
2.38917e-07 -9.79558e-06 2.68978e+25 -3.81966 -0.177997 272.039 
2.15025e-06 -9.79558e-06 2.69289e+25 -3.8911 -0.781617 272.04 
4.06158e-06 -9.79558e-06 2.69263e+25 -3.72781 -0.867448 272.093 
5.97292e-06 -9.79558e-06 2.69132e+25 -2.92795 -1.1369 272.102 
7.88425e-06 -9.79558e-06 2.6929e+25 -2.12324 -1.09178 272.001 
9.79558e-06 -9.79558e-06 2.69246e+25 -1.57451 -1.2322 271.943 
1.17069e-05 -9.79558e-06 2.69153e+25 -0.84947 -1.23512 272.014 
1.36182e-05 -9.79558e-06 2.69332e+25 -0.303288 -0.853794 271.886 
1.55296e-05 -9.79558e-06 2.69156e+25 -0.0428269 -0.492404 272.055 
2.38917e-07 -9.31775e-06 2.69023e+25 -4.18442 -0.193858 272.015 
2.15025e-06 -9.31775e-06 2.69156e+25 -4.28965 -0.702219 272.017 
4.06158e-06 -9.31775e-06 2.69152e+25 -3.91457 -1.03539 272.073 
5.97292e-06 -9.31775e-06 2.69337e+25 -3.13173 -1.34133 272.016 
7.88425e-06 -9.31775e-06 2.69319e+25 -2.3877 -1.25433 271.978 
9.79558e-06 -9.31775e-06 2.69209e+25 -1.62022 -1.36215 271.986 
1.17069e-05 -9.31775e-06 2.69209e+25 -0.929505 -1.44848 271.975 
1.36182e-05 -9.31775e-06 2.69305e+25 -0.230783 -0.975739 271.975 
1.55296e-05 -9.31775e-06 2.69265e+25 -0.0826213 -0.543058 272.025 
2.38917e-07 -8.83992e-06 2.68888e+25 -4.62686 -0.179404 272.014 
2.15025e-06 -8.83992e-06 2.69128e+25 -4.59597 -0.652165 272.063 
4.06158e-06 -8.83992e-06 2.69194e+25 -4.0625 -1.25483 272.02 
5.97292e-06 -8.83992e-06 2.69118e+25 -3.5267 -1.53638 272.078 
7.88425e-06 -8.83992e-06 2.69368e+25 -2.5572 -1.49935 271.888 
9.79558e-06 -8.83992e-06 2.69313e+25 -1.78621 -1.54187 271.975 
1.17069e-05 -8.83992e-06 2.69376e+25 -1.06445 -1.61011 271.897 
1.36182e-05 -8.83992e-06 2.69141e+25 -0.295128 -1.14448 272.036 
1.55296e-05 -8.83992e-06 2.69062e+25 0.0765351 -0.566988 272.13 
2.38917e-07 -8.36208e-06 2.68968e+25 -4.90889 -0.165522 272.063 
2.15025e-06 -8.36208e-06 2.69157e+25 -4.80313 -0.697398 272.068 
4.06158e-06 -8.36208e-06 2.69105e+25 -4.41784 -1.43812 272.086 
5.97292e-06 -8.36208e-06 2.69015e+25 -3.84467 -1.7487 272.211 
7.88425e-06 -8.36208e-06 2.6926e+25 -2.91055 -1.71364 271.944 
9.79558e-06 -8.36208e-06 2.69083e+25 -2.00521 -1.71977 272.062 
1.17069e-05 -8.36208e-06 2.69233e+25 -1.02729 -1.80121 271.928 
1.36182e-05 -8.36208e-06 2.69293e+25 -0.458945 -1.28422 271.995 
1.55296e-05 -8.36208e-06 2.69084e+25 0.141549 -0.55553 272.23 
2.38917e-07 -7.88425e-06 2.68985e+25 -5.24637 -0.180029 271.99 
2.15025e-06 -7.88425e-06 2.69165e+25 -5.02951 -0.829277 272.069 
4.06158e-06 -7.88425e-06 2.69041e+25 -4.64408 -1.45616 272.113 
5.97292e-06 -7.88425e-06 2.68951e+25 -4.17991 -1.90777 272.256 
7.88425e-06 -7.88425e-06 2.69191e+25 -3.31039 -1.96771 271.985 
9.79558e-06 -7.88425e-06 2.69194e+25 -2.18522 -1.99808 271.975 
1.17069e-05 -7.88425e-06 2.69252e+25 -1.21038 -1.92547 272.022 
1.36182e-05 -7.88425e-06 2.69138e+25 -0.577557 -1.48059 272.129 
1.55296e-05 -7.88425e-06 2.6899e+25 -0.0464972 -0.618244 272.305 
2.38917e-07 -7.40642e-06 2.68893e+25 -5.51806 -0.198783 272.068 
2.15025e-06 -7.40642e-06 2.69184e+25 -5.2891 -1.01264 272.054 
4.06158e-06 -7.40642e-06 2.69128e+25 -4.93217 -1.47214 272.088 
5.97292e-06 -7.40642e-06 2.69098e+25 -4.34075 -2.05212 272.176 
7.88425e-06 -7.40642e-06 2.69247e+25 -3.56827 -2.2961 272.066 
9.79558e-06 -7.40642e-06 2.69128e+25 -2.55799 -2.26426 272.077 
1.17069e-05 -7.40642e-06 2.69177e+25 -1.39288 -2.15759 271.978 
1.36182e-05 -7.40642e-06 2.69094e+25 -0.651091 -1.73063 272.158 
1.55296e-05 -7.40642e-06 2.68857e+25 -0.111766 -0.667687 272.332 
2.38917e-07 -6.92858e-06 2.68752e+25 -5.72027 -0.140993 272.166 
2.15025e-06 -6.92858e-06 2.69043e+25 -5.62091 -1.03615 272.06 
4.06158e-06 -6.92858e-06 2.69073e+25 -5.39705 -1.62522 272.16 
5.97292e-06 -6.92858e-06 2.69101e+25 -4.62332 -2.2517 272.156 
7.88425e-06 -6.92858e-06 2.6916e+25 -3.89245 -2.53612 272.111 
9.79558e-06 -6.92858e-06 2.69078e+25 -2.69337 -2.61284 272.141 
1.17069e-05 -6.92858e-06 2.6938e+25 -1.54002 -2.41653 271.918 
1.36182e-05 -6.92858e-06 2.69152e+25 -0.759999 -1.86234 272.066 
1.55296e-05 -6.92858e-06 2.689e+25 -0.206411 -0.712709 272.386 
2.38917e-07 -6.45075e-06 2.68847e+25 -5.86179 -0.0210769 272.123 
2.15025e-06 -6.45075e-06 2.69054e+25 -5.88152 -1.04595 272.14 
4.06158e-06 -6.45075e-06 2.69135e+25 -5.72326 -1.77604 272.044 
5.97292e-06 -6.45075e-06 2.69161e+25 -5.03382 -2.45825 272.056 
7.88425e-06 -6.45075e-06 2.69112e+25 -4.09885 -2.7751 272.168 
9.79558e-06 -6.45075e-06 2.69167e+25 -2.83271 -2.92899 272.13 
1.17069e-05 -6.45075e-06 2.693e+25 -1.69343 -2.74475 271.869 
1.36182e-05 -6.45075e-06 2.69187e+25 -0.804761 -2.04433 272.115 
1.55296e-05 -6.45075e-06 2.68812e+25 -0.264217 -0.824274 272.415 
2.38917e-07 -5.97292e-06 2.68819e+25 -6.06804 -0.0100833 272.123 
2.15025e-06 -5.97292e-06 2.69059e+25 -6.08467 -1.09173 272.123 
4.06158e-06 -5.97292e-06 2.68862e+25 -5.94183 -1.92346 272.291 
5.97292e-06 -5.97292e-06 2.69164e+25 -5.27475 -2.67179 272.043 
7.88425e-06 -5.97292e-06 2.69033e+25 -4.28674 -3.02914 272.167 
9.79558e-06 -5.97292e-06 2.69278e+25 -3.16964 -3.22223 272.015 
1.17069e-05 -5.97292e-06 2.69261e+25 -1.95721 -3.07088 271.984 
1.36182e-05 -5.97292e-06 2.69038e+25 -0.948328 -2.23576 272.236 
1.55296e-05 -5.97292e-06 2.68866e+25 -0.40179 -1.06283 272.336 
2.38917e-07 -5.49508e-06 2.68852e+25 -6.27277 0.0917734 272.049 
2.15025e-06 -5.49508e-06 2.69046e+25 -6.15615 -1.09411 272.101 
4.06158e-06 -5.49508e-06 2.69037e+25 -6.13233 -1.92524 272.169 
5.97292e-06 -5.49508e-06 2.69113e+25 -5.61734 -2.83185 272.061 
7.88425e-06 -5.49508e-06 2.69016e+25 -4.51514 -3.34661 272.276 
9.79558e-06 -5.49508e-06 2.69197e+25 -3.35438 -3.50383 272.031 
1.17069e-05 -5.49508e-06 2.69125e+25 -2.09486 -3.28495 272.126 
1.36182e-05 -5.49508e-06 2.69081e+25 -1.11648 -2.38778 272.24 
1.55296e-05 -5.49508e-06 2.68989e+25 -0.488995 -1.26779 272.204 
2.38917e-07 -5.01725e-06 2.68866e+25 -6.4565 0.0806811 272.069 
2.15025e-06 -5.01725e-06 2.6888e+25 -6.53199 -1.05953 272.243 
4.06158e-06 -5.01725e-06 2.68995e+25 -6.42578 -1.94897 272.192 
5.97292e-06 -5.01725e-06 2.69098e+25 -5.83642 -3.01699 272.111 
7.88425e-06 -5.01725e-06 2.68978e+25 -4.89629 -3.66323 272.271 
9.79558e-06 -5.01725e-06 2.6918e+25 -3.5532 -3.80203 272.057 
1.17069e-05 -5.01725e-06 2.69039e+25 -2.18419 -3.57367 272.166 
1.36182e-05 -5.01725e-06 2.69092e+25 -1.00344 -2.60562 272.195 
1.55296e-05 -5.01725e-06 2.69061e+25 -0.359859 -1.34373 272.17 
2.38917e-07 -4.53942e-06 2.68889e+25 -6.55193 0.0863054 272.1 
2.15025e-06 -4.53942e-06 2.69033e+25 -6.66746 -0.999814 272.253 
4.06158e-06 -4.53942e-06 2.69093e+25 -6.70568 -2.08215 272.038 
5.97292e-06 -4.53942e-06 2.69146e+25 -6.1316 -3.30256 272.069 
7.88425e-06 -4.53942e-06 2.68993e+25 -5.19837 -3.9096 272.186 
9.79558e-06 -4.53942e-06 2.69277e+25 -3.82563 -4.18102 272.028 
1.17069e-05 -4.53942e-06 2.69128e+25 -2.36759 -3.8953 272.062 
1.36182e-05 -4.53942e-06 2.69182e+25 -0.974052 -2.87227 272.041 
1.55296e-05 -4.53942e-06 2.69166e+25 -0.141403 -1.47601 272.072 
2.38917e-07 -4.06158e-06 2.68739e+25 -6.62559 0.233451 272.189 
2.15025e-06 -4.06158e-06 2.68913e+25 -7.12606 -0.916938 272.203 
4.06158e-06 -4.06158e-06 2.69077e+25 -7.0634 -2.21781 272.1 
5.97292e-06 -4.06158e-06 2.69185e+25 -6.49837 -3.48729 272.086 
7.88425e-06 -4.06158e-06 2.69113e+25 -5.57045 -4.21111 272.042 
9.79558e-06 -4.06158e-06 2.69185e+25 -3.98065 -4.62617 272.139 
1.17069e-05 -4.06158e-06 2.691e+25 -2.46506 -4.29718 272.125 
1.36182e-05 -4.06158e-06 2.69086e+25 -1.14974 -3.11901 272.156 
1.55296e-05 -4.06158e-06 2.69257e+25 -0.0703701 -1.56473 271.989 
2.38917e-07 -3.58375e-06 2.68758e+25 -6.77159 0.379084 272.127 
2.15025e-06 -3.58375e-06 2.68884e+25 -7.47616 -0.778546 272.182 
4.06158e-06 -3.58375e-06 2.69011e+25 -7.42577 -2.35317 272.186 
5.97292e-06 -3.58375e-06 2.69152e+25 -6.9289 -3.62219 272.01 
7.88425e-06 -3.58375e-06 2.69029e+25 -5.80973 -4.53957 272.135 
9.79558e-06 -3.58375e-06 2.69252e+25 -4.22362 -5.13614 272.119 
1.17069e-05 -3.58375e-06 2.69064e+25 -2.4491 -4.69887 272.222 
1.36182e-05 -3.58375e-06 2.6901e+25 -1.18708 -3.38392 272.258 
1.55296e-05 -3.58375e-06 2.69323e+25 -0.212683 -1.68775 271.941 
2.38917e-07 -3.10592e-06 2.68808e+25 -7.06546 0.572932 272.186 
2.15025e-06 -3.10592e-06 2.68854e+25 -7.73041 -0.618613 272.223 
4.06158e-06 -3.10592e-06 2.68976e+25 -7.7138 -2.52807 272.172 
5.97292e-06 -3.10592e-06 2.68989e+25 -7.13247 -3.84879 272.194 
7.88425e-06 -3.10592e-06 2.6887e+25 -6.09012 -4.95347 272.252 
9.79558e-06 -3.10592e-06 2.69134e+25 -4.37188 -5.56667 272.087 
1.17069e-05 -3.10592e-06 2.68915e+25 -2.65562 -5.08209 272.216 
1.36182e-05 -3.10592e-06 2.69015e+25 -1.19273 -3.71669 272.133 
1.55296e-05 -3.10592e-06 2.69202e+25 -0.201711 -1.8076 272.045 
2.38917e-07 -2.62808e-06 2.6891e+25 -7.29289 0.783922 272.036 
2.15025e-06 -2.62808e-06 2.68958e+25 -7.71274 -0.485965 272.155 
4.06158e-06 -2.62808e-06 2.68733e+25 -7.84196 -2.60699 272.342 
5.97292e-06 -2.62808e-06 2.68806e+25 -7.33551 -3.99848 272.357 
7.88425e-06 -2.62808e-06 2.6897e+25 -6.35424 -5.3221 272.249 
9.79558e-06 -2.62808e-06 2.69093e+25 -4.66253 -5.92955 272.131 
1.17069e-05 -2.62808e-06 2.69118e+25 -2.97523 -5.56734 272.091 
1.36182e-05 -2.62808e-06 2.6885e+25 -1.33508 -4.06741 272.328 
1.55296e-05 -2.62808e-06 2.6905e+25 -0.185196 -1.96383 272.1 
2.38917e-07 -2.15025e-06 2.68906e+25 -7.41818 0.997875 272.002 
2.15025e-06 -2.15025e-06 2.68995e+25 -7.86409 -0.401564 272.014 
4.06158e-06 -2.15025e-06 2.68826e+25 -7.91162 -2.58029 272.31 
5.97292e-06 -2.15025e-06 2.68902e+25 -7.39723 -4.12075 272.32 
7.88425e-06 -2.15025e-06 2.68996e+25 -6.4954 -5.68423 272.245 
9.79558e-06 -2.15025e-06 2.69105e+25 -4.79856 -6.3801 272.162 
1.17069e-05 -2.15025e-06 2.69001e+25 -3.19348 -5.96985 272.175 
1.36182e-05 -2.15025e-06 2.6888e+25 -1.41626 -4.49839 272.316 
1.55296e-05 -2.15025e-06 2.69028e+25 -0.26005 -2.12388 272.203 
2.38917e-07 -1.67242e-06 2.6894e+25 -7.52086 1.20583 271.965 
2.15025e-06 -1.67242e-06 2.69081e+25 -7.92531 -0.398577 272.071 
4.06158e-06 -1.67242e-06 2.68821e+25 -7.87725 -2.55803 272.255 
5.97292e-06 -1.67242e-06 2.68865e+25 -7.57637 -4.29707 272.242 
7.88425e-06 -1.67242e-06 2.68886e+25 -6.6215 -6.05216 272.313 
9.79558e-06 -1.67242e-06 2.69108e+25 -5.01629 -6.86339 272.112 
1.17069e-05 -1.67242e-06 2.69143e+25 -3.3381 -6.37654 272.071 
1.36182e-05 -1.67242e-06 2.68951e+25 -1.57075 -4.91248 272.174 
1.55296e-05 -1.67242e-06 2.68824e+25 -0.275306 -2.24193 272.299 
2.38917e-07 -1.19458e-06 2.68952e+25 -7.55685 1.34775 271.926 
2.15025e-06 -1.19458e-06 2.68939e+25 -7.912 -0.477142 272.153 
4.06158e-06 -1.19458e-06 2.68837e+25 -7.89532 -2.5966 272.231 
5.97292e-06 -1.19458e-06 2.68852e+25 -7.6985 -4.38 272.149 
7.88425e-06 -1.19458e-06 2.68934e+25 -6.66944 -6.3686 272.264 
9.79558e-06 -1.19458e-06 2.69114e+25 -5.35236 -7.24913 272.077 
1.17069e-05 -1.19458e-06 2.69112e+25 -3.60555 -6.82698 272.127 
1.36182e-05 -1.19458e-06 2.69087e+25 -1.75238 -5.33696 272.131 
1.55296e-05 -1.19458e-06 2.68951e+25 -0.485073 -2.48748 272.242 
2.38917e-07 -7.1675e-07 2.68921e+25 -7.57565 1.43395 271.955 
2.15025e-06 -7.1675e-07 2.68777e+25 -7.84812 -0.523461 272.139 
4.06158e-06 -7.1675e-07 2.68826e+25 -7.84063 -2.6517 272.245 
5.97292e-06 -7.1675e-07 2.68913e+25 -7.83441 -4.47907 272.217 
7.88425e-06 -7.1675e-07 2.69017e+25 -6.94035 -6.60178 272.156 
9.79558e-06 -7.1675e-07 2.69162e+25 -5.64772 -7.66237 272.153 
1.17069e-05 -7.1675e-07 2.69038e+25 -3.74963 -7.23789 272.175 
1.36182e-05 -7.1675e-07 2.68997e+25 -1.81948 -5.69929 272.122 
1.55296e-05 -7.1675e-07 2.6899e+25 -0.566592 -2.72544 272.273 
2.38917e-07 -2.38917e-07 2.68498e+25 -7.56386 1.70869 272.1 
2.15025e-06 -2.38917e-07 2.6879e+25 -8.00327 -0.456132 272.047 
4.06158e-06 -2.38917e-07 2.68663e+25 -7.90523 -2.70337 272.236 
5.97292e-06 -2.38917e-07 2.6866e+25 -7.82971 -4.50003 272.224 
7.88425e-06 -2.38917e-07 2.68838e+25 -7.24861 -6.84808 272.11 
9.79558e-06 -2.38917e-07 2.68971e+25 -5.83911 -8.01097 272.058 
1.17069e-05 -2.38917e-07 2.68702e+25 -3.98666 -7.65251 272.27 
1.36182e-05 -2.38917e-07 2.68832e+25 -2.04292 -6.0976 272.101 
1.55296e-05 -2.38917e-07 2.68737e+25 -0.577675 -3.00878 272.302 
7.1675e-07 -1.69631e-05 2.68548e+25 -0.130721 0.00128961 272.755 
2.62808e-06 -1.69631e-05 2.68557e+25 -0.129693 -0.0221794 272.785 
4.53942e-06 -1.69631e-05 2.68485e+25 -0.163959 -0.00357889 272.785 
6.45075e-06 -1.69631e-05 2.68548e+25 -0.0922091 0.020651 272.809 
8.36208e-06 -1.69631e-05 2.6845e+25 -0.119435 0.0344604 272.857 
1.02734e-05 -1.69631e-05 2.6852e+25 -0.0570372 0.032603 272.819 
1.21847e-05 -1.69631e-05 2.68542e+25 0.0370995 0.0517348 272.76 
1.40961e-05 -1.69631e-05 2.68549e+25 -0.00830733 0.0328975 272.808 
1.60074e-05 -1.69631e-05 2.68448e+25 -0.0743253 0.00810028 272.861 
7.1675e-07 -1.64852e-05 2.68847e+25 -0.436669 -0.0503686 272.455 
2.62808e-06 -1.64852e-05 2.68728e+25 -0.470298 0.0307508 272.521 
4.53942e-06 -1.64852e-05 2.68745e+25 -0.28245 -0.0655702 272.538 
6.45075e-06 -1.64852e-05 2.68596e+25 -0.325596 -0.0515472 272.749 
8.36208e-06 -1.64852e-05 2.68685e+25 -0.180046 0.0637311 272.588 
1.02734e-05 -1.64852e-05 2.68837e+25 -0.146024 -0.0612306 272.396 
1.21847e-05 -1.64852e-05 2.68733e+25 -0.0406875 0.0427247 272.542 
1.40961e-05 -1.64852e-05 2.68623e+25 -0.0859217 0.017357 272.654 
1.60074e-05 -1.64852e-05 2.68679e+25 -0.00820762 0.0130445 272.563 
7.1675e-07 -1.60074e-05 2.69249e+25 -0.875145 -0.105937 272.145 
2.62808e-06 -1.60074e-05 2.68909e+25 -0.73127 0.0901505 272.361 
4.53942e-06 -1.60074e-05 2.68861e+25 -0.649399 -0.10671 272.397 
6.45075e-06 -1.60074e-05 2.68645e+25 -0.575936 -0.026572 272.707 
8.36208e-06 -1.60074e-05 2.68749e+25 -0.46299 0.00489511 272.541 
1.02734e-05 -1.60074e-05 2.6897e+25 -0.265287 -0.121033 272.171 
1.21847e-05 -1.60074e-05 2.68878e+25 -0.206444 -0.00274293 272.375 
1.40961e-05 -1.60074e-05 2.68855e+25 -0.107304 0.00667865 272.383 
1.60074e-05 -1.60074e-05 2.68889e+25 0.0282234 0.0175784 272.379 
7.1675e-07 -1.55296e-05 2.69221e+25 -1.06132 -0.0859037 272.009 
2.62808e-06 -1.55296e-05 2.69052e+25 -0.93696 0.0175113 272.185 
4.53942e-06 -1.55296e-05 2.69071e+25 -0.766977 -0.139905 272.174 
6.45075e-06 -1.55296e-05 2.68889e+25 -0.661121 -0.00478918 272.428 
8.36208e-06 -1.55296e-05 2.68682e+25 -0.587651 -0.154129 272.569 
1.02734e-05 -1.55296e-05 2.68965e+25 -0.214135 -0.105842 272.355 
1.21847e-05 -1.55296e-05 2.69102e+25 -0.354427 -0.0540025 272.203 
1.40961e-05 -1.55296e-05 2.69043e+25 -0.24314 -0.0519031 272.294 
1.60074e-05 -1.55296e-05 2.68822e+25 0.0199333 -0.0777779 272.428 
7.1675e-07 -1.50517e-05 2.69179e+25 -1.36277 -0.0379638 272.043 
2.62808e-06 -1.50517e-05 2.69255e+25 -1.11785 -0.140164 272.005 
4.53942e-06 -1.50517e-05 2.69134e+25 -0.945342 -0.120586 272.171 
6.45075e-06 -1.50517e-05 2.69046e+25 -0.835747 -0.0236113 272.283 
8.36208e-06 -1.50517e-05 2.68826e+25 -0.659655 -0.149456 272.411 
1.02734e-05 -1.50517e-05 2.68777e+25 -0.291556 -0.122493 272.412 
1.21847e-05 -1.50517e-05 2.6905e+25 -0.330303 -0.0315641 272.215 
1.40961e-05 -1.50517e-05 2.69013e+25 -0.252148 -0.0513029 272.183 
1.60074e-05 -1.50517e-05 2.69e+25 -0.10356 -0.189855 272.3 
7.1675e-07 -1.45739e-05 2.69359e+25 -1.59979 -0.0537128 271.891 
2.62808e-06 -1.45739e-05 2.69349e+25 -1.41246 -0.240683 271.927 
4.53942e-06 -1.45739e-05 2.69236e+25 -1.15327 -0.171213 272.045 
6.45075e-06 -1.45739e-05 2.69067e+25 -1.0727 -0.0285114 272.244 
8.36208e-06 -1.45739e-05 2.69026e+25 -0.802817 -0.194176 272.323 
1.02734e-05 -1.45739e-05 2.68928e+25 -0.490084 -0.144825 272.318 
1.21847e-05 -1.45739e-05 2.69147e+25 -0.265128 0.00259909 272.133 
1.40961e-05 -1.45739e-05 2.69031e+25 -0.0972493 -0.0447636 272.229 
1.60074e-05 -1.45739e-05 2.69024e+25 -0.0595077 -0.251487 272.332 
7.1675e-07 -1.40961e-05 2.69336e+25 -1.80219 -0.116153 271.861 
2.62808e-06 -1.40961e-05 2.6938e+25 -1.49837 -0.263267 271.839 
4.53942e-06 -1.40961e-05 2.69204e+25 -1.31393 -0.191846 271.983 
6.45075e-06 -1.40961e-05 2.68961e+25 -1.38078 -0.0676402 272.298 
8.36208e-06 -1.40961e-05 2.68969e+25 -1.05921 -0.307813 272.282 
1.02734e-05 -1.40961e-05 2.68981e+25 -0.725366 -0.236698 272.25 
1.21847e-05 -1.40961e-05 2.69227e+25 -0.258891 -0.0912984 271.996 
1.40961e-05 -1.40961e-05 2.69021e+25 -0.0723027 -0.0382983 272.301 
1.60074e-05 -1.40961e-05 2.69023e+25 -0.0267093 -0.252585 272.269 
7.1675e-07 -1.36182e-05 2.69297e+25 -1.94162 -0.144637 271.88 
2.62808e-06 -1.36182e-05 2.69593e+25 -1.79458 -0.293742 271.698 
4.53942e-06 -1.36182e-05 2.69227e+25 -1.53171 -0.16966 272.034 
6.45075e-06 -1.36182e-05 2.69103e+25 -1.57097 -0.0595812 272.134 
8.36208e-06 -1.36182e-05 2.69066e+25 -1.12778 -0.430371 272.193 
1.02734e-05 -1.36182e-05 2.69012e+25 -0.909003 -0.478828 272.255 
1.21847e-05 -1.36182e-05 2.69211e+25 -0.459501 -0.184062 272.065 
1.40961e-05 -1.36182e-05 2.68954e+25 -0.0626641 -0.123187 272.252 
1.60074e-05 -1.36182e-05 2.68941e+25 -0.0211692 -0.211587 272.299 
7.1675e-07 -1.31404e-05 2.69243e+25 -2.10402 -0.0939009 271.965 
2.62808e-06 -1.31404e-05 2.6948e+25 -1.98479 -0.347513 271.744 
4.53942e-06 -1.31404e-05 2.69245e+25 -1.83642 -0.194829 272.052 
6.45075e-06 -1.31404e-05 2.6916e+25 -1.67488 -0.117061 272.087 
8.36208e-06 -1.31404e-05 2.69103e+25 -1.22469 -0.585308 272.134 
1.02734e-05 -1.31404e-05 2.68927e+25 -0.913496 -0.576273 272.313 
1.21847e-05 -1.31404e-05 2.69181e+25 -0.656606 -0.282083 272.124 
1.40961e-05 -1.31404e-05 2.68978e+25 -0.162765 -0.270973 272.195 
1.60074e-05 -1.31404e-05 2.68939e+25 -0.0401069 -0.159278 272.318 
7.1675e-07 -1.26626e-05 2.69158e+25 -2.32581 -0.0604655 272.006 
2.62808e-06 -1.26626e-05 2.69318e+25 -2.14822 -0.442195 271.883 
4.53942e-06 -1.26626e-05 2.69157e+25 -1.947 -0.21113 272.085 
6.45075e-06 -1.26626e-05 2.69114e+25 -1.69755 -0.143667 272.041 
8.36208e-06 -1.26626e-05 2.69258e+25 -1.28195 -0.766788 272.062 
1.02734e-05 -1.26626e-05 2.69034e+25 -0.919314 -0.580522 272.216 
1.21847e-05 -1.26626e-05 2.69165e+25 -0.61368 -0.326774 272.055 
1.40961e-05 -1.26626e-05 2.68981e+25 -0.185511 -0.3193 272.231 
1.60074e-05 -1.26626e-05 2.68821e+25 -0.080251 -0.175467 272.381 
7.1675e-07 -1.21847e-05 2.69118e+25 -2.61024 -0.0785942 271.997 
2.62808e-06 -1.21847e-05 2.69193e+25 -2.45467 -0.522619 272.013 
4.53942e-06 -1.21847e-05 2.69161e+25 -2.14234 -0.29469 271.988 
6.45075e-06 -1.21847e-05 2.69194e+25 -1.66098 -0.231235 272.018 
8.36208e-06 -1.21847e-05 2.69194e+25 -1.37229 -0.898646 272.046 
1.02734e-05 -1.21847e-05 2.69079e+25 -0.930701 -0.608033 272.23 
1.21847e-05 -1.21847e-05 2.69261e+25 -0.639042 -0.470225 272.086 
1.40961e-05 -1.21847e-05 2.6906e+25 -0.16186 -0.274103 272.244 
1.60074e-05 -1.21847e-05 2.69012e+25 -0.0154992 -0.268652 272.27 
7.1675e-07 -1.17069e-05 2.69254e+25 -2.85666 -0.0758736 271.908 
2.62808e-06 -1.17069e-05 2.69364e+25 -2.76732 -0.637364 271.948 
4.53942e-06 -1.17069e-05 2.69204e+25 -2.27835 -0.452509 272.052 
6.45075e-06 -1.17069e-05 2.69197e+25 -1.68243 -0.287242 271.916 
8.36208e-06 -1.17069e-05 2.69242e+25 -1.37149 -0.987181 272.03 
1.02734e-05 -1.17069e-05 2.69164e+25 -1.09828 -0.66393 272.046 
1.21847e-05 -1.17069e-05 2.69193e+25 -0.726815 -0.600292 272.107 
1.40961e-05 -1.17069e-05 2.69109e+25 -0.261851 -0.326129 272.137 
1.60074e-05 -1.17069e-05 2.69095e+25 -0.0147994 -0.360251 272.311 
7.1675e-07 -1.12291e-05 2.69237e+25 -3.14992 -0.130251 271.997 
2.62808e-06 -1.12291e-05 2.69091e+25 -3.06406 -0.695298 272.093 
4.53942e-06 -1.12291e-05 2.6916e+25 -2.63318 -0.655809 272.026 
6.45075e-06 -1.12291e-05 2.69153e+25 -1.88039 -0.403473 272.014 
8.36208e-06 -1.12291e-05 2.69217e+25 -1.58446 -1.0619 272.09 
1.02734e-05 -1.12291e-05 2.69326e+25 -1.21659 -0.789539 271.98 
1.21847e-05 -1.12291e-05 2.69016e+25 -0.708699 -0.77546 272.076 
1.40961e-05 -1.12291e-05 2.69076e+25 -0.284371 -0.445042 272.138 
1.60074e-05 -1.12291e-05 2.68883e+25 -0.0193468 -0.393225 272.284 
7.1675e-07 -1.07512e-05 2.6921e+25 -3.41004 -0.156064 272.03 
2.62808e-06 -1.07512e-05 2.69123e+25 -3.19091 -0.77704 272.086 
4.53942e-06 -1.07512e-05 2.69188e+25 -2.91257 -0.661398 272.063 
6.45075e-06 -1.07512e-05 2.69259e+25 -2.22729 -0.61416 271.987 
8.36208e-06 -1.07512e-05 2.69104e+25 -1.80825 -1.12465 272.122 
1.02734e-05 -1.07512e-05 2.69312e+25 -1.39072 -0.961885 271.912 
1.21847e-05 -1.07512e-05 2.69294e+25 -0.693184 -0.875452 271.991 
1.40961e-05 -1.07512e-05 2.69104e+25 -0.229266 -0.604036 272.105 
1.60074e-05 -1.07512e-05 2.68963e+25 0.00522785 -0.338285 272.312 
7.1675e-07 -1.02734e-05 2.69237e+25 -3.63736 -0.167374 271.9 
2.62808e-06 -1.02734e-05 2.69171e+25 -3.39442 -0.89646 272.057 
4.53942e-06 -1.02734e-05 2.69066e+25 -3.19429 -0.764215 272.116 
6.45075e-06 -1.02734e-05 2.69273e+25 -2.42235 -0.83241 272.086 
8.36208e-06 -1.02734e-05 2.69244e+25 -1.92546 -1.14747 272.099 
1.02734e-05 -1.02734e-05 2.69355e+25 -1.53231 -1.12747 271.973 
1.21847e-05 -1.02734e-05 2.69332e+25 -0.626019 -1.05284 272.012 
1.40961e-05 -1.02734e-05 2.69288e+25 -0.413003 -0.722011 271.921 
1.60074e-05 -1.02734e-05 2.68965e+25 -0.00189527 -0.299694 272.287 
7.1675e-07 -9.79558e-06 2.69307e+25 -3.7909 -0.162108 271.99 
2.62808e-06 -9.79558e-06 2.69208e+25 -3.90636 -0.899068 272.01 
4.53942e-06 -9.79558e-06 2.69246e+25 -3.49535 -0.971215 272.108 
6.45075e-06 -9.79558e-06 2.69326e+25 -2.70986 -1.07934 272.008 
8.36208e-06 -9.79558e-06 2.6925e+25 -2.00543 -1.25783 271.99 
1.02734e-05 -9.79558e-06 2.69291e+25 -1.46074 -1.21743 271.927 
1.21847e-05 -9.79558e-06 2.69262e+25 -0.653253 -1.31177 271.978 
1.40961e-05 -9.79558e-06 2.69337e+25 -0.265366 -0.753463 271.896 
1.60074e-05 -9.79558e-06 2.68996e+25 -0.0224303 -0.323609 272.293 
7.1675e-07 -9.31775e-06 2.69048e+25 -4.1751 -0.164151 272.057 
2.62808e-06 -9.31775e-06 2.69172e+25 -4.34573 -0.916687 272.062 
4.53942e-06 -9.31775e-06 2.69257e+25 -3.74044 -1.23628 272.015 
6.45075e-06 -9.31775e-06 2.6942e+25 -2.95796 -1.28794 271.939 
8.36208e-06 -9.31775e-06 2.69318e+25 -2.20847 -1.39643 271.967 
1.02734e-05 -9.31775e-06 2.692e+25 -1.44124 -1.36371 272.049 
1.21847e-05 -9.31775e-06 2.69216e+25 -0.731218 -1.49419 272.031 
1.40961e-05 -9.31775e-06 2.69297e+25 -0.124182 -0.784153 271.799 
1.60074e-05 -9.31775e-06 2.68995e+25 -0.0283404 -0.341488 272.233 
7.1675e-07 -8.83992e-06 2.69192e+25 -4.53906 -0.25952 272.039 
2.62808e-06 -8.83992e-06 2.69079e+25 -4.60358 -0.909591 272.072 
4.53942e-06 -8.83992e-06 2.69259e+25 -3.87691 -1.40263 272.016 
6.45075e-06 -8.83992e-06 2.6903e+25 -3.26056 -1.51621 272.114 
8.36208e-06 -8.83992e-06 2.69445e+25 -2.37543 -1.49011 271.875 
1.02734e-05 -8.83992e-06 2.6921e+25 -1.63069 -1.53554 272.11 
1.21847e-05 -8.83992e-06 2.69151e+25 -0.879888 -1.69014 271.924 
1.40961e-05 -8.83992e-06 2.69168e+25 -0.184342 -0.845253 271.953 
1.60074e-05 -8.83992e-06 2.69015e+25 0.104757 -0.387044 272.21 
7.1675e-07 -8.36208e-06 2.6912e+25 -4.8943 -0.329495 272.075 
2.62808e-06 -8.36208e-06 2.69106e+25 -4.69009 -0.992131 272.111 
4.53942e-06 -8.36208e-06 2.69071e+25 -4.34573 -1.50896 272.132 
6.45075e-06 -8.36208e-06 2.69052e+25 -3.65938 -1.76738 272.189 
8.36208e-06 -8.36208e-06 2.69282e+25 -2.68436 -1.70486 271.956 
1.02734e-05 -8.36208e-06 2.69252e+25 -1.76687 -1.79248 272.049 
1.21847e-05 -8.36208e-06 2.69147e+25 -0.891053 -1.83669 272.041 
1.40961e-05 -8.36208e-06 2.69207e+25 -0.222282 -1.06868 272.083 
1.60074e-05 -8.36208e-06 2.68935e+25 0.101377 -0.358613 272.372 
7.1675e-07 -7.88425e-06 2.69194e+25 -5.2525 -0.312386 272.011 
2.62808e-06 -7.88425e-06 2.6916e+25 -4.8545 -1.11928 272.06 
4.53942e-06 -7.88425e-06 2.69247e+25 -4.60712 -1.55653 272.028 
6.45075e-06 -7.88425e-06 2.69067e+25 -3.99223 -1.9545 272.169 
8.36208e-06 -7.88425e-06 2.69329e+25 -2.99818 -1.93959 271.964 
1.02734e-05 -7.88425e-06 2.69157e+25 -1.87479 -2.04072 272.096 
1.21847e-05 -7.88425e-06 2.69184e+25 -1.09001 -1.9395 272.099 
1.40961e-05 -7.88425e-06 2.69115e+25 -0.345547 -1.30662 272.237 
1.60074e-05 -7.88425e-06 2.6874e+25 0.00283744 -0.323371 272.378 
7.1675e-07 -7.40642e-06 2.6914e+25 -5.47611 -0.344918 272.089 
2.62808e-06 -7.40642e-06 2.69173e+25 -5.20185 -1.21697 272.11 
4.53942e-06 -7.40642e-06 2.69118e+25 -4.84479 -1.66822 272.088 
6.45075e-06 -7.40642e-06 2.69202e+25 -4.26507 -2.07868 272.136 
8.36208e-06 -7.40642e-06 2.69205e+25 -3.26452 -2.28301 272.024 
1.02734e-05 -7.40642e-06 2.69239e+25 -2.25439 -2.37005 272.058 
1.21847e-05 -7.40642e-06 2.69207e+25 -1.14966 -2.10159 271.977 
1.40961e-05 -7.40642e-06 2.69115e+25 -0.496989 -1.43843 272.125 
1.60074e-05 -7.40642e-06 2.68825e+25 -0.0652634 -0.362061 272.41 
7.1675e-07 -6.92858e-06 2.68936e+25 -5.81842 -0.33521 272.185 
2.62808e-06 -6.92858e-06 2.69043e+25 -5.60892 -1.31329 272.092 
4.53942e-06 -6.92858e-06 2.69094e+25 -5.19552 -1.82338 272.098 
6.45075e-06 -6.92858e-06 2.69113e+25 -4.37064 -2.22098 272.158 
8.36208e-06 -6.92858e-06 2.69172e+25 -3.62826 -2.54725 272.035 
1.02734e-05 -6.92858e-06 2.69095e+25 -2.38328 -2.67456 272.14 
1.21847e-05 -6.92858e-06 2.69413e+25 -1.20692 -2.3921 271.88 
1.40961e-05 -6.92858e-06 2.6911e+25 -0.587708 -1.65674 272.09 
1.60074e-05 -6.92858e-06 2.68856e+25 -0.0987182 -0.459026 272.4 
7.1675e-07 -6.45075e-06 2.6905e+25 -5.89898 -0.279612 272.122 
2.62808e-06 -6.45075e-06 2.69098e+25 -5.81556 -1.34702 272.057 
4.53942e-06 -6.45075e-06 2.69134e+25 -5.5272 -2.03623 272.124 
6.45075e-06 -6.45075e-06 2.69135e+25 -4.81178 -2.4908 272.086 
8.36208e-06 -6.45075e-06 2.68968e+25 -3.88545 -2.82768 272.16 
1.02734e-05 -6.45075e-06 2.69189e+25 -2.58782 -2.90839 272.048 
1.21847e-05 -6.45075e-06 2.69359e+25 -1.44008 -2.67338 271.866 
1.40961e-05 -6.45075e-06 2.69219e+25 -0.656712 -1.78909 272.103 
1.60074e-05 -6.45075e-06 2.6863e+25 -0.151728 -0.595582 272.641 
7.1675e-07 -5.97292e-06 2.68944e+25 -6.13294 -0.156517 272.179 
2.62808e-06 -5.97292e-06 2.69164e+25 -6.05331 -1.37106 271.995 
4.53942e-06 -5.97292e-06 2.68928e+25 -5.87027 -2.17541 272.253 
6.45075e-06 -5.97292e-06 2.69105e+25 -5.13126 -2.65787 272.041 
8.36208e-06 -5.97292e-06 2.68979e+25 -4.0672 -3.0422 272.196 
1.02734e-05 -5.97292e-06 2.69105e+25 -2.87515 -3.181 272.131 
1.21847e-05 -5.97292e-06 2.69164e+25 -1.72301 -2.82675 272.097 
1.40961e-05 -5.97292e-06 2.69152e+25 -0.828876 -1.90337 272.141 
1.60074e-05 -5.97292e-06 2.68709e+25 -0.181747 -0.679222 272.464 
7.1675e-07 -5.49508e-06 2.68919e+25 -6.25395 -0.18573 272.219 
2.62808e-06 -5.49508e-06 2.69145e+25 -6.20299 -1.34039 272.087 
4.53942e-06 -5.49508e-06 2.68944e+25 -6.11747 -2.25699 272.253 
6.45075e-06 -5.49508e-06 2.69201e+25 -5.39662 -2.87559 272.024 
8.36208e-06 -5.49508e-06 2.68978e+25 -4.2306 -3.24403 272.247 
1.02734e-05 -5.49508e-06 2.69155e+25 -3.03095 -3.5483 272.109 
1.21847e-05 -5.49508e-06 2.69163e+25 -1.86874 -3.06467 272.156 
1.40961e-05 -5.49508e-06 2.69147e+25 -0.903824 -2.06504 272.128 
1.60074e-05 -5.49508e-06 2.68825e+25 -0.308739 -0.877494 272.41 
7.1675e-07 -5.01725e-06 2.68969e+25 -6.45915 -0.19738 272.198 
2.62808e-06 -5.01725e-06 2.69049e+25 -6.56306 -1.32404 272.127 
4.53942e-06 -5.01725e-06 2.69036e+25 -6.33144 -2.36685 272.241 
6.45075e-06 -5.01725e-06 2.69118e+25 -5.5867 -3.14337 272.099 
8.36208e-06 -5.01725e-06 2.69054e+25 -4.53066 -3.5802 272.185 
1.02734e-05 -5.01725e-06 2.69197e+25 -3.19605 -3.90213 272.013 
1.21847e-05 -5.01725e-06 2.69217e+25 -1.86192 -3.32808 272.097 
1.40961e-05 -5.01725e-06 2.68966e+25 -0.766332 -2.31172 272.206 
1.60074e-05 -5.01725e-06 2.68888e+25 -0.231468 -1.10082 272.267 
7.1675e-07 -4.53942e-06 2.69024e+25 -6.58605 -0.138079 272.192 
2.62808e-06 -4.53942e-06 2.69086e+25 -6.71436 -1.30455 272.109 
4.53942e-06 -4.53942e-06 2.69096e+25 -6.53821 -2.4885 272.104 
6.45075e-06 -4.53942e-06 2.68958e+25 -5.91025 -3.34276 272.2 
8.36208e-06 -4.53942e-06 2.69211e+25 -4.92488 -3.90142 272.143 
1.02734e-05 -4.53942e-06 2.69055e+25 -3.43786 -4.23625 272.137 
1.21847e-05 -4.53942e-06 2.69216e+25 -1.99891 -3.70958 272.044 
1.40961e-05 -4.53942e-06 2.69052e+25 -0.746497 -2.54817 272.123 
1.60074e-05 -4.53942e-06 2.68922e+25 -0.0530642 -1.18823 272.162 
7.1675e-07 -4.06158e-06 2.68819e+25 -6.7673 -0.083726 272.318 
2.62808e-06 -4.06158e-06 2.69095e+25 -7.21565 -1.24798 272.046 
4.53942e-06 -4.06158e-06 2.69084e+25 -6.94905 -2.63122 272.154 
6.45075e-06 -4.06158e-06 2.69025e+25 -6.33414 -3.56821 272.162 
8.36208e-06 -4.06158e-06 2.69078e+25 -5.20763 -4.28824 272.126 
1.02734e-05 -4.06158e-06 2.68947e+25 -3.51666 -4.60374 272.239 
1.21847e-05 -4.06158e-06 2.68962e+25 -2.05579 -4.05712 272.264 
1.40961e-05 -4.06158e-06 2.69046e+25 -0.850675 -2.82778 272.159 
1.60074e-05 -4.06158e-06 2.69129e+25 -0.0534936 -1.22104 272.089 
7.1675e-07 -3.58375e-06 2.68842e+25 -6.93664 0.0562176 272.27 
2.62808e-06 -3.58375e-06 2.69074e+25 -7.6013 -1.1817 272.073 
4.53942e-06 -3.58375e-06 2.68987e+25 -7.28956 -2.7298 272.132 
6.45075e-06 -3.58375e-06 2.6913e+25 -6.64311 -3.87212 272.061 
8.36208e-06 -3.58375e-06 2.69115e+25 -5.42846 -4.67134 272.064 
1.02734e-05 -3.58375e-06 2.69102e+25 -3.71852 -5.07497 272.212 
1.21847e-05 -3.58375e-06 2.68815e+25 -2.08166 -4.42666 272.398 
1.40961e-05 -3.58375e-06 2.68925e+25 -0.935756 -3.08571 272.291 
1.60074e-05 -3.58375e-06 2.69082e+25 -0.114064 -1.23885 272.14 
7.1675e-07 -3.10592e-06 2.68898e+25 -7.25282 0.241576 272.277 
2.62808e-06 -3.10592e-06 2.68891e+25 -7.80924 -1.12795 272.195 
4.53942e-06 -3.10592e-06 2.68899e+25 -7.59787 -2.81694 272.173 
6.45075e-06 -3.10592e-06 2.68915e+25 -6.95843 -4.11344 272.306 
8.36208e-06 -3.10592e-06 2.69088e+25 -5.64063 -5.10282 272.12 
1.02734e-05 -3.10592e-06 2.69102e+25 -3.92891 -5.57108 272.107 
1.21847e-05 -3.10592e-06 2.68841e+25 -2.26687 -4.77856 272.265 
1.40961e-05 -3.10592e-06 2.68988e+25 -0.843128 -3.36633 272.281 
1.60074e-05 -3.10592e-06 2.69015e+25 -0.149272 -1.30004 272.142 
7.1675e-07 -2.62808e-06 2.68938e+25 -7.45204 0.421014 272.142 
2.62808e-06 -2.62808e-06 2.69003e+25 -7.8363 -1.02413 272.178 
4.53942e-06 -2.62808e-06 2.68888e+25 -7.76159 -2.89518 272.261 
6.45075e-06 -2.62808e-06 2.68943e+25 -7.21315 -4.2798 272.289 
8.36208e-06 -2.62808e-06 2.69136e+25 -5.91754 -5.58157 272.188 
1.02734e-05 -2.62808e-06 2.68983e+25 -4.28029 -5.97972 272.172 
1.21847e-05 -2.62808e-06 2.69034e+25 -2.51566 -5.1653 272.166 
1.40961e-05 -2.62808e-06 2.68791e+25 -1.01722 -3.63012 272.264 
1.60074e-05 -2.62808e-06 2.69181e+25 -0.0799224 -1.33483 272.136 
7.1675e-07 -2.15025e-06 2.69113e+25 -7.61805 0.574029 272.001 
2.62808e-06 -2.15025e-06 2.69091e+25 -7.88503 -1.00954 272.108 
4.53942e-06 -2.15025e-06 2.68967e+25 -7.89807 -3.0508 272.211 
6.45075e-06 -2.15025e-06 2.69048e+25 -7.23821 -4.38651 272.143 
8.36208e-06 -2.15025e-06 2.69024e+25 -6.14609 -6.01647 272.226 
1.02734e-05 -2.15025e-06 2.68915e+25 -4.36071 -6.36074 272.226 
1.21847e-05 -2.15025e-06 2.69051e+25 -2.71042 -5.68872 272.153 
1.40961e-05 -2.15025e-06 2.68942e+25 -1.01016 -3.92689 272.28 
1.60074e-05 -2.15025e-06 2.68864e+25 -0.206612 -1.34799 272.301 
7.1675e-07 -1.67242e-06 2.69135e+25 -7.65855 0.72164 271.965 
2.62808e-06 -1.67242e-06 2.68845e+25 -7.91657 -0.987878 272.216 
4.53942e-06 -1.67242e-06 2.68996e+25 -7.85555 -3.10458 272.113 
6.45075e-06 -1.67242e-06 2.68864e+25 -7.44162 -4.5631 272.284 
8.36208e-06 -1.67242e-06 2.68983e+25 -6.28646 -6.3568 272.252 
1.02734e-05 -1.67242e-06 2.69226e+25 -4.66677 -6.68762 272.139 
1.21847e-05 -1.67242e-06 2.68983e+25 -2.93779 -6.14572 272.167 
1.40961e-05 -1.67242e-06 2.69059e+25 -1.14663 -4.29655 272.092 
1.60074e-05 -1.67242e-06 2.68975e+25 -0.0843843 -1.47627 272.3 
7.1675e-07 -1.19458e-06 2.68954e+25 -7.64642 0.855652 272.049 
2.62808e-06 -1.19458e-06 2.68928e+25 -7.844 -1.02398 272.201 
4.53942e-06 -1.19458e-06 2.69074e+25 -7.84289 -3.13337 272.032 
6.45075e-06 -1.19458e-06 2.68831e+25 -7.55768 -4.78216 272.33 
8.36208e-06 -1.19458e-06 2.68929e+25 -6.37441 -6.68305 272.251 
1.02734e-05 -1.19458e-06 2.69073e+25 -4.8929 -7.07468 272.106 
1.21847e-05 -1.19458e-06 2.6903e+25 -3.15993 -6.53465 272.204 
1.40961e-05 -1.19458e-06 2.69144e+25 -1.31551 -4.72706 272.079 
1.60074e-05 -1.19458e-06 2.68968e+25 -0.28022 -1.60484 272.219 
7.1675e-07 -7.1675e-07 2.69023e+25 -7.74927 1.03521 272.063 
2.62808e-06 -7.1675e-07 2.68816e+25 -7.86838 -0.990286 272.285 
4.53942e-06 -7.1675e-07 2.688e+25 -7.80732 -3.16304 272.23 
6.45075e-06 -7.1675e-07 2.69043e+25 -7.68629 -4.94526 272.173 
8.36208e-06 -7.1675e-07 2.68963e+25 -6.69024 -7.00468 272.212 
1.02734e-05 -7.1675e-07 2.69145e+25 -5.15425 -7.63432 272.113 
1.21847e-05 -7.1675e-07 2.6906e+25 -3.3553 -7.02431 272.249 
1.40961e-05 -7.1675e-07 2.69083e+25 -1.49403 -5.13143 272.084 
1.60074e-05 -7.1675e-07 2.68809e+25 -0.274361 -1.85955 272.299 
7.1675e-07 -2.38917e-07 2.68817e+25 -7.7293 1.14858 271.986 
2.62808e-06 -2.38917e-07 2.68641e+25 -8.05487 -0.931379 272.138 
4.53942e-06 -2.38917e-07 2.68581e+25 -7.8521 -3.1848 272.294 
6.45075e-06 -2.38917e-07 2.68908e+25 -7.74257 -5.1146 272.106 
8.36208e-06 -2.38917e-07 2.68896e+25 -6.89716 -7.30031 272.078 
1.02734e-05 -2.38917e-07 2.68967e+25 -5.40992 -8.17634 272.13 
1.21847e-05 -2.38917e-07 2.68693e+25 -3.49241 -7.51383 272.222 
1.40961e-05 -2.38917e-07 2.68798e+25 -1.63527 -5.47522 272.151 
1.60074e-05 -2.38917e-07 2.68706e+25 -0.306299 -2.11611 272.299 
1.67242e-06 -1.69631e-05 2.68465e+25 -0.137774 0.0409475 272.812 
3.58375e-06 -1.69631e-05 2.6863e+25 -0.128319 -0.0108796 272.72 
5.49508e-06 -1.69631e-05 2.68533e+25 -0.151742 0.0205517 272.901 
7.40642e-06 -1.69631e-05 2.68461e+25 -0.158535 0.0394316 272.821 
9.31775e-06 -1.69631e-05 2.68563e+25 -0.0697896 0.00234315 272.775 
1.12291e-05 -1.69631e-05 2.68566e+25 0.0822804 -0.0126888 272.779 
1.31404e-05 -1.69631e-05 2.68471e+25 0.0253488 0.0094559 272.825 
1.50518e-05 -1.69631e-05 2.6849e+25 -0.0244131 -0.00421143 272.815 
1.69631e-05 -1.69631e-05 2.68419e+25 -0.00329969 -0.0146868 272.988 
1.67242e-06 -1.64852e-05 2.68675e+25 -0.383346 0.0677925 272.609 
3.58375e-06 -1.64852e-05 2.6871e+25 -0.455729 -0.0477971 272.592 
5.49508e-06 -1.64852e-05 2.68675e+25 -0.323918 0.0618379 272.656 
7.40642e-06 -1.64852e-05 2.68686e+25 -0.285981 -0.0268341 272.653 
9.31775e-06 -1.64852e-05 2.68684e+25 -0.171189 -0.0044013 272.576 
1.12291e-05 -1.64852e-05 2.68766e+25 -0.0404943 -0.00522635 272.444 
1.31404e-05 -1.64852e-05 2.68687e+25 -0.0678456 0.0075162 272.608 
1.50518e-05 -1.64852e-05 2.6863e+25 -0.122543 -0.0409775 272.588 
1.69631e-05 -1.64852e-05 2.68262e+25 -0.0360294 -0.0297661 272.982 
1.67242e-06 -1.60074e-05 2.69124e+25 -0.762241 -0.0112586 272.222 
3.58375e-06 -1.60074e-05 2.68891e+25 -0.762022 -0.0784955 272.42 
5.49508e-06 -1.60074e-05 2.68794e+25 -0.521988 0.0715625 272.491 
7.40642e-06 -1.60074e-05 2.68621e+25 -0.517052 -0.0575287 272.623 
9.31775e-06 -1.60074e-05 2.6882e+25 -0.260928 -0.0752752 272.41 
1.12291e-05 -1.60074e-05 2.69038e+25 -0.253659 -0.0307336 272.209 
1.31404e-05 -1.60074e-05 2.68761e+25 -0.171882 0.0141411 272.535 
1.50518e-05 -1.60074e-05 2.68809e+25 -7.26059e-05 -0.0135783 272.401 
1.69631e-05 -1.60074e-05 2.68494e+25 -0.0164317 -0.0511933 272.844 
1.67242e-06 -1.55296e-05 2.69202e+25 -1.00664 -0.0428508 272.106 
3.58375e-06 -1.55296e-05 2.6904e+25 -0.881333 -0.0881671 272.271 
5.49508e-06 -1.55296e-05 2.68819e+25 -0.657459 -0.018982 272.407 
7.40642e-06 -1.55296e-05 2.68702e+25 -0.678217 -0.0870077 272.505 
9.31775e-06 -1.55296e-05 2.69113e+25 -0.413298 -0.163947 272.312 
1.12291e-05 -1.55296e-05 2.6923e+25 -0.31017 0.0104935 272.123 
1.31404e-05 -1.55296e-05 2.68908e+25 -0.239709 -0.0113237 272.355 
1.50518e-05 -1.55296e-05 2.68919e+25 -0.207304 -0.0394027 272.274 
1.69631e-05 -1.55296e-05 2.68554e+25 0.0559254 -0.0175687 272.864 
1.67242e-06 -1.50517e-05 2.69186e+25 -1.37907 -0.0912085 272.015 
3.58375e-06 -1.50517e-05 2.69156e+25 -0.864542 -0.0869346 272.135 
5.49508e-06 -1.50517e-05 2.69055e+25 -0.910712 -0.10213 272.268 
7.40642e-06 -1.50517e-05 2.68947e+25 -0.755187 -0.12481 272.323 
9.31775e-06 -1.50517e-05 2.68857e+25 -0.493673 -0.278675 272.327 
1.12291e-05 -1.50517e-05 2.68995e+25 -0.315596 0.0353472 272.248 
1.31404e-05 -1.50517e-05 2.69037e+25 -0.241067 -0.0555943 272.317 
1.50518e-05 -1.50517e-05 2.68858e+25 -0.204551 -0.113665 272.331 
1.69631e-05 -1.50517e-05 2.68457e+25 0.01627 0.0574637 272.9 
1.67242e-06 -1.45739e-05 2.69405e+25 -1.53273 -0.110563 271.808 
3.58375e-06 -1.45739e-05 2.69081e+25 -1.19519 -0.137908 272.102 
5.49508e-06 -1.45739e-05 2.69095e+25 -1.0754 -0.107615 272.102 
7.40642e-06 -1.45739e-05 2.69082e+25 -0.978204 -0.198467 272.24 
9.31775e-06 -1.45739e-05 2.68931e+25 -0.688029 -0.413629 272.304 
1.12291e-05 -1.45739e-05 2.68987e+25 -0.39311 -0.00512113 272.323 
1.31404e-05 -1.45739e-05 2.69052e+25 -0.196434 -0.10068 272.216 
1.50518e-05 -1.45739e-05 2.69054e+25 -0.117996 -0.128789 272.202 
1.69631e-05 -1.45739e-05 2.68462e+25 0.0081206 0.0768425 272.801 
1.67242e-06 -1.40961e-05 2.69434e+25 -1.56028 -0.166537 271.773 
3.58375e-06 -1.40961e-05 2.6927e+25 -1.45066 -0.257724 272.004 
5.49508e-06 -1.40961e-05 2.69025e+25 -1.40461 -0.0639601 272.193 
7.40642e-06 -1.40961e-05 2.69029e+25 -1.22397 -0.244185 272.244 
9.31775e-06 -1.40961e-05 2.69146e+25 -0.990544 -0.466406 272.163 
1.12291e-05 -1.40961e-05 2.69069e+25 -0.464337 -0.133464 272.238 
1.31404e-05 -1.40961e-05 2.68933e+25 -0.26335 -0.104578 272.265 
1.50518e-05 -1.40961e-05 2.69127e+25 -0.00666067 -0.150921 272.078 
1.69631e-05 -1.40961e-05 2.68589e+25 -0.0492373 0.0138142 272.715 
1.67242e-06 -1.36182e-05 2.69516e+25 -1.90858 -0.335845 271.72 
3.58375e-06 -1.36182e-05 2.69263e+25 -1.6938 -0.331103 271.967 
5.49508e-06 -1.36182e-05 2.69115e+25 -1.62178 -0.0546856 272.19 
7.40642e-06 -1.36182e-05 2.6897e+25 -1.46901 -0.355792 272.156 
9.31775e-06 -1.36182e-05 2.69014e+25 -1.03283 -0.450845 272.247 
1.12291e-05 -1.36182e-05 2.69013e+25 -0.60157 -0.170893 272.228 
1.31404e-05 -1.36182e-05 2.68974e+25 -0.298055 -0.154513 272.291 
1.50518e-05 -1.36182e-05 2.69075e+25 0.0221804 -0.166327 272.17 
1.69631e-05 -1.36182e-05 2.6854e+25 -0.0593821 -0.0714965 272.766 
1.67242e-06 -1.31404e-05 2.69423e+25 -2.14235 -0.362575 271.809 
3.58375e-06 -1.31404e-05 2.69298e+25 -1.84837 -0.372551 271.895 
5.49508e-06 -1.31404e-05 2.6908e+25 -1.68898 -0.093253 272.149 
7.40642e-06 -1.31404e-05 2.69157e+25 -1.53331 -0.492511 272.137 
9.31775e-06 -1.31404e-05 2.68959e+25 -0.990568 -0.495914 272.203 
1.12291e-05 -1.31404e-05 2.69168e+25 -0.800325 -0.26281 272.104 
1.31404e-05 -1.31404e-05 2.69035e+25 -0.322971 -0.231248 272.233 
1.50518e-05 -1.31404e-05 2.68961e+25 -0.00578957 -0.199021 272.253 
1.69631e-05 -1.31404e-05 2.68412e+25 -0.0152172 -0.148563 272.774 
1.67242e-06 -1.26626e-05 2.69364e+25 -2.37911 -0.371412 271.907 
3.58375e-06 -1.26626e-05 2.69408e+25 -2.07154 -0.430727 271.879 
5.49508e-06 -1.26626e-05 2.69146e+25 -1.85651 -0.102086 272.08 
7.40642e-06 -1.26626e-05 2.69249e+25 -1.45923 -0.611988 272.009 
9.31775e-06 -1.26626e-05 2.69109e+25 -0.992487 -0.553664 272.086 
1.12291e-05 -1.26626e-05 2.69285e+25 -0.820964 -0.408113 272.007 
1.31404e-05 -1.26626e-05 2.68997e+25 -0.385672 -0.467023 272.209 
1.50518e-05 -1.26626e-05 2.68986e+25 -0.0944127 -0.202794 272.229 
1.69631e-05 -1.26626e-05 2.68491e+25 0.0162715 -0.152307 272.864 
1.67242e-06 -1.21847e-05 2.69135e+25 -2.50351 -0.401976 272.044 
3.58375e-06 -1.21847e-05 2.69359e+25 -2.33125 -0.439532 271.848 
5.49508e-06 -1.21847e-05 2.69177e+25 -1.88818 -0.190224 271.993 
7.40642e-06 -1.21847e-05 2.69151e+25 -1.44198 -0.650158 272.053 
9.31775e-06 -1.21847e-05 2.69217e+25 -1.08002 -0.70318 272.039 
1.12291e-05 -1.21847e-05 2.69241e+25 -0.791062 -0.471757 271.987 
1.31404e-05 -1.21847e-05 2.68943e+25 -0.351835 -0.606966 272.262 
1.50518e-05 -1.21847e-05 2.69115e+25 -0.183805 -0.215927 272.165 
1.69631e-05 -1.21847e-05 2.68523e+25 0.0368108 -0.083595 272.767 
1.67242e-06 -1.17069e-05 2.69209e+25 -2.85743 -0.334724 272.042 
3.58375e-06 -1.17069e-05 2.69302e+25 -2.5743 -0.57984 271.893 
5.49508e-06 -1.17069e-05 2.69294e+25 -1.89506 -0.35757 271.974 
7.40642e-06 -1.17069e-05 2.69301e+25 -1.58425 -0.704785 271.974 
9.31775e-06 -1.17069e-05 2.69147e+25 -1.30496 -0.761106 272.097 
1.12291e-05 -1.17069e-05 2.692e+25 -0.849938 -0.497941 272.036 
1.31404e-05 -1.17069e-05 2.6913e+25 -0.436598 -0.740918 272.166 
1.50518e-05 -1.17069e-05 2.69002e+25 -0.152322 -0.278433 272.188 
1.69631e-05 -1.17069e-05 2.68545e+25 0.033895 -0.0201488 272.761 
1.67242e-06 -1.12291e-05 2.69144e+25 -3.16741 -0.331284 272.012 
3.58375e-06 -1.12291e-05 2.69361e+25 -2.80916 -0.715631 271.997 
5.49508e-06 -1.12291e-05 2.6925e+25 -2.33822 -0.559924 272.05 
7.40642e-06 -1.12291e-05 2.6923e+25 -1.72024 -0.773323 271.986 
9.31775e-06 -1.12291e-05 2.69248e+25 -1.43483 -0.785527 272.002 
1.12291e-05 -1.12291e-05 2.69175e+25 -0.942432 -0.606311 272.068 
1.31404e-05 -1.12291e-05 2.6932e+25 -0.481839 -0.770552 271.996 
1.50518e-05 -1.12291e-05 2.69072e+25 -0.10764 -0.326653 272.132 
1.69631e-05 -1.12291e-05 2.68613e+25 -0.0223891 -0.0140761 272.718 
1.67242e-06 -1.07512e-05 2.69337e+25 -3.32153 -0.39879 271.919 
3.58375e-06 -1.07512e-05 2.69249e+25 -3.02322 -0.775848 272.059 
5.49508e-06 -1.07512e-05 2.69137e+25 -2.63392 -0.737203 272.101 
7.40642e-06 -1.07512e-05 2.69195e+25 -1.89881 -0.884111 272.041 
9.31775e-06 -1.07512e-05 2.69228e+25 -1.65325 -0.868787 271.995 
1.12291e-05 -1.07512e-05 2.69131e+25 -1.11136 -0.819565 272.023 
1.31404e-05 -1.07512e-05 2.69208e+25 -0.487323 -0.912395 272.047 
1.50518e-05 -1.07512e-05 2.6919e+25 0.000242531 -0.398693 272.104 
1.69631e-05 -1.07512e-05 2.68547e+25 -0.0080336 -0.0529702 272.751 
1.67242e-06 -1.02734e-05 2.69297e+25 -3.59335 -0.527361 271.998 
3.58375e-06 -1.02734e-05 2.69071e+25 -3.30147 -0.79411 272.032 
5.49508e-06 -1.02734e-05 2.6918e+25 -2.86137 -0.959467 272.114 
7.40642e-06 -1.02734e-05 2.69265e+25 -2.04218 -1.0195 272.071 
9.31775e-06 -1.02734e-05 2.6914e+25 -1.7805 -0.962639 272.019 
1.12291e-05 -1.02734e-05 2.69339e+25 -1.19131 -1.02195 271.924 
1.31404e-05 -1.02734e-05 2.69327e+25 -0.415497 -0.94443 271.975 
1.50518e-05 -1.02734e-05 2.69231e+25 -0.11989 -0.446255 272.103 
1.69631e-05 -1.02734e-05 2.68628e+25 0.0345886 -0.0183083 272.658 
1.67242e-06 -9.79558e-06 2.69228e+25 -3.85 -0.530129 272.032 
3.58375e-06 -9.79558e-06 2.6929e+25 -3.82065 -0.815148 271.992 
5.49508e-06 -9.79558e-06 2.69251e+25 -3.11538 -1.1593 272.052 
7.40642e-06 -9.79558e-06 2.69316e+25 -2.26762 -1.12597 271.979 
9.31775e-06 -9.79558e-06 2.69175e+25 -1.70995 -1.08649 272.027 
1.12291e-05 -9.79558e-06 2.6949e+25 -1.07707 -1.23637 271.851 
1.31404e-05 -9.79558e-06 2.69409e+25 -0.34606 -0.974668 271.851 
1.50518e-05 -9.79558e-06 2.69204e+25 -0.160159 -0.597101 272.074 
1.69631e-05 -9.79558e-06 2.68476e+25 -0.0425116 -0.0197747 272.714 
1.67242e-06 -9.31775e-06 2.69192e+25 -4.22437 -0.471503 271.956 
3.58375e-06 -9.31775e-06 2.69332e+25 -4.14744 -0.990884 271.929 
5.49508e-06 -9.31775e-06 2.69248e+25 -3.2645 -1.26027 271.995 
7.40642e-06 -9.31775e-06 2.69298e+25 -2.58054 -1.29062 272.002 
9.31775e-06 -9.31775e-06 2.69322e+25 -1.81675 -1.27287 272.01 
1.12291e-05 -9.31775e-06 2.69436e+25 -1.08103 -1.41146 271.844 
1.31404e-05 -9.31775e-06 2.69365e+25 -0.420784 -1.08601 271.91 
1.50518e-05 -9.31775e-06 2.69255e+25 -0.0797011 -0.693591 271.971 
1.69631e-05 -9.31775e-06 2.68491e+25 -0.00965938 -0.0470015 272.746 
1.67242e-06 -8.83992e-06 2.6901e+25 -4.53442 -0.380052 272.097 
3.58375e-06 -8.83992e-06 2.69299e+25 -4.28423 -1.22717 271.943 
5.49508e-06 -8.83992e-06 2.69157e+25 -3.75477 -1.45786 272.076 
7.40642e-06 -8.83992e-06 2.6935e+25 -2.81778 -1.51538 271.959 
9.31775e-06 -8.83992e-06 2.69304e+25 -1.97994 -1.51846 271.995 
1.12291e-05 -8.83992e-06 2.69376e+25 -1.24141 -1.57056 271.874 
1.31404e-05 -8.83992e-06 2.69199e+25 -0.445206 -1.30207 272.036 
1.50518e-05 -8.83992e-06 2.69141e+25 0.0666367 -0.687225 272.061 
1.69631e-05 -8.83992e-06 2.68504e+25 0.0429329 0.0194391 272.842 
1.67242e-06 -8.36208e-06 2.69198e+25 -4.89232 -0.341272 272.065 
3.58375e-06 -8.36208e-06 2.69236e+25 -4.48423 -1.34459 271.986 
5.49508e-06 -8.36208e-06 2.68983e+25 -4.05471 -1.62615 272.201 
7.40642e-06 -8.36208e-06 2.69287e+25 -3.12096 -1.75645 271.994 
9.31775e-06 -8.36208e-06 2.69308e+25 -2.23269 -1.72664 271.922 
1.12291e-05 -8.36208e-06 2.69264e+25 -1.24855 -1.82438 271.969 
1.31404e-05 -8.36208e-06 2.69334e+25 -0.627732 -1.49075 271.927 
1.50518e-05 -8.36208e-06 2.69016e+25 0.0680493 -0.74516 272.188 
1.69631e-05 -8.36208e-06 2.68507e+25 -0.00523126 0.0524146 272.741 
1.67242e-06 -7.88425e-06 2.6925e+25 -5.12948 -0.411269 272.046 
3.58375e-06 -7.88425e-06 2.69079e+25 -4.66931 -1.43366 272.186 
5.49508e-06 -7.88425e-06 2.69044e+25 -4.33506 -1.82107 272.134 
7.40642e-06 -7.88425e-06 2.6916e+25 -3.6084 -2.02482 272.059 
9.31775e-06 -7.88425e-06 2.69296e+25 -2.46997 -1.97588 272.02 
1.12291e-05 -7.88425e-06 2.69242e+25 -1.38692 -2.09845 271.995 
1.31404e-05 -7.88425e-06 2.69257e+25 -0.788797 -1.67539 272.095 
1.50518e-05 -7.88425e-06 2.69101e+25 -0.0865532 -0.811481 272.195 
1.69631e-05 -7.88425e-06 2.68551e+25 -0.0248831 0.00664241 272.761 
1.67242e-06 -7.40642e-06 2.69157e+25 -5.36095 -0.466076 271.973 
3.58375e-06 -7.40642e-06 2.69121e+25 -5.02984 -1.48277 272.136 
5.49508e-06 -7.40642e-06 2.69101e+25 -4.51011 -2.01182 272.141 
7.40642e-06 -7.40642e-06 2.69045e+25 -3.85286 -2.28233 272.218 
9.31775e-06 -7.40642e-06 2.69253e+25 -2.8212 -2.24528 271.962 
1.12291e-05 -7.40642e-06 2.69301e+25 -1.63738 -2.29459 271.947 
1.31404e-05 -7.40642e-06 2.69106e+25 -0.821366 -1.86656 272.096 
1.50518e-05 -7.40642e-06 2.69047e+25 -0.231613 -0.90812 272.136 
1.69631e-05 -7.40642e-06 2.68391e+25 -0.0159331 -0.0460666 272.792 
1.67242e-06 -6.92858e-06 2.69162e+25 -5.67461 -0.536803 272.012 
3.58375e-06 -6.92858e-06 2.69089e+25 -5.51678 -1.56468 272.141 
5.49508e-06 -6.92858e-06 2.69154e+25 -4.81243 -2.19694 272.123 
7.40642e-06 -6.92858e-06 2.68991e+25 -4.08129 -2.48809 272.226 
9.31775e-06 -6.92858e-06 2.69214e+25 -3.03961 -2.49368 272.019 
1.12291e-05 -6.92858e-06 2.69396e+25 -1.8301 -2.56689 271.916 
1.31404e-05 -6.92858e-06 2.69101e+25 -0.875037 -1.95087 272.035 
1.50518e-05 -6.92858e-06 2.68966e+25 -0.234337 -1.02108 272.235 
1.69631e-05 -6.92858e-06 2.68564e+25 0.04888 0.0184239 272.774 
1.67242e-06 -6.45075e-06 2.69187e+25 -5.937 -0.668551 272.133 
3.58375e-06 -6.45075e-06 2.69034e+25 -5.79526 -1.63376 272.113 
5.49508e-06 -6.45075e-06 2.6916e+25 -5.24445 -2.36101 272.06 
7.40642e-06 -6.45075e-06 2.68956e+25 -4.33416 -2.63379 272.226 
9.31775e-06 -6.45075e-06 2.69217e+25 -3.19042 -2.8527 272.025 
1.12291e-05 -6.45075e-06 2.69448e+25 -2.04954 -2.86257 271.877 
1.31404e-05 -6.45075e-06 2.69108e+25 -1.05939 -2.10194 272.091 
1.50518e-05 -6.45075e-06 2.68927e+25 -0.426577 -1.08258 272.286 
1.69631e-05 -6.45075e-06 2.68426e+25 -0.0594462 0.0285555 272.862 
1.67242e-06 -5.97292e-06 2.69128e+25 -6.10545 -0.740506 272.159 
3.58375e-06 -5.97292e-06 2.6899e+25 -6.01614 -1.60987 272.231 
5.49508e-06 -5.97292e-06 2.69219e+25 -5.48011 -2.54075 272.066 
7.40642e-06 -5.97292e-06 2.68927e+25 -4.63096 -2.93349 272.264 
9.31775e-06 -5.97292e-06 2.6926e+25 -3.42412 -3.19406 271.985 
1.12291e-05 -5.97292e-06 2.6928e+25 -2.21124 -3.13136 272 
1.31404e-05 -5.97292e-06 2.69078e+25 -1.19762 -2.3916 272.136 
1.50518e-05 -5.97292e-06 2.69011e+25 -0.643306 -1.27281 272.171 
1.69631e-05 -5.97292e-06 2.68347e+25 -0.00681016 -0.0425926 272.893 
1.67242e-06 -5.49508e-06 2.69107e+25 -6.17205 -0.739515 272.147 
3.58375e-06 -5.49508e-06 2.69099e+25 -6.17448 -1.72877 272.177 
5.49508e-06 -5.49508e-06 2.69189e+25 -5.81187 -2.74357 272.201 
7.40642e-06 -5.49508e-06 2.68966e+25 -4.85684 -3.28653 272.219 
9.31775e-06 -5.49508e-06 2.69146e+25 -3.70467 -3.52157 272.068 
1.12291e-05 -5.49508e-06 2.691e+25 -2.40599 -3.45722 272.059 
1.31404e-05 -5.49508e-06 2.69122e+25 -1.26775 -2.66965 272.136 
1.50518e-05 -5.49508e-06 2.69139e+25 -0.633922 -1.44227 272.077 
1.69631e-05 -5.49508e-06 2.68555e+25 -0.0322688 -0.0988936 272.808 
1.67242e-06 -5.01725e-06 2.69002e+25 -6.48377 -0.750188 272.155 
3.58375e-06 -5.01725e-06 2.69156e+25 -6.45263 -1.79474 272.069 
5.49508e-06 -5.01725e-06 2.69119e+25 -6.00893 -2.93054 272.114 
7.40642e-06 -5.01725e-06 2.68873e+25 -5.10726 -3.52015 272.34 
9.31775e-06 -5.01725e-06 2.69203e+25 -3.86856 -3.87365 272.111 
1.12291e-05 -5.01725e-06 2.69041e+25 -2.48893 -3.77525 272.143 
1.31404e-05 -5.01725e-06 2.69151e+25 -1.2904 -2.89022 272.109 
1.50518e-05 -5.01725e-06 2.69058e+25 -0.395628 -1.50024 272.09 
1.69631e-05 -5.01725e-06 2.68495e+25 -0.0229812 -0.176044 272.78 
1.67242e-06 -4.53942e-06 2.69084e+25 -6.63675 -0.749317 272.193 
3.58375e-06 -4.53942e-06 2.69129e+25 -6.78346 -1.77834 272.034 
5.49508e-06 -4.53942e-06 2.69035e+25 -6.37736 -3.07214 272.12 
7.40642e-06 -4.53942e-06 2.68864e+25 -5.46811 -3.78401 272.284 
9.31775e-06 -4.53942e-06 2.69245e+25 -4.23504 -4.21868 272.005 
1.12291e-05 -4.53942e-06 2.6915e+25 -2.7161 -4.11707 272.118 
1.31404e-05 -4.53942e-06 2.69118e+25 -1.24862 -3.16877 272.123 
1.50518e-05 -4.53942e-06 2.69249e+25 -0.317215 -1.62791 271.991 
1.69631e-05 -4.53942e-06 2.6832e+25 -0.00841414 -0.199444 272.846 
1.67242e-06 -4.06158e-06 2.6899e+25 -6.98996 -0.645167 272.247 
3.58375e-06 -4.06158e-06 2.69108e+25 -7.17877 -1.8108 272.114 
5.49508e-06 -4.06158e-06 2.69154e+25 -6.66821 -3.25221 272.097 
7.40642e-06 -4.06158e-06 2.69043e+25 -5.85082 -4.01723 272.205 
9.31775e-06 -4.06158e-06 2.69131e+25 -4.42341 -4.62383 272.152 
1.12291e-05 -4.06158e-06 2.69024e+25 -2.81485 -4.48367 272.147 
1.31404e-05 -4.06158e-06 2.69071e+25 -1.426 -3.50121 272.219 
1.50518e-05 -4.06158e-06 2.69143e+25 -0.25216 -1.8673 271.949 
1.69631e-05 -4.06158e-06 2.68443e+25 -0.0105726 -0.222428 272.747 
1.67242e-06 -3.58375e-06 2.68905e+25 -7.27526 -0.448508 272.225 
3.58375e-06 -3.58375e-06 2.68921e+25 -7.58431 -1.94276 272.181 
5.49508e-06 -3.58375e-06 2.69188e+25 -7.03739 -3.38639 272.063 
7.40642e-06 -3.58375e-06 2.69094e+25 -6.13847 -4.28102 272.182 
9.31775e-06 -3.58375e-06 2.69245e+25 -4.64386 -4.99105 272.077 
1.12291e-05 -3.58375e-06 2.69122e+25 -2.87241 -4.86462 272.204 
1.31404e-05 -3.58375e-06 2.6899e+25 -1.4608 -3.78874 272.282 
1.50518e-05 -3.58375e-06 2.69259e+25 -0.379606 -2.10587 271.984 
1.69631e-05 -3.58375e-06 2.68617e+25 -0.00331418 -0.239189 272.659 
1.67242e-06 -3.10592e-06 2.68889e+25 -7.56427 -0.283825 272.25 
3.58375e-06 -3.10592e-06 2.68985e+25 -7.82148 -2.07565 272.192 
5.49508e-06 -3.10592e-06 2.68997e+25 -7.33105 -3.52604 272.141 
7.40642e-06 -3.10592e-06 2.6887e+25 -6.42437 -4.53898 272.273 
9.31775e-06 -3.10592e-06 2.69083e+25 -4.7398 -5.397 272.08 
1.12291e-05 -3.10592e-06 2.69059e+25 -3.05756 -5.29553 272.26 
1.31404e-05 -3.10592e-06 2.68944e+25 -1.56325 -4.08366 272.26 
1.50518e-05 -3.10592e-06 2.69167e+25 -0.384021 -2.30588 272.085 
1.69631e-05 -3.10592e-06 2.68468e+25 -0.0289354 -0.280258 272.714 
1.67242e-06 -2.62808e-06 2.68946e+25 -7.62864 -0.194347 272.125 
3.58375e-06 -2.62808e-06 2.68917e+25 -7.88385 -2.13394 272.217 
5.49508e-06 -2.62808e-06 2.68961e+25 -7.47221 -3.71509 272.29 
7.40642e-06 -2.62808e-06 2.68932e+25 -6.69253 -4.86177 272.31 
9.31775e-06 -2.62808e-06 2.69094e+25 -5.05689 -5.79038 272.11 
1.12291e-05 -2.62808e-06 2.69041e+25 -3.43352 -5.69861 272.205 
1.31404e-05 -2.62808e-06 2.69057e+25 -1.72026 -4.49609 272.246 
1.50518e-05 -2.62808e-06 2.69026e+25 -0.415595 -2.56158 272.091 
1.69631e-05 -2.62808e-06 2.68413e+25 -0.039891 -0.3501 272.826 
1.67242e-06 -2.15025e-06 2.69065e+25 -7.83761 -0.146389 271.984 
3.58375e-06 -2.15025e-06 2.68882e+25 -7.86744 -2.13264 272.269 
5.49508e-06 -2.15025e-06 2.68997e+25 -7.5397 -3.84381 272.296 
7.40642e-06 -2.15025e-06 2.68967e+25 -6.86625 -5.20087 272.297 
9.31775e-06 -2.15025e-06 2.69097e+25 -5.26215 -6.24083 272.248 
1.12291e-05 -2.15025e-06 2.69059e+25 -3.57933 -6.14453 272.14 
1.31404e-05 -2.15025e-06 2.68986e+25 -1.83252 -4.89796 272.292 
1.50518e-05 -2.15025e-06 2.6903e+25 -0.443309 -2.82092 272.141 
1.69631e-05 -2.15025e-06 2.6838e+25 -0.0147431 -0.382625 272.829 
1.67242e-06 -1.67242e-06 2.69168e+25 -7.91564 -0.127833 271.943 
3.58375e-06 -1.67242e-06 2.687e+25 -7.92465 -2.14825 272.347 
5.49508e-06 -1.67242e-06 2.68898e+25 -7.71113 -4.03137 272.165 
7.40642e-06 -1.67242e-06 2.68787e+25 -6.944 -5.48914 272.428 
9.31775e-06 -1.67242e-06 2.69061e+25 -5.46754 -6.70248 272.189 
1.12291e-05 -1.67242e-06 2.69044e+25 -3.7887 -6.58394 272.253 
1.31404e-05 -1.67242e-06 2.6907e+25 -1.98292 -5.27468 272.132 
1.50518e-05 -1.67242e-06 2.69113e+25 -0.537211 -3.11167 272.13 
1.69631e-05 -1.67242e-06 2.68568e+25 -0.0453641 -0.43548 272.712 
1.67242e-06 -1.19458e-06 2.69071e+25 -7.87257 -0.00608485 271.965 
3.58375e-06 -1.19458e-06 2.68722e+25 -7.8674 -2.09637 272.41 
5.49508e-06 -1.19458e-06 2.68868e+25 -7.73885 -4.12057 272.174 
7.40642e-06 -1.19458e-06 2.68786e+25 -6.96823 -5.77894 272.308 
9.31775e-06 -1.19458e-06 2.69112e+25 -5.73279 -7.12964 272.185 
1.12291e-05 -1.19458e-06 2.69027e+25 -4.02146 -6.99861 272.2 
1.31404e-05 -1.19458e-06 2.69156e+25 -2.19972 -5.74052 272.104 
1.50518e-05 -1.19458e-06 2.68989e+25 -0.702058 -3.36 272.159 
1.69631e-05 -1.19458e-06 2.68406e+25 0.0248715 -0.460002 272.764 
1.67242e-06 -7.1675e-07 2.68937e+25 -7.83473 0.0783417 272.059 
3.58375e-06 -7.1675e-07 2.68807e+25 -7.8865 -2.05738 272.275 
5.49508e-06 -7.1675e-07 2.68882e+25 -7.83422 -4.08266 272.26 
7.40642e-06 -7.1675e-07 2.68902e+25 -7.21162 -6.12097 272.185 
9.31775e-06 -7.1675e-07 2.69148e+25 -6.03581 -7.48177 272.126 
1.12291e-05 -7.1675e-07 2.68904e+25 -4.18854 -7.45169 272.29 
1.31404e-05 -7.1675e-07 2.69133e+25 -2.2433 -6.25499 272.136 
1.50518e-05 -7.1675e-07 2.68997e+25 -0.840314 -3.60657 272.213 
1.69631e-05 -7.1675e-07 2.68504e+25 0.00055721 -0.448072 272.683 
1.67242e-06 -2.38917e-07 2.68807e+25 -7.91964 0.166938 271.987 
3.58375e-06 -2.38917e-07 2.68647e+25 -7.96868 -2.14667 272.255 
5.49508e-06 -2.38917e-07 2.68602e+25 -7.88185 -4.08721 272.304 
7.40642e-06 -2.38917e-07 2.68731e+25 -7.48177 -6.34788 272.157 
9.31775e-06 -2.38917e-07 2.6878e+25 -6.18062 -7.86167 272.154 
1.12291e-05 -2.38917e-07 2.68701e+25 -4.43589 -7.90476 272.382 
1.31404e-05 -2.38917e-07 2.68923e+25 -2.51537 -6.72631 272.1 
1.50518e-05 -2.38917e-07 2.68876e+25 -0.904852 -3.9214 272.188 
1.69631e-05 -2.38917e-07 2.6829e+25 -0.00434014 -0.46211 272.689 
1.67242e-06 2.38917e-07 2.68701e+25 -8.08971 0.184633 272.067 
3.58375e-06 2.38917e-07 2.68697e+25 -8.10399 -2.28343 272.118 
5.49508e-06 2.38917e-07 2.68627e+25 -8.02494 -4.13579 272.222 
7.40642e-06 2.38917e-07 2.68763e+25 -7.58771 -6.53021 272.182 
9.31775e-06 2.38917e-07 2.68698e+25 -6.32905 -8.20456 272.224 
1.12291e-05 2.38917e-07 2.68663e+25 -4.66589 -8.40346 272.325 
1.31404e-05 2.38917e-07 2.68747e+25 -2.73326 -7.28714 272.222 
1.50518e-05 2.38917e-07 2.68835e+25 -0.843807 -4.3362 272.238 
1.69631e-05 2.38917e-07 2.68116e+25 -0.0261 -0.495304 272.822 
1.67242e-06 7.1675e-07 2.68918e+25 -7.94515 0.262187 272.031 
3.58375e-06 7.1675e-07 2.68852e+25 -8.21693 -2.26936 272.112 
5.49508e-06 7.1675e-07 2.68875e+25 -8.0637 -4.15672 272.173 
7.40642e-06 7.1675e-07 2.68877e+25 -7.62093 -6.57268 272.181 
9.31775e-06 7.1675e-07 2.68981e+25 -6.55461 -8.51021 272.265 
1.12291e-05 7.1675e-07 2.68954e+25 -4.98669 -8.92789 272.299 
1.31404e-05 7.1675e-07 2.68999e+25 -2.88611 -7.7708 272.235 
1.50518e-05 7.1675e-07 2.68833e+25 -0.961281 -4.72088 272.301 
1.69631e-05 7.1675e-07 2.68312e+25 -0.0545646 -0.56022 272.934 
1.67242e-06 1.19458e-06 2.68812e+25 -7.66502 0.442323 272.077 
3.58375e-06 1.19458e-06 2.68961e+25 -8.14524 -2.1594 272.034 
5.49508e-06 1.19458e-06 2.68934e+25 -8.12626 -4.23592 272.147 
7.40642e-06 1.19458e-06 2.68998e+25 -7.64341 -6.71012 272.219 
9.31775e-06 1.19458e-06 2.68843e+25 -6.72183 -8.90223 272.326 
1.12291e-05 1.19458e-06 2.68937e+25 -5.2106 -9.42093 272.281 
1.31404e-05 1.19458e-06 2.68951e+25 -2.96261 -8.2574 272.241 
1.50518e-05 1.19458e-06 2.68912e+25 -1.03266 -5.03928 272.273 
1.69631e-05 1.19458e-06 2.68295e+25 -0.0210847 -0.637717 272.887 
1.67242e-06 1.67242e-06 2.68755e+25 -7.41745 0.632827 272.11 
3.58375e-06 1.67242e-06 2.68986e+25 -7.95674 -2.10327 271.975 
5.49508e-06 1.67242e-06 2.68967e+25 -8.10664 -4.3735 272.012 
7.40642e-06 1.67242e-06 2.68762e+25 -7.651 -6.94864 272.291 
9.31775e-06 1.67242e-06 2.68768e+25 -6.86352 -9.18811 272.325 
1.12291e-05 1.67242e-06 2.68888e+25 -5.38706 -9.917 272.322 
1.31404e-05 1.67242e-06 2.6881e+25 -3.15061 -8.8099 272.34 
1.50518e-05 1.67242e-06 2.68808e+25 -1.14401 -5.49584 272.337 
1.69631e-05 1.67242e-06 2.684e+25 -0.027523 -0.710406 272.953 
1.67242e-06 2.15025e-06 2.68755e+25 -7.02601 0.901387 272.148 
3.58375e-06 2.15025e-06 2.68931e+25 -7.78669 -1.99128 272.061 
5.49508e-06 2.15025e-06 2.68976e+25 -8.06961 -4.47193 271.949 
7.40642e-06 2.15025e-06 2.68699e+25 -7.62938 -7.09505 272.265 
9.31775e-06 2.15025e-06 2.68732e+25 -7.06776 -9.38602 272.302 
1.12291e-05 2.15025e-06 2.6887e+25 -5.4397 -10.5386 272.297 
1.31404e-05 2.15025e-06 2.68902e+25 -3.30049 -9.29647 272.255 
1.50518e-05 2.15025e-06 2.68991e+25 -1.127 -5.97882 272.235 
1.69631e-05 2.15025e-06 2.68387e+25 -0.0278629 -0.788191 272.808 
1.67242e-06 2.62808e-06 2.68935e+25 -6.67717 1.12627 272.015 
3.58375e-06 2.62808e-06 2.68897e+25 -7.52459 -1.80381 272.045 
5.49508e-06 2.62808e-06 2.68994e+25 -7.82188 -4.51775 271.993 
7.40642e-06 2.62808e-06 2.68682e+25 -7.68571 -7.21087 272.272 
9.31775e-06 2.62808e-06 2.6863e+25 -7.16785 -9.59189 272.455 
1.12291e-05 2.62808e-06 2.6883e+25 -5.73105 -11.0154 272.381 
1.31404e-05 2.62808e-06 2.68988e+25 -3.52903 -9.80266 272.139 
1.50518e-05 2.62808e-06 2.68992e+25 -1.21542 -6.49255 272.242 
1.69631e-05 2.62808e-06 2.68418e+25 0.0380711 -0.805912 272.85 
1.67242e-06 3.10592e-06 2.68921e+25 -6.28633 1.32691 271.936 
3.58375e-06 3.10592e-06 2.68662e+25 -7.1642 -1.58798 272.17 
5.49508e-06 3.10592e-06 2.69008e+25 -7.66155 -4.51 271.943 
7.40642e-06 3.10592e-06 2.68838e+25 -7.6473 -7.20416 272.147 
9.31775e-06 3.10592e-06 2.68706e+25 -7.2721 -9.79908 272.418 
1.12291e-05 3.10592e-06 2.68753e+25 -5.85841 -11.4567 272.377 
1.31404e-05 3.10592e-06 2.69066e+25 -3.65656 -10.3941 272.187 
1.50518e-05 3.10592e-06 2.69048e+25 -1.22945 -6.95298 272.191 
1.69631e-05 3.10592e-06 2.68257e+25 -0.029165 -0.820735 272.893 
1.67242e-06 3.58375e-06 2.68826e+25 -5.88361 1.48717 272.025 
3.58375e-06 3.58375e-06 2.6872e+25 -6.66375 -1.36761 272.094 
5.49508e-06 3.58375e-06 2.68647e+25 -7.54671 -4.42207 272.239 
7.40642e-06 3.58375e-06 2.68642e+25 -7.48165 -7.24358 272.323 
9.31775e-06 3.58375e-06 2.68801e+25 -7.37366 -9.97835 272.304 
1.12291e-05 3.58375e-06 2.68903e+25 -5.9821 -11.9266 272.289 
1.31404e-05 3.58375e-06 2.69045e+25 -3.8209 -11.0835 272.184 
1.50518e-05 3.58375e-06 2.69148e+25 -1.27759 -7.49596 272.065 
1.69631e-05 3.58375e-06 2.68391e+25 -0.0251119 -0.875002 272.853 
1.67242e-06 4.06158e-06 2.68838e+25 -5.34877 1.54471 272.018 
3.58375e-06 4.06158e-06 2.68772e+25 -6.17432 -1.16854 272.105 
5.49508e-06 4.06158e-06 2.68669e+25 -7.05722 -4.21085 272.203 
7.40642e-06 4.06158e-06 2.68701e+25 -7.26814 -7.18439 272.308 
9.31775e-06 4.06158e-06 2.68784e+25 -7.19294 -10.1361 272.273 
1.12291e-05 4.06158e-06 2.6883e+25 -6.06678 -12.3511 272.248 
1.31404e-05 4.06158e-06 2.68961e+25 -3.89806 -11.8058 272.217 
1.50518e-05 4.06158e-06 2.69115e+25 -1.36252 -8.08317 272.109 
1.69631e-05 4.06158e-06 2.68463e+25 -0.0499929 -0.96788 272.916 
1.67242e-06 4.53942e-06 2.68811e+25 -4.96288 1.53095 272.03 
3.58375e-06 4.53942e-06 2.68709e+25 -5.67239 -0.915607 272.1 
5.49508e-06 4.53942e-06 2.6862e+25 -6.49415 -4.06351 272.172 
7.40642e-06 4.53942e-06 2.68766e+25 -7.0546 -7.19525 272.202 
9.31775e-06 4.53942e-06 2.68768e+25 -7.0471 -10.3486 272.235 
1.12291e-05 4.53942e-06 2.68853e+25 -6.10959 -12.7499 272.293 
1.31404e-05 4.53942e-06 2.6907e+25 -3.99163 -12.4824 272.151 
1.50518e-05 4.53942e-06 2.69148e+25 -1.41799 -8.61483 272.133 
1.69631e-05 4.53942e-06 2.68428e+25 -0.040715 -1.05958 272.868 
1.67242e-06 5.01725e-06 2.68761e+25 -4.63702 1.5707 272.072 
3.58375e-06 5.01725e-06 2.68732e+25 -5.11426 -0.691605 272.095 
5.49508e-06 5.01725e-06 2.68675e+25 -5.95136 -3.88736 272.197 
7.40642e-06 5.01725e-06 2.68722e+25 -6.76184 -7.12287 272.245 
9.31775e-06 5.01725e-06 2.68714e+25 -6.79884 -10.4747 272.239 
1.12291e-05 5.01725e-06 2.68685e+25 -5.99511 -13.0202 272.302 
1.31404e-05 5.01725e-06 2.69024e+25 -3.99542 -13.1116 272.189 
1.50518e-05 5.01725e-06 2.69121e+25 -1.5241 -9.11384 272.23 
1.69631e-05 5.01725e-06 2.68515e+25 -0.0667914 -1.19405 272.792 
1.67242e-06 5.49508e-06 2.68803e+25 -4.03157 1.73886 272.01 
3.58375e-06 5.49508e-06 2.68779e+25 -4.61029 -0.491254 272.01 
5.49508e-06 5.49508e-06 2.68722e+25 -5.49721 -3.73524 272.156 
7.40642e-06 5.49508e-06 2.68739e+25 -6.30006 -6.99858 272.184 
9.31775e-06 5.49508e-06 2.68825e+25 -6.63533 -10.5696 272.26 
1.12291e-05 5.49508e-06 2.68862e+25 -5.86193 -13.3185 272.194 
1.31404e-05 5.49508e-06 2.68922e+25 -4.16996 -13.6921 272.283 
1.50518e-05 5.49508e-06 2.69097e+25 -1.56873 -9.69949 272.254 
1.69631e-05 5.49508e-06 2.68636e+25 -0.0815485 -1.34217 272.658 
1.67242e-06 5.97292e-06 2.68867e+25 -3.4098 1.89072 271.98 
3.58375e-06 5.97292e-06 2.68724e+25 -4.12552 -0.287234 272.01 
5.49508e-06 5.97292e-06 2.68716e+25 -4.98841 -3.3902 272.117 
7.40642e-06 5.97292e-06 2.68835e+25 -5.87063 -6.85662 272.091 
9.31775e-06 5.97292e-06 2.68805e+25 -6.23326 -10.6139 272.259 
1.12291e-05 5.97292e-06 2.68959e+25 -5.83408 -13.6201 272.199 
1.31404e-05 5.97292e-06 2.69045e+25 -4.0863 -14.3242 272.211 
1.50518e-05 5.97292e-06 2.68951e+25 -1.64023 -10.3481 272.261 
1.69631e-05 5.97292e-06 2.68465e+25 -0.0427669 -1.46732 272.757 
1.67242e-06 6.45075e-06 2.68637e+25 -2.93585 2.01232 272.068 
3.58375e-06 6.45075e-06 2.68734e+25 -3.47034 -0.116413 271.991 
5.49508e-06 6.45075e-06 2.68636e+25 -4.24417 -3.01773 272.173 
7.40642e-06 6.45075e-06 2.68842e+25 -5.31541 -6.69279 272.025 
9.31775e-06 6.45075e-06 2.68859e+25 -5.92095 -10.6188 272.087 
1.12291e-05 6.45075e-06 2.68812e+25 -5.71016 -13.8597 272.321 
1.31404e-05 6.45075e-06 2.69028e+25 -4.29058 -14.8735 272.221 
1.50518e-05 6.45075e-06 2.6907e+25 -1.75257 -10.9302 272.331 
1.69631e-05 6.45075e-06 2.68517e+25 -0.0295671 -1.57971 272.8 
1.67242e-06 6.92858e-06 2.68859e+25 -2.36758 2.1162 271.934 
3.58375e-06 6.92858e-06 2.68837e+25 -2.84041 0.0412195 271.933 
5.49508e-06 6.92858e-06 2.68729e+25 -3.56807 -2.74547 272.082 
7.40642e-06 6.92858e-06 2.68894e+25 -4.57685 -6.43756 271.947 
9.31775e-06 6.92858e-06 2.68819e+25 -5.40568 -10.4855 272.133 
1.12291e-05 6.92858e-06 2.68764e+25 -5.44293 -14.0046 272.412 
1.31404e-05 6.92858e-06 2.69069e+25 -4.36068 -15.2897 272.233 
1.50518e-05 6.92858e-06 2.69188e+25 -1.94575 -11.5256 272.185 
1.69631e-05 6.92858e-06 2.68604e+25 -0.0354542 -1.65468 272.787 
1.67242e-06 7.40642e-06 2.68963e+25 -1.54066 2.09794 271.843 
3.58375e-06 7.40642e-06 2.68797e+25 -2.02434 0.209987 272.005 
5.49508e-06 7.40642e-06 2.68747e+25 -2.6973 -2.56753 272.038 
7.40642e-06 7.40642e-06 2.68811e+25 -3.72129 -6.21111 272.052 
9.31775e-06 7.40642e-06 2.68762e+25 -4.64885 -10.3024 272.161 
1.12291e-05 7.40642e-06 2.68711e+25 -5.10254 -14.0333 272.474 
1.31404e-05 7.40642e-06 2.69044e+25 -4.25911 -15.7844 272.237 
1.50518e-05 7.40642e-06 2.69217e+25 -1.9866 -12.1975 272.183 
1.69631e-05 7.40642e-06 2.68615e+25 -0.124044 -1.87547 272.742 
1.67242e-06 7.88425e-06 2.68748e+25 -0.79036 2.14843 271.941 
3.58375e-06 7.88425e-06 2.68736e+25 -1.08976 0.365765 272.007 
5.49508e-06 7.88425e-06 2.68629e+25 -1.81639 -2.41513 272.129 
7.40642e-06 7.88425e-06 2.68688e+25 -2.65007 -5.99303 272.108 
9.31775e-06 7.88425e-06 2.68708e+25 -3.83602 -10.0576 272.259 
1.12291e-05 7.88425e-06 2.68815e+25 -4.78926 -14.0142 272.343 
1.31404e-05 7.88425e-06 2.69148e+25 -4.19955 -16.2607 272.198 
1.50518e-05 7.88425e-06 2.69198e+25 -1.89653 -12.8479 272.226 
1.69631e-05 7.88425e-06 2.68694e+25 -0.060334 -2.08511 272.729 
1.67242e-06 8.36208e-06 2.68773e+25 -0.0764084 2.22384 271.915 
3.58375e-06 8.36208e-06 2.68672e+25 -0.214099 0.406025 272.059 
5.49508e-06 8.36208e-06 2.68631e+25 -0.801889 -2.27722 272.153 
7.40642e-06 8.36208e-06 2.6884e+25 -1.63577 -5.70756 272.01 
9.31775e-06 8.36208e-06 2.68624e+25 -3.13428 -9.64439 272.263 
1.12291e-05 8.36208e-06 2.69018e+25 -4.42951 -13.8441 272.268 
1.31404e-05 8.36208e-06 2.69183e+25 -4.16555 -16.6962 272.269 
1.50518e-05 8.36208e-06 2.69152e+25 -1.99236 -13.4672 272.255 
1.69631e-05 8.36208e-06 2.68499e+25 -0.0436491 -2.18937 272.886 
1.67242e-06 8.83992e-06 2.68901e+25 0.865353 2.23184 271.825 
3.58375e-06 8.83992e-06 2.68749e+25 0.794066 0.478124 271.959 
5.49508e-06 8.83992e-06 2.68711e+25 0.290433 -2.15585 272.08 
7.40642e-06 8.83992e-06 2.68696e+25 -0.625678 -5.36919 272.107 
9.31775e-06 8.83992e-06 2.68765e+25 -2.31454 -9.14253 272.264 
1.12291e-05 8.83992e-06 2.6901e+25 -3.79962 -13.5623 272.257 
1.31404e-05 8.83992e-06 2.69146e+25 -4.0866 -16.898 272.353 
1.50518e-05 8.83992e-06 2.69277e+25 -2.13536 -14.1303 272.268 
1.69631e-05 8.83992e-06 2.68768e+25 -0.0902041 -2.30102 272.783 
1.67242e-06 9.31775e-06 2.68701e+25 1.84546 2.30359 271.937 
3.58375e-06 9.31775e-06 2.68506e+25 1.75448 0.44251 272.129 
5.49508e-06 9.31775e-06 2.68564e+25 1.49431 -2.00194 272.128 
7.40642e-06 9.31775e-06 2.68581e+25 0.400651 -5.02799 272.233 
9.31775e-06 9.31775e-06 2.68623e+25 -1.35055 -8.71308 272.322 
1.12291e-05 9.31775e-06 2.69051e+25 -3.0982 -13.2746 272.238 
1.31404e-05 9.31775e-06 2.69051e+25 -3.85273 -17.0011 272.422 
1.50518e-05 9.31775e-06 2.69355e+25 -2.174 -14.7686 272.335 
1.69631e-05 9.31775e-06 2.68813e+25 -0.0581499 -2.50653 272.815 
1.67242e-06 9.79558e-06 2.68719e+25 2.92395 2.26494 271.933 
3.58375e-06 9.79558e-06 2.68617e+25 2.92237 0.470325 272.082 
5.49508e-06 9.79558e-06 2.68571e+25 2.74002 -1.83266 272.144 
7.40642e-06 9.79558e-06 2.68618e+25 1.64987 -4.65107 272.202 
9.31775e-06 9.79558e-06 2.68793e+25 -0.296772 -8.24049 272.266 
1.12291e-05 9.79558e-06 2.68986e+25 -2.37106 -12.8498 272.206 
1.31404e-05 9.79558e-06 2.69061e+25 -3.59647 -17.0381 272.457 
1.50518e-05 9.79558e-06 2.69332e+25 -2.27064 -15.3522 272.393 
1.69631e-05 9.79558e-06 2.68817e+25 -0.0620304 -2.67527 272.833 
1.67242e-06 1.02734e-05 2.68792e+25 4.04383 2.20163 271.961 
3.58375e-06 1.02734e-05 2.68636e+25 4.08607 0.519956 272.035 
5.49508e-06 1.02734e-05 2.6854e+25 3.99611 -1.65516 272.212 
7.40642e-06 1.02734e-05 2.68733e+25 2.84996 -4.27029 272.17 
9.31775e-06 1.02734e-05 2.68689e+25 0.973659 -7.72039 272.372 
1.12291e-05 1.02734e-05 2.6901e+25 -1.41947 -12.3153 272.299 
1.31404e-05 1.02734e-05 2.69098e+25 -3.19922 -16.9622 272.56 
1.50518e-05 1.02734e-05 2.69339e+25 -2.18538 -15.9987 272.443 
1.69631e-05 1.02734e-05 2.68958e+25 -0.097649 -2.86909 272.797 
1.67242e-06 1.07512e-05 2.68629e+25 5.23486 2.169 272.057 
3.58375e-06 1.07512e-05 2.68756e+25 5.48362 0.584035 271.984 
5.49508e-06 1.07512e-05 2.68492e+25 5.17853 -1.44658 272.298 
7.40642e-06 1.07512e-05 2.68748e+25 4.03763 -3.94891 272.068 
9.31775e-06 1.07512e-05 2.68774e+25 2.17873 -7.13733 272.25 
1.12291e-05 1.07512e-05 2.6902e+25 -0.433593 -11.6276 272.317 
1.31404e-05 1.07512e-05 2.69071e+25 -2.71557 -16.6577 272.527 
1.50518e-05 1.07512e-05 2.69524e+25 -2.24231 -16.5996 272.376 
1.69631e-05 1.07512e-05 2.69096e+25 -0.0638974 -3.0767 272.765 
1.67242e-06 1.12291e-05 2.68666e+25 6.43705 1.96334 272.014 
3.58375e-06 1.12291e-05 2.68684e+25 6.94073 0.575869 272.063 
5.49508e-06 1.12291e-05 2.68545e+25 6.62397 -1.27429 272.272 
7.40642e-06 1.12291e-05 2.68657e+25 5.51176 -3.51061 272.137 
9.31775e-06 1.12291e-05 2.68716e+25 3.59958 -6.56864 272.382 
1.12291e-05 1.12291e-05 2.6904e+25 0.64184 -10.9056 272.332 
1.31404e-05 1.12291e-05 2.69182e+25 -2.01521 -16.1835 272.497 
1.50518e-05 1.12291e-05 2.69597e+25 -2.18467 -17.1307 272.389 
1.69631e-05 1.12291e-05 2.69228e+25 -0.0966991 -3.2906 272.833 
1.67242e-06 1.17069e-05 2.68715e+25 7.77391 1.78034 272.041 
3.58375e-06 1.17069e-05 2.68675e+25 8.43114 0.499577 272.073 
5.49508e-06 1.17069e-05 2.6848e+25 8.14807 -1.23862 272.297 
7.40642e-06 1.17069e-05 2.68893e+25 7.04028 -3.07708 272.066 
9.31775e-06 1.17069e-05 2.68627e+25 4.99512 -5.99027 272.506 
1.12291e-05 1.17069e-05 2.69043e+25 1.75784 -10.1031 272.42 
1.31404e-05 1.17069e-05 2.6921e+25 -1.45018 -15.6118 272.478 
1.50518e-05 1.17069e-05 2.69533e+25 -2.12565 -17.502 272.572 
1.69631e-05 1.17069e-05 2.69112e+25 -0.125182 -3.54734 272.999 
1.67242e-06 1.21847e-05 2.68711e+25 9.31323 1.54901 272.022 
3.58375e-06 1.21847e-05 2.68784e+25 9.9639 0.511603 271.928 
5.49508e-06 1.21847e-05 2.68524e+25 9.64835 -1.13469 272.22 
7.40642e-06 1.21847e-05 2.68742e+25 8.63495 -2.60121 272.169 
9.31775e-06 1.21847e-05 2.68629e+25 6.66162 -5.30506 272.436 
1.12291e-05 1.21847e-05 2.69006e+25 3.25927 -9.21147 272.442 
1.31404e-05 1.21847e-05 2.69402e+25 -0.368916 -14.9468 272.415 
1.50518e-05 1.21847e-05 2.69727e+25 -2.16867 -17.7276 272.576 
1.69631e-05 1.21847e-05 2.69398e+25 -0.103899 -3.80858 273.037 
1.67242e-06 1.26626e-05 2.68458e+25 11.102 1.31478 272.191 
3.58375e-06 1.26626e-05 2.68851e+25 11.6022 0.529095 271.929 
5.49508e-06 1.26626e-05 2.68484e+25 11.4196 -0.957033 272.331 
7.40642e-06 1.26626e-05 2.68573e+25 10.3359 -2.21581 272.264 
9.31775e-06 1.26626e-05 2.68731e+25 8.49949 -4.63515 272.422 
1.12291e-05 1.26626e-05 2.69029e+25 5.08599 -8.20278 272.5 
1.31404e-05 1.26626e-05 2.69432e+25 0.77499 -14.0848 272.484 
1.50518e-05 1.26626e-05 2.69888e+25 -2.03809 -17.7877 272.542 
1.69631e-05 1.26626e-05 2.69696e+25 -0.161056 -4.12993 272.892 
1.67242e-06 1.31404e-05 2.68502e+25 12.8753 1.17409 272.218 
3.58375e-06 1.31404e-05 2.68657e+25 13.4038 0.459867 272.074 
5.49508e-06 1.31404e-05 2.68373e+25 13.3735 -0.789259 272.354 
7.40642e-06 1.31404e-05 2.68708e+25 12.3364 -1.87883 272.268 
9.31775e-06 1.31404e-05 2.68795e+25 10.3582 -3.989 272.32 
1.12291e-05 1.31404e-05 2.69012e+25 7.11106 -7.13518 272.516 
1.31404e-05 1.31404e-05 2.696e+25 2.04778 -12.9031 272.542 
1.50518e-05 1.31404e-05 2.69977e+25 -1.84852 -17.6753 272.678 
1.69631e-05 1.31404e-05 2.701e+25 -0.0946953 -4.43176 272.874 
1.67242e-06 1.36182e-05 2.68413e+25 14.8667 1.04231 272.328 
3.58375e-06 1.36182e-05 2.6862e+25 15.2876 0.301349 272.071 
5.49508e-06 1.36182e-05 2.68502e+25 15.3116 -0.647976 272.352 
7.40642e-06 1.36182e-05 2.68597e+25 14.4181 -1.54869 272.294 
9.31775e-06 1.36182e-05 2.68884e+25 12.4037 -3.27111 272.348 
1.12291e-05 1.36182e-05 2.69014e+25 9.11656 -6.11479 272.598 
1.31404e-05 1.36182e-05 2.69554e+25 3.47094 -11.3755 272.681 
1.50518e-05 1.36182e-05 2.70195e+25 -1.69237 -17.3607 272.659 
1.69631e-05 1.36182e-05 2.70232e+25 -0.230772 -4.83295 272.802 
1.67242e-06 1.40961e-05 2.68518e+25 16.8846 0.866406 272.23 
3.58375e-06 1.40961e-05 2.68549e+25 17.3961 0.182364 272.21 
5.49508e-06 1.40961e-05 2.68431e+25 17.3223 -0.437283 272.405 
7.40642e-06 1.40961e-05 2.68729e+25 16.6153 -1.31447 272.331 
9.31775e-06 1.40961e-05 2.68781e+25 14.6731 -2.57249 272.466 
1.12291e-05 1.40961e-05 2.69025e+25 11.3771 -4.99693 272.609 
1.31404e-05 1.40961e-05 2.69543e+25 5.43226 -9.60343 272.794 
1.50518e-05 1.40961e-05 2.7033e+25 -1.10859 -16.6868 272.727 
1.69631e-05 1.40961e-05 2.70612e+25 -0.222613 -5.34246 272.858 
1.67242e-06 1.45739e-05 2.68489e+25 19.2716 0.780034 272.268 
3.58375e-06 1.45739e-05 2.68518e+25 19.5971 0.126595 272.213 
5.49508e-06 1.45739e-05 2.68567e+25 19.637 -0.306636 272.297 
7.40642e-06 1.45739e-05 2.68546e+25 18.9677 -1.07552 272.404 
9.31775e-06 1.45739e-05 2.6877e+25 17.2307 -2.09756 272.439 
1.12291e-05 1.45739e-05 2.69083e+25 13.8501 -3.83001 272.679 
1.31404e-05 1.45739e-05 2.69513e+25 7.95702 -7.65948 272.883 
1.50518e-05 1.45739e-05 2.70546e+25 -0.0869566 -15.453 272.772 
1.69631e-05 1.45739e-05 2.71181e+25 -0.285865 -5.92102 272.906 
1.67242e-06 1.50518e-05 2.68391e+25 21.8764 0.659882 272.384 
3.58375e-06 1.50518e-05 2.68393e+25 22.2072 0.1476 272.423 
5.49508e-06 1.50518e-05 2.68483e+25 22.006 -0.221553 272.357 
7.40642e-06 1.50518e-05 2.6866e+25 21.4923 -0.81042 272.379 
9.31775e-06 1.50518e-05 2.68885e+25 19.9477 -1.61623 272.451 
1.12291e-05 1.50518e-05 2.69149e+25 16.6276 -2.74321 272.674 
1.31404e-05 1.50518e-05 2.69562e+25 10.8462 -5.73037 272.932 
1.50518e-05 1.50518e-05 2.70722e+25 1.56518 -13.4997 272.892 
1.69631e-05 1.50518e-05 2.71924e+25 -0.441195 -6.67935 272.933 
1.67242e-06 1.55296e-05 2.68294e+25 24.5575 0.494018 272.489 
3.58375e-06 1.55296e-05 2.68458e+25 24.9048 0.164013 272.395 
5.49508e-06 1.55296e-05 2.68643e+25 24.6567 -0.190398 272.36 
7.40642e-06 1.55296e-05 2.68622e+25 24.0214 -0.582523 272.444 
9.31775e-06 1.55296e-05 2.68778e+25 22.8542 -1.09103 272.492 
1.12291e-05 1.55296e-05 2.69099e+25 19.9679 -1.76538 272.744 
1.31404e-05 1.55296e-05 2.69505e+25 14.6137 -3.8343 273.069 
1.50518e-05 1.55296e-05 2.71029e+25 4.55605 -10.7682 272.923 
1.69631e-05 1.55296e-05 2.72902e+25 -0.592472 -7.75406 273.01 
1.67242e-06 1.60074e-05 2.68348e+25 27.2684 0.299958 272.564 
3.58375e-06 1.60074e-05 2.68492e+25 27.731 0.158411 272.377 
5.49508e-06 1.60074e-05 2.68355e+25 27.5136 -0.165284 272.564 
7.40642e-06 1.60074e-05 2.68512e+25 26.9338 -0.245597 272.524 
9.31775e-06 1.60074e-05 2.68626e+25 25.8945 -0.557433 272.615 
1.12291e-05 1.60074e-05 2.68971e+25 23.7207 -0.944207 272.852 
1.31404e-05 1.60074e-05 2.69576e+25 19.382 -2.10031 272.995 
1.50518e-05 1.60074e-05 2.71092e+25 9.36835 -7.25325 273.241 
1.69631e-05 1.60074e-05 2.74667e+25 -0.634995 -8.9209 273.033 
1.67242e-06 1.64852e-05 2.68094e+25 30.1524 0.15183 272.7 
3.58375e-06 1.64852e-05 2.68316e+25 30.3717 0.187875 272.547 
5.49508e-06 1.64852e-05 2.68188e+25 30.4376 -0.054906 272.657 
7.40642e-06 1.64852e-05 2.68341e+25 29.9572 -0.0500322 272.643 
9.31775e-06 1.64852e-05 2.68549e+25 29.1591 -0.209624 272.701 
1.12291e-05 1.64852e-05 2.69065e+25 27.7816 -0.417612 272.772 
1.31404e-05 1.64852e-05 2.69512e+25 24.8955 -0.775984 273.124 
1.50518e-05 1.64852e-05 2.71001e+25 16.8131 -3.59094 273.295 
1.69631e-05 1.64852e-05 2.77136e+25 -0.0176436 -9.58057 273.315 
1.67242e-06 1.69631e-05 2.67893e+25 32.9133 0.0571758 272.896 
3.58375e-06 1.69631e-05 2.6804e+25 32.9433 0.059543 272.889 
5.49508e-06 1.69631e-05 2.6805e+25 33.0751 -0.0037002 272.913 
7.40642e-06 1.69631e-05 2.68255e+25 32.8344 -0.0130295 272.836 
9.31775e-06 1.69631e-05 2.68404e+25 32.4029 -0.026165 272.928 
1.12291e-05 1.69631e-05 2.6885e+25 31.8774 -0.100245 272.935 
1.31404e-05 1.69631e-05 2.69404e+25 30.7708 -0.115144 273.16 
1.50518e-05 1.69631e-05 2.70863e+25 26.7694 -0.811125 273.307 
1.69631e-05 1.69631e-05 2.85399e+25 4.07654 -6.16029 273.945 
2.38917e-07 2.38917e-07 2.68632e+25 -7.52994 1.86444 272.07 
2.15025e-06 2.38917e-07 2.6882e+25 -8.1228 -0.403252 271.999 
4.06158e-06 2.38917e-07 2.68598e+25 -7.99051 -2.75292 272.216 
5.97292e-06 2.38917e-07 2.68685e+25 -7.93455 -4.60478 272.173 
7.88425e-06 2.38917e-07 2.68731e+25 -7.43526 -7.15683 272.211 
9.79558e-06 2.38917e-07 2.68776e+25 -5.98281 -8.40398 272.212 
1.17069e-05 2.38917e-07 2.68694e+25 -4.18391 -8.19979 272.287 
1.36182e-05 2.38917e-07 2.68701e+25 -2.13879 -6.63117 272.224 
1.55296e-05 2.38917e-07 2.68602e+25 -0.470352 -3.30119 272.365 
2.38917e-07 7.1675e-07 2.6868e+25 -7.44993 1.96018 272.151 
2.15025e-06 7.1675e-07 2.68941e+25 -8.05362 -0.33739 272.08 
4.06158e-06 7.1675e-07 2.68906e+25 -8.26191 -2.81744 272.109 
5.97292e-06 7.1675e-07 2.68879e+25 -7.96304 -4.74844 272.164 
7.88425e-06 7.1675e-07 2.68964e+25 -7.45328 -7.3756 272.262 
9.79558e-06 7.1675e-07 2.68921e+25 -6.17636 -8.77067 272.277 
1.17069e-05 7.1675e-07 2.68983e+25 -4.42243 -8.67482 272.256 
1.36182e-05 7.1675e-07 2.69017e+25 -2.42262 -7.14294 272.267 
1.55296e-05 7.1675e-07 2.68858e+25 -0.594253 -3.67415 272.341 
2.38917e-07 1.19458e-06 2.68651e+25 -7.06426 2.1399 272.156 
2.15025e-06 1.19458e-06 2.68904e+25 -7.78978 -0.251236 272.056 
4.06158e-06 1.19458e-06 2.69092e+25 -8.1702 -2.81222 272.016 
5.97292e-06 1.19458e-06 2.68823e+25 -8.00337 -4.88832 272.223 
7.88425e-06 1.19458e-06 2.68837e+25 -7.46173 -7.56441 272.258 
9.79558e-06 1.19458e-06 2.6878e+25 -6.38938 -9.12526 272.345 
1.17069e-05 1.19458e-06 2.69001e+25 -4.66328 -9.25227 272.203 
1.36182e-05 1.19458e-06 2.69095e+25 -2.46104 -7.67415 272.226 
1.55296e-05 1.19458e-06 2.68971e+25 -0.685711 -4.05256 272.29 
2.38917e-07 1.67242e-06 2.68572e+25 -6.72373 2.31632 272.064 
2.15025e-06 1.67242e-06 2.68851e+25 -7.62787 -0.132303 272.1 
4.06158e-06 1.67242e-06 2.69084e+25 -7.99744 -2.76752 271.897 
5.97292e-06 1.67242e-06 2.68921e+25 -7.98921 -5.00068 272.112 
7.88425e-06 1.67242e-06 2.68714e+25 -7.46173 -7.74195 272.436 
9.79558e-06 1.67242e-06 2.68728e+25 -6.59917 -9.43268 272.455 
1.17069e-05 1.67242e-06 2.69012e+25 -4.845 -9.84058 272.202 
1.36182e-05 1.67242e-06 2.68967e+25 -2.58766 -8.19749 272.25 
1.55296e-05 1.67242e-06 2.68904e+25 -0.744074 -4.3471 272.299 
2.38917e-07 2.15025e-06 2.68565e+25 -6.61153 2.55484 272.139 
2.15025e-06 2.15025e-06 2.68773e+25 -7.29771 0.107755 272.125 
4.06158e-06 2.15025e-06 2.69022e+25 -7.96452 -2.64692 271.957 
5.97292e-06 2.15025e-06 2.68935e+25 -7.95305 -5.09869 272.099 
7.88425e-06 2.15025e-06 2.68702e+25 -7.49783 -7.91006 272.449 
9.79558e-06 2.15025e-06 2.68688e+25 -6.83689 -9.73822 272.44 
1.17069e-05 2.15025e-06 2.69052e+25 -4.85947 -10.3831 272.175 
1.36182e-05 2.15025e-06 2.69088e+25 -2.81286 -8.71095 272.246 
1.55296e-05 2.15025e-06 2.68871e+25 -0.697243 -4.69218 272.309 
2.38917e-07 2.62808e-06 2.68583e+25 -6.25833 2.74446 272.13 
2.15025e-06 2.62808e-06 2.68828e+25 -6.90054 0.365842 272.086 
4.06158e-06 2.62808e-06 2.68937e+25 -7.68862 -2.50749 272.067 
5.97292e-06 2.62808e-06 2.68823e+25 -7.84399 -5.15585 272.12 
7.88425e-06 2.62808e-06 2.68741e+25 -7.64335 -7.99495 272.291 
9.79558e-06 2.62808e-06 2.68618e+25 -6.92994 -10.0295 272.42 
1.17069e-05 2.62808e-06 2.69009e+25 -5.24939 -10.9164 272.223 
1.36182e-05 2.62808e-06 2.69221e+25 -2.96061 -9.23221 272.054 
1.55296e-05 2.62808e-06 2.69114e+25 -0.727443 -5.09256 272.251 
2.38917e-07 3.10592e-06 2.68392e+25 -5.82304 2.87374 272.278 
2.15025e-06 3.10592e-06 2.68891e+25 -6.54344 0.628648 272.027 
4.06158e-06 3.10592e-06 2.68785e+25 -7.36694 -2.33868 272.141 
5.97292e-06 3.10592e-06 2.68948e+25 -7.75208 -5.07912 272.001 
7.88425e-06 3.10592e-06 2.687e+25 -7.62522 -8.04563 272.371 
9.79558e-06 3.10592e-06 2.68624e+25 -7.04455 -10.2903 272.445 
1.17069e-05 3.10592e-06 2.68894e+25 -5.37508 -11.4674 272.253 
1.36182e-05 3.10592e-06 2.6916e+25 -3.0524 -9.8307 272.09 
1.55296e-05 3.10592e-06 2.68885e+25 -0.776588 -5.54026 272.319 
2.38917e-07 3.58375e-06 2.68481e+25 -5.48028 3.03195 272.207 
2.15025e-06 3.58375e-06 2.68815e+25 -5.97286 0.804593 272.076 
4.06158e-06 3.58375e-06 2.68624e+25 -6.8472 -2.15641 272.243 
5.97292e-06 3.58375e-06 2.6866e+25 -7.61027 -5.03749 272.237 
7.88425e-06 3.58375e-06 2.68611e+25 -7.49768 -8.05058 272.379 
9.79558e-06 3.58375e-06 2.68796e+25 -7.13994 -10.5418 272.337 
1.17069e-05 3.58375e-06 2.68948e+25 -5.54751 -11.9644 272.213 
1.36182e-05 3.58375e-06 2.68987e+25 -3.10001 -10.4609 272.163 
1.55296e-05 3.58375e-06 2.69194e+25 -0.799073 -5.94824 272.089 
2.38917e-07 4.06158e-06 2.68353e+25 -5.13091 3.22148 272.227 
2.15025e-06 4.06158e-06 2.68802e+25 -5.41398 0.914469 272.039 
4.06158e-06 4.06158e-06 2.68578e+25 -6.48792 -1.86158 272.199 
5.97292e-06 4.06158e-06 2.68857e+25 -7.16045 -5.05221 272.17 
7.88425e-06 4.06158e-06 2.68602e+25 -7.26806 -8.0592 272.401 
9.79558e-06 4.06158e-06 2.6879e+25 -7.01026 -10.7902 272.301 
1.17069e-05 4.06158e-06 2.68958e+25 -5.61771 -12.4011 272.207 
1.36182e-05 4.06158e-06 2.69148e+25 -3.20114 -11.1265 272.098 
1.55296e-05 4.06158e-06 2.69064e+25 -0.808888 -6.4249 272.178 
2.38917e-07 4.53942e-06 2.68334e+25 -4.7603 3.26666 272.237 
2.15025e-06 4.53942e-06 2.68809e+25 -5.06256 1.10604 272.034 
4.06158e-06 4.53942e-06 2.6872e+25 -5.94235 -1.57199 272.074 
5.97292e-06 4.53942e-06 2.68719e+25 -6.64209 -5.00278 272.178 
7.88425e-06 4.53942e-06 2.68683e+25 -6.99263 -8.10355 272.247 
9.79558e-06 4.53942e-06 2.68811e+25 -6.8023 -11.035 272.302 
1.17069e-05 4.53942e-06 2.68914e+25 -5.68008 -12.8776 272.309 
1.36182e-05 4.53942e-06 2.69062e+25 -3.36498 -11.7833 272.144 
1.55296e-05 4.53942e-06 2.69039e+25 -0.922745 -6.90749 272.245 
2.38917e-07 5.01725e-06 2.68519e+25 -4.45252 3.26208 272.111 
2.15025e-06 5.01725e-06 2.68785e+25 -4.65941 1.20569 271.999 
4.06158e-06 5.01725e-06 2.68801e+25 -5.33946 -1.34676 272.067 
5.97292e-06 5.01725e-06 2.6859e+25 -6.13557 -4.82258 272.24 
7.88425e-06 5.01725e-06 2.68657e+25 -6.86881 -8.06747 272.249 
9.79558e-06 5.01725e-06 2.68714e+25 -6.63688 -11.2883 272.293 
1.17069e-05 5.01725e-06 2.68883e+25 -5.67055 -13.3569 272.326 
1.36182e-05 5.01725e-06 2.69013e+25 -3.30721 -12.4475 272.2 
1.55296e-05 5.01725e-06 2.69022e+25 -1.02339 -7.38519 272.198 
2.38917e-07 5.49508e-06 2.68458e+25 -3.90612 3.3068 272.124 
2.15025e-06 5.49508e-06 2.68736e+25 -4.24346 1.29066 271.991 
4.06158e-06 5.49508e-06 2.68672e+25 -4.80731 -1.13433 272.081 
5.97292e-06 5.49508e-06 2.68664e+25 -5.75377 -4.51645 272.16 
7.88425e-06 5.49508e-06 2.68715e+25 -6.47588 -7.94628 272.227 
9.79558e-06 5.49508e-06 2.68865e+25 -6.49976 -11.4889 272.207 
1.17069e-05 5.49508e-06 2.68972e+25 -5.49193 -13.7443 272.32 
1.36182e-05 5.49508e-06 2.69176e+25 -3.49627 -13.1674 272.149 
1.55296e-05 5.49508e-06 2.69026e+25 -1.0123 -7.90022 272.245 
2.38917e-07 5.97292e-06 2.68486e+25 -3.37656 3.32908 272.066 
2.15025e-06 5.97292e-06 2.68812e+25 -3.5703 1.4448 271.914 
4.06158e-06 5.97292e-06 2.6871e+25 -4.24798 -0.988475 272.091 
5.97292e-06 5.97292e-06 2.68805e+25 -5.32726 -4.29316 272.082 
7.88425e-06 5.97292e-06 2.68709e+25 -6.0313 -7.73429 272.205 
9.79558e-06 5.97292e-06 2.689e+25 -6.23206 -11.579 272.165 
1.17069e-05 5.97292e-06 2.68788e+25 -5.52816 -14.1227 272.329 
1.36182e-05 5.97292e-06 2.68997e+25 -3.49948 -13.7945 272.224 
1.55296e-05 5.97292e-06 2.68937e+25 -1.09878 -8.37551 272.362 
2.38917e-07 6.45075e-06 2.68662e+25 -2.72652 3.29661 271.844 
2.15025e-06 6.45075e-06 2.68956e+25 -3.01249 1.51875 271.881 
4.06158e-06 6.45075e-06 2.6868e+25 -3.63 -0.872611 272.06 
5.97292e-06 6.45075e-06 2.6873e+25 -4.59778 -3.98446 272.01 
7.88425e-06 6.45075e-06 2.68764e+25 -5.53907 -7.54964 272.098 
9.79558e-06 6.45075e-06 2.68842e+25 -5.98671 -11.5497 272.189 
1.17069e-05 6.45075e-06 2.68875e+25 -5.47134 -14.4409 272.287 
1.36182e-05 6.45075e-06 2.69079e+25 -3.72592 -14.3761 272.25 
1.55296e-05 6.45075e-06 2.69145e+25 -1.14975 -8.86993 272.251 
2.38917e-07 6.92858e-06 2.68863e+25 -2.21811 3.17544 271.763 
2.15025e-06 6.92858e-06 2.68858e+25 -2.36208 1.53923 271.876 
4.06158e-06 6.92858e-06 2.68789e+25 -2.99052 -0.712287 271.996 
5.97292e-06 6.92858e-06 2.68672e+25 -3.7885 -3.67497 272.038 
7.88425e-06 6.92858e-06 2.68744e+25 -4.86422 -7.31669 272.05 
9.79558e-06 6.92858e-06 2.68848e+25 -5.48871 -11.5283 272.248 
1.17069e-05 6.92858e-06 2.6871e+25 -5.31358 -14.6593 272.418 
1.36182e-05 6.92858e-06 2.69215e+25 -3.84877 -15.0687 272.145 
1.55296e-05 6.92858e-06 2.69092e+25 -1.28119 -9.49179 272.18 
2.38917e-07 7.40642e-06 2.6862e+25 -1.55115 3.16597 271.908 
2.15025e-06 7.40642e-06 2.68842e+25 -1.58273 1.5895 271.931 
4.06158e-06 7.40642e-06 2.6874e+25 -2.1981 -0.557473 272.015 
5.97292e-06 7.40642e-06 2.68768e+25 -2.91136 -3.40569 271.992 
7.88425e-06 7.40642e-06 2.68798e+25 -3.88533 -7.09973 272.018 
9.79558e-06 7.40642e-06 2.68823e+25 -4.86175 -11.4022 272.271 
1.17069e-05 7.40642e-06 2.68798e+25 -5.08153 -14.7839 272.458 
1.36182e-05 7.40642e-06 2.69101e+25 -3.77577 -15.5703 272.171 
1.55296e-05 7.40642e-06 2.69345e+25 -1.28369 -10.1785 272.122 
2.38917e-07 7.88425e-06 2.68488e+25 -0.877532 3.23598 271.893 
2.15025e-06 7.88425e-06 2.68705e+25 -0.929941 1.72227 271.96 
4.06158e-06 7.88425e-06 2.68651e+25 -1.21518 -0.409385 272.088 
5.97292e-06 7.88425e-06 2.68696e+25 -1.96704 -3.18831 272.009 
7.88425e-06 7.88425e-06 2.6882e+25 -2.95797 -6.84705 272.042 
9.79558e-06 7.88425e-06 2.68692e+25 -4.22308 -11.097 272.297 
1.17069e-05 7.88425e-06 2.68701e+25 -4.8628 -14.7783 272.531 
1.36182e-05 7.88425e-06 2.69399e+25 -3.6901 -16.018 272.1 
1.55296e-05 7.88425e-06 2.69228e+25 -1.36334 -10.7618 272.142 
2.38917e-07 8.36208e-06 2.6856e+25 0.0438944 3.35862 271.934 
2.15025e-06 8.36208e-06 2.68629e+25 -0.11801 1.81172 271.998 
4.06158e-06 8.36208e-06 2.68549e+25 -0.363181 -0.189687 272.179 
5.97292e-06 8.36208e-06 2.68694e+25 -0.977577 -3.00662 272.058 
7.88425e-06 8.36208e-06 2.68828e+25 -1.95216 -6.50103 272.039 
9.79558e-06 8.36208e-06 2.6871e+25 -3.59308 -10.681 272.27 
1.17069e-05 8.36208e-06 2.68793e+25 -4.57337 -14.7423 272.399 
1.36182e-05 8.36208e-06 2.69226e+25 -3.78247 -16.4671 272.276 
1.55296e-05 8.36208e-06 2.69203e+25 -1.33601 -11.3193 272.265 
2.38917e-07 8.83992e-06 2.68614e+25 0.990138 3.33668 271.879 
2.15025e-06 8.83992e-06 2.68896e+25 0.830827 1.84628 271.856 
4.06158e-06 8.83992e-06 2.68656e+25 0.738933 -0.0264323 272.025 
5.97292e-06 8.83992e-06 2.68679e+25 0.183255 -2.8628 271.995 
7.88425e-06 8.83992e-06 2.68742e+25 -1.00776 -6.14394 272.101 
9.79558e-06 8.83992e-06 2.68708e+25 -2.70422 -10.3329 272.279 
1.17069e-05 8.83992e-06 2.68975e+25 -4.04705 -14.6475 272.31 
1.36182e-05 8.83992e-06 2.69073e+25 -3.80954 -16.9266 272.377 
1.55296e-05 8.83992e-06 2.69192e+25 -1.47202 -11.9749 272.318 
2.38917e-07 9.31775e-06 2.68704e+25 1.83283 3.2236 271.872 
2.15025e-06 9.31775e-06 2.68647e+25 1.82506 1.90133 271.959 
4.06158e-06 9.31775e-06 2.68506e+25 1.74762 0.00621967 272.183 
5.97292e-06 9.31775e-06 2.68626e+25 1.30218 -2.71368 272.127 
7.88425e-06 9.31775e-06 2.68746e+25 0.0657888 -5.73235 272.138 
9.79558e-06 9.31775e-06 2.68669e+25 -1.7914 -9.93417 272.332 
1.17069e-05 9.31775e-06 2.68957e+25 -3.45326 -14.3714 272.317 
1.36182e-05 9.31775e-06 2.69094e+25 -3.70554 -17.2876 272.391 
1.55296e-05 9.31775e-06 2.69468e+25 -1.53165 -12.5822 272.242 
2.38917e-07 9.79558e-06 2.68539e+25 2.64953 3.08138 271.99 
2.15025e-06 9.79558e-06 2.68716e+25 2.95417 1.95144 271.942 
4.06158e-06 9.79558e-06 2.68655e+25 2.91614 -4.46273e-05 272.119 
5.97292e-06 9.79558e-06 2.68706e+25 2.4941 -2.45637 272.086 
7.88425e-06 9.79558e-06 2.6882e+25 1.22226 -5.34863 272.127 
9.79558e-06 9.79558e-06 2.68727e+25 -0.842225 -9.45604 272.274 
1.17069e-05 9.79558e-06 2.69057e+25 -2.80746 -13.9724 272.301 
1.36182e-05 9.79558e-06 2.69084e+25 -3.46088 -17.5462 272.36 
1.55296e-05 9.79558e-06 2.69429e+25 -1.62432 -13.2585 272.333 
2.38917e-07 1.02734e-05 2.68563e+25 3.64648 2.98022 271.984 
2.15025e-06 1.02734e-05 2.68834e+25 4.1024 1.90991 271.914 
4.06158e-06 1.02734e-05 2.68505e+25 4.07017 -0.0152937 272.186 
5.97292e-06 1.02734e-05 2.68517e+25 3.76083 -2.14477 272.218 
7.88425e-06 1.02734e-05 2.68722e+25 2.47552 -4.93886 272.126 
9.79558e-06 1.02734e-05 2.68667e+25 0.414748 -8.83674 272.276 
1.17069e-05 1.02734e-05 2.68951e+25 -2.0282 -13.4716 272.424 
1.36182e-05 1.02734e-05 2.69077e+25 -3.3012 -17.6693 272.493 
1.55296e-05 1.02734e-05 2.69543e+25 -1.50968 -13.921 272.295 
2.38917e-07 1.07512e-05 2.68652e+25 4.75495 2.92416 271.884 
2.15025e-06 1.07512e-05 2.6877e+25 5.28093 1.86003 271.958 
4.06158e-06 1.07512e-05 2.68495e+25 5.46871 0.000235555 272.189 
5.97292e-06 1.07512e-05 2.68497e+25 4.99289 -1.92129 272.316 
7.88425e-06 1.07512e-05 2.68835e+25 3.66039 -4.48014 272.077 
9.79558e-06 1.07512e-05 2.68681e+25 1.56617 -8.26053 272.383 
1.17069e-05 1.07512e-05 2.68946e+25 -1.12032 -12.8754 272.469 
1.36182e-05 1.07512e-05 2.69202e+25 -2.98416 -17.577 272.479 
1.55296e-05 1.07512e-05 2.69456e+25 -1.62724 -14.5882 272.422 
2.38917e-07 1.12291e-05 2.68638e+25 5.82998 2.77377 271.89 
2.15025e-06 1.12291e-05 2.68778e+25 6.62302 1.73966 271.994 
4.06158e-06 1.12291e-05 2.68627e+25 6.95706 0.0123247 272.176 
5.97292e-06 1.12291e-05 2.68486e+25 6.41651 -1.72805 272.258 
7.88425e-06 1.12291e-05 2.68747e+25 5.02646 -4.09696 272.139 
9.79558e-06 1.12291e-05 2.68818e+25 2.93471 -7.58864 272.337 
1.17069e-05 1.12291e-05 2.6906e+25 -0.137501 -12.1667 272.362 
1.36182e-05 1.12291e-05 2.69373e+25 -2.48719 -17.3147 272.406 
1.55296e-05 1.12291e-05 2.6959e+25 -1.63638 -15.2599 272.447 
2.38917e-07 1.17069e-05 2.68484e+25 7.15158 2.57223 272.079 
2.15025e-06 1.17069e-05 2.68818e+25 7.95677 1.5571 271.902 
4.06158e-06 1.17069e-05 2.68616e+25 8.39301 0.111475 272.098 
5.97292e-06 1.17069e-05 2.68455e+25 8.05063 -1.47108 272.338 
7.88425e-06 1.17069e-05 2.68746e+25 6.54852 -3.5762 272.138 
9.79558e-06 1.17069e-05 2.68846e+25 4.36945 -6.84957 272.341 
1.17069e-05 1.17069e-05 2.69106e+25 0.958809 -11.3944 272.452 
1.36182e-05 1.17069e-05 2.69388e+25 -1.95547 -16.926 272.435 
1.55296e-05 1.17069e-05 2.69567e+25 -1.68791 -15.825 272.616 
2.38917e-07 1.21847e-05 2.68429e+25 8.6922 2.33934 272.097 
2.15025e-06 1.21847e-05 2.68757e+25 9.5971 1.335 271.983 
4.06158e-06 1.21847e-05 2.68748e+25 9.9147 0.202283 272.035 
5.97292e-06 1.21847e-05 2.68524e+25 9.50682 -1.30948 272.152 
7.88425e-06 1.21847e-05 2.6869e+25 8.2133 -3.11599 272.209 
9.79558e-06 1.21847e-05 2.68751e+25 5.91119 -6.17286 272.412 
1.17069e-05 1.21847e-05 2.69158e+25 2.29782 -10.5099 272.397 
1.36182e-05 1.21847e-05 2.69542e+25 -1.06202 -16.3856 272.408 
1.55296e-05 1.21847e-05 2.69707e+25 -1.82797 -16.3555 272.598 
2.38917e-07 1.26626e-05 2.68259e+25 10.4606 2.10431 272.213 
2.15025e-06 1.26626e-05 2.68763e+25 11.2748 1.06563 272.032 
4.06158e-06 1.26626e-05 2.68826e+25 11.6173 0.247126 271.945 
5.97292e-06 1.26626e-05 2.6859e+25 11.2443 -1.1496 272.272 
7.88425e-06 1.26626e-05 2.68644e+25 9.99084 -2.77664 272.252 
9.79558e-06 1.26626e-05 2.68718e+25 7.79059 -5.35111 272.513 
1.17069e-05 1.26626e-05 2.69195e+25 4.00443 -9.49552 272.444 
1.36182e-05 1.26626e-05 2.69607e+25 -0.207998 -15.57 272.501 
1.55296e-05 1.26626e-05 2.70024e+25 -1.90042 -16.7183 272.592 
2.38917e-07 1.31404e-05 2.68267e+25 12.2488 1.82742 272.271 
2.15025e-06 1.31404e-05 2.68518e+25 13.0093 0.926095 272.156 
4.06158e-06 1.31404e-05 2.68778e+25 13.5476 0.153182 271.98 
5.97292e-06 1.31404e-05 2.68469e+25 13.2158 -0.995219 272.41 
7.88425e-06 1.31404e-05 2.68734e+25 11.9535 -2.35965 272.262 
9.79558e-06 1.31404e-05 2.68789e+25 9.64815 -4.62255 272.429 
1.17069e-05 1.31404e-05 2.69054e+25 6.0048 -8.39223 272.619 
1.36182e-05 1.31404e-05 2.69768e+25 0.693276 -14.3959 272.445 
1.55296e-05 1.31404e-05 2.7012e+25 -1.79398 -16.9942 272.659 
2.38917e-07 1.36182e-05 2.6822e+25 14.035 1.49797 272.364 
2.15025e-06 1.36182e-05 2.685e+25 14.9766 0.805428 272.269 
4.06158e-06 1.36182e-05 2.6857e+25 15.4246 0.0629223 272.109 
5.97292e-06 1.36182e-05 2.68432e+25 15.1153 -0.846524 272.453 
7.88425e-06 1.36182e-05 2.68824e+25 14.0976 -1.99124 272.204 
9.79558e-06 1.36182e-05 2.68875e+25 11.6351 -3.90504 272.403 
1.17069e-05 1.36182e-05 2.69119e+25 7.91095 -7.11344 272.632 
1.36182e-05 1.36182e-05 2.69755e+25 1.80095 -12.9431 272.549 
1.55296e-05 1.36182e-05 2.70386e+25 -1.82925 -17.199 272.635 
2.38917e-07 1.40961e-05 2.68161e+25 16.194 1.10459 272.376 
2.15025e-06 1.40961e-05 2.68617e+25 16.9967 0.694853 272.208 
4.06158e-06 1.40961e-05 2.68639e+25 17.4195 0.033419 272.106 
5.97292e-06 1.40961e-05 2.68497e+25 17.1554 -0.720321 272.365 
7.88425e-06 1.40961e-05 2.68825e+25 16.2697 -1.56152 272.227 
9.79558e-06 1.40961e-05 2.68903e+25 14.0407 -3.18148 272.517 
1.17069e-05 1.40961e-05 2.69115e+25 10.1058 -5.77542 272.736 
1.36182e-05 1.40961e-05 2.69796e+25 3.51596 -11.1376 272.7 
1.55296e-05 1.40961e-05 2.70651e+25 -1.63758 -17.1754 272.628 
2.38917e-07 1.45739e-05 2.68099e+25 18.5481 0.806252 272.444 
2.15025e-06 1.45739e-05 2.68494e+25 19.3722 0.630393 272.22 
4.06158e-06 1.45739e-05 2.68519e+25 19.6352 0.000281696 272.275 
5.97292e-06 1.45739e-05 2.6843e+25 19.4578 -0.515985 272.426 
7.88425e-06 1.45739e-05 2.68756e+25 18.6149 -1.09965 272.327 
9.79558e-06 1.45739e-05 2.68942e+25 16.6451 -2.46789 272.533 
1.17069e-05 1.45739e-05 2.69241e+25 12.6783 -4.52758 272.741 
1.36182e-05 1.45739e-05 2.69908e+25 5.92174 -9.13599 272.82 
1.55296e-05 1.45739e-05 2.70907e+25 -1.29322 -16.6975 272.722 
2.38917e-07 1.50518e-05 2.6826e+25 21.1502 0.508023 272.367 
2.15025e-06 1.50518e-05 2.68584e+25 21.9663 0.523866 272.334 
4.06158e-06 1.50518e-05 2.68422e+25 22.1607 -0.0152881 272.328 
5.97292e-06 1.50518e-05 2.68433e+25 21.9754 -0.395752 272.445 
7.88425e-06 1.50518e-05 2.68716e+25 21.1981 -0.742587 272.402 
9.79558e-06 1.50518e-05 2.68837e+25 19.3897 -1.79502 272.562 
1.17069e-05 1.50518e-05 2.6929e+25 15.5403 -3.33386 272.71 
1.36182e-05 1.50518e-05 2.69823e+25 8.80408 -7.02195 272.933 
1.55296e-05 1.50518e-05 2.7128e+25 -0.451582 -15.5108 272.777 
2.38917e-07 1.55296e-05 2.68166e+25 24.0197 0.258439 272.342 
2.15025e-06 1.55296e-05 2.68271e+25 24.7475 0.374572 272.509 
4.06158e-06 1.55296e-05 2.68408e+25 24.873 0.0414014 272.386 
5.97292e-06 1.55296e-05 2.68468e+25 24.6602 -0.345725 272.474 
7.88425e-06 1.55296e-05 2.68688e+25 23.8343 -0.518042 272.4 
9.79558e-06 1.55296e-05 2.68832e+25 22.2303 -1.13486 272.599 
1.17069e-05 1.55296e-05 2.69246e+25 19.0089 -2.24105 272.775 
1.36182e-05 1.55296e-05 2.69736e+25 12.6799 -4.91649 273.157 
1.55296e-05 1.55296e-05 2.71499e+25 1.50955 -13.3108 273.061 
2.38917e-07 1.60074e-05 2.6833e+25 26.7933 0.0894369 272.369 
2.15025e-06 1.60074e-05 2.68273e+25 27.4258 0.183341 272.527 
4.06158e-06 1.60074e-05 2.68411e+25 27.6771 0.167511 272.413 
5.97292e-06 1.60074e-05 2.68457e+25 27.4431 -0.29147 272.464 
7.88425e-06 1.60074e-05 2.68619e+25 26.6773 -0.419385 272.442 
9.79558e-06 1.60074e-05 2.68642e+25 25.3972 -0.593967 272.782 
1.17069e-05 1.60074e-05 2.69157e+25 22.9591 -1.30957 272.794 
1.36182e-05 1.60074e-05 2.69884e+25 17.6274 -2.95293 273.048 
1.55296e-05 1.60074e-05 2.7183e+25 5.39826 -9.85939 273.246 
2.38917e-07 1.64852e-05 2.68092e+25 29.9682 0.0042798 272.498 
2.15025e-06 1.64852e-05 2.68095e+25 30.2896 0.0195891 272.701 
4.06158e-06 1.64852e-05 2.68281e+25 30.4501 0.141871 272.506 
5.97292e-06 1.64852e-05 2.6828e+25 30.3031 -0.215043 272.657 
7.88425e-06 1.64852e-05 2.68446e+25 29.8352 -0.232487 272.606 
9.79558e-06 1.64852e-05 2.6848e+25 28.891 -0.17802 272.879 
1.17069e-05 1.64852e-05 2.69098e+25 27.2504 -0.558831 272.785 
1.36182e-05 1.64852e-05 2.69772e+25 23.6863 -1.29932 273.083 
1.55296e-05 1.64852e-05 2.71903e+25 12.7451 -5.39005 273.407 
2.38917e-07 1.69631e-05 2.67857e+25 32.9228 -0.00108881 272.803 
2.15025e-06 1.69631e-05 2.67997e+25 32.962 -0.0393753 272.853 
4.06158e-06 1.69631e-05 2.68188e+25 33.037 0.0429065 272.8 
5.97292e-06 1.69631e-05 2.68208e+25 32.9952 -0.0311412 272.825 
7.88425e-06 1.69631e-05 2.68357e+25 32.7209 -0.0476861 272.823 
9.79558e-06 1.69631e-05 2.68654e+25 32.3031 -0.0162026 272.871 
1.17069e-05 1.69631e-05 2.69029e+25 31.5982 -0.0871688 272.956 
1.36182e-05 1.69631e-05 2.69602e+25 30.2566 -0.260627 273.166 
1.55296e-05 1.69631e-05 2.71679e+25 24.2288 -1.33125 273.448 
7.1675e-07 2.38917e-07 2.68785e+25 -7.67446 1.32256 272.083 
2.62808e-06 2.38917e-07 2.68678e+25 -8.13741 -0.978749 272.166 
4.53942e-06 2.38917e-07 2.68613e+25 -8.00972 -3.20738 272.224 
6.45075e-06 2.38917e-07 2.68717e+25 -7.82825 -5.28095 272.044 
8.36208e-06 2.38917e-07 2.68857e+25 -7.10203 -7.70928 272.019 
1.02734e-05 2.38917e-07 2.68602e+25 -5.59534 -8.6417 272.252 
1.21847e-05 2.38917e-07 2.68744e+25 -3.64582 -7.99343 272.241 
1.40961e-05 2.38917e-07 2.6878e+25 -1.66633 -5.84826 272.166 
1.60074e-05 2.38917e-07 2.68564e+25 -0.208896 -2.37817 272.384 
7.1675e-07 7.1675e-07 2.68806e+25 -7.56767 1.54465 272.135 
2.62808e-06 7.1675e-07 2.68783e+25 -8.13252 -1.00553 272.145 
4.53942e-06 7.1675e-07 2.6891e+25 -8.18913 -3.20121 272.158 
6.45075e-06 7.1675e-07 2.6893e+25 -7.79365 -5.37082 272.095 
8.36208e-06 7.1675e-07 2.68942e+25 -7.22636 -7.99895 272.151 
1.02734e-05 7.1675e-07 2.6895e+25 -5.86423 -8.9459 272.212 
1.21847e-05 7.1675e-07 2.68997e+25 -3.91381 -8.49651 272.226 
1.40961e-05 7.1675e-07 2.68999e+25 -1.859 -6.35407 272.22 
1.60074e-05 7.1675e-07 2.68844e+25 -0.235758 -2.58593 272.346 
7.1675e-07 1.19458e-06 2.68863e+25 -7.24489 1.70316 272.064 
2.62808e-06 1.19458e-06 2.68934e+25 -7.90959 -0.881085 272.049 
4.53942e-06 1.19458e-06 2.6886e+25 -8.22292 -3.21653 272.118 
6.45075e-06 1.19458e-06 2.68873e+25 -7.89512 -5.4912 272.173 
8.36208e-06 1.19458e-06 2.68825e+25 -7.25421 -8.25364 272.296 
1.02734e-05 1.19458e-06 2.68869e+25 -6.03327 -9.29355 272.358 
1.21847e-05 1.19458e-06 2.69016e+25 -4.12538 -8.97804 272.202 
1.40961e-05 1.19458e-06 2.69028e+25 -1.98496 -6.82087 272.246 
1.60074e-05 1.19458e-06 2.6885e+25 -0.413296 -2.81725 272.395 
7.1675e-07 1.67242e-06 2.68809e+25 -6.96652 1.94071 272.097 
2.62808e-06 1.67242e-06 2.68949e+25 -7.7541 -0.727798 272.112 
4.53942e-06 1.67242e-06 2.68944e+25 -8.07513 -3.15774 272.037 
6.45075e-06 1.67242e-06 2.68901e+25 -7.91472 -5.56955 272.137 
8.36208e-06 1.67242e-06 2.68779e+25 -7.29528 -8.44288 272.405 
1.02734e-05 1.67242e-06 2.68875e+25 -6.28349 -9.6387 272.275 
1.21847e-05 1.67242e-06 2.68891e+25 -4.1793 -9.56569 272.242 
1.40961e-05 1.67242e-06 2.68898e+25 -2.10536 -7.30311 272.206 
1.60074e-05 1.67242e-06 2.68846e+25 -0.404686 -3.0809 272.409 
7.1675e-07 2.15025e-06 2.68741e+25 -6.71359 2.0888 272.163 
2.62808e-06 2.15025e-06 2.6887e+25 -7.47964 -0.62832 272.095 
4.53942e-06 2.15025e-06 2.68887e+25 -8.08604 -3.12528 272.003 
6.45075e-06 2.15025e-06 2.68808e+25 -7.85803 -5.66402 272.204 
8.36208e-06 2.15025e-06 2.68715e+25 -7.36028 -8.61793 272.389 
1.02734e-05 2.15025e-06 2.68615e+25 -6.49485 -10.0128 272.475 
1.21847e-05 2.15025e-06 2.69024e+25 -4.39762 -10.145 272.155 
1.40961e-05 2.15025e-06 2.69107e+25 -2.23894 -7.80918 272.087 
1.60074e-05 2.15025e-06 2.6877e+25 -0.412651 -3.40725 272.462 
7.1675e-07 2.62808e-06 2.68657e+25 -6.38971 2.20024 272.123 
2.62808e-06 2.62808e-06 2.68929e+25 -7.16186 -0.446625 271.997 
4.53942e-06 2.62808e-06 2.68954e+25 -7.80447 -2.99403 272.048 
6.45075e-06 2.62808e-06 2.68863e+25 -7.87347 -5.70292 272.055 
8.36208e-06 2.62808e-06 2.68719e+25 -7.54189 -8.77435 272.387 
1.02734e-05 2.62808e-06 2.68732e+25 -6.55638 -10.3946 272.373 
1.21847e-05 2.62808e-06 2.69063e+25 -4.63064 -10.7416 272.172 
1.40961e-05 2.62808e-06 2.69148e+25 -2.35684 -8.46802 272.11 
1.60074e-05 2.62808e-06 2.68895e+25 -0.372099 -3.70279 272.385 
7.1675e-07 3.10592e-06 2.68701e+25 -5.96475 2.33081 272.108 
2.62808e-06 3.10592e-06 2.68901e+25 -6.77358 -0.231448 272.018 
4.53942e-06 3.10592e-06 2.68762e+25 -7.50517 -2.93464 272.081 
6.45075e-06 3.10592e-06 2.68889e+25 -7.76106 -5.73317 272.12 
8.36208e-06 3.10592e-06 2.68777e+25 -7.57398 -8.89523 272.331 
1.02734e-05 3.10592e-06 2.68799e+25 -6.69311 -10.8454 272.389 
1.21847e-05 3.10592e-06 2.68915e+25 -4.80157 -11.364 272.289 
1.40961e-05 3.10592e-06 2.69095e+25 -2.40168 -9.1189 272.086 
1.60074e-05 3.10592e-06 2.68995e+25 -0.327937 -4.03023 272.318 
7.1675e-07 3.58375e-06 2.68717e+25 -5.66991 2.52044 272.139 
2.62808e-06 3.58375e-06 2.68711e+25 -6.08185 -0.0205995 272.059 
4.53942e-06 3.58375e-06 2.686e+25 -7.09079 -2.76342 272.254 
6.45075e-06 3.58375e-06 2.68832e+25 -7.5226 -5.84299 272.198 
8.36208e-06 3.58375e-06 2.68702e+25 -7.50207 -8.93616 272.36 
1.02734e-05 3.58375e-06 2.68833e+25 -6.83647 -11.2158 272.333 
1.21847e-05 3.58375e-06 2.68892e+25 -5.06087 -11.8707 272.341 
1.40961e-05 3.58375e-06 2.69042e+25 -2.4561 -9.77793 272.237 
1.60074e-05 3.58375e-06 2.68936e+25 -0.409499 -4.40609 272.238 
7.1675e-07 4.06158e-06 2.68685e+25 -5.2331 2.66494 272.148 
2.62808e-06 4.06158e-06 2.68885e+25 -5.67875 0.222351 271.967 
4.53942e-06 4.06158e-06 2.68648e+25 -6.75294 -2.50672 272.214 
6.45075e-06 4.06158e-06 2.6867e+25 -7.19062 -5.87735 272.18 
8.36208e-06 4.06158e-06 2.68616e+25 -7.23595 -8.94178 272.428 
1.02734e-05 4.06158e-06 2.6876e+25 -6.71102 -11.5469 272.351 
1.21847e-05 4.06158e-06 2.68853e+25 -5.15255 -12.3833 272.362 
1.40961e-05 4.06158e-06 2.69026e+25 -2.53775 -10.4057 272.222 
1.60074e-05 4.06158e-06 2.68905e+25 -0.425325 -4.68317 272.296 
7.1675e-07 4.53942e-06 2.68758e+25 -4.80268 2.79051 272.127 
2.62808e-06 4.53942e-06 2.68871e+25 -5.27034 0.476143 272.024 
4.53942e-06 4.53942e-06 2.68654e+25 -6.17438 -2.30049 272.207 
6.45075e-06 4.53942e-06 2.68797e+25 -6.7972 -5.74945 272.119 
8.36208e-06 4.53942e-06 2.68604e+25 -7.06395 -8.89039 272.377 
1.02734e-05 4.53942e-06 2.68963e+25 -6.59677 -11.7685 272.162 
1.21847e-05 4.53942e-06 2.68979e+25 -5.15171 -12.928 272.332 
1.40961e-05 4.53942e-06 2.69085e+25 -2.69218 -11.0447 272.169 
1.60074e-05 4.53942e-06 2.68945e+25 -0.510332 -5.01327 272.249 
7.1675e-07 5.01725e-06 2.68773e+25 -4.42859 2.85095 272.099 
2.62808e-06 5.01725e-06 2.68793e+25 -4.75056 0.692059 271.973 
4.53942e-06 5.01725e-06 2.68682e+25 -5.54478 -2.08901 272.213 
6.45075e-06 5.01725e-06 2.68719e+25 -6.40287 -5.49691 272.164 
8.36208e-06 5.01725e-06 2.68686e+25 -6.93568 -8.79541 272.217 
1.02734e-05 5.01725e-06 2.68811e+25 -6.44931 -11.9284 272.295 
1.21847e-05 5.01725e-06 2.68785e+25 -5.15085 -13.5252 272.377 
1.40961e-05 5.01725e-06 2.69095e+25 -2.68815 -11.7179 272.201 
1.60074e-05 5.01725e-06 2.68989e+25 -0.570941 -5.40432 272.322 
7.1675e-07 5.49508e-06 2.68691e+25 -3.92871 2.8361 272.093 
2.62808e-06 5.49508e-06 2.68905e+25 -4.34815 0.738031 272.005 
4.53942e-06 5.49508e-06 2.68702e+25 -4.99584 -1.8782 272.125 
6.45075e-06 5.49508e-06 2.68745e+25 -6.01671 -5.25962 272.127 
8.36208e-06 5.49508e-06 2.68612e+25 -6.62916 -8.7305 272.285 
1.02734e-05 5.49508e-06 2.68837e+25 -6.29332 -12.1223 272.3 
1.21847e-05 5.49508e-06 2.68875e+25 -5.12965 -13.9917 272.379 
1.40961e-05 5.49508e-06 2.69013e+25 -2.82098 -12.3027 272.259 
1.60074e-05 5.49508e-06 2.69006e+25 -0.556149 -5.75476 272.271 
7.1675e-07 5.97292e-06 2.68723e+25 -3.38219 2.87373 272.089 
2.62808e-06 5.97292e-06 2.68813e+25 -3.67081 0.821671 271.937 
4.53942e-06 5.97292e-06 2.68661e+25 -4.40383 -1.65131 272.097 
6.45075e-06 5.97292e-06 2.68714e+25 -5.51975 -5.09311 272.08 
8.36208e-06 5.97292e-06 2.68664e+25 -6.16389 -8.65287 272.189 
1.02734e-05 5.97292e-06 2.68815e+25 -6.17564 -12.273 272.282 
1.21847e-05 5.97292e-06 2.68808e+25 -5.12983 -14.3786 272.39 
1.40961e-05 5.97292e-06 2.69033e+25 -2.92894 -12.9379 272.304 
1.60074e-05 5.97292e-06 2.68939e+25 -0.655423 -6.16475 272.341 
7.1675e-07 6.45075e-06 2.68752e+25 -2.66889 2.87162 272.03 
2.62808e-06 6.45075e-06 2.68747e+25 -3.09468 1.00747 271.923 
4.53942e-06 6.45075e-06 2.68758e+25 -3.74899 -1.49203 271.966 
6.45075e-06 6.45075e-06 2.68727e+25 -4.86544 -4.93567 272.001 
8.36208e-06 6.45075e-06 2.68793e+25 -5.72649 -8.48331 272.118 
1.02734e-05 6.45075e-06 2.68888e+25 -5.96484 -12.388 272.223 
1.21847e-05 6.45075e-06 2.6894e+25 -5.16157 -14.7613 272.316 
1.40961e-05 6.45075e-06 2.69095e+25 -2.9709 -13.6533 272.32 
1.60074e-05 6.45075e-06 2.6907e+25 -0.689112 -6.60919 272.21 
7.1675e-07 6.92858e-06 2.68836e+25 -2.13459 2.8962 271.912 
2.62808e-06 6.92858e-06 2.68762e+25 -2.45669 1.19984 271.868 
4.53942e-06 6.92858e-06 2.68728e+25 -3.18635 -1.36738 272.036 
6.45075e-06 6.92858e-06 2.68722e+25 -4.10673 -4.65875 272.023 
8.36208e-06 6.92858e-06 2.68764e+25 -5.08348 -8.27865 272.136 
1.02734e-05 6.92858e-06 2.68644e+25 -5.53367 -12.3909 272.374 
1.21847e-05 6.92858e-06 2.68805e+25 -5.08456 -15.0923 272.363 
1.40961e-05 6.92858e-06 2.69213e+25 -3.23115 -14.327 272.199 
1.60074e-05 6.92858e-06 2.692e+25 -0.676053 -7.05555 272.191 
7.1675e-07 7.40642e-06 2.68863e+25 -1.58269 2.89596 271.809 
2.62808e-06 7.40642e-06 2.68694e+25 -1.75496 1.36781 271.972 
4.53942e-06 7.40642e-06 2.68747e+25 -2.32536 -1.15336 271.982 
6.45075e-06 7.40642e-06 2.68664e+25 -3.1957 -4.35059 272.078 
8.36208e-06 7.40642e-06 2.68823e+25 -4.11096 -8.05924 272.127 
1.02734e-05 7.40642e-06 2.68792e+25 -5.0257 -12.3345 272.332 
1.21847e-05 7.40642e-06 2.68838e+25 -4.99274 -15.3023 272.472 
1.40961e-05 7.40642e-06 2.69198e+25 -3.29047 -14.9589 272.157 
1.60074e-05 7.40642e-06 2.69179e+25 -0.726178 -7.55669 272.214 
7.1675e-07 7.88425e-06 2.6878e+25 -0.91586 2.89111 271.93 
2.62808e-06 7.88425e-06 2.68627e+25 -0.997322 1.45615 271.986 
4.53942e-06 7.88425e-06 2.685e+25 -1.42095 -0.976007 272.213 
6.45075e-06 7.88425e-06 2.68758e+25 -2.15706 -4.09099 271.99 
8.36208e-06 7.88425e-06 2.68938e+25 -3.22854 -7.79597 271.978 
1.02734e-05 7.88425e-06 2.68833e+25 -4.51996 -12.1677 272.303 
1.21847e-05 7.88425e-06 2.68768e+25 -4.82281 -15.3991 272.525 
1.40961e-05 7.88425e-06 2.6929e+25 -3.20714 -15.4421 272.128 
1.60074e-05 7.88425e-06 2.69237e+25 -0.819506 -8.02349 272.28 
7.1675e-07 8.36208e-06 2.68761e+25 -0.0218477 2.87204 271.938 
2.62808e-06 8.36208e-06 2.68578e+25 -0.124905 1.45148 272.031 
4.53942e-06 8.36208e-06 2.68482e+25 -0.572309 -0.768031 272.269 
6.45075e-06 8.36208e-06 2.68916e+25 -1.16249 -3.92276 271.905 
8.36208e-06 8.36208e-06 2.68905e+25 -2.30618 -7.53115 272.032 
1.02734e-05 8.36208e-06 2.68721e+25 -3.92055 -11.9253 272.287 
1.21847e-05 8.36208e-06 2.6889e+25 -4.51348 -15.5075 272.397 
1.40961e-05 8.36208e-06 2.69222e+25 -3.27759 -16.0216 272.254 
1.60074e-05 8.36208e-06 2.69096e+25 -0.7686 -8.58932 272.314 
7.1675e-07 8.83992e-06 2.68757e+25 1.01977 2.96618 271.933 
2.62808e-06 8.83992e-06 2.68769e+25 0.755565 1.47453 271.93 
4.53942e-06 8.83992e-06 2.68656e+25 0.58022 -0.617551 272.089 
6.45075e-06 8.83992e-06 2.68645e+25 -0.0144658 -3.70604 272.034 
8.36208e-06 8.83992e-06 2.68875e+25 -1.39695 -7.16083 272.01 
1.02734e-05 8.83992e-06 2.68783e+25 -3.09057 -11.5531 272.314 
1.21847e-05 8.83992e-06 2.6901e+25 -4.16431 -15.5655 272.286 
1.40961e-05 8.83992e-06 2.691e+25 -3.37215 -16.5296 272.377 
1.60074e-05 8.83992e-06 2.68951e+25 -0.827301 -9.14171 272.484 
7.1675e-07 9.31775e-06 2.68817e+25 1.88405 3.00415 271.872 
2.62808e-06 9.31775e-06 2.68682e+25 1.79193 1.51804 271.95 
4.53942e-06 9.31775e-06 2.68621e+25 1.78314 -0.512294 272.107 
6.45075e-06 9.31775e-06 2.68568e+25 1.10129 -3.38413 272.15 
8.36208e-06 9.31775e-06 2.68634e+25 -0.40714 -6.70093 272.26 
1.02734e-05 9.31775e-06 2.68813e+25 -2.23583 -11.1041 272.301 
1.21847e-05 9.31775e-06 2.68946e+25 -3.70264 -15.4238 272.393 
1.40961e-05 9.31775e-06 2.69071e+25 -3.24544 -17.0433 272.465 
1.60074e-05 9.31775e-06 2.69285e+25 -0.912681 -9.75309 272.366 
7.1675e-07 9.79558e-06 2.68748e+25 2.77937 3.01612 271.989 
2.62808e-06 9.79558e-06 2.68767e+25 2.91766 1.52751 271.904 
4.53942e-06 9.79558e-06 2.68668e+25 2.9076 -0.545255 272.073 
6.45075e-06 9.79558e-06 2.68556e+25 2.1828 -3.13658 272.216 
8.36208e-06 9.79558e-06 2.68711e+25 0.797771 -6.20289 272.196 
1.02734e-05 9.79558e-06 2.68777e+25 -1.37239 -10.6213 272.305 
1.21847e-05 9.79558e-06 2.68997e+25 -3.25908 -15.1344 272.38 
1.40961e-05 9.79558e-06 2.69271e+25 -3.20131 -17.4674 272.402 
1.60074e-05 9.79558e-06 2.69347e+25 -0.940014 -10.3686 272.279 
7.1675e-07 1.02734e-05 2.6874e+25 3.78979 2.84261 271.931 
2.62808e-06 1.02734e-05 2.68723e+25 4.14155 1.54879 271.925 
4.53942e-06 1.02734e-05 2.68624e+25 4.03563 -0.508404 272.152 
6.45075e-06 1.02734e-05 2.6852e+25 3.47151 -2.86465 272.286 
8.36208e-06 1.02734e-05 2.68636e+25 1.96803 -5.67237 272.18 
1.02734e-05 1.02734e-05 2.68769e+25 -0.226338 -10.0648 272.347 
1.21847e-05 1.02734e-05 2.68944e+25 -2.4957 -14.72 272.477 
1.40961e-05 1.02734e-05 2.69439e+25 -3.14881 -17.7586 272.357 
1.60074e-05 1.02734e-05 2.69516e+25 -0.865905 -10.9916 272.36 
7.1675e-07 1.07512e-05 2.68863e+25 4.85266 2.63223 271.968 
2.62808e-06 1.07512e-05 2.68765e+25 5.42882 1.4381 271.91 
4.53942e-06 1.07512e-05 2.68509e+25 5.44964 -0.477754 272.154 
6.45075e-06 1.07512e-05 2.68688e+25 4.80057 -2.59628 272.203 
8.36208e-06 1.07512e-05 2.68796e+25 3.24671 -5.2123 272.201 
1.02734e-05 1.07512e-05 2.68881e+25 0.918944 -9.37066 272.357 
1.21847e-05 1.07512e-05 2.68974e+25 -1.75365 -14.2232 272.512 
1.40961e-05 1.07512e-05 2.69378e+25 -3.00062 -17.9887 272.337 
1.60074e-05 1.07512e-05 2.69466e+25 -0.997618 -11.5905 272.453 
7.1675e-07 1.12291e-05 2.68735e+25 5.9925 2.49524 271.93 
2.62808e-06 1.12291e-05 2.68725e+25 6.72856 1.34328 272.004 
4.53942e-06 1.12291e-05 2.6846e+25 6.86838 -0.411884 272.255 
6.45075e-06 1.12291e-05 2.68484e+25 6.13987 -2.34254 272.34 
8.36208e-06 1.12291e-05 2.68653e+25 4.57693 -4.7376 272.284 
1.02734e-05 1.12291e-05 2.68855e+25 2.19176 -8.62592 272.359 
1.21847e-05 1.12291e-05 2.69031e+25 -0.843818 -13.5878 272.463 
1.40961e-05 1.12291e-05 2.69449e+25 -2.65288 -18.0327 272.363 
1.60074e-05 1.12291e-05 2.69551e+25 -0.969434 -12.2 272.578 
7.1675e-07 1.17069e-05 2.68692e+25 7.41418 2.27276 272.013 
2.62808e-06 1.17069e-05 2.68805e+25 8.17083 1.20723 271.991 
4.53942e-06 1.17069e-05 2.6865e+25 8.26455 -0.253434 272.206 
6.45075e-06 1.17069e-05 2.68665e+25 7.78648 -2.06553 272.156 
8.36208e-06 1.17069e-05 2.68876e+25 6.04849 -4.285 272.187 
1.02734e-05 1.17069e-05 2.69086e+25 3.57946 -7.8472 272.227 
1.21847e-05 1.17069e-05 2.69024e+25 0.164397 -12.8368 272.55 
1.40961e-05 1.17069e-05 2.69551e+25 -2.25335 -17.9197 272.411 
1.60074e-05 1.17069e-05 2.69478e+25 -1.12137 -12.8122 272.652 
7.1675e-07 1.21847e-05 2.6884e+25 8.91644 2.01347 271.968 
2.62808e-06 1.21847e-05 2.68725e+25 9.8153 1.01492 271.978 
4.53942e-06 1.21847e-05 2.686e+25 9.81867 -0.170073 272.14 
6.45075e-06 1.21847e-05 2.68587e+25 9.29224 -1.74373 272.188 
8.36208e-06 1.21847e-05 2.68829e+25 7.78361 -3.8366 272.206 
1.02734e-05 1.21847e-05 2.68847e+25 5.1151 -6.9756 272.474 
1.21847e-05 1.21847e-05 2.69171e+25 1.31057 -11.9334 272.42 
1.40961e-05 1.21847e-05 2.6972e+25 -1.65693 -17.5645 272.468 
1.60074e-05 1.21847e-05 2.69603e+25 -1.24986 -13.4417 272.674 
7.1675e-07 1.26626e-05 2.68529e+25 10.6752 1.80104 272.174 
2.62808e-06 1.26626e-05 2.68694e+25 11.4623 0.85241 272.022 
4.53942e-06 1.26626e-05 2.68703e+25 11.6573 -0.123104 272.047 
6.45075e-06 1.26626e-05 2.68607e+25 11.0602 -1.48297 272.184 
8.36208e-06 1.26626e-05 2.68755e+25 9.62578 -3.38372 272.27 
1.02734e-05 1.26626e-05 2.68945e+25 6.94386 -6.15408 272.406 
1.21847e-05 1.26626e-05 2.69295e+25 2.95675 -10.8822 272.481 
1.40961e-05 1.26626e-05 2.69776e+25 -1.13802 -16.8951 272.539 
1.60074e-05 1.26626e-05 2.69977e+25 -1.36713 -14.1422 272.665 
7.1675e-07 1.31404e-05 2.68571e+25 12.4996 1.58377 272.201 
2.62808e-06 1.31404e-05 2.6867e+25 13.1024 0.716541 272.133 
4.53942e-06 1.31404e-05 2.68734e+25 13.5538 -0.111736 272.099 
6.45075e-06 1.31404e-05 2.68494e+25 13.0194 -1.2416 272.386 
8.36208e-06 1.31404e-05 2.68697e+25 11.514 -2.93573 272.272 
1.02734e-05 1.31404e-05 2.69051e+25 8.93869 -5.31191 272.378 
1.21847e-05 1.31404e-05 2.69389e+25 4.73903 -9.67034 272.479 
1.40961e-05 1.31404e-05 2.69963e+25 -0.505909 -15.9248 272.507 
1.60074e-05 1.31404e-05 2.70076e+25 -1.30348 -14.7741 272.691 
7.1675e-07 1.36182e-05 2.68318e+25 14.4307 1.26748 272.437 
2.62808e-06 1.36182e-05 2.68646e+25 15.0825 0.606444 272.205 
4.53942e-06 1.36182e-05 2.68483e+25 15.44 -0.0962725 272.172 
6.45075e-06 1.36182e-05 2.68446e+25 14.9747 -1.02131 272.454 
8.36208e-06 1.36182e-05 2.68793e+25 13.6537 -2.43883 272.157 
1.02734e-05 1.36182e-05 2.68977e+25 10.8658 -4.51175 272.395 
1.21847e-05 1.36182e-05 2.69328e+25 6.55881 -8.31817 272.574 
1.40961e-05 1.36182e-05 2.69957e+25 0.237782 -14.6523 272.627 
1.60074e-05 1.36182e-05 2.70474e+25 -1.53653 -15.3334 272.597 
7.1675e-07 1.40961e-05 2.6835e+25 16.475 0.993336 272.447 
2.62808e-06 1.40961e-05 2.68748e+25 17.1287 0.452344 272.103 
4.53942e-06 1.40961e-05 2.68716e+25 17.493 -0.0959429 272.129 
6.45075e-06 1.40961e-05 2.68472e+25 16.9873 -0.844109 272.434 
8.36208e-06 1.40961e-05 2.68767e+25 15.6918 -1.86587 272.28 
1.02734e-05 1.40961e-05 2.6907e+25 13.2557 -3.69348 272.433 
1.21847e-05 1.40961e-05 2.6926e+25 8.7778 -6.94282 272.776 
1.40961e-05 1.40961e-05 2.6988e+25 1.66958 -13.0814 272.721 
1.60074e-05 1.40961e-05 2.70827e+25 -1.56769 -15.7407 272.602 
7.1675e-07 1.45739e-05 2.68313e+25 18.8701 0.675051 272.438 
2.62808e-06 1.45739e-05 2.68623e+25 19.4036 0.315774 272.192 
4.53942e-06 1.45739e-05 2.68694e+25 19.6223 -0.156081 272.158 
6.45075e-06 1.45739e-05 2.68502e+25 19.2961 -0.68156 272.435 
8.36208e-06 1.45739e-05 2.6868e+25 18.1885 -1.33585 272.462 
1.02734e-05 1.45739e-05 2.6891e+25 15.9075 -2.88468 272.578 
1.21847e-05 1.45739e-05 2.69289e+25 11.3791 -5.52955 272.777 
1.40961e-05 1.45739e-05 2.69981e+25 3.74832 -11.0915 272.845 
1.60074e-05 1.45739e-05 2.71355e+25 -1.54053 -16.0271 272.559 
7.1675e-07 1.50518e-05 2.68453e+25 21.3848 0.353344 272.415 
2.62808e-06 1.50518e-05 2.68447e+25 22.0933 0.285795 272.343 
4.53942e-06 1.50518e-05 2.68512e+25 22.1214 -0.0737688 272.336 
6.45075e-06 1.50518e-05 2.68706e+25 21.8399 -0.545405 272.314 
8.36208e-06 1.50518e-05 2.68759e+25 20.8598 -0.943387 272.404 
1.02734e-05 1.50518e-05 2.68881e+25 18.6436 -2.08856 272.542 
1.21847e-05 1.50518e-05 2.69229e+25 14.2393 -4.09178 272.813 
1.40961e-05 1.50518e-05 2.70081e+25 6.53207 -8.7682 272.951 
1.60074e-05 1.50518e-05 2.71775e+25 -1.5422 -15.8766 272.636 
7.1675e-07 1.55296e-05 2.68414e+25 24.2088 0.169649 272.41 
2.62808e-06 1.55296e-05 2.6844e+25 24.876 0.168969 272.413 
4.53942e-06 1.55296e-05 2.68479e+25 24.7569 -0.0274558 272.403 
6.45075e-06 1.55296e-05 2.6857e+25 24.5054 -0.402425 272.387 
8.36208e-06 1.55296e-05 2.68652e+25 23.6379 -0.610437 272.491 
1.02734e-05 1.55296e-05 2.68745e+25 21.5655 -1.27048 272.691 
1.21847e-05 1.55296e-05 2.69181e+25 17.8495 -2.69358 272.862 
1.40961e-05 1.55296e-05 2.70043e+25 10.3915 -6.30748 273.098 
1.60074e-05 1.55296e-05 2.72134e+25 -0.736356 -14.854 272.934 
7.1675e-07 1.60074e-05 2.6845e+25 26.9029 -0.0107128 272.401 
2.62808e-06 1.60074e-05 2.68455e+25 27.6048 0.0246855 272.487 
4.53942e-06 1.60074e-05 2.68283e+25 27.6218 0.0211823 272.477 
6.45075e-06 1.60074e-05 2.68539e+25 27.324 -0.164892 272.574 
8.36208e-06 1.60074e-05 2.68754e+25 26.5302 -0.384251 272.44 
1.02734e-05 1.60074e-05 2.6866e+25 24.9206 -0.710098 272.753 
1.21847e-05 1.60074e-05 2.69346e+25 21.9684 -1.48807 272.884 
1.40961e-05 1.60074e-05 2.70193e+25 15.5295 -3.86266 273.099 
1.60074e-05 1.60074e-05 2.72686e+25 1.56903 -12.429 273.149 
7.1675e-07 1.64852e-05 2.68278e+25 30.0065 -0.075457 272.542 
2.62808e-06 1.64852e-05 2.68315e+25 30.3463 -0.0849102 272.598 
4.53942e-06 1.64852e-05 2.68307e+25 30.5274 0.040571 272.586 
6.45075e-06 1.64852e-05 2.68451e+25 30.2014 -0.0575348 272.612 
8.36208e-06 1.64852e-05 2.68535e+25 29.6139 -0.214933 272.616 
1.02734e-05 1.64852e-05 2.68776e+25 28.5736 -0.361717 272.799 
1.21847e-05 1.64852e-05 2.6921e+25 26.5695 -0.571171 272.887 
1.40961e-05 1.64852e-05 2.70213e+25 22.0464 -1.71117 273.118 
1.60074e-05 1.64852e-05 2.73042e+25 7.58088 -7.95115 273.48 
7.1675e-07 1.69631e-05 2.68059e+25 32.8729 -0.0189782 272.801 
2.62808e-06 1.69631e-05 2.68082e+25 32.8743 -0.0392825 272.763 
4.53942e-06 1.69631e-05 2.68074e+25 33.11 0.0107305 272.831 
6.45075e-06 1.69631e-05 2.68278e+25 32.8761 -0.0417286 272.838 
8.36208e-06 1.69631e-05 2.68357e+25 32.6122 -0.0236961 272.814 
1.02734e-05 1.69631e-05 2.68696e+25 32.1749 -0.10926 272.919 
1.21847e-05 1.69631e-05 2.69207e+25 31.2933 -0.117283 272.93 
1.40961e-05 1.69631e-05 2.69966e+25 29.4551 -0.333236 273.158 
1.60074e-05 1.69631e-05 2.73427e+25 20.0601 -2.33263 273.573 
1.19458e-06 2.38917e-07 2.68753e+25 -7.97502 0.637639 271.979 
3.10592e-06 2.38917e-07 2.68667e+25 -8.13919 -1.64463 272.17 
5.01725e-06 2.38917e-07 2.68584e+25 -8.0083 -3.6339 272.271 
6.92858e-06 2.38917e-07 2.68854e+25 -7.71289 -5.87293 271.962 
8.83992e-06 2.38917e-07 2.68839e+25 -6.68673 -7.9985 272.124 
1.07512e-05 2.38917e-07 2.6857e+25 -5.16323 -8.51955 272.355 
1.26626e-05 2.38917e-07 2.6886e+25 -3.22505 -7.75222 272.199 
1.45739e-05 2.38917e-07 2.68826e+25 -1.23588 -5.08354 272.182 
1.64852e-05 2.38917e-07 2.68492e+25 -0.0539874 -1.45085 272.548 
1.19458e-06 7.1675e-07 2.68854e+25 -7.75727 0.89818 272.094 
3.10592e-06 7.1675e-07 2.68755e+25 -8.14667 -1.58687 272.236 
5.01725e-06 7.1675e-07 2.68824e+25 -8.14184 -3.66738 272.186 
6.92858e-06 7.1675e-07 2.6902e+25 -7.65749 -5.99563 272.086 
8.83992e-06 7.1675e-07 2.69055e+25 -6.90148 -8.41393 272.191 
1.07512e-05 7.1675e-07 2.68929e+25 -5.50167 -8.9949 272.306 
1.26626e-05 7.1675e-07 2.69e+25 -3.4012 -8.23725 272.206 
1.45739e-05 7.1675e-07 2.68956e+25 -1.39159 -5.50211 272.22 
1.64852e-05 7.1675e-07 2.68538e+25 -0.0999268 -1.48851 272.677 
1.19458e-06 1.19458e-06 2.68817e+25 -7.44491 1.1593 272.12 
3.10592e-06 1.19458e-06 2.68824e+25 -8.05753 -1.53417 272.099 
5.01725e-06 1.19458e-06 2.68917e+25 -8.21833 -3.73402 272.149 
6.92858e-06 1.19458e-06 2.69027e+25 -7.8047 -6.08939 272.098 
8.83992e-06 1.19458e-06 2.68876e+25 -7.04556 -8.66087 272.237 
1.07512e-05 1.19458e-06 2.68954e+25 -5.64366 -9.3904 272.322 
1.26626e-05 1.19458e-06 2.69037e+25 -3.55444 -8.81163 272.26 
1.45739e-05 1.19458e-06 2.68973e+25 -1.44735 -6.01383 272.253 
1.64852e-05 1.19458e-06 2.6841e+25 -0.196393 -1.62684 272.745 
1.19458e-06 1.67242e-06 2.68847e+25 -7.19135 1.37528 272.112 
3.10592e-06 1.67242e-06 2.68908e+25 -7.85664 -1.42939 272.01 
5.01725e-06 1.67242e-06 2.6899e+25 -8.15322 -3.71538 272.069 
6.92858e-06 1.67242e-06 2.68728e+25 -7.84213 -6.18674 272.302 
8.83992e-06 1.67242e-06 2.68754e+25 -7.09165 -8.93508 272.318 
1.07512e-05 1.67242e-06 2.68793e+25 -5.89182 -9.85135 272.342 
1.26626e-05 1.67242e-06 2.6908e+25 -3.61782 -9.36962 272.206 
1.45739e-05 1.67242e-06 2.68944e+25 -1.64768 -6.49566 272.169 
1.64852e-05 1.67242e-06 2.68577e+25 -0.155332 -1.86378 272.654 
1.19458e-06 2.15025e-06 2.68775e+25 -6.80081 1.55768 272.237 
3.10592e-06 2.15025e-06 2.68906e+25 -7.63158 -1.28478 272.012 
5.01725e-06 2.15025e-06 2.69002e+25 -8.11203 -3.68739 271.974 
6.92858e-06 2.15025e-06 2.68704e+25 -7.76241 -6.31669 272.364 
8.83992e-06 2.15025e-06 2.68761e+25 -7.21485 -9.10939 272.444 
1.07512e-05 2.15025e-06 2.68811e+25 -6.01834 -10.3184 272.35 
1.26626e-05 2.15025e-06 2.68996e+25 -3.82024 -9.88773 272.176 
1.45739e-05 2.15025e-06 2.69008e+25 -1.67455 -7.02134 272.101 
1.64852e-05 2.15025e-06 2.68549e+25 -0.129359 -2.02491 272.616 
1.19458e-06 2.62808e-06 2.6885e+25 -6.52875 1.69319 271.986 
3.10592e-06 2.62808e-06 2.68804e+25 -7.34771 -1.11081 272.06 
5.01725e-06 2.62808e-06 2.68956e+25 -7.85363 -3.74483 272.021 
6.92858e-06 2.62808e-06 2.68581e+25 -7.78855 -6.44277 272.275 
8.83992e-06 2.62808e-06 2.68722e+25 -7.35111 -9.24376 272.453 
1.07512e-05 2.62808e-06 2.68788e+25 -6.13901 -10.8315 272.399 
1.26626e-05 2.62808e-06 2.68974e+25 -4.04868 -10.433 272.263 
1.45739e-05 2.62808e-06 2.69203e+25 -1.71862 -7.55362 272.105 
1.64852e-05 2.62808e-06 2.68715e+25 -0.106375 -2.22699 272.486 
1.19458e-06 3.10592e-06 2.68812e+25 -6.10902 1.83981 272.025 
3.10592e-06 3.10592e-06 2.68789e+25 -6.94129 -0.978486 272.051 
5.01725e-06 3.10592e-06 2.68899e+25 -7.61143 -3.67017 272.025 
6.92858e-06 3.10592e-06 2.68776e+25 -7.68741 -6.5642 272.198 
8.83992e-06 3.10592e-06 2.68744e+25 -7.4354 -9.43226 272.395 
1.07512e-05 3.10592e-06 2.68788e+25 -6.31745 -11.2088 272.416 
1.26626e-05 3.10592e-06 2.68964e+25 -4.25966 -10.952 272.264 
1.45739e-05 3.10592e-06 2.6915e+25 -1.78357 -8.15498 272.035 
1.64852e-05 3.10592e-06 2.68773e+25 -0.0908303 -2.42814 272.477 
1.19458e-06 3.58375e-06 2.68813e+25 -5.78771 1.97613 272.022 
3.10592e-06 3.58375e-06 2.68912e+25 -6.38493 -0.706429 271.919 
5.01725e-06 3.58375e-06 2.68728e+25 -7.31673 -3.49463 272.185 
6.92858e-06 3.58375e-06 2.68766e+25 -7.45898 -6.5754 272.208 
8.83992e-06 3.58375e-06 2.68653e+25 -7.49837 -9.5663 272.433 
1.07512e-05 3.58375e-06 2.68788e+25 -6.44941 -11.6213 272.315 
1.26626e-05 3.58375e-06 2.68904e+25 -4.48998 -11.5617 272.366 
1.45739e-05 3.58375e-06 2.69155e+25 -1.86848 -8.73096 272.117 
1.64852e-05 3.58375e-06 2.68692e+25 -0.155061 -2.56765 272.59 
1.19458e-06 4.06158e-06 2.68747e+25 -5.32949 2.0042 272.016 
3.10592e-06 4.06158e-06 2.68833e+25 -5.93842 -0.388757 272.016 
5.01725e-06 4.06158e-06 2.68738e+25 -6.92115 -3.357 272.187 
6.92858e-06 4.06158e-06 2.68639e+25 -7.23159 -6.58532 272.239 
8.83992e-06 4.06158e-06 2.68676e+25 -7.25199 -9.56298 272.363 
1.07512e-05 4.06158e-06 2.68837e+25 -6.41857 -12.0195 272.337 
1.26626e-05 4.06158e-06 2.69029e+25 -4.58459 -12.2099 272.257 
1.45739e-05 4.06158e-06 2.6913e+25 -1.94325 -9.30052 272.117 
1.64852e-05 4.06158e-06 2.68638e+25 -0.202444 -2.788 272.615 
1.19458e-06 4.53942e-06 2.68593e+25 -4.92662 2.11173 272.179 
3.10592e-06 4.53942e-06 2.68841e+25 -5.49215 -0.191069 272.056 
5.01725e-06 4.53942e-06 2.68533e+25 -6.34943 -3.20008 272.268 
6.92858e-06 4.53942e-06 2.68827e+25 -6.99054 -6.47377 272.155 
8.83992e-06 4.53942e-06 2.68691e+25 -7.15487 -9.49955 272.189 
1.07512e-05 4.53942e-06 2.6897e+25 -6.38801 -12.2579 272.238 
1.26626e-05 4.53942e-06 2.68942e+25 -4.5879 -12.7874 272.313 
1.45739e-05 4.53942e-06 2.69079e+25 -2.02994 -9.94245 272.213 
1.64852e-05 4.53942e-06 2.68659e+25 -0.176367 -2.97924 272.612 
1.19458e-06 5.01725e-06 2.68704e+25 -4.48852 2.24789 272.059 
3.10592e-06 5.01725e-06 2.68882e+25 -4.89742 -0.0278165 271.976 
5.01725e-06 5.01725e-06 2.68605e+25 -5.77491 -3.03067 272.23 
6.92858e-06 5.01725e-06 2.68784e+25 -6.65498 -6.33776 272.166 
8.83992e-06 5.01725e-06 2.68696e+25 -6.91004 -9.57405 272.328 
1.07512e-05 5.01725e-06 2.68712e+25 -6.25506 -12.5364 272.364 
1.26626e-05 5.01725e-06 2.68858e+25 -4.55882 -13.339 272.273 
1.45739e-05 5.01725e-06 2.69186e+25 -2.04187 -10.5764 272.21 
1.64852e-05 5.01725e-06 2.68774e+25 -0.282 -3.22657 272.534 
1.19458e-06 5.49508e-06 2.68822e+25 -3.97097 2.33329 272.003 
3.10592e-06 5.49508e-06 2.68881e+25 -4.42741 0.153997 271.983 
5.01725e-06 5.49508e-06 2.68709e+25 -5.22945 -2.76512 272.189 
6.92858e-06 5.49508e-06 2.68789e+25 -6.12835 -6.19411 272.153 
8.83992e-06 5.49508e-06 2.6864e+25 -6.66166 -9.63897 272.288 
1.07512e-05 5.49508e-06 2.68858e+25 -6.12246 -12.7389 272.302 
1.26626e-05 5.49508e-06 2.68926e+25 -4.70247 -13.8707 272.346 
1.45739e-05 5.49508e-06 2.69087e+25 -2.22813 -11.1858 272.295 
1.64852e-05 5.49508e-06 2.68745e+25 -0.250168 -3.46758 272.454 
1.19458e-06 5.97292e-06 2.68705e+25 -3.37347 2.29852 272.083 
3.10592e-06 5.97292e-06 2.68836e+25 -3.87275 0.339101 271.999 
5.01725e-06 5.97292e-06 2.68691e+25 -4.65288 -2.49018 272.102 
6.92858e-06 5.97292e-06 2.68827e+25 -5.71473 -6.01941 272.059 
8.83992e-06 5.97292e-06 2.68871e+25 -6.23629 -9.60698 272.14 
1.07512e-05 5.97292e-06 2.68805e+25 -6.00467 -12.9143 272.315 
1.26626e-05 5.97292e-06 2.68851e+25 -4.67697 -14.3833 272.337 
1.45739e-05 5.97292e-06 2.69098e+25 -2.25474 -11.7869 272.192 
1.64852e-05 5.97292e-06 2.68667e+25 -0.25878 -3.7405 272.532 
1.19458e-06 6.45075e-06 2.6878e+25 -2.76941 2.40415 271.993 
3.10592e-06 6.45075e-06 2.68714e+25 -3.313 0.590966 271.999 
5.01725e-06 6.45075e-06 2.6866e+25 -3.93544 -2.22729 272.105 
6.92858e-06 6.45075e-06 2.68813e+25 -5.06719 -5.75893 272.01 
8.83992e-06 6.45075e-06 2.6883e+25 -5.8921 -9.52491 272.094 
1.07512e-05 6.45075e-06 2.68782e+25 -5.8867 -13.018 272.329 
1.26626e-05 6.45075e-06 2.69055e+25 -4.7489 -14.8596 272.185 
1.45739e-05 6.45075e-06 2.69126e+25 -2.34038 -12.4028 272.228 
1.64852e-05 6.45075e-06 2.68669e+25 -0.266006 -4.12151 272.587 
1.19458e-06 6.92858e-06 2.68745e+25 -2.21805 2.57995 271.963 
3.10592e-06 6.92858e-06 2.68694e+25 -2.6539 0.766718 271.979 
5.01725e-06 6.92858e-06 2.68714e+25 -3.38365 -1.98006 272.096 
6.92858e-06 6.92858e-06 2.68854e+25 -4.36077 -5.57034 272.03 
8.83992e-06 6.92858e-06 2.68865e+25 -5.23246 -9.46286 272.103 
1.07512e-05 6.92858e-06 2.68707e+25 -5.50854 -13.1374 272.351 
1.26626e-05 6.92858e-06 2.69116e+25 -4.76286 -15.2665 272.189 
1.45739e-05 6.92858e-06 2.69031e+25 -2.55793 -13.0117 272.31 
1.64852e-05 6.92858e-06 2.6882e+25 -0.249418 -4.47307 272.45 
1.19458e-06 7.40642e-06 2.68906e+25 -1.57855 2.66659 271.84 
3.10592e-06 7.40642e-06 2.68709e+25 -1.86865 0.944986 271.958 
5.01725e-06 7.40642e-06 2.68765e+25 -2.52237 -1.79967 271.965 
6.92858e-06 7.40642e-06 2.68781e+25 -3.49382 -5.30711 272.033 
8.83992e-06 7.40642e-06 2.68792e+25 -4.37446 -9.24109 272.18 
1.07512e-05 7.40642e-06 2.68777e+25 -5.0998 -13.1524 272.412 
1.26626e-05 7.40642e-06 2.68972e+25 -4.73977 -15.6469 272.324 
1.45739e-05 7.40642e-06 2.69131e+25 -2.67643 -13.6502 272.24 
1.64852e-05 7.40642e-06 2.68844e+25 -0.404891 -4.70871 272.486 
1.19458e-06 7.88425e-06 2.68905e+25 -0.844937 2.57494 271.906 
3.10592e-06 7.88425e-06 2.6869e+25 -1.00996 1.00915 272.036 
5.01725e-06 7.88425e-06 2.68622e+25 -1.64244 -1.6 272.105 
6.92858e-06 7.88425e-06 2.68619e+25 -2.35497 -5.05297 272.087 
8.83992e-06 7.88425e-06 2.68958e+25 -3.55117 -8.92285 272.029 
1.07512e-05 7.88425e-06 2.68741e+25 -4.69693 -13.0703 272.306 
1.26626e-05 7.88425e-06 2.68898e+25 -4.61827 -16.0428 272.501 
1.45739e-05 7.88425e-06 2.69155e+25 -2.5648 -14.3768 272.252 
1.64852e-05 7.88425e-06 2.68874e+25 -0.348615 -5.07343 272.503 
1.19458e-06 8.36208e-06 2.68872e+25 -0.00390048 2.5208 271.884 
3.10592e-06 8.36208e-06 2.68679e+25 -0.177174 1.05758 272.048 
5.01725e-06 8.36208e-06 2.68513e+25 -0.684794 -1.42898 272.229 
6.92858e-06 8.36208e-06 2.68802e+25 -1.37428 -4.79219 272.027 
8.83992e-06 8.36208e-06 2.68805e+25 -2.65707 -8.52543 272.087 
1.07512e-05 8.36208e-06 2.68874e+25 -4.19443 -12.8893 272.236 
1.26626e-05 8.36208e-06 2.68865e+25 -4.39128 -16.2851 272.423 
1.45739e-05 8.36208e-06 2.69222e+25 -2.68178 -15.062 272.28 
1.64852e-05 8.36208e-06 2.68663e+25 -0.237197 -5.48188 272.643 
1.19458e-06 8.83992e-06 2.68805e+25 0.897077 2.59511 271.872 
3.10592e-06 8.83992e-06 2.68755e+25 0.761185 1.07852 271.918 
5.01725e-06 8.83992e-06 2.68598e+25 0.440559 -1.30003 272.205 
6.92858e-06 8.83992e-06 2.68581e+25 -0.327464 -4.53587 272.154 
8.83992e-06 8.83992e-06 2.68882e+25 -1.84894 -8.09579 272.006 
1.07512e-05 8.83992e-06 2.68883e+25 -3.47321 -12.5806 272.268 
1.26626e-05 8.83992e-06 2.69068e+25 -4.14876 -16.3415 272.297 
1.45739e-05 8.83992e-06 2.69186e+25 -2.77252 -15.7506 272.366 
1.64852e-05 8.83992e-06 2.69041e+25 -0.326433 -5.871 272.484 
1.19458e-06 9.31775e-06 2.68754e+25 1.86895 2.6324 271.922 
3.10592e-06 9.31775e-06 2.68649e+25 1.76766 1.06837 271.971 
5.01725e-06 9.31775e-06 2.68745e+25 1.65951 -1.15247 272.112 
6.92858e-06 9.31775e-06 2.68497e+25 0.760081 -4.22835 272.24 
8.83992e-06 9.31775e-06 2.68658e+25 -0.894639 -7.63147 272.183 
1.07512e-05 9.31775e-06 2.689e+25 -2.73321 -12.183 272.259 
1.26626e-05 9.31775e-06 2.69025e+25 -3.86584 -16.3321 272.42 
1.45739e-05 9.31775e-06 2.69171e+25 -2.73411 -16.328 272.367 
1.64852e-05 9.31775e-06 2.6901e+25 -0.399172 -6.26816 272.514 
1.19458e-06 9.79558e-06 2.68777e+25 2.86335 2.58324 271.879 
3.10592e-06 9.79558e-06 2.68642e+25 2.94206 1.06356 272.018 
5.01725e-06 9.79558e-06 2.68751e+25 2.86341 -0.973542 272.068 
6.92858e-06 9.79558e-06 2.68685e+25 1.94867 -3.91869 272.115 
8.83992e-06 9.79558e-06 2.68772e+25 0.243616 -7.09287 272.224 
1.07512e-05 9.79558e-06 2.68997e+25 -1.86355 -11.6966 272.217 
1.26626e-05 9.79558e-06 2.69055e+25 -3.5439 -16.2138 272.426 
1.45739e-05 9.79558e-06 2.69284e+25 -2.80971 -16.8156 272.357 
1.64852e-05 9.79558e-06 2.6921e+25 -0.384567 -6.72188 272.451 
1.19458e-06 1.02734e-05 2.68761e+25 3.97409 2.48646 271.923 
3.10592e-06 1.02734e-05 2.68766e+25 4.13499 1.08959 271.974 
5.01725e-06 1.02734e-05 2.6858e+25 4.09693 -0.977573 272.15 
6.92858e-06 1.02734e-05 2.68687e+25 3.20626 -3.66324 272.143 
8.83992e-06 1.02734e-05 2.685e+25 1.47899 -6.56464 272.332 
1.07512e-05 1.02734e-05 2.68796e+25 -0.807723 -11.1531 272.349 
1.26626e-05 1.02734e-05 2.69044e+25 -2.89423 -15.9598 272.481 
1.45739e-05 1.02734e-05 2.69331e+25 -2.77562 -17.2679 272.426 
1.64852e-05 1.02734e-05 2.69255e+25 -0.392161 -7.11155 272.612 
1.19458e-06 1.07512e-05 2.68764e+25 5.06229 2.32164 271.968 
3.10592e-06 1.07512e-05 2.68739e+25 5.48739 1.07645 271.902 
5.01725e-06 1.07512e-05 2.68545e+25 5.33227 -0.946292 272.176 
6.92858e-06 1.07512e-05 2.68644e+25 4.43339 -3.28101 272.152 
8.83992e-06 1.07512e-05 2.68609e+25 2.73081 -6.05427 272.289 
1.07512e-05 1.07512e-05 2.68842e+25 0.19229 -10.5801 272.37 
1.26626e-05 1.07512e-05 2.6897e+25 -2.25613 -15.5405 272.528 
1.45739e-05 1.07512e-05 2.69408e+25 -2.72107 -17.6965 272.459 
1.64852e-05 1.07512e-05 2.69301e+25 -0.405075 -7.55366 272.581 
1.19458e-06 1.12291e-05 2.68749e+25 6.22365 2.09588 271.953 
3.10592e-06 1.12291e-05 2.68827e+25 6.84374 1.0049 271.845 
5.01725e-06 1.12291e-05 2.68458e+25 6.72505 -0.788756 272.209 
6.92858e-06 1.12291e-05 2.6857e+25 5.8769 -2.92485 272.218 
8.83992e-06 1.12291e-05 2.68615e+25 4.10829 -5.54944 272.387 
1.07512e-05 1.12291e-05 2.68924e+25 1.43618 -9.84189 272.449 
1.26626e-05 1.12291e-05 2.69108e+25 -1.49037 -15.0155 272.495 
1.45739e-05 1.12291e-05 2.69419e+25 -2.56516 -18.01 272.503 
1.64852e-05 1.12291e-05 2.69342e+25 -0.434451 -8.02321 272.709 
1.19458e-06 1.17069e-05 2.68835e+25 7.58716 1.91083 271.901 
3.10592e-06 1.17069e-05 2.68782e+25 8.3265 0.870161 271.902 
5.01725e-06 1.17069e-05 2.68547e+25 8.19249 -0.694148 272.232 
6.92858e-06 1.17069e-05 2.68767e+25 7.4484 -2.58028 272.1 
8.83992e-06 1.17069e-05 2.68661e+25 5.59758 -5.04461 272.34 
1.07512e-05 1.17069e-05 2.68986e+25 2.66062 -8.94579 272.308 
1.26626e-05 1.17069e-05 2.69154e+25 -0.655474 -14.2887 272.535 
1.45739e-05 1.17069e-05 2.69506e+25 -2.33531 -18.1842 272.492 
1.64852e-05 1.17069e-05 2.69403e+25 -0.556834 -8.50641 272.819 
1.19458e-06 1.21847e-05 2.68756e+25 9.10916 1.77885 271.979 
3.10592e-06 1.21847e-05 2.68646e+25 9.95422 0.742714 271.981 
5.01725e-06 1.21847e-05 2.68463e+25 9.74736 -0.645232 272.26 
6.92858e-06 1.21847e-05 2.68757e+25 8.97264 -2.29695 272.187 
8.83992e-06 1.21847e-05 2.68613e+25 7.30716 -4.5042 272.43 
1.07512e-05 1.21847e-05 2.68966e+25 4.21657 -7.99701 272.417 
1.26626e-05 1.21847e-05 2.69137e+25 0.387715 -13.4396 272.519 
1.45739e-05 1.21847e-05 2.69734e+25 -2.08263 -18.0435 272.547 
1.64852e-05 1.21847e-05 2.69471e+25 -0.547179 -9.09201 272.841 
1.19458e-06 1.26626e-05 2.68674e+25 10.8811 1.60299 272.138 
3.10592e-06 1.26626e-05 2.68723e+25 11.5878 0.684906 272.05 
5.01725e-06 1.26626e-05 2.68543e+25 11.6028 -0.548442 272.224 
6.92858e-06 1.26626e-05 2.68582e+25 10.7614 -1.94656 272.292 
8.83992e-06 1.26626e-05 2.68715e+25 9.07806 -3.92915 272.396 
1.07512e-05 1.26626e-05 2.69113e+25 6.10078 -7.06162 272.408 
1.26626e-05 1.26626e-05 2.6929e+25 1.81879 -12.4925 272.545 
1.45739e-05 1.26626e-05 2.69741e+25 -1.77387 -17.6428 272.559 
1.64852e-05 1.26626e-05 2.69911e+25 -0.678852 -9.68821 272.637 
1.19458e-06 1.31404e-05 2.6862e+25 12.7246 1.39275 272.214 
3.10592e-06 1.31404e-05 2.6869e+25 13.2466 0.569361 272.097 
5.01725e-06 1.31404e-05 2.68513e+25 13.5028 -0.421341 272.301 
6.92858e-06 1.31404e-05 2.68593e+25 12.6889 -1.54269 272.315 
8.83992e-06 1.31404e-05 2.68746e+25 10.9938 -3.36949 272.359 
1.07512e-05 1.31404e-05 2.6913e+25 8.02228 -6.15817 272.381 
1.26626e-05 1.31404e-05 2.69372e+25 3.38462 -11.2534 272.58 
1.45739e-05 1.31404e-05 2.69863e+25 -1.41599 -17.0835 272.618 
1.64852e-05 1.31404e-05 2.70071e+25 -0.600913 -10.3723 272.72 
1.19458e-06 1.36182e-05 2.68473e+25 14.7139 1.21447 272.275 
3.10592e-06 1.36182e-05 2.68635e+25 15.1801 0.439822 272.126 
5.01725e-06 1.36182e-05 2.6863e+25 15.4074 -0.3178 272.193 
6.92858e-06 1.36182e-05 2.6846e+25 14.7489 -1.20784 272.42 
8.83992e-06 1.36182e-05 2.68905e+25 13.0459 -2.76121 272.216 
1.07512e-05 1.36182e-05 2.69034e+25 10.0607 -5.29614 272.404 
1.26626e-05 1.36182e-05 2.69464e+25 5.09916 -9.78634 272.66 
1.45739e-05 1.36182e-05 2.70019e+25 -0.983401 -16.2636 272.651 
1.64852e-05 1.36182e-05 2.70296e+25 -0.91145 -11.074 272.869 
1.19458e-06 1.40961e-05 2.68467e+25 16.6788 1.00696 272.363 
3.10592e-06 1.40961e-05 2.68672e+25 17.2854 0.352838 272.104 
5.01725e-06 1.40961e-05 2.68534e+25 17.4743 -0.24254 272.28 
6.92858e-06 1.40961e-05 2.68649e+25 16.7745 -0.965955 272.392 
8.83992e-06 1.40961e-05 2.68745e+25 15.221 -2.23571 272.4 
1.07512e-05 1.40961e-05 2.69121e+25 12.4253 -4.44047 272.46 
1.26626e-05 1.40961e-05 2.69309e+25 7.23438 -8.19689 272.817 
1.45739e-05 1.40961e-05 2.70168e+25 0.0840564 -15.0576 272.763 
1.64852e-05 1.40961e-05 2.70946e+25 -0.91099 -11.8404 272.6 
1.19458e-06 1.45739e-05 2.68248e+25 19.1802 0.777737 272.406 
3.10592e-06 1.45739e-05 2.68387e+25 19.5604 0.242072 272.272 
5.01725e-06 1.45739e-05 2.68533e+25 19.6347 -0.218513 272.292 
6.92858e-06 1.45739e-05 2.68701e+25 19.1415 -0.827656 272.305 
8.83992e-06 1.45739e-05 2.68791e+25 17.7003 -1.76162 272.442 
1.07512e-05 1.45739e-05 2.69078e+25 14.9334 -3.46167 272.59 
1.26626e-05 1.45739e-05 2.69223e+25 9.78853 -6.49268 272.915 
1.45739e-05 1.45739e-05 2.7038e+25 1.67859 -13.3908 272.659 
1.64852e-05 1.45739e-05 2.71453e+25 -1.06072 -12.552 272.648 
1.19458e-06 1.50518e-05 2.6834e+25 21.6748 0.546991 272.44 
3.10592e-06 1.50518e-05 2.68355e+25 22.1685 0.085268 272.43 
5.01725e-06 1.50518e-05 2.68482e+25 22.0608 -0.245864 272.267 
6.92858e-06 1.50518e-05 2.68737e+25 21.7219 -0.662689 272.319 
8.83992e-06 1.50518e-05 2.68849e+25 20.4452 -1.24086 272.356 
1.07512e-05 1.50518e-05 2.68966e+25 17.6966 -2.37069 272.582 
1.26626e-05 1.50518e-05 2.69373e+25 12.6499 -4.75592 272.922 
1.45739e-05 1.50518e-05 2.70444e+25 4.0346 -11.1516 272.858 
1.64852e-05 1.50518e-05 2.72032e+25 -1.37962 -13.3042 272.673 
1.19458e-06 1.55296e-05 2.68322e+25 24.3453 0.337307 272.472 
3.10592e-06 1.55296e-05 2.68374e+25 24.9315 0.0855134 272.445 
5.01725e-06 1.55296e-05 2.68505e+25 24.7376 -0.15734 272.326 
6.92858e-06 1.55296e-05 2.6866e+25 24.2544 -0.437979 272.386 
8.83992e-06 1.55296e-05 2.68757e+25 23.3046 -0.851076 272.467 
1.07512e-05 1.55296e-05 2.69052e+25 20.8099 -1.47457 272.698 
1.26626e-05 1.55296e-05 2.69417e+25 16.3593 -3.09089 272.852 
1.45739e-05 1.55296e-05 2.70387e+25 7.63068 -8.38468 273.11 
1.64852e-05 1.55296e-05 2.72712e+25 -1.40869 -13.7646 272.876 
1.19458e-06 1.60074e-05 2.68304e+25 27.1079 0.177011 272.531 
3.10592e-06 1.60074e-05 2.68443e+25 27.7302 0.0800184 272.389 
5.01725e-06 1.60074e-05 2.68302e+25 27.5722 -0.108308 272.548 
6.92858e-06 1.60074e-05 2.68525e+25 27.1979 -0.283609 272.53 
8.83992e-06 1.60074e-05 2.68672e+25 26.2557 -0.491897 272.499 
1.07512e-05 1.60074e-05 2.68803e+25 24.4233 -0.795923 272.832 
1.26626e-05 1.60074e-05 2.69457e+25 20.8042 -1.62478 272.874 
1.45739e-05 1.60074e-05 2.70569e+25 12.8193 -5.34714 273.201 
1.64852e-05 1.60074e-05 2.7378e+25 -0.793667 -13.34 272.928 
1.19458e-06 1.64852e-05 2.68139e+25 30.0475 0.0518238 272.675 
3.10592e-06 1.64852e-05 2.68334e+25 30.3491 0.0361093 272.507 
5.01725e-06 1.64852e-05 2.68262e+25 30.5199 -0.06414 272.652 
6.92858e-06 1.64852e-05 2.68334e+25 30.0765 -0.114998 272.644 
8.83992e-06 1.64852e-05 2.68596e+25 29.3779 -0.186075 272.666 
1.07512e-05 1.64852e-05 2.68841e+25 28.199 -0.235238 272.858 
1.26626e-05 1.64852e-05 2.69388e+25 25.7985 -0.620768 272.942 
1.45739e-05 1.64852e-05 2.70342e+25 19.8567 -2.44676 273.268 
1.64852e-05 1.64852e-05 2.74804e+25 2.28824 -10.6195 273.455 
1.19458e-06 1.69631e-05 2.68031e+25 32.8336 -0.00442094 272.874 
3.10592e-06 1.69631e-05 2.67999e+25 32.8351 -0.0126107 272.842 
5.01725e-06 1.69631e-05 2.68085e+25 33.0912 -0.028622 272.887 
6.92858e-06 1.69631e-05 2.68191e+25 32.8688 -0.00975565 272.841 
8.83992e-06 1.69631e-05 2.6842e+25 32.5148 -0.0608937 272.862 
1.07512e-05 1.69631e-05 2.6866e+25 32.0104 0.0089065 272.977 
1.26626e-05 1.69631e-05 2.69295e+25 31.0453 -0.104525 272.976 
1.45739e-05 1.69631e-05 2.70206e+25 28.3901 -0.54264 273.25 
1.64852e-05 1.69631e-05 2.76899e+25 13.3832 -3.64743 273.812 
