ITEM: TIMESTEP
1500000
ITEM: NUMBER OF CELLS
2000
ITEM: BOX BOUNDS pp ss pp
0 1
0 6.3592e-05
-0.5 0.5
ITEM: CELLS id yc f_1[1] f_1[2] f_1[3] f_1[4] f_1[5] f_1[6] f_1[7] f_1[8] 
1 1.5898e-08 0 0 0 0 0 0 0 0 
5 1.43082e-07 0 0 0 0 0 0 0 0 
9 2.70266e-07 0 0 0 0 0 0 0 0 
13 3.9745e-07 0 0 0 0 0 0 0 0 
17 5.24634e-07 0 0 0 0 0 0 0 0 
21 6.51818e-07 0 0 0 0 0 0 0 0 
25 7.79002e-07 0 0 0 0 0 0 0 0 
29 9.06186e-07 0 0 0 0 0 0 0 0 
33 1.03337e-06 0 0 0 0 0 0 0 0 
37 1.16055e-06 0 0 0 0 0 0 0 0 
41 1.28774e-06 0 0 0 0 0 0 0 0 
45 1.41492e-06 0 0 0 0 0 0 0 0 
49 1.54211e-06 0 0 0 0 0 0 0 0 
53 1.66929e-06 0 0 0 0 0 0 0 0 
57 1.79647e-06 0 0 0 0 0 0 0 0 
61 1.92366e-06 0 0 0 0 0 0 0 0 
65 2.05084e-06 0 0 0 0 0 0 0 0 
69 2.17803e-06 0 0 0 0 0 0 0 0 
73 2.30521e-06 0 0 0 0 0 0 0 0 
77 2.43239e-06 0 0 0 0 0 0 0 0 
81 2.55958e-06 0 0 0 0 0 0 0 0 
85 2.68676e-06 0 0 0 0 0 0 0 0 
89 2.81395e-06 0 0 0 0 0 0 0 0 
93 2.94113e-06 0 0 0 0 0 0 0 0 
97 3.06831e-06 0 0 0 0 0 0 0 0 
101 3.1955e-06 0 0 0 0 0 0 0 0 
105 3.32268e-06 0 0 0 0 0 0 0 0 
109 3.44987e-06 0 0 0 0 0 0 0 0 
113 3.57705e-06 0 0 0 0 0 0 0 0 
117 3.70423e-06 0 0 0 0 0 0 0 0 
121 3.83142e-06 0 0 0 0 0 0 0 0 
125 3.9586e-06 0 0 0 0 0 0 0 0 
129 4.08579e-06 0 0 0 0 0 0 0 0 
133 4.21297e-06 0 0 0 0 0 0 0 0 
137 4.34015e-06 0 0 0 0 0 0 0 0 
141 4.46734e-06 0 0 0 0 0 0 0 0 
145 4.59452e-06 0 0 0 0 0 0 0 0 
149 4.72171e-06 0 0 0 0 0 0 0 0 
153 4.84889e-06 0 0 0 0 0 0 0 0 
157 4.97607e-06 0 0 0 0 0 0 0 0 
161 5.10326e-06 0 0 0 0 0 0 0 0 
165 5.23044e-06 0 0 0 0 0 0 0 0 
169 5.35763e-06 0 0 0 0 0 0 0 0 
173 5.48481e-06 0 0 0 0 0 0 0 0 
177 5.61199e-06 0 0 0 0 0 0 0 0 
181 5.73918e-06 0 0 0 0 0 0 0 0 
185 5.86636e-06 0 0 0 0 0 0 0 0 
189 5.99355e-06 0 0 0 0 0 0 0 0 
193 6.12073e-06 0 0 0 0 0 0 0 0 
197 6.24791e-06 0 0 0 0 0 0 0 0 
201 6.3751e-06 0 0 0 0 0 0 0 0 
205 6.50228e-06 0 0 0 0 0 0 0 0 
209 6.62947e-06 0 0 0 0 0 0 0 0 
213 6.75665e-06 0 0 0 0 0 0 0 0 
217 6.88383e-06 0 0 0 0 0 0 0 0 
221 7.01102e-06 0 0 0 0 0 0 0 0 
225 7.1382e-06 0 0 0 0 0 0 0 0 
229 7.26539e-06 0 0 0 0 0 0 0 0 
233 7.39257e-06 0 0 0 0 0 0 0 0 
237 7.51975e-06 0 0 0 0 0 0 0 0 
241 7.64694e-06 0 0 0 0 0 0 0 0 
245 7.77412e-06 0 0 0 0 0 0 0 0 
249 7.90131e-06 0 0 0 0 0 0 0 0 
253 8.02849e-06 0 0 0 0 0 0 0 0 
257 8.15567e-06 0 0 0 0 0 0 0 0 
261 8.28286e-06 0 0 0 0 0 0 0 0 
265 8.41004e-06 0 0 0 0 0 0 0 0 
269 8.53723e-06 0 0 0 0 0 0 0 0 
273 8.66441e-06 0 0 0 0 0 0 0 0 
277 8.79159e-06 0 0 0 0 0 0 0 0 
281 8.91878e-06 0 0 0 0 0 0 0 0 
285 9.04596e-06 0 0 0 0 0 0 0 0 
289 9.17315e-06 0 0 0 0 0 0 0 0 
293 9.30033e-06 0 0 0 0 0 0 0 0 
297 9.42751e-06 0 0 0 0 0 0 0 0 
301 9.5547e-06 0 0 0 0 0 0 0 0 
305 9.68188e-06 0 0 0 0 0 0 0 0 
309 9.80907e-06 0 0 0 0 0 0 0 0 
313 9.93625e-06 0 0 0 0 0 0 0 0 
317 1.00634e-05 0 0 0 0 0 0 0 0 
321 1.01906e-05 0 0 0 0 0 0 0 0 
325 1.03178e-05 0 0 0 0 0 0 0 0 
329 1.0445e-05 0 0 0 0 0 0 0 0 
333 1.05722e-05 0 0 0 0 0 0 0 0 
337 1.06994e-05 0 0 0 0 0 0 0 0 
341 1.08265e-05 0 0 0 0 0 0 0 0 
345 1.09537e-05 0 0 0 0 0 0 0 0 
349 1.10809e-05 0 0 0 0 0 0 0 0 
353 1.12081e-05 0 0 0 0 0 0 0 0 
357 1.13353e-05 0 0 0 0 0 0 0 0 
361 1.14625e-05 0 0 0 0 0 0 0 0 
365 1.15896e-05 0 0 0 0 0 0 0 0 
369 1.17168e-05 0 0 0 0 0 0 0 0 
373 1.1844e-05 0 0 0 0 0 0 0 0 
377 1.19712e-05 0 0 0 0 0 0 0 0 
381 1.20984e-05 0 0 0 0 0 0 0 0 
385 1.22256e-05 0 0 0 0 0 0 0 0 
389 1.23527e-05 0 0 0 0 0 0 0 0 
393 1.24799e-05 0 0 0 0 0 0 0 0 
397 1.26071e-05 0 0 0 0 0 0 0 0 
401 1.27343e-05 0 0 0 0 0 0 0 0 
405 1.28615e-05 0 0 0 0 0 0 0 0 
409 1.29887e-05 0 0 0 0 0 0 0 0 
413 1.31158e-05 0 0 0 0 0 0 0 0 
417 1.3243e-05 0 0 0 0 0 0 0 0 
421 1.33702e-05 0 0 0 0 0 0 0 0 
425 1.34974e-05 0 0 0 0 0 0 0 0 
429 1.36246e-05 0 0 0 0 0 0 0 0 
433 1.37518e-05 0 0 0 0 0 0 0 0 
437 1.3879e-05 0 0 0 0 0 0 0 0 
441 1.40061e-05 0 0 0 0 0 0 0 0 
445 1.41333e-05 0 0 0 0 0 0 0 0 
449 1.42605e-05 0 0 0 0 0 0 0 0 
453 1.43877e-05 0 0 0 0 0 0 0 0 
457 1.45149e-05 0 0 0 0 0 0 0 0 
461 1.46421e-05 0 0 0 0 0 0 0 0 
465 1.47692e-05 0 0 0 0 0 0 0 0 
469 1.48964e-05 0 0 0 0 0 0 0 0 
473 1.50236e-05 0 0 0 0 0 0 0 0 
477 1.51508e-05 0 0 0 0 0 0 0 0 
481 1.5278e-05 0 0 0 0 0 0 0 0 
485 1.54052e-05 0 0 0 0 0 0 0 0 
489 1.55323e-05 0 0 0 0 0 0 0 0 
493 1.56595e-05 0 0 0 0 0 0 0 0 
497 1.57867e-05 0 0 0 0 0 0 0 0 
2 4.7694e-08 0 0 0 0 0 0 0 0 
6 1.74878e-07 0 0 0 0 0 0 0 0 
10 3.02062e-07 0 0 0 0 0 0 0 0 
14 4.29246e-07 0 0 0 0 0 0 0 0 
18 5.5643e-07 0 0 0 0 0 0 0 0 
22 6.83614e-07 0 0 0 0 0 0 0 0 
26 8.10798e-07 0 0 0 0 0 0 0 0 
30 9.37982e-07 0 0 0 0 0 0 0 0 
34 1.06517e-06 0 0 0 0 0 0 0 0 
38 1.19235e-06 0 0 0 0 0 0 0 0 
42 1.31953e-06 0 0 0 0 0 0 0 0 
46 1.44672e-06 0 0 0 0 0 0 0 0 
50 1.5739e-06 0 0 0 0 0 0 0 0 
54 1.70109e-06 0 0 0 0 0 0 0 0 
58 1.82827e-06 0 0 0 0 0 0 0 0 
62 1.95545e-06 0 0 0 0 0 0 0 0 
66 2.08264e-06 0 0 0 0 0 0 0 0 
70 2.20982e-06 0 0 0 0 0 0 0 0 
74 2.33701e-06 0 0 0 0 0 0 0 0 
78 2.46419e-06 0 0 0 0 0 0 0 0 
82 2.59137e-06 0 0 0 0 0 0 0 0 
86 2.71856e-06 0 0 0 0 0 0 0 0 
90 2.84574e-06 0 0 0 0 0 0 0 0 
94 2.97293e-06 0 0 0 0 0 0 0 0 
98 3.10011e-06 0 0 0 0 0 0 0 0 
102 3.22729e-06 0 0 0 0 0 0 0 0 
106 3.35448e-06 0 0 0 0 0 0 0 0 
110 3.48166e-06 0 0 0 0 0 0 0 0 
114 3.60885e-06 0 0 0 0 0 0 0 0 
118 3.73603e-06 0 0 0 0 0 0 0 0 
122 3.86321e-06 0 0 0 0 0 0 0 0 
126 3.9904e-06 0 0 0 0 0 0 0 0 
130 4.11758e-06 0 0 0 0 0 0 0 0 
134 4.24477e-06 0 0 0 0 0 0 0 0 
138 4.37195e-06 0 0 0 0 0 0 0 0 
142 4.49913e-06 0 0 0 0 0 0 0 0 
146 4.62632e-06 0 0 0 0 0 0 0 0 
150 4.7535e-06 0 0 0 0 0 0 0 0 
154 4.88069e-06 0 0 0 0 0 0 0 0 
158 5.00787e-06 0 0 0 0 0 0 0 0 
162 5.13505e-06 0 0 0 0 0 0 0 0 
166 5.26224e-06 0 0 0 0 0 0 0 0 
170 5.38942e-06 0 0 0 0 0 0 0 0 
174 5.51661e-06 0 0 0 0 0 0 0 0 
178 5.64379e-06 0 0 0 0 0 0 0 0 
182 5.77097e-06 0 0 0 0 0 0 0 0 
186 5.89816e-06 0 0 0 0 0 0 0 0 
190 6.02534e-06 0 0 0 0 0 0 0 0 
194 6.15253e-06 0 0 0 0 0 0 0 0 
198 6.27971e-06 0 0 0 0 0 0 0 0 
202 6.40689e-06 0 0 0 0 0 0 0 0 
206 6.53408e-06 0 0 0 0 0 0 0 0 
210 6.66126e-06 0 0 0 0 0 0 0 0 
214 6.78845e-06 0 0 0 0 0 0 0 0 
218 6.91563e-06 0 0 0 0 0 0 0 0 
222 7.04281e-06 0 0 0 0 0 0 0 0 
226 7.17e-06 0 0 0 0 0 0 0 0 
230 7.29718e-06 0 0 0 0 0 0 0 0 
234 7.42437e-06 0 0 0 0 0 0 0 0 
238 7.55155e-06 0 0 0 0 0 0 0 0 
242 7.67873e-06 0 0 0 0 0 0 0 0 
246 7.80592e-06 0 0 0 0 0 0 0 0 
250 7.9331e-06 0 0 0 0 0 0 0 0 
254 8.06029e-06 0 0 0 0 0 0 0 0 
258 8.18747e-06 0 0 0 0 0 0 0 0 
262 8.31465e-06 0 0 0 0 0 0 0 0 
266 8.44184e-06 0 0 0 0 0 0 0 0 
270 8.56902e-06 0 0 0 0 0 0 0 0 
274 8.69621e-06 0 0 0 0 0 0 0 0 
278 8.82339e-06 0 0 0 0 0 0 0 0 
282 8.95057e-06 0 0 0 0 0 0 0 0 
286 9.07776e-06 0 0 0 0 0 0 0 0 
290 9.20494e-06 0 0 0 0 0 0 0 0 
294 9.33213e-06 0 0 0 0 0 0 0 0 
298 9.45931e-06 0 0 0 0 0 0 0 0 
302 9.58649e-06 0 0 0 0 0 0 0 0 
306 9.71368e-06 0 0 0 0 0 0 0 0 
310 9.84086e-06 0 0 0 0 0 0 0 0 
314 9.96805e-06 0 0 0 0 0 0 0 0 
318 1.00952e-05 0 0 0 0 0 0 0 0 
322 1.02224e-05 0 0 0 0 0 0 0 0 
326 1.03496e-05 0 0 0 0 0 0 0 0 
330 1.04768e-05 0 0 0 0 0 0 0 0 
334 1.0604e-05 0 0 0 0 0 0 0 0 
338 1.07311e-05 0 0 0 0 0 0 0 0 
342 1.08583e-05 0 0 0 0 0 0 0 0 
346 1.09855e-05 0 0 0 0 0 0 0 0 
350 1.11127e-05 0 0 0 0 0 0 0 0 
354 1.12399e-05 0 0 0 0 0 0 0 0 
358 1.13671e-05 0 0 0 0 0 0 0 0 
362 1.14943e-05 0 0 0 0 0 0 0 0 
366 1.16214e-05 0 0 0 0 0 0 0 0 
370 1.17486e-05 0 0 0 0 0 0 0 0 
374 1.18758e-05 0 0 0 0 0 0 0 0 
378 1.2003e-05 0 0 0 0 0 0 0 0 
382 1.21302e-05 0 0 0 0 0 0 0 0 
386 1.22574e-05 0 0 0 0 0 0 0 0 
390 1.23845e-05 0 0 0 0 0 0 0 0 
394 1.25117e-05 0 0 0 0 0 0 0 0 
398 1.26389e-05 0 0 0 0 0 0 0 0 
402 1.27661e-05 0 0 0 0 0 0 0 0 
406 1.28933e-05 0 0 0 0 0 0 0 0 
410 1.30205e-05 0 0 0 0 0 0 0 0 
414 1.31476e-05 0 0 0 0 0 0 0 0 
418 1.32748e-05 0 0 0 0 0 0 0 0 
422 1.3402e-05 0 0 0 0 0 0 0 0 
426 1.35292e-05 0 0 0 0 0 0 0 0 
430 1.36564e-05 0 0 0 0 0 0 0 0 
434 1.37836e-05 0 0 0 0 0 0 0 0 
438 1.39107e-05 0 0 0 0 0 0 0 0 
442 1.40379e-05 0 0 0 0 0 0 0 0 
446 1.41651e-05 0 0 0 0 0 0 0 0 
450 1.42923e-05 0 0 0 0 0 0 0 0 
454 1.44195e-05 0 0 0 0 0 0 0 0 
458 1.45467e-05 0 0 0 0 0 0 0 0 
462 1.46739e-05 0 0 0 0 0 0 0 0 
466 1.4801e-05 0 0 0 0 0 0 0 0 
470 1.49282e-05 0 0 0 0 0 0 0 0 
474 1.50554e-05 0 0 0 0 0 0 0 0 
478 1.51826e-05 0 0 0 0 0 0 0 0 
482 1.53098e-05 0 0 0 0 0 0 0 0 
486 1.5437e-05 0 0 0 0 0 0 0 0 
490 1.55641e-05 0 0 0 0 0 0 0 0 
494 1.56913e-05 0 0 0 0 0 0 0 0 
498 1.58185e-05 0 0 0 0 0 0 0 0 
3 7.949e-08 0 0 0 0 0 0 0 0 
7 2.06674e-07 0 0 0 0 0 0 0 0 
11 3.33858e-07 0 0 0 0 0 0 0 0 
15 4.61042e-07 0 0 0 0 0 0 0 0 
19 5.88226e-07 0 0 0 0 0 0 0 0 
23 7.1541e-07 0 0 0 0 0 0 0 0 
27 8.42594e-07 0 0 0 0 0 0 0 0 
31 9.69778e-07 0 0 0 0 0 0 0 0 
35 1.09696e-06 0 0 0 0 0 0 0 0 
39 1.22415e-06 0 0 0 0 0 0 0 0 
43 1.35133e-06 0 0 0 0 0 0 0 0 
47 1.47851e-06 0 0 0 0 0 0 0 0 
51 1.6057e-06 0 0 0 0 0 0 0 0 
55 1.73288e-06 0 0 0 0 0 0 0 0 
59 1.86007e-06 0 0 0 0 0 0 0 0 
63 1.98725e-06 0 0 0 0 0 0 0 0 
67 2.11443e-06 0 0 0 0 0 0 0 0 
71 2.24162e-06 0 0 0 0 0 0 0 0 
75 2.3688e-06 0 0 0 0 0 0 0 0 
79 2.49599e-06 0 0 0 0 0 0 0 0 
83 2.62317e-06 0 0 0 0 0 0 0 0 
87 2.75035e-06 0 0 0 0 0 0 0 0 
91 2.87754e-06 0 0 0 0 0 0 0 0 
95 3.00472e-06 0 0 0 0 0 0 0 0 
99 3.13191e-06 0 0 0 0 0 0 0 0 
103 3.25909e-06 0 0 0 0 0 0 0 0 
107 3.38627e-06 0 0 0 0 0 0 0 0 
111 3.51346e-06 0 0 0 0 0 0 0 0 
115 3.64064e-06 0 0 0 0 0 0 0 0 
119 3.76783e-06 0 0 0 0 0 0 0 0 
123 3.89501e-06 0 0 0 0 0 0 0 0 
127 4.02219e-06 0 0 0 0 0 0 0 0 
131 4.14938e-06 0 0 0 0 0 0 0 0 
135 4.27656e-06 0 0 0 0 0 0 0 0 
139 4.40375e-06 0 0 0 0 0 0 0 0 
143 4.53093e-06 0 0 0 0 0 0 0 0 
147 4.65811e-06 0 0 0 0 0 0 0 0 
151 4.7853e-06 0 0 0 0 0 0 0 0 
155 4.91248e-06 0 0 0 0 0 0 0 0 
159 5.03967e-06 0 0 0 0 0 0 0 0 
163 5.16685e-06 0 0 0 0 0 0 0 0 
167 5.29403e-06 0 0 0 0 0 0 0 0 
171 5.42122e-06 0 0 0 0 0 0 0 0 
175 5.5484e-06 0 0 0 0 0 0 0 0 
179 5.67559e-06 0 0 0 0 0 0 0 0 
183 5.80277e-06 0 0 0 0 0 0 0 0 
187 5.92995e-06 0 0 0 0 0 0 0 0 
191 6.05714e-06 0 0 0 0 0 0 0 0 
195 6.18432e-06 0 0 0 0 0 0 0 0 
199 6.31151e-06 0 0 0 0 0 0 0 0 
203 6.43869e-06 0 0 0 0 0 0 0 0 
207 6.56587e-06 0 0 0 0 0 0 0 0 
211 6.69306e-06 0 0 0 0 0 0 0 0 
215 6.82024e-06 0 0 0 0 0 0 0 0 
219 6.94743e-06 0 0 0 0 0 0 0 0 
223 7.07461e-06 0 0 0 0 0 0 0 0 
227 7.20179e-06 0 0 0 0 0 0 0 0 
231 7.32898e-06 0 0 0 0 0 0 0 0 
235 7.45616e-06 0 0 0 0 0 0 0 0 
239 7.58335e-06 0 0 0 0 0 0 0 0 
243 7.71053e-06 0 0 0 0 0 0 0 0 
247 7.83771e-06 0 0 0 0 0 0 0 0 
251 7.9649e-06 0 0 0 0 0 0 0 0 
255 8.09208e-06 0 0 0 0 0 0 0 0 
259 8.21927e-06 0 0 0 0 0 0 0 0 
263 8.34645e-06 0 0 0 0 0 0 0 0 
267 8.47363e-06 0 0 0 0 0 0 0 0 
271 8.60082e-06 0 0 0 0 0 0 0 0 
275 8.728e-06 0 0 0 0 0 0 0 0 
279 8.85519e-06 0 0 0 0 0 0 0 0 
283 8.98237e-06 0 0 0 0 0 0 0 0 
287 9.10955e-06 0 0 0 0 0 0 0 0 
291 9.23674e-06 0 0 0 0 0 0 0 0 
295 9.36392e-06 0 0 0 0 0 0 0 0 
299 9.49111e-06 0 0 0 0 0 0 0 0 
303 9.61829e-06 0 0 0 0 0 0 0 0 
307 9.74547e-06 0 0 0 0 0 0 0 0 
311 9.87266e-06 0 0 0 0 0 0 0 0 
315 9.99984e-06 0 0 0 0 0 0 0 0 
319 1.0127e-05 0 0 0 0 0 0 0 0 
323 1.02542e-05 0 0 0 0 0 0 0 0 
327 1.03814e-05 0 0 0 0 0 0 0 0 
331 1.05086e-05 0 0 0 0 0 0 0 0 
335 1.06358e-05 0 0 0 0 0 0 0 0 
339 1.07629e-05 0 0 0 0 0 0 0 0 
343 1.08901e-05 0 0 0 0 0 0 0 0 
347 1.10173e-05 0 0 0 0 0 0 0 0 
351 1.11445e-05 0 0 0 0 0 0 0 0 
355 1.12717e-05 0 0 0 0 0 0 0 0 
359 1.13989e-05 0 0 0 0 0 0 0 0 
363 1.1526e-05 0 0 0 0 0 0 0 0 
367 1.16532e-05 0 0 0 0 0 0 0 0 
371 1.17804e-05 0 0 0 0 0 0 0 0 
375 1.19076e-05 0 0 0 0 0 0 0 0 
379 1.20348e-05 0 0 0 0 0 0 0 0 
383 1.2162e-05 0 0 0 0 0 0 0 0 
387 1.22892e-05 0 0 0 0 0 0 0 0 
391 1.24163e-05 0 0 0 0 0 0 0 0 
395 1.25435e-05 0 0 0 0 0 0 0 0 
399 1.26707e-05 0 0 0 0 0 0 0 0 
403 1.27979e-05 0 0 0 0 0 0 0 0 
407 1.29251e-05 0 0 0 0 0 0 0 0 
411 1.30523e-05 0 0 0 0 0 0 0 0 
415 1.31794e-05 0 0 0 0 0 0 0 0 
419 1.33066e-05 0 0 0 0 0 0 0 0 
423 1.34338e-05 0 0 0 0 0 0 0 0 
427 1.3561e-05 0 0 0 0 0 0 0 0 
431 1.36882e-05 0 0 0 0 0 0 0 0 
435 1.38154e-05 0 0 0 0 0 0 0 0 
439 1.39425e-05 0 0 0 0 0 0 0 0 
443 1.40697e-05 0 0 0 0 0 0 0 0 
447 1.41969e-05 0 0 0 0 0 0 0 0 
451 1.43241e-05 0 0 0 0 0 0 0 0 
455 1.44513e-05 0 0 0 0 0 0 0 0 
459 1.45785e-05 0 0 0 0 0 0 0 0 
463 1.47056e-05 0 0 0 0 0 0 0 0 
467 1.48328e-05 0 0 0 0 0 0 0 0 
471 1.496e-05 0 0 0 0 0 0 0 0 
475 1.50872e-05 0 0 0 0 0 0 0 0 
479 1.52144e-05 0 0 0 0 0 0 0 0 
483 1.53416e-05 0 0 0 0 0 0 0 0 
487 1.54688e-05 0 0 0 0 0 0 0 0 
491 1.55959e-05 0 0 0 0 0 0 0 0 
495 1.57231e-05 0 0 0 0 0 0 0 0 
499 1.58503e-05 0 0 0 0 0 0 0 0 
4 1.11286e-07 0 0 0 0 0 0 0 0 
8 2.3847e-07 0 0 0 0 0 0 0 0 
12 3.65654e-07 0 0 0 0 0 0 0 0 
16 4.92838e-07 0 0 0 0 0 0 0 0 
20 6.20022e-07 0 0 0 0 0 0 0 0 
24 7.47206e-07 0 0 0 0 0 0 0 0 
28 8.7439e-07 0 0 0 0 0 0 0 0 
32 1.00157e-06 0 0 0 0 0 0 0 0 
36 1.12876e-06 0 0 0 0 0 0 0 0 
40 1.25594e-06 0 0 0 0 0 0 0 0 
44 1.38313e-06 0 0 0 0 0 0 0 0 
48 1.51031e-06 0 0 0 0 0 0 0 0 
52 1.63749e-06 0 0 0 0 0 0 0 0 
56 1.76468e-06 0 0 0 0 0 0 0 0 
60 1.89186e-06 0 0 0 0 0 0 0 0 
64 2.01905e-06 0 0 0 0 0 0 0 0 
68 2.14623e-06 0 0 0 0 0 0 0 0 
72 2.27341e-06 0 0 0 0 0 0 0 0 
76 2.4006e-06 0 0 0 0 0 0 0 0 
80 2.52778e-06 0 0 0 0 0 0 0 0 
84 2.65497e-06 0 0 0 0 0 0 0 0 
88 2.78215e-06 0 0 0 0 0 0 0 0 
92 2.90933e-06 0 0 0 0 0 0 0 0 
96 3.03652e-06 0 0 0 0 0 0 0 0 
100 3.1637e-06 0 0 0 0 0 0 0 0 
104 3.29089e-06 0 0 0 0 0 0 0 0 
108 3.41807e-06 0 0 0 0 0 0 0 0 
112 3.54525e-06 0 0 0 0 0 0 0 0 
116 3.67244e-06 0 0 0 0 0 0 0 0 
120 3.79962e-06 0 0 0 0 0 0 0 0 
124 3.92681e-06 0 0 0 0 0 0 0 0 
128 4.05399e-06 0 0 0 0 0 0 0 0 
132 4.18117e-06 0 0 0 0 0 0 0 0 
136 4.30836e-06 0 0 0 0 0 0 0 0 
140 4.43554e-06 0 0 0 0 0 0 0 0 
144 4.56273e-06 0 0 0 0 0 0 0 0 
148 4.68991e-06 0 0 0 0 0 0 0 0 
152 4.81709e-06 0 0 0 0 0 0 0 0 
156 4.94428e-06 0 0 0 0 0 0 0 0 
160 5.07146e-06 0 0 0 0 0 0 0 0 
164 5.19865e-06 0 0 0 0 0 0 0 0 
168 5.32583e-06 0 0 0 0 0 0 0 0 
172 5.45301e-06 0 0 0 0 0 0 0 0 
176 5.5802e-06 0 0 0 0 0 0 0 0 
180 5.70738e-06 0 0 0 0 0 0 0 0 
184 5.83457e-06 0 0 0 0 0 0 0 0 
188 5.96175e-06 0 0 0 0 0 0 0 0 
192 6.08893e-06 0 0 0 0 0 0 0 0 
196 6.21612e-06 0 0 0 0 0 0 0 0 
200 6.3433e-06 0 0 0 0 0 0 0 0 
204 6.47049e-06 0 0 0 0 0 0 0 0 
208 6.59767e-06 0 0 0 0 0 0 0 0 
212 6.72485e-06 0 0 0 0 0 0 0 0 
216 6.85204e-06 0 0 0 0 0 0 0 0 
220 6.97922e-06 0 0 0 0 0 0 0 0 
224 7.10641e-06 0 0 0 0 0 0 0 0 
228 7.23359e-06 0 0 0 0 0 0 0 0 
232 7.36077e-06 0 0 0 0 0 0 0 0 
236 7.48796e-06 0 0 0 0 0 0 0 0 
240 7.61514e-06 0 0 0 0 0 0 0 0 
244 7.74233e-06 0 0 0 0 0 0 0 0 
248 7.86951e-06 0 0 0 0 0 0 0 0 
252 7.99669e-06 0 0 0 0 0 0 0 0 
256 8.12388e-06 0 0 0 0 0 0 0 0 
260 8.25106e-06 0 0 0 0 0 0 0 0 
264 8.37825e-06 0 0 0 0 0 0 0 0 
268 8.50543e-06 0 0 0 0 0 0 0 0 
272 8.63261e-06 0 0 0 0 0 0 0 0 
276 8.7598e-06 0 0 0 0 0 0 0 0 
280 8.88698e-06 0 0 0 0 0 0 0 0 
284 9.01417e-06 0 0 0 0 0 0 0 0 
288 9.14135e-06 0 0 0 0 0 0 0 0 
292 9.26853e-06 0 0 0 0 0 0 0 0 
296 9.39572e-06 0 0 0 0 0 0 0 0 
300 9.5229e-06 0 0 0 0 0 0 0 0 
304 9.65009e-06 0 0 0 0 0 0 0 0 
308 9.77727e-06 0 0 0 0 0 0 0 0 
312 9.90445e-06 0 0 0 0 0 0 0 0 
316 1.00316e-05 0 0 0 0 0 0 0 0 
320 1.01588e-05 0 0 0 0 0 0 0 0 
324 1.0286e-05 0 0 0 0 0 0 0 0 
328 1.04132e-05 0 0 0 0 0 0 0 0 
332 1.05404e-05 0 0 0 0 0 0 0 0 
336 1.06676e-05 0 0 0 0 0 0 0 0 
340 1.07947e-05 0 0 0 0 0 0 0 0 
344 1.09219e-05 0 0 0 0 0 0 0 0 
348 1.10491e-05 0 0 0 0 0 0 0 0 
352 1.11763e-05 0 0 0 0 0 0 0 0 
356 1.13035e-05 0 0 0 0 0 0 0 0 
360 1.14307e-05 0 0 0 0 0 0 0 0 
364 1.15578e-05 0 0 0 0 0 0 0 0 
368 1.1685e-05 0 0 0 0 0 0 0 0 
372 1.18122e-05 0 0 0 0 0 0 0 0 
376 1.19394e-05 0 0 0 0 0 0 0 0 
380 1.20666e-05 0 0 0 0 0 0 0 0 
384 1.21938e-05 0 0 0 0 0 0 0 0 
388 1.23209e-05 0 0 0 0 0 0 0 0 
392 1.24481e-05 0 0 0 0 0 0 0 0 
396 1.25753e-05 0 0 0 0 0 0 0 0 
400 1.27025e-05 0 0 0 0 0 0 0 0 
404 1.28297e-05 0 0 0 0 0 0 0 0 
408 1.29569e-05 0 0 0 0 0 0 0 0 
412 1.30841e-05 0 0 0 0 0 0 0 0 
416 1.32112e-05 0 0 0 0 0 0 0 0 
420 1.33384e-05 0 0 0 0 0 0 0 0 
424 1.34656e-05 0 0 0 0 0 0 0 0 
428 1.35928e-05 0 0 0 0 0 0 0 0 
432 1.372e-05 0 0 0 0 0 0 0 0 
436 1.38472e-05 0 0 0 0 0 0 0 0 
440 1.39743e-05 0 0 0 0 0 0 0 0 
444 1.41015e-05 0 0 0 0 0 0 0 0 
448 1.42287e-05 0 0 0 0 0 0 0 0 
452 1.43559e-05 0 0 0 0 0 0 0 0 
456 1.44831e-05 0 0 0 0 0 0 0 0 
460 1.46103e-05 0 0 0 0 0 0 0 0 
464 1.47374e-05 0 0 0 0 0 0 0 0 
468 1.48646e-05 0 0 0 0 0 0 0 0 
472 1.49918e-05 0 0 0 0 0 0 0 0 
476 1.5119e-05 0 0 0 0 0 0 0 0 
480 1.52462e-05 0 0 0 0 0 0 0 0 
484 1.53734e-05 0 0 0 0 0 0 0 0 
488 1.55005e-05 0 0 0 0 0 0 0 0 
492 1.56277e-05 0 0 0 0 0 0 0 0 
496 1.57549e-05 0 0 0 0 0 0 0 0 
500 1.58821e-05 0 0 0 0 0 0 0 0 
502 1.59457e-05 0 0 0 0 0 0 0 0 
506 1.60729e-05 0 0 0 0 0 0 0 0 
510 1.62001e-05 0 0 0 0 0 0 0 0 
514 1.63272e-05 0 0 0 0 0 0 0 0 
518 1.64544e-05 0 0 0 0 0 0 0 0 
522 1.65816e-05 0 0 0 0 0 0 0 0 
526 1.67088e-05 0 0 0 0 0 0 0 0 
530 1.6836e-05 0 0 0 0 0 0 0 0 
534 1.69632e-05 0 0 0 0 0 0 0 0 
538 1.70903e-05 0 0 0 0 0 0 0 0 
542 1.72175e-05 0 0 0 0 0 0 0 0 
546 1.73447e-05 0 0 0 0 0 0 0 0 
550 1.74719e-05 0 0 0 0 0 0 0 0 
554 1.75991e-05 0 0 0 0 0 0 0 0 
558 1.77263e-05 0 0 0 0 0 0 0 0 
562 1.78535e-05 0 0 0 0 0 0 0 0 
566 1.79806e-05 0 0 0 0 0 0 0 0 
570 1.81078e-05 0 0 0 0 0 0 0 0 
574 1.8235e-05 0 0 0 0 0 0 0 0 
578 1.83622e-05 0 0 0 0 0 0 0 0 
582 1.84894e-05 0 0 0 0 0 0 0 0 
586 1.86166e-05 0 0 0 0 0 0 0 0 
590 1.87437e-05 0 0 0 0 0 0 0 0 
594 1.88709e-05 0 0 0 0 0 0 0 0 
598 1.89981e-05 0 0 0 0 0 0 0 0 
602 1.91253e-05 0 0 0 0 0 0 0 0 
606 1.92525e-05 0 0 0 0 0 0 0 0 
610 1.93797e-05 0 0 0 0 0 0 0 0 
614 1.95068e-05 0 0 0 0 0 0 0 0 
618 1.9634e-05 0 0 0 0 0 0 0 0 
622 1.97612e-05 0 0 0 0 0 0 0 0 
626 1.98884e-05 0 0 0 0 0 0 0 0 
630 2.00156e-05 0 0 0 0 0 0 0 0 
634 2.01428e-05 0 0 0 0 0 0 0 0 
638 2.02699e-05 0 0 0 0 0 0 0 0 
642 2.03971e-05 0 0 0 0 0 0 0 0 
646 2.05243e-05 0 0 0 0 0 0 0 0 
650 2.06515e-05 0 0 0 0 0 0 0 0 
654 2.07787e-05 0 0 0 0 0 0 0 0 
658 2.09059e-05 0 0 0 0 0 0 0 0 
662 2.10331e-05 0 0 0 0 0 0 0 0 
666 2.11602e-05 0 0 0 0 0 0 0 0 
670 2.12874e-05 0 0 0 0 0 0 0 0 
674 2.14146e-05 0 0 0 0 0 0 0 0 
678 2.15418e-05 0 0 0 0 0 0 0 0 
682 2.1669e-05 0 0 0 0 0 0 0 0 
686 2.17962e-05 0 0 0 0 0 0 0 0 
690 2.19233e-05 0 0 0 0 0 0 0 0 
694 2.20505e-05 0 0 0 0 0 0 0 0 
698 2.21777e-05 0 0 0 0 0 0 0 0 
702 2.23049e-05 0 0 0 0 0 0 0 0 
706 2.24321e-05 0 0 0 0 0 0 0 0 
710 2.25593e-05 0 0 0 0 0 0 0 0 
714 2.26864e-05 0 0 0 0 0 0 0 0 
718 2.28136e-05 0 0 0 0 0 0 0 0 
722 2.29408e-05 0 0 0 0 0 0 0 0 
726 2.3068e-05 0 0 0 0 0 0 0 0 
730 2.31952e-05 0 0 0 0 0 0 0 0 
734 2.33224e-05 0 0 0 0 0 0 0 0 
738 2.34495e-05 0 0 0 0 0 0 0 0 
742 2.35767e-05 0 0 0 0 0 0 0 0 
746 2.37039e-05 0 0 0 0 0 0 0 0 
750 2.38311e-05 0 0 0 0 0 0 0 0 
754 2.39583e-05 0 0 0 0 0 0 0 0 
758 2.40855e-05 0 0 0 0 0 0 0 0 
762 2.42127e-05 0 0 0 0 0 0 0 0 
766 2.43398e-05 0 0 0 0 0 0 0 0 
770 2.4467e-05 0 0 0 0 0 0 0 0 
774 2.45942e-05 0 0 0 0 0 0 0 0 
778 2.47214e-05 0 0 0 0 0 0 0 0 
782 2.48486e-05 0 0 0 0 0 0 0 0 
786 2.49758e-05 0 0 0 0 0 0 0 0 
790 2.51029e-05 0 0 0 0 0 0 0 0 
794 2.52301e-05 0 0 0 0 0 0 0 0 
798 2.53573e-05 0 0 0 0 0 0 0 0 
802 2.54845e-05 0 0 0 0 0 0 0 0 
806 2.56117e-05 0 0 0 0 0 0 0 0 
810 2.57389e-05 0 0 0 0 0 0 0 0 
814 2.5866e-05 0 0 0 0 0 0 0 0 
818 2.59932e-05 0 0 0 0 0 0 0 0 
822 2.61204e-05 0 0 0 0 0 0 0 0 
826 2.62476e-05 0 0 0 0 0 0 0 0 
830 2.63748e-05 0 0 0 0 0 0 0 0 
834 2.6502e-05 0 0 0 0 0 0 0 0 
838 2.66291e-05 0 0 0 0 0 0 0 0 
842 2.67563e-05 0 0 0 0 0 0 0 0 
846 2.68835e-05 0 0 0 0 0 0 0 0 
850 2.70107e-05 0 0 0 0 0 0 0 0 
854 2.71379e-05 0 0 0 0 0 0 0 0 
858 2.72651e-05 0 0 0 0 0 0 0 0 
862 2.73923e-05 0 0 0 0 0 0 0 0 
866 2.75194e-05 0 0 0 0 0 0 0 0 
870 2.76466e-05 0 0 0 0 0 0 0 0 
874 2.77738e-05 0 0 0 0 0 0 0 0 
878 2.7901e-05 0 0 0 0 0 0 0 0 
882 2.80282e-05 0 0 0 0 0 0 0 0 
886 2.81554e-05 0 0 0 0 0 0 0 0 
890 2.82825e-05 0 0 0 0 0 0 0 0 
894 2.84097e-05 0 0 0 0 0 0 0 0 
898 2.85369e-05 0 0 0 0 0 0 0 0 
902 2.86641e-05 0 0 0 0 0 0 0 0 
906 2.87913e-05 0 0 0 0 0 0 0 0 
910 2.89185e-05 0 0 0 0 0 0 0 0 
914 2.90456e-05 0 0 0 0 0 0 0 0 
918 2.91728e-05 0 0 0 0 0 0 0 0 
922 2.93e-05 0 0 0 0 0 0 0 0 
926 2.94272e-05 0 0 0 0 0 0 0 0 
930 2.95544e-05 0 0 0 0 0 0 0 0 
934 2.96816e-05 0 0 0 0 0 0 0 0 
938 2.98088e-05 0 0 0 0 0 0 0 0 
942 2.99359e-05 0 0 0 0 0 0 0 0 
946 3.00631e-05 0 0 0 0 0 0 0 0 
950 3.01903e-05 0 0 0 0 0 0 0 0 
954 3.03175e-05 0 0 0 0 0 0 0 0 
958 3.04447e-05 0 0 0 0 0 0 0 0 
962 3.05719e-05 0 0 0 0 0 0 0 0 
966 3.0699e-05 0 0 0 0 0 0 0 0 
970 3.08262e-05 0 0 0 0 0 0 0 0 
974 3.09534e-05 0 0 0 0 0 0 0 0 
978 3.10806e-05 0 0 0 0 0 0 0 0 
982 3.12078e-05 0 0 0 0 0 0 0 0 
986 3.1335e-05 0 0 0 0 0 0 0 0 
990 3.14621e-05 0 0 0 0 0 0 0 0 
994 3.15893e-05 0 0 0 0 0 0 0 0 
998 3.17165e-05 0 0 0 0 0 0 0 0 
501 1.59139e-05 0 0 0 0 0 0 0 0 
505 1.60411e-05 0 0 0 0 0 0 0 0 
509 1.61683e-05 0 0 0 0 0 0 0 0 
513 1.62954e-05 0 0 0 0 0 0 0 0 
517 1.64226e-05 0 0 0 0 0 0 0 0 
521 1.65498e-05 0 0 0 0 0 0 0 0 
525 1.6677e-05 0 0 0 0 0 0 0 0 
529 1.68042e-05 0 0 0 0 0 0 0 0 
533 1.69314e-05 0 0 0 0 0 0 0 0 
537 1.70586e-05 0 0 0 0 0 0 0 0 
541 1.71857e-05 0 0 0 0 0 0 0 0 
545 1.73129e-05 0 0 0 0 0 0 0 0 
549 1.74401e-05 0 0 0 0 0 0 0 0 
553 1.75673e-05 0 0 0 0 0 0 0 0 
557 1.76945e-05 0 0 0 0 0 0 0 0 
561 1.78217e-05 0 0 0 0 0 0 0 0 
565 1.79488e-05 0 0 0 0 0 0 0 0 
569 1.8076e-05 0 0 0 0 0 0 0 0 
573 1.82032e-05 0 0 0 0 0 0 0 0 
577 1.83304e-05 0 0 0 0 0 0 0 0 
581 1.84576e-05 0 0 0 0 0 0 0 0 
585 1.85848e-05 0 0 0 0 0 0 0 0 
589 1.87119e-05 0 0 0 0 0 0 0 0 
593 1.88391e-05 0 0 0 0 0 0 0 0 
597 1.89663e-05 0 0 0 0 0 0 0 0 
601 1.90935e-05 0 0 0 0 0 0 0 0 
605 1.92207e-05 0 0 0 0 0 0 0 0 
609 1.93479e-05 0 0 0 0 0 0 0 0 
613 1.9475e-05 0 0 0 0 0 0 0 0 
617 1.96022e-05 0 0 0 0 0 0 0 0 
621 1.97294e-05 0 0 0 0 0 0 0 0 
625 1.98566e-05 0 0 0 0 0 0 0 0 
629 1.99838e-05 0 0 0 0 0 0 0 0 
633 2.0111e-05 0 0 0 0 0 0 0 0 
637 2.02382e-05 0 0 0 0 0 0 0 0 
641 2.03653e-05 0 0 0 0 0 0 0 0 
645 2.04925e-05 0 0 0 0 0 0 0 0 
649 2.06197e-05 0 0 0 0 0 0 0 0 
653 2.07469e-05 0 0 0 0 0 0 0 0 
657 2.08741e-05 0 0 0 0 0 0 0 0 
661 2.10013e-05 0 0 0 0 0 0 0 0 
665 2.11284e-05 0 0 0 0 0 0 0 0 
669 2.12556e-05 0 0 0 0 0 0 0 0 
673 2.13828e-05 0 0 0 0 0 0 0 0 
677 2.151e-05 0 0 0 0 0 0 0 0 
681 2.16372e-05 0 0 0 0 0 0 0 0 
685 2.17644e-05 0 0 0 0 0 0 0 0 
689 2.18915e-05 0 0 0 0 0 0 0 0 
693 2.20187e-05 0 0 0 0 0 0 0 0 
697 2.21459e-05 0 0 0 0 0 0 0 0 
701 2.22731e-05 0 0 0 0 0 0 0 0 
705 2.24003e-05 0 0 0 0 0 0 0 0 
709 2.25275e-05 0 0 0 0 0 0 0 0 
713 2.26546e-05 0 0 0 0 0 0 0 0 
717 2.27818e-05 0 0 0 0 0 0 0 0 
721 2.2909e-05 0 0 0 0 0 0 0 0 
725 2.30362e-05 0 0 0 0 0 0 0 0 
729 2.31634e-05 0 0 0 0 0 0 0 0 
733 2.32906e-05 0 0 0 0 0 0 0 0 
737 2.34178e-05 0 0 0 0 0 0 0 0 
741 2.35449e-05 0 0 0 0 0 0 0 0 
745 2.36721e-05 0 0 0 0 0 0 0 0 
749 2.37993e-05 0 0 0 0 0 0 0 0 
753 2.39265e-05 0 0 0 0 0 0 0 0 
757 2.40537e-05 0 0 0 0 0 0 0 0 
761 2.41809e-05 0 0 0 0 0 0 0 0 
765 2.4308e-05 0 0 0 0 0 0 0 0 
769 2.44352e-05 0 0 0 0 0 0 0 0 
773 2.45624e-05 0 0 0 0 0 0 0 0 
777 2.46896e-05 0 0 0 0 0 0 0 0 
781 2.48168e-05 0 0 0 0 0 0 0 0 
785 2.4944e-05 0 0 0 0 0 0 0 0 
789 2.50711e-05 0 0 0 0 0 0 0 0 
793 2.51983e-05 0 0 0 0 0 0 0 0 
797 2.53255e-05 0 0 0 0 0 0 0 0 
801 2.54527e-05 0 0 0 0 0 0 0 0 
805 2.55799e-05 0 0 0 0 0 0 0 0 
809 2.57071e-05 0 0 0 0 0 0 0 0 
813 2.58343e-05 0 0 0 0 0 0 0 0 
817 2.59614e-05 0 0 0 0 0 0 0 0 
821 2.60886e-05 0 0 0 0 0 0 0 0 
825 2.62158e-05 0 0 0 0 0 0 0 0 
829 2.6343e-05 0 0 0 0 0 0 0 0 
833 2.64702e-05 0 0 0 0 0 0 0 0 
837 2.65974e-05 0 0 0 0 0 0 0 0 
841 2.67245e-05 0 0 0 0 0 0 0 0 
845 2.68517e-05 0 0 0 0 0 0 0 0 
849 2.69789e-05 0 0 0 0 0 0 0 0 
853 2.71061e-05 0 0 0 0 0 0 0 0 
857 2.72333e-05 0 0 0 0 0 0 0 0 
861 2.73605e-05 0 0 0 0 0 0 0 0 
865 2.74876e-05 0 0 0 0 0 0 0 0 
869 2.76148e-05 0 0 0 0 0 0 0 0 
873 2.7742e-05 0 0 0 0 0 0 0 0 
877 2.78692e-05 0 0 0 0 0 0 0 0 
881 2.79964e-05 0 0 0 0 0 0 0 0 
885 2.81236e-05 0 0 0 0 0 0 0 0 
889 2.82507e-05 0 0 0 0 0 0 0 0 
893 2.83779e-05 0 0 0 0 0 0 0 0 
897 2.85051e-05 0 0 0 0 0 0 0 0 
901 2.86323e-05 0 0 0 0 0 0 0 0 
905 2.87595e-05 0 0 0 0 0 0 0 0 
909 2.88867e-05 0 0 0 0 0 0 0 0 
913 2.90139e-05 0 0 0 0 0 0 0 0 
917 2.9141e-05 0 0 0 0 0 0 0 0 
921 2.92682e-05 0 0 0 0 0 0 0 0 
925 2.93954e-05 0 0 0 0 0 0 0 0 
929 2.95226e-05 0 0 0 0 0 0 0 0 
933 2.96498e-05 0 0 0 0 0 0 0 0 
937 2.9777e-05 0 0 0 0 0 0 0 0 
941 2.99041e-05 0 0 0 0 0 0 0 0 
945 3.00313e-05 0 0 0 0 0 0 0 0 
949 3.01585e-05 0 0 0 0 0 0 0 0 
953 3.02857e-05 0 0 0 0 0 0 0 0 
957 3.04129e-05 0 0 0 0 0 0 0 0 
961 3.05401e-05 0 0 0 0 0 0 0 0 
965 3.06672e-05 0 0 0 0 0 0 0 0 
969 3.07944e-05 0 0 0 0 0 0 0 0 
973 3.09216e-05 0 0 0 0 0 0 0 0 
977 3.10488e-05 0 0 0 0 0 0 0 0 
981 3.1176e-05 0 0 0 0 0 0 0 0 
985 3.13032e-05 0 0 0 0 0 0 0 0 
989 3.14303e-05 0 0 0 0 0 0 0 0 
993 3.15575e-05 0 0 0 0 0 0 0 0 
997 3.16847e-05 0 0 0 0 0 0 0 0 
503 1.59775e-05 0 0 0 0 0 0 0 0 
507 1.61047e-05 0 0 0 0 0 0 0 0 
511 1.62319e-05 0 0 0 0 0 0 0 0 
515 1.6359e-05 0 0 0 0 0 0 0 0 
519 1.64862e-05 0 0 0 0 0 0 0 0 
523 1.66134e-05 0 0 0 0 0 0 0 0 
527 1.67406e-05 0 0 0 0 0 0 0 0 
531 1.68678e-05 0 0 0 0 0 0 0 0 
535 1.6995e-05 0 0 0 0 0 0 0 0 
539 1.71221e-05 0 0 0 0 0 0 0 0 
543 1.72493e-05 0 0 0 0 0 0 0 0 
547 1.73765e-05 0 0 0 0 0 0 0 0 
551 1.75037e-05 0 0 0 0 0 0 0 0 
555 1.76309e-05 0 0 0 0 0 0 0 0 
559 1.77581e-05 0 0 0 0 0 0 0 0 
563 1.78852e-05 0 0 0 0 0 0 0 0 
567 1.80124e-05 0 0 0 0 0 0 0 0 
571 1.81396e-05 0 0 0 0 0 0 0 0 
575 1.82668e-05 0 0 0 0 0 0 0 0 
579 1.8394e-05 0 0 0 0 0 0 0 0 
583 1.85212e-05 0 0 0 0 0 0 0 0 
587 1.86484e-05 0 0 0 0 0 0 0 0 
591 1.87755e-05 0 0 0 0 0 0 0 0 
595 1.89027e-05 0 0 0 0 0 0 0 0 
599 1.90299e-05 0 0 0 0 0 0 0 0 
603 1.91571e-05 0 0 0 0 0 0 0 0 
607 1.92843e-05 0 0 0 0 0 0 0 0 
611 1.94115e-05 0 0 0 0 0 0 0 0 
615 1.95386e-05 0 0 0 0 0 0 0 0 
619 1.96658e-05 0 0 0 0 0 0 0 0 
623 1.9793e-05 0 0 0 0 0 0 0 0 
627 1.99202e-05 0 0 0 0 0 0 0 0 
631 2.00474e-05 0 0 0 0 0 0 0 0 
635 2.01746e-05 0 0 0 0 0 0 0 0 
639 2.03017e-05 0 0 0 0 0 0 0 0 
643 2.04289e-05 0 0 0 0 0 0 0 0 
647 2.05561e-05 0 0 0 0 0 0 0 0 
651 2.06833e-05 0 0 0 0 0 0 0 0 
655 2.08105e-05 0 0 0 0 0 0 0 0 
659 2.09377e-05 0 0 0 0 0 0 0 0 
663 2.10648e-05 0 0 0 0 0 0 0 0 
667 2.1192e-05 0 0 0 0 0 0 0 0 
671 2.13192e-05 0 0 0 0 0 0 0 0 
675 2.14464e-05 0 0 0 0 0 0 0 0 
679 2.15736e-05 0 0 0 0 0 0 0 0 
683 2.17008e-05 0 0 0 0 0 0 0 0 
687 2.1828e-05 0 0 0 0 0 0 0 0 
691 2.19551e-05 0 0 0 0 0 0 0 0 
695 2.20823e-05 0 0 0 0 0 0 0 0 
699 2.22095e-05 0 0 0 0 0 0 0 0 
703 2.23367e-05 0 0 0 0 0 0 0 0 
707 2.24639e-05 0 0 0 0 0 0 0 0 
711 2.25911e-05 0 0 0 0 0 0 0 0 
715 2.27182e-05 0 0 0 0 0 0 0 0 
719 2.28454e-05 0 0 0 0 0 0 0 0 
723 2.29726e-05 0 0 0 0 0 0 0 0 
727 2.30998e-05 0 0 0 0 0 0 0 0 
731 2.3227e-05 0 0 0 0 0 0 0 0 
735 2.33542e-05 0 0 0 0 0 0 0 0 
739 2.34813e-05 0 0 0 0 0 0 0 0 
743 2.36085e-05 0 0 0 0 0 0 0 0 
747 2.37357e-05 0 0 0 0 0 0 0 0 
751 2.38629e-05 0 0 0 0 0 0 0 0 
755 2.39901e-05 0 0 0 0 0 0 0 0 
759 2.41173e-05 0 0 0 0 0 0 0 0 
763 2.42444e-05 0 0 0 0 0 0 0 0 
767 2.43716e-05 0 0 0 0 0 0 0 0 
771 2.44988e-05 0 0 0 0 0 0 0 0 
775 2.4626e-05 0 0 0 0 0 0 0 0 
779 2.47532e-05 0 0 0 0 0 0 0 0 
783 2.48804e-05 0 0 0 0 0 0 0 0 
787 2.50076e-05 0 0 0 0 0 0 0 0 
791 2.51347e-05 0 0 0 0 0 0 0 0 
795 2.52619e-05 0 0 0 0 0 0 0 0 
799 2.53891e-05 0 0 0 0 0 0 0 0 
803 2.55163e-05 0 0 0 0 0 0 0 0 
807 2.56435e-05 0 0 0 0 0 0 0 0 
811 2.57707e-05 0 0 0 0 0 0 0 0 
815 2.58978e-05 0 0 0 0 0 0 0 0 
819 2.6025e-05 0 0 0 0 0 0 0 0 
823 2.61522e-05 0 0 0 0 0 0 0 0 
827 2.62794e-05 0 0 0 0 0 0 0 0 
831 2.64066e-05 0 0 0 0 0 0 0 0 
835 2.65338e-05 0 0 0 0 0 0 0 0 
839 2.66609e-05 0 0 0 0 0 0 0 0 
843 2.67881e-05 0 0 0 0 0 0 0 0 
847 2.69153e-05 0 0 0 0 0 0 0 0 
851 2.70425e-05 0 0 0 0 0 0 0 0 
855 2.71697e-05 0 0 0 0 0 0 0 0 
859 2.72969e-05 0 0 0 0 0 0 0 0 
863 2.7424e-05 0 0 0 0 0 0 0 0 
867 2.75512e-05 0 0 0 0 0 0 0 0 
871 2.76784e-05 0 0 0 0 0 0 0 0 
875 2.78056e-05 0 0 0 0 0 0 0 0 
879 2.79328e-05 0 0 0 0 0 0 0 0 
883 2.806e-05 0 0 0 0 0 0 0 0 
887 2.81872e-05 0 0 0 0 0 0 0 0 
891 2.83143e-05 0 0 0 0 0 0 0 0 
895 2.84415e-05 0 0 0 0 0 0 0 0 
899 2.85687e-05 0 0 0 0 0 0 0 0 
903 2.86959e-05 0 0 0 0 0 0 0 0 
907 2.88231e-05 0 0 0 0 0 0 0 0 
911 2.89503e-05 0 0 0 0 0 0 0 0 
915 2.90774e-05 0 0 0 0 0 0 0 0 
919 2.92046e-05 0 0 0 0 0 0 0 0 
923 2.93318e-05 0 0 0 0 0 0 0 0 
927 2.9459e-05 0 0 0 0 0 0 0 0 
931 2.95862e-05 0 0 0 0 0 0 0 0 
935 2.97134e-05 0 0 0 0 0 0 0 0 
939 2.98405e-05 0 0 0 0 0 0 0 0 
943 2.99677e-05 0 0 0 0 0 0 0 0 
947 3.00949e-05 0 0 0 0 0 0 0 0 
951 3.02221e-05 0 0 0 0 0 0 0 0 
955 3.03493e-05 0 0 0 0 0 0 0 0 
959 3.04765e-05 0 0 0 0 0 0 0 0 
963 3.06036e-05 0 0 0 0 0 0 0 0 
967 3.07308e-05 0 0 0 0 0 0 0 0 
971 3.0858e-05 0 0 0 0 0 0 0 0 
975 3.09852e-05 0 0 0 0 0 0 0 0 
979 3.11124e-05 0 0 0 0 0 0 0 0 
983 3.12396e-05 0 0 0 0 0 0 0 0 
987 3.13668e-05 0 0 0 0 0 0 0 0 
991 3.14939e-05 0 0 0 0 0 0 0 0 
995 3.16211e-05 0 0 0 0 0 0 0 0 
999 3.17483e-05 0 0 0 0 0 0 0 0 
504 1.60093e-05 0 0 0 0 0 0 0 0 
508 1.61365e-05 0 0 0 0 0 0 0 0 
512 1.62637e-05 0 0 0 0 0 0 0 0 
516 1.63908e-05 0 0 0 0 0 0 0 0 
520 1.6518e-05 0 0 0 0 0 0 0 0 
524 1.66452e-05 0 0 0 0 0 0 0 0 
528 1.67724e-05 0 0 0 0 0 0 0 0 
532 1.68996e-05 0 0 0 0 0 0 0 0 
536 1.70268e-05 0 0 0 0 0 0 0 0 
540 1.71539e-05 0 0 0 0 0 0 0 0 
544 1.72811e-05 0 0 0 0 0 0 0 0 
548 1.74083e-05 0 0 0 0 0 0 0 0 
552 1.75355e-05 0 0 0 0 0 0 0 0 
556 1.76627e-05 0 0 0 0 0 0 0 0 
560 1.77899e-05 0 0 0 0 0 0 0 0 
564 1.7917e-05 0 0 0 0 0 0 0 0 
568 1.80442e-05 0 0 0 0 0 0 0 0 
572 1.81714e-05 0 0 0 0 0 0 0 0 
576 1.82986e-05 0 0 0 0 0 0 0 0 
580 1.84258e-05 0 0 0 0 0 0 0 0 
584 1.8553e-05 0 0 0 0 0 0 0 0 
588 1.86802e-05 0 0 0 0 0 0 0 0 
592 1.88073e-05 0 0 0 0 0 0 0 0 
596 1.89345e-05 0 0 0 0 0 0 0 0 
600 1.90617e-05 0 0 0 0 0 0 0 0 
604 1.91889e-05 0 0 0 0 0 0 0 0 
608 1.93161e-05 0 0 0 0 0 0 0 0 
612 1.94433e-05 0 0 0 0 0 0 0 0 
616 1.95704e-05 0 0 0 0 0 0 0 0 
620 1.96976e-05 0 0 0 0 0 0 0 0 
624 1.98248e-05 0 0 0 0 0 0 0 0 
628 1.9952e-05 0 0 0 0 0 0 0 0 
632 2.00792e-05 0 0 0 0 0 0 0 0 
636 2.02064e-05 0 0 0 0 0 0 0 0 
640 2.03335e-05 0 0 0 0 0 0 0 0 
644 2.04607e-05 0 0 0 0 0 0 0 0 
648 2.05879e-05 0 0 0 0 0 0 0 0 
652 2.07151e-05 0 0 0 0 0 0 0 0 
656 2.08423e-05 0 0 0 0 0 0 0 0 
660 2.09695e-05 0 0 0 0 0 0 0 0 
664 2.10966e-05 0 0 0 0 0 0 0 0 
668 2.12238e-05 0 0 0 0 0 0 0 0 
672 2.1351e-05 0 0 0 0 0 0 0 0 
676 2.14782e-05 0 0 0 0 0 0 0 0 
680 2.16054e-05 0 0 0 0 0 0 0 0 
684 2.17326e-05 0 0 0 0 0 0 0 0 
688 2.18598e-05 0 0 0 0 0 0 0 0 
692 2.19869e-05 0 0 0 0 0 0 0 0 
696 2.21141e-05 0 0 0 0 0 0 0 0 
700 2.22413e-05 0 0 0 0 0 0 0 0 
704 2.23685e-05 0 0 0 0 0 0 0 0 
708 2.24957e-05 0 0 0 0 0 0 0 0 
712 2.26229e-05 0 0 0 0 0 0 0 0 
716 2.275e-05 0 0 0 0 0 0 0 0 
720 2.28772e-05 0 0 0 0 0 0 0 0 
724 2.30044e-05 0 0 0 0 0 0 0 0 
728 2.31316e-05 0 0 0 0 0 0 0 0 
732 2.32588e-05 0 0 0 0 0 0 0 0 
736 2.3386e-05 0 0 0 0 0 0 0 0 
740 2.35131e-05 0 0 0 0 0 0 0 0 
744 2.36403e-05 0 0 0 0 0 0 0 0 
748 2.37675e-05 0 0 0 0 0 0 0 0 
752 2.38947e-05 0 0 0 0 0 0 0 0 
756 2.40219e-05 0 0 0 0 0 0 0 0 
760 2.41491e-05 0 0 0 0 0 0 0 0 
764 2.42762e-05 0 0 0 0 0 0 0 0 
768 2.44034e-05 0 0 0 0 0 0 0 0 
772 2.45306e-05 0 0 0 0 0 0 0 0 
776 2.46578e-05 0 0 0 0 0 0 0 0 
780 2.4785e-05 0 0 0 0 0 0 0 0 
784 2.49122e-05 0 0 0 0 0 0 0 0 
788 2.50393e-05 0 0 0 0 0 0 0 0 
792 2.51665e-05 0 0 0 0 0 0 0 0 
796 2.52937e-05 0 0 0 0 0 0 0 0 
800 2.54209e-05 0 0 0 0 0 0 0 0 
804 2.55481e-05 0 0 0 0 0 0 0 0 
808 2.56753e-05 0 0 0 0 0 0 0 0 
812 2.58025e-05 0 0 0 0 0 0 0 0 
816 2.59296e-05 0 0 0 0 0 0 0 0 
820 2.60568e-05 0 0 0 0 0 0 0 0 
824 2.6184e-05 0 0 0 0 0 0 0 0 
828 2.63112e-05 0 0 0 0 0 0 0 0 
832 2.64384e-05 0 0 0 0 0 0 0 0 
836 2.65656e-05 0 0 0 0 0 0 0 0 
840 2.66927e-05 0 0 0 0 0 0 0 0 
844 2.68199e-05 0 0 0 0 0 0 0 0 
848 2.69471e-05 0 0 0 0 0 0 0 0 
852 2.70743e-05 0 0 0 0 0 0 0 0 
856 2.72015e-05 0 0 0 0 0 0 0 0 
860 2.73287e-05 0 0 0 0 0 0 0 0 
864 2.74558e-05 0 0 0 0 0 0 0 0 
868 2.7583e-05 0 0 0 0 0 0 0 0 
872 2.77102e-05 0 0 0 0 0 0 0 0 
876 2.78374e-05 0 0 0 0 0 0 0 0 
880 2.79646e-05 0 0 0 0 0 0 0 0 
884 2.80918e-05 0 0 0 0 0 0 0 0 
888 2.82189e-05 0 0 0 0 0 0 0 0 
892 2.83461e-05 0 0 0 0 0 0 0 0 
896 2.84733e-05 0 0 0 0 0 0 0 0 
900 2.86005e-05 0 0 0 0 0 0 0 0 
904 2.87277e-05 0 0 0 0 0 0 0 0 
908 2.88549e-05 0 0 0 0 0 0 0 0 
912 2.89821e-05 0 0 0 0 0 0 0 0 
916 2.91092e-05 0 0 0 0 0 0 0 0 
920 2.92364e-05 0 0 0 0 0 0 0 0 
924 2.93636e-05 0 0 0 0 0 0 0 0 
928 2.94908e-05 0 0 0 0 0 0 0 0 
932 2.9618e-05 0 0 0 0 0 0 0 0 
936 2.97452e-05 0 0 0 0 0 0 0 0 
940 2.98723e-05 0 0 0 0 0 0 0 0 
944 2.99995e-05 0 0 0 0 0 0 0 0 
948 3.01267e-05 0 0 0 0 0 0 0 0 
952 3.02539e-05 0 0 0 0 0 0 0 0 
956 3.03811e-05 0 0 0 0 0 0 0 0 
960 3.05083e-05 0 0 0 0 0 0 0 0 
964 3.06354e-05 0 0 0 0 0 0 0 0 
968 3.07626e-05 0 0 0 0 0 0 0 0 
972 3.08898e-05 0 0 0 0 0 0 0 0 
976 3.1017e-05 0 0 0 0 0 0 0 0 
980 3.11442e-05 0 0 0 0 0 0 0 0 
984 3.12714e-05 0 0 0 0 0 0 0 0 
988 3.13985e-05 0 0 0 0 0 0 0 0 
992 3.15257e-05 0 0 0 0 0 0 0 0 
996 3.16529e-05 0 0 0 0 0 0 0 0 
1000 3.17801e-05 0 0 0 0 0 0 0 0 
1003 3.18755e-05 0 0 0 0 0 0 0 0 
1007 3.20027e-05 0 0 0 0 0 0 0 0 
1011 3.21299e-05 0 0 0 0 0 0 0 0 
1015 3.2257e-05 0 0 0 0 0 0 0 0 
1019 3.23842e-05 0 0 0 0 0 0 0 0 
1023 3.25114e-05 0 0 0 0 0 0 0 0 
1027 3.26386e-05 0 0 0 0 0 0 0 0 
1031 3.27658e-05 0 0 0 0 0 0 0 0 
1035 3.2893e-05 0 0 0 0 0 0 0 0 
1039 3.30201e-05 0 0 0 0 0 0 0 0 
1043 3.31473e-05 0 0 0 0 0 0 0 0 
1047 3.32745e-05 0 0 0 0 0 0 0 0 
1051 3.34017e-05 0 0 0 0 0 0 0 0 
1055 3.35289e-05 0 0 0 0 0 0 0 0 
1059 3.36561e-05 0 0 0 0 0 0 0 0 
1063 3.37833e-05 0 0 0 0 0 0 0 0 
1067 3.39104e-05 0 0 0 0 0 0 0 0 
1071 3.40376e-05 0 0 0 0 0 0 0 0 
1075 3.41648e-05 0 0 0 0 0 0 0 0 
1079 3.4292e-05 0 0 0 0 0 0 0 0 
1083 3.44192e-05 0 0 0 0 0 0 0 0 
1087 3.45464e-05 0 0 0 0 0 0 0 0 
1091 3.46735e-05 0 0 0 0 0 0 0 0 
1095 3.48007e-05 0 0 0 0 0 0 0 0 
1099 3.49279e-05 0 0 0 0 0 0 0 0 
1103 3.50551e-05 0 0 0 0 0 0 0 0 
1107 3.51823e-05 0 0 0 0 0 0 0 0 
1111 3.53095e-05 0 0 0 0 0 0 0 0 
1115 3.54366e-05 0 0 0 0 0 0 0 0 
1119 3.55638e-05 0 0 0 0 0 0 0 0 
1123 3.5691e-05 0 0 0 0 0 0 0 0 
1127 3.58182e-05 0 0 0 0 0 0 0 0 
1131 3.59454e-05 0 0 0 0 0 0 0 0 
1135 3.60726e-05 0 0 0 0 0 0 0 0 
1139 3.61997e-05 0 0 0 0 0 0 0 0 
1143 3.63269e-05 0 0 0 0 0 0 0 0 
1147 3.64541e-05 0 0 0 0 0 0 0 0 
1151 3.65813e-05 0 0 0 0 0 0 0 0 
1155 3.67085e-05 0 0 0 0 0 0 0 0 
1159 3.68357e-05 0 0 0 0 0 0 0 0 
1163 3.69628e-05 0 0 0 0 0 0 0 0 
1167 3.709e-05 0 0 0 0 0 0 0 0 
1171 3.72172e-05 0 0 0 0 0 0 0 0 
1175 3.73444e-05 0 0 0 0 0 0 0 0 
1179 3.74716e-05 0 0 0 0 0 0 0 0 
1183 3.75988e-05 0 0 0 0 0 0 0 0 
1187 3.7726e-05 0 0 0 0 0 0 0 0 
1191 3.78531e-05 0 0 0 0 0 0 0 0 
1195 3.79803e-05 0 0 0 0 0 0 0 0 
1199 3.81075e-05 0 0 0 0 0 0 0 0 
1203 3.82347e-05 0 0 0 0 0 0 0 0 
1207 3.83619e-05 0 0 0 0 0 0 0 0 
1211 3.84891e-05 0 0 0 0 0 0 0 0 
1215 3.86162e-05 0 0 0 0 0 0 0 0 
1219 3.87434e-05 0 0 0 0 0 0 0 0 
1223 3.88706e-05 0 0 0 0 0 0 0 0 
1227 3.89978e-05 0 0 0 0 0 0 0 0 
1231 3.9125e-05 0 0 0 0 0 0 0 0 
1235 3.92522e-05 0 0 0 0 0 0 0 0 
1239 3.93793e-05 0 0 0 0 0 0 0 0 
1243 3.95065e-05 0 0 0 0 0 0 0 0 
1247 3.96337e-05 0 0 0 0 0 0 0 0 
1251 3.97609e-05 0 0 0 0 0 0 0 0 
1255 3.98881e-05 0 0 0 0 0 0 0 0 
1259 4.00153e-05 0 0 0 0 0 0 0 0 
1263 4.01425e-05 0 0 0 0 0 0 0 0 
1267 4.02696e-05 0 0 0 0 0 0 0 0 
1271 4.03968e-05 0 0 0 0 0 0 0 0 
1275 4.0524e-05 0 0 0 0 0 0 0 0 
1279 4.06512e-05 0 0 0 0 0 0 0 0 
1283 4.07784e-05 0 0 0 0 0 0 0 0 
1287 4.09056e-05 0 0 0 0 0 0 0 0 
1291 4.10327e-05 0 0 0 0 0 0 0 0 
1295 4.11599e-05 0 0 0 0 0 0 0 0 
1299 4.12871e-05 0 0 0 0 0 0 0 0 
1303 4.14143e-05 0 0 0 0 0 0 0 0 
1307 4.15415e-05 0 0 0 0 0 0 0 0 
1311 4.16687e-05 0 0 0 0 0 0 0 0 
1315 4.17958e-05 0 0 0 0 0 0 0 0 
1319 4.1923e-05 0 0 0 0 0 0 0 0 
1323 4.20502e-05 0 0 0 0 0 0 0 0 
1327 4.21774e-05 0 0 0 0 0 0 0 0 
1331 4.23046e-05 0 0 0 0 0 0 0 0 
1335 4.24318e-05 0 0 0 0 0 0 0 0 
1339 4.25589e-05 0 0 0 0 0 0 0 0 
1343 4.26861e-05 0 0 0 0 0 0 0 0 
1347 4.28133e-05 0 0 0 0 0 0 0 0 
1351 4.29405e-05 0 0 0 0 0 0 0 0 
1355 4.30677e-05 0 0 0 0 0 0 0 0 
1359 4.31949e-05 0 0 0 0 0 0 0 0 
1363 4.3322e-05 0 0 0 0 0 0 0 0 
1367 4.34492e-05 0 0 0 0 0 0 0 0 
1371 4.35764e-05 0 0 0 0 0 0 0 0 
1375 4.37036e-05 0 0 0 0 0 0 0 0 
1379 4.38308e-05 0 0 0 0 0 0 0 0 
1383 4.3958e-05 0 0 0 0 0 0 0 0 
1387 4.40852e-05 0 0 0 0 0 0 0 0 
1391 4.42123e-05 0 0 0 0 0 0 0 0 
1395 4.43395e-05 0 0 0 0 0 0 0 0 
1399 4.44667e-05 0 0 0 0 0 0 0 0 
1403 4.45939e-05 0 0 0 0 0 0 0 0 
1407 4.47211e-05 0 0 0 0 0 0 0 0 
1411 4.48483e-05 0 0 0 0 0 0 0 0 
1415 4.49754e-05 0 0 0 0 0 0 0 0 
1419 4.51026e-05 0 0 0 0 0 0 0 0 
1423 4.52298e-05 0 0 0 0 0 0 0 0 
1427 4.5357e-05 0 0 0 0 0 0 0 0 
1431 4.54842e-05 0 0 0 0 0 0 0 0 
1435 4.56114e-05 0 0 0 0 0 0 0 0 
1439 4.57385e-05 0 0 0 0 0 0 0 0 
1443 4.58657e-05 0 0 0 0 0 0 0 0 
1447 4.59929e-05 0 0 0 0 0 0 0 0 
1451 4.61201e-05 0 0 0 0 0 0 0 0 
1455 4.62473e-05 0 0 0 0 0 0 0 0 
1459 4.63745e-05 0 0 0 0 0 0 0 0 
1463 4.65016e-05 0 0 0 0 0 0 0 0 
1467 4.66288e-05 0 0 0 0 0 0 0 0 
1471 4.6756e-05 0 0 0 0 0 0 0 0 
1475 4.68832e-05 0 0 0 0 0 0 0 0 
1479 4.70104e-05 0 0 0 0 0 0 0 0 
1483 4.71376e-05 0 0 0 0 0 0 0 0 
1487 4.72648e-05 0 0 0 0 0 0 0 0 
1491 4.73919e-05 0 0 0 0 0 0 0 0 
1495 4.75191e-05 0 0 0 0 0 0 0 0 
1499 4.76463e-05 0 0 0 0 0 0 0 0 
1001 3.18119e-05 0 0 0 0 0 0 0 0 
1005 3.19391e-05 0 0 0 0 0 0 0 0 
1009 3.20663e-05 0 0 0 0 0 0 0 0 
1013 3.21934e-05 0 0 0 0 0 0 0 0 
1017 3.23206e-05 0 0 0 0 0 0 0 0 
1021 3.24478e-05 0 0 0 0 0 0 0 0 
1025 3.2575e-05 0 0 0 0 0 0 0 0 
1029 3.27022e-05 0 0 0 0 0 0 0 0 
1033 3.28294e-05 0 0 0 0 0 0 0 0 
1037 3.29566e-05 0 0 0 0 0 0 0 0 
1041 3.30837e-05 0 0 0 0 0 0 0 0 
1045 3.32109e-05 0 0 0 0 0 0 0 0 
1049 3.33381e-05 0 0 0 0 0 0 0 0 
1053 3.34653e-05 0 0 0 0 0 0 0 0 
1057 3.35925e-05 0 0 0 0 0 0 0 0 
1061 3.37197e-05 0 0 0 0 0 0 0 0 
1065 3.38468e-05 0 0 0 0 0 0 0 0 
1069 3.3974e-05 0 0 0 0 0 0 0 0 
1073 3.41012e-05 0 0 0 0 0 0 0 0 
1077 3.42284e-05 0 0 0 0 0 0 0 0 
1081 3.43556e-05 0 0 0 0 0 0 0 0 
1085 3.44828e-05 0 0 0 0 0 0 0 0 
1089 3.46099e-05 0 0 0 0 0 0 0 0 
1093 3.47371e-05 0 0 0 0 0 0 0 0 
1097 3.48643e-05 0 0 0 0 0 0 0 0 
1101 3.49915e-05 0 0 0 0 0 0 0 0 
1105 3.51187e-05 0 0 0 0 0 0 0 0 
1109 3.52459e-05 0 0 0 0 0 0 0 0 
1113 3.5373e-05 0 0 0 0 0 0 0 0 
1117 3.55002e-05 0 0 0 0 0 0 0 0 
1121 3.56274e-05 0 0 0 0 0 0 0 0 
1125 3.57546e-05 0 0 0 0 0 0 0 0 
1129 3.58818e-05 0 0 0 0 0 0 0 0 
1133 3.6009e-05 0 0 0 0 0 0 0 0 
1137 3.61362e-05 0 0 0 0 0 0 0 0 
1141 3.62633e-05 0 0 0 0 0 0 0 0 
1145 3.63905e-05 0 0 0 0 0 0 0 0 
1149 3.65177e-05 0 0 0 0 0 0 0 0 
1153 3.66449e-05 0 0 0 0 0 0 0 0 
1157 3.67721e-05 0 0 0 0 0 0 0 0 
1161 3.68993e-05 0 0 0 0 0 0 0 0 
1165 3.70264e-05 0 0 0 0 0 0 0 0 
1169 3.71536e-05 0 0 0 0 0 0 0 0 
1173 3.72808e-05 0 0 0 0 0 0 0 0 
1177 3.7408e-05 0 0 0 0 0 0 0 0 
1181 3.75352e-05 0 0 0 0 0 0 0 0 
1185 3.76624e-05 0 0 0 0 0 0 0 0 
1189 3.77895e-05 0 0 0 0 0 0 0 0 
1193 3.79167e-05 0 0 0 0 0 0 0 0 
1197 3.80439e-05 0 0 0 0 0 0 0 0 
1201 3.81711e-05 0 0 0 0 0 0 0 0 
1205 3.82983e-05 0 0 0 0 0 0 0 0 
1209 3.84255e-05 0 0 0 0 0 0 0 0 
1213 3.85526e-05 0 0 0 0 0 0 0 0 
1217 3.86798e-05 0 0 0 0 0 0 0 0 
1221 3.8807e-05 0 0 0 0 0 0 0 0 
1225 3.89342e-05 0 0 0 0 0 0 0 0 
1229 3.90614e-05 0 0 0 0 0 0 0 0 
1233 3.91886e-05 0 0 0 0 0 0 0 0 
1237 3.93158e-05 0 0 0 0 0 0 0 0 
1241 3.94429e-05 0 0 0 0 0 0 0 0 
1245 3.95701e-05 0 0 0 0 0 0 0 0 
1249 3.96973e-05 0 0 0 0 0 0 0 0 
1253 3.98245e-05 0 0 0 0 0 0 0 0 
1257 3.99517e-05 0 0 0 0 0 0 0 0 
1261 4.00789e-05 0 0 0 0 0 0 0 0 
1265 4.0206e-05 0 0 0 0 0 0 0 0 
1269 4.03332e-05 0 0 0 0 0 0 0 0 
1273 4.04604e-05 0 0 0 0 0 0 0 0 
1277 4.05876e-05 0 0 0 0 0 0 0 0 
1281 4.07148e-05 0 0 0 0 0 0 0 0 
1285 4.0842e-05 0 0 0 0 0 0 0 0 
1289 4.09691e-05 0 0 0 0 0 0 0 0 
1293 4.10963e-05 0 0 0 0 0 0 0 0 
1297 4.12235e-05 0 0 0 0 0 0 0 0 
1301 4.13507e-05 0 0 0 0 0 0 0 0 
1305 4.14779e-05 0 0 0 0 0 0 0 0 
1309 4.16051e-05 0 0 0 0 0 0 0 0 
1313 4.17323e-05 0 0 0 0 0 0 0 0 
1317 4.18594e-05 0 0 0 0 0 0 0 0 
1321 4.19866e-05 0 0 0 0 0 0 0 0 
1325 4.21138e-05 0 0 0 0 0 0 0 0 
1329 4.2241e-05 0 0 0 0 0 0 0 0 
1333 4.23682e-05 0 0 0 0 0 0 0 0 
1337 4.24954e-05 0 0 0 0 0 0 0 0 
1341 4.26225e-05 0 0 0 0 0 0 0 0 
1345 4.27497e-05 0 0 0 0 0 0 0 0 
1349 4.28769e-05 0 0 0 0 0 0 0 0 
1353 4.30041e-05 0 0 0 0 0 0 0 0 
1357 4.31313e-05 0 0 0 0 0 0 0 0 
1361 4.32585e-05 0 0 0 0 0 0 0 0 
1365 4.33856e-05 0 0 0 0 0 0 0 0 
1369 4.35128e-05 0 0 0 0 0 0 0 0 
1373 4.364e-05 0 0 0 0 0 0 0 0 
1377 4.37672e-05 0 0 0 0 0 0 0 0 
1381 4.38944e-05 0 0 0 0 0 0 0 0 
1385 4.40216e-05 0 0 0 0 0 0 0 0 
1389 4.41487e-05 0 0 0 0 0 0 0 0 
1393 4.42759e-05 0 0 0 0 0 0 0 0 
1397 4.44031e-05 0 0 0 0 0 0 0 0 
1401 4.45303e-05 0 0 0 0 0 0 0 0 
1405 4.46575e-05 0 0 0 0 0 0 0 0 
1409 4.47847e-05 0 0 0 0 0 0 0 0 
1413 4.49118e-05 0 0 0 0 0 0 0 0 
1417 4.5039e-05 0 0 0 0 0 0 0 0 
1421 4.51662e-05 0 0 0 0 0 0 0 0 
1425 4.52934e-05 0 0 0 0 0 0 0 0 
1429 4.54206e-05 0 0 0 0 0 0 0 0 
1433 4.55478e-05 0 0 0 0 0 0 0 0 
1437 4.5675e-05 0 0 0 0 0 0 0 0 
1441 4.58021e-05 0 0 0 0 0 0 0 0 
1445 4.59293e-05 0 0 0 0 0 0 0 0 
1449 4.60565e-05 0 0 0 0 0 0 0 0 
1453 4.61837e-05 0 0 0 0 0 0 0 0 
1457 4.63109e-05 0 0 0 0 0 0 0 0 
1461 4.64381e-05 0 0 0 0 0 0 0 0 
1465 4.65652e-05 0 0 0 0 0 0 0 0 
1469 4.66924e-05 0 0 0 0 0 0 0 0 
1473 4.68196e-05 0 0 0 0 0 0 0 0 
1477 4.69468e-05 0 0 0 0 0 0 0 0 
1481 4.7074e-05 0 0 0 0 0 0 0 0 
1485 4.72012e-05 0 0 0 0 0 0 0 0 
1489 4.73283e-05 0 0 0 0 0 0 0 0 
1493 4.74555e-05 0 0 0 0 0 0 0 0 
1497 4.75827e-05 0 0 0 0 0 0 0 0 
1002 3.18437e-05 0 0 0 0 0 0 0 0 
1006 3.19709e-05 0 0 0 0 0 0 0 0 
1010 3.20981e-05 0 0 0 0 0 0 0 0 
1014 3.22252e-05 0 0 0 0 0 0 0 0 
1018 3.23524e-05 0 0 0 0 0 0 0 0 
1022 3.24796e-05 0 0 0 0 0 0 0 0 
1026 3.26068e-05 0 0 0 0 0 0 0 0 
1030 3.2734e-05 0 0 0 0 0 0 0 0 
1034 3.28612e-05 0 0 0 0 0 0 0 0 
1038 3.29884e-05 0 0 0 0 0 0 0 0 
1042 3.31155e-05 0 0 0 0 0 0 0 0 
1046 3.32427e-05 0 0 0 0 0 0 0 0 
1050 3.33699e-05 0 0 0 0 0 0 0 0 
1054 3.34971e-05 0 0 0 0 0 0 0 0 
1058 3.36243e-05 0 0 0 0 0 0 0 0 
1062 3.37515e-05 0 0 0 0 0 0 0 0 
1066 3.38786e-05 0 0 0 0 0 0 0 0 
1070 3.40058e-05 0 0 0 0 0 0 0 0 
1074 3.4133e-05 0 0 0 0 0 0 0 0 
1078 3.42602e-05 0 0 0 0 0 0 0 0 
1082 3.43874e-05 0 0 0 0 0 0 0 0 
1086 3.45146e-05 0 0 0 0 0 0 0 0 
1090 3.46417e-05 0 0 0 0 0 0 0 0 
1094 3.47689e-05 0 0 0 0 0 0 0 0 
1098 3.48961e-05 0 0 0 0 0 0 0 0 
1102 3.50233e-05 0 0 0 0 0 0 0 0 
1106 3.51505e-05 0 0 0 0 0 0 0 0 
1110 3.52777e-05 0 0 0 0 0 0 0 0 
1114 3.54048e-05 0 0 0 0 0 0 0 0 
1118 3.5532e-05 0 0 0 0 0 0 0 0 
1122 3.56592e-05 0 0 0 0 0 0 0 0 
1126 3.57864e-05 0 0 0 0 0 0 0 0 
1130 3.59136e-05 0 0 0 0 0 0 0 0 
1134 3.60408e-05 0 0 0 0 0 0 0 0 
1138 3.61679e-05 0 0 0 0 0 0 0 0 
1142 3.62951e-05 0 0 0 0 0 0 0 0 
1146 3.64223e-05 0 0 0 0 0 0 0 0 
1150 3.65495e-05 0 0 0 0 0 0 0 0 
1154 3.66767e-05 0 0 0 0 0 0 0 0 
1158 3.68039e-05 0 0 0 0 0 0 0 0 
1162 3.69311e-05 0 0 0 0 0 0 0 0 
1166 3.70582e-05 0 0 0 0 0 0 0 0 
1170 3.71854e-05 0 0 0 0 0 0 0 0 
1174 3.73126e-05 0 0 0 0 0 0 0 0 
1178 3.74398e-05 0 0 0 0 0 0 0 0 
1182 3.7567e-05 0 0 0 0 0 0 0 0 
1186 3.76942e-05 0 0 0 0 0 0 0 0 
1190 3.78213e-05 0 0 0 0 0 0 0 0 
1194 3.79485e-05 0 0 0 0 0 0 0 0 
1198 3.80757e-05 0 0 0 0 0 0 0 0 
1202 3.82029e-05 0 0 0 0 0 0 0 0 
1206 3.83301e-05 0 0 0 0 0 0 0 0 
1210 3.84573e-05 0 0 0 0 0 0 0 0 
1214 3.85844e-05 0 0 0 0 0 0 0 0 
1218 3.87116e-05 0 0 0 0 0 0 0 0 
1222 3.88388e-05 0 0 0 0 0 0 0 0 
1226 3.8966e-05 0 0 0 0 0 0 0 0 
1230 3.90932e-05 0 0 0 0 0 0 0 0 
1234 3.92204e-05 0 0 0 0 0 0 0 0 
1238 3.93475e-05 0 0 0 0 0 0 0 0 
1242 3.94747e-05 0 0 0 0 0 0 0 0 
1246 3.96019e-05 0 0 0 0 0 0 0 0 
1250 3.97291e-05 0 0 0 0 0 0 0 0 
1254 3.98563e-05 0 0 0 0 0 0 0 0 
1258 3.99835e-05 0 0 0 0 0 0 0 0 
1262 4.01107e-05 0 0 0 0 0 0 0 0 
1266 4.02378e-05 0 0 0 0 0 0 0 0 
1270 4.0365e-05 0 0 0 0 0 0 0 0 
1274 4.04922e-05 0 0 0 0 0 0 0 0 
1278 4.06194e-05 0 0 0 0 0 0 0 0 
1282 4.07466e-05 0 0 0 0 0 0 0 0 
1286 4.08738e-05 0 0 0 0 0 0 0 0 
1290 4.10009e-05 0 0 0 0 0 0 0 0 
1294 4.11281e-05 0 0 0 0 0 0 0 0 
1298 4.12553e-05 0 0 0 0 0 0 0 0 
1302 4.13825e-05 0 0 0 0 0 0 0 0 
1306 4.15097e-05 0 0 0 0 0 0 0 0 
1310 4.16369e-05 0 0 0 0 0 0 0 0 
1314 4.1764e-05 0 0 0 0 0 0 0 0 
1318 4.18912e-05 0 0 0 0 0 0 0 0 
1322 4.20184e-05 0 0 0 0 0 0 0 0 
1326 4.21456e-05 0 0 0 0 0 0 0 0 
1330 4.22728e-05 0 0 0 0 0 0 0 0 
1334 4.24e-05 0 0 0 0 0 0 0 0 
1338 4.25271e-05 0 0 0 0 0 0 0 0 
1342 4.26543e-05 0 0 0 0 0 0 0 0 
1346 4.27815e-05 0 0 0 0 0 0 0 0 
1350 4.29087e-05 0 0 0 0 0 0 0 0 
1354 4.30359e-05 0 0 0 0 0 0 0 0 
1358 4.31631e-05 0 0 0 0 0 0 0 0 
1362 4.32903e-05 0 0 0 0 0 0 0 0 
1366 4.34174e-05 0 0 0 0 0 0 0 0 
1370 4.35446e-05 0 0 0 0 0 0 0 0 
1374 4.36718e-05 0 0 0 0 0 0 0 0 
1378 4.3799e-05 0 0 0 0 0 0 0 0 
1382 4.39262e-05 0 0 0 0 0 0 0 0 
1386 4.40534e-05 0 0 0 0 0 0 0 0 
1390 4.41805e-05 0 0 0 0 0 0 0 0 
1394 4.43077e-05 0 0 0 0 0 0 0 0 
1398 4.44349e-05 0 0 0 0 0 0 0 0 
1402 4.45621e-05 0 0 0 0 0 0 0 0 
1406 4.46893e-05 0 0 0 0 0 0 0 0 
1410 4.48165e-05 0 0 0 0 0 0 0 0 
1414 4.49436e-05 0 0 0 0 0 0 0 0 
1418 4.50708e-05 0 0 0 0 0 0 0 0 
1422 4.5198e-05 0 0 0 0 0 0 0 0 
1426 4.53252e-05 0 0 0 0 0 0 0 0 
1430 4.54524e-05 0 0 0 0 0 0 0 0 
1434 4.55796e-05 0 0 0 0 0 0 0 0 
1438 4.57067e-05 0 0 0 0 0 0 0 0 
1442 4.58339e-05 0 0 0 0 0 0 0 0 
1446 4.59611e-05 0 0 0 0 0 0 0 0 
1450 4.60883e-05 0 0 0 0 0 0 0 0 
1454 4.62155e-05 0 0 0 0 0 0 0 0 
1458 4.63427e-05 0 0 0 0 0 0 0 0 
1462 4.64699e-05 0 0 0 0 0 0 0 0 
1466 4.6597e-05 0 0 0 0 0 0 0 0 
1470 4.67242e-05 0 0 0 0 0 0 0 0 
1474 4.68514e-05 0 0 0 0 0 0 0 0 
1478 4.69786e-05 0 0 0 0 0 0 0 0 
1482 4.71058e-05 0 0 0 0 0 0 0 0 
1486 4.7233e-05 0 0 0 0 0 0 0 0 
1490 4.73601e-05 0 0 0 0 0 0 0 0 
1494 4.74873e-05 0 0 0 0 0 0 0 0 
1498 4.76145e-05 0 0 0 0 0 0 0 0 
1004 3.19073e-05 0 0 0 0 0 0 0 0 
1008 3.20345e-05 0 0 0 0 0 0 0 0 
1012 3.21617e-05 0 0 0 0 0 0 0 0 
1016 3.22888e-05 0 0 0 0 0 0 0 0 
1020 3.2416e-05 0 0 0 0 0 0 0 0 
1024 3.25432e-05 0 0 0 0 0 0 0 0 
1028 3.26704e-05 0 0 0 0 0 0 0 0 
1032 3.27976e-05 0 0 0 0 0 0 0 0 
1036 3.29248e-05 0 0 0 0 0 0 0 0 
1040 3.30519e-05 0 0 0 0 0 0 0 0 
1044 3.31791e-05 0 0 0 0 0 0 0 0 
1048 3.33063e-05 0 0 0 0 0 0 0 0 
1052 3.34335e-05 0 0 0 0 0 0 0 0 
1056 3.35607e-05 0 0 0 0 0 0 0 0 
1060 3.36879e-05 0 0 0 0 0 0 0 0 
1064 3.3815e-05 0 0 0 0 0 0 0 0 
1068 3.39422e-05 0 0 0 0 0 0 0 0 
1072 3.40694e-05 0 0 0 0 0 0 0 0 
1076 3.41966e-05 0 0 0 0 0 0 0 0 
1080 3.43238e-05 0 0 0 0 0 0 0 0 
1084 3.4451e-05 0 0 0 0 0 0 0 0 
1088 3.45781e-05 0 0 0 0 0 0 0 0 
1092 3.47053e-05 0 0 0 0 0 0 0 0 
1096 3.48325e-05 0 0 0 0 0 0 0 0 
1100 3.49597e-05 0 0 0 0 0 0 0 0 
1104 3.50869e-05 0 0 0 0 0 0 0 0 
1108 3.52141e-05 0 0 0 0 0 0 0 0 
1112 3.53413e-05 0 0 0 0 0 0 0 0 
1116 3.54684e-05 0 0 0 0 0 0 0 0 
1120 3.55956e-05 0 0 0 0 0 0 0 0 
1124 3.57228e-05 0 0 0 0 0 0 0 0 
1128 3.585e-05 0 0 0 0 0 0 0 0 
1132 3.59772e-05 0 0 0 0 0 0 0 0 
1136 3.61044e-05 0 0 0 0 0 0 0 0 
1140 3.62315e-05 0 0 0 0 0 0 0 0 
1144 3.63587e-05 0 0 0 0 0 0 0 0 
1148 3.64859e-05 0 0 0 0 0 0 0 0 
1152 3.66131e-05 0 0 0 0 0 0 0 0 
1156 3.67403e-05 0 0 0 0 0 0 0 0 
1160 3.68675e-05 0 0 0 0 0 0 0 0 
1164 3.69946e-05 0 0 0 0 0 0 0 0 
1168 3.71218e-05 0 0 0 0 0 0 0 0 
1172 3.7249e-05 0 0 0 0 0 0 0 0 
1176 3.73762e-05 0 0 0 0 0 0 0 0 
1180 3.75034e-05 0 0 0 0 0 0 0 0 
1184 3.76306e-05 0 0 0 0 0 0 0 0 
1188 3.77577e-05 0 0 0 0 0 0 0 0 
1192 3.78849e-05 0 0 0 0 0 0 0 0 
1196 3.80121e-05 0 0 0 0 0 0 0 0 
1200 3.81393e-05 0 0 0 0 0 0 0 0 
1204 3.82665e-05 0 0 0 0 0 0 0 0 
1208 3.83937e-05 0 0 0 0 0 0 0 0 
1212 3.85209e-05 0 0 0 0 0 0 0 0 
1216 3.8648e-05 0 0 0 0 0 0 0 0 
1220 3.87752e-05 0 0 0 0 0 0 0 0 
1224 3.89024e-05 0 0 0 0 0 0 0 0 
1228 3.90296e-05 0 0 0 0 0 0 0 0 
1232 3.91568e-05 0 0 0 0 0 0 0 0 
1236 3.9284e-05 0 0 0 0 0 0 0 0 
1240 3.94111e-05 0 0 0 0 0 0 0 0 
1244 3.95383e-05 0 0 0 0 0 0 0 0 
1248 3.96655e-05 0 0 0 0 0 0 0 0 
1252 3.97927e-05 0 0 0 0 0 0 0 0 
1256 3.99199e-05 0 0 0 0 0 0 0 0 
1260 4.00471e-05 0 0 0 0 0 0 0 0 
1264 4.01742e-05 0 0 0 0 0 0 0 0 
1268 4.03014e-05 0 0 0 0 0 0 0 0 
1272 4.04286e-05 0 0 0 0 0 0 0 0 
1276 4.05558e-05 0 0 0 0 0 0 0 0 
1280 4.0683e-05 0 0 0 0 0 0 0 0 
1284 4.08102e-05 0 0 0 0 0 0 0 0 
1288 4.09374e-05 0 0 0 0 0 0 0 0 
1292 4.10645e-05 0 0 0 0 0 0 0 0 
1296 4.11917e-05 0 0 0 0 0 0 0 0 
1300 4.13189e-05 0 0 0 0 0 0 0 0 
1304 4.14461e-05 0 0 0 0 0 0 0 0 
1308 4.15733e-05 0 0 0 0 0 0 0 0 
1312 4.17005e-05 0 0 0 0 0 0 0 0 
1316 4.18276e-05 0 0 0 0 0 0 0 0 
1320 4.19548e-05 0 0 0 0 0 0 0 0 
1324 4.2082e-05 0 0 0 0 0 0 0 0 
1328 4.22092e-05 0 0 0 0 0 0 0 0 
1332 4.23364e-05 0 0 0 0 0 0 0 0 
1336 4.24636e-05 0 0 0 0 0 0 0 0 
1340 4.25907e-05 0 0 0 0 0 0 0 0 
1344 4.27179e-05 0 0 0 0 0 0 0 0 
1348 4.28451e-05 0 0 0 0 0 0 0 0 
1352 4.29723e-05 0 0 0 0 0 0 0 0 
1356 4.30995e-05 0 0 0 0 0 0 0 0 
1360 4.32267e-05 0 0 0 0 0 0 0 0 
1364 4.33538e-05 0 0 0 0 0 0 0 0 
1368 4.3481e-05 0 0 0 0 0 0 0 0 
1372 4.36082e-05 0 0 0 0 0 0 0 0 
1376 4.37354e-05 0 0 0 0 0 0 0 0 
1380 4.38626e-05 0 0 0 0 0 0 0 0 
1384 4.39898e-05 0 0 0 0 0 0 0 0 
1388 4.41169e-05 0 0 0 0 0 0 0 0 
1392 4.42441e-05 0 0 0 0 0 0 0 0 
1396 4.43713e-05 0 0 0 0 0 0 0 0 
1400 4.44985e-05 0 0 0 0 0 0 0 0 
1404 4.46257e-05 0 0 0 0 0 0 0 0 
1408 4.47529e-05 0 0 0 0 0 0 0 0 
1412 4.48801e-05 0 0 0 0 0 0 0 0 
1416 4.50072e-05 0 0 0 0 0 0 0 0 
1420 4.51344e-05 0 0 0 0 0 0 0 0 
1424 4.52616e-05 0 0 0 0 0 0 0 0 
1428 4.53888e-05 0 0 0 0 0 0 0 0 
1432 4.5516e-05 0 0 0 0 0 0 0 0 
1436 4.56432e-05 0 0 0 0 0 0 0 0 
1440 4.57703e-05 0 0 0 0 0 0 0 0 
1444 4.58975e-05 0 0 0 0 0 0 0 0 
1448 4.60247e-05 0 0 0 0 0 0 0 0 
1452 4.61519e-05 0 0 0 0 0 0 0 0 
1456 4.62791e-05 0 0 0 0 0 0 0 0 
1460 4.64063e-05 0 0 0 0 0 0 0 0 
1464 4.65334e-05 0 0 0 0 0 0 0 0 
1468 4.66606e-05 0 0 0 0 0 0 0 0 
1472 4.67878e-05 0 0 0 0 0 0 0 0 
1476 4.6915e-05 0 0 0 0 0 0 0 0 
1480 4.70422e-05 0 0 0 0 0 0 0 0 
1484 4.71694e-05 0 0 0 0 0 0 0 0 
1488 4.72966e-05 0 0 0 0 0 0 0 0 
1492 4.74237e-05 0 0 0 0 0 0 0 0 
1496 4.75509e-05 0 0 0 0 0 0 0 0 
1500 4.76781e-05 0 0 0 0 0 0 0 0 
1504 4.78053e-05 0 0 0 0 0 0 0 0 
1508 4.79325e-05 0 0 0 0 0 0 0 0 
1512 4.80597e-05 0 0 0 0 0 0 0 0 
1516 4.81868e-05 0 0 0 0 0 0 0 0 
1520 4.8314e-05 0 0 0 0 0 0 0 0 
1524 4.84412e-05 0 0 0 0 0 0 0 0 
1528 4.85684e-05 0 0 0 0 0 0 0 0 
1532 4.86956e-05 0 0 0 0 0 0 0 0 
1536 4.88228e-05 0 0 0 0 0 0 0 0 
1540 4.89499e-05 0 0 0 0 0 0 0 0 
1544 4.90771e-05 0 0 0 0 0 0 0 0 
1548 4.92043e-05 0 0 0 0 0 0 0 0 
1552 4.93315e-05 0 0 0 0 0 0 0 0 
1556 4.94587e-05 0 0 0 0 0 0 0 0 
1560 4.95859e-05 0 0 0 0 0 0 0 0 
1564 4.9713e-05 0 0 0 0 0 0 0 0 
1568 4.98402e-05 0 0 0 0 0 0 0 0 
1572 4.99674e-05 0 0 0 0 0 0 0 0 
1576 5.00946e-05 0 0 0 0 0 0 0 0 
1580 5.02218e-05 0 0 0 0 0 0 0 0 
1584 5.0349e-05 0 0 0 0 0 0 0 0 
1588 5.04761e-05 0 0 0 0 0 0 0 0 
1592 5.06033e-05 0 0 0 0 0 0 0 0 
1596 5.07305e-05 0 0 0 0 0 0 0 0 
1600 5.08577e-05 0 0 0 0 0 0 0 0 
1604 5.09849e-05 0 0 0 0 0 0 0 0 
1608 5.11121e-05 0 0 0 0 0 0 0 0 
1612 5.12393e-05 0 0 0 0 0 0 0 0 
1616 5.13664e-05 0 0 0 0 0 0 0 0 
1620 5.14936e-05 0 0 0 0 0 0 0 0 
1624 5.16208e-05 0 0 0 0 0 0 0 0 
1628 5.1748e-05 0 0 0 0 0 0 0 0 
1632 5.18752e-05 0 0 0 0 0 0 0 0 
1636 5.20024e-05 0 0 0 0 0 0 0 0 
1640 5.21295e-05 0 0 0 0 0 0 0 0 
1644 5.22567e-05 0 0 0 0 0 0 0 0 
1648 5.23839e-05 0 0 0 0 0 0 0 0 
1652 5.25111e-05 0 0 0 0 0 0 0 0 
1656 5.26383e-05 0 0 0 0 0 0 0 0 
1660 5.27655e-05 0 0 0 0 0 0 0 0 
1664 5.28926e-05 0 0 0 0 0 0 0 0 
1668 5.30198e-05 0 0 0 0 0 0 0 0 
1672 5.3147e-05 0 0 0 0 0 0 0 0 
1676 5.32742e-05 0 0 0 0 0 0 0 0 
1680 5.34014e-05 0 0 0 0 0 0 0 0 
1684 5.35286e-05 0 0 0 0 0 0 0 0 
1688 5.36557e-05 0 0 0 0 0 0 0 0 
1692 5.37829e-05 0 0 0 0 0 0 0 0 
1696 5.39101e-05 0 0 0 0 0 0 0 0 
1700 5.40373e-05 0 0 0 0 0 0 0 0 
1704 5.41645e-05 0 0 0 0 0 0 0 0 
1708 5.42917e-05 0 0 0 0 0 0 0 0 
1712 5.44189e-05 0 0 0 0 0 0 0 0 
1716 5.4546e-05 0 0 0 0 0 0 0 0 
1720 5.46732e-05 0 0 0 0 0 0 0 0 
1724 5.48004e-05 0 0 0 0 0 0 0 0 
1728 5.49276e-05 0 0 0 0 0 0 0 0 
1732 5.50548e-05 0 0 0 0 0 0 0 0 
1736 5.5182e-05 0 0 0 0 0 0 0 0 
1740 5.53091e-05 0 0 0 0 0 0 0 0 
1744 5.54363e-05 0 0 0 0 0 0 0 0 
1748 5.55635e-05 0 0 0 0 0 0 0 0 
1752 5.56907e-05 0 0 0 0 0 0 0 0 
1756 5.58179e-05 0 0 0 0 0 0 0 0 
1760 5.59451e-05 0 0 0 0 0 0 0 0 
1764 5.60722e-05 0 0 0 0 0 0 0 0 
1768 5.61994e-05 0 0 0 0 0 0 0 0 
1772 5.63266e-05 0 0 0 0 0 0 0 0 
1776 5.64538e-05 0 0 0 0 0 0 0 0 
1780 5.6581e-05 0 0 0 0 0 0 0 0 
1784 5.67082e-05 0 0 0 0 0 0 0 0 
1788 5.68354e-05 0 0 0 0 0 0 0 0 
1792 5.69625e-05 0 0 0 0 0 0 0 0 
1796 5.70897e-05 0 0 0 0 0 0 0 0 
1800 5.72169e-05 0 0 0 0 0 0 0 0 
1804 5.73441e-05 0 0 0 0 0 0 0 0 
1808 5.74713e-05 0 0 0 0 0 0 0 0 
1812 5.75985e-05 0 0 0 0 0 0 0 0 
1816 5.77256e-05 0 0 0 0 0 0 0 0 
1820 5.78528e-05 0 0 0 0 0 0 0 0 
1824 5.798e-05 0 0 0 0 0 0 0 0 
1828 5.81072e-05 0 0 0 0 0 0 0 0 
1832 5.82344e-05 0 0 0 0 0 0 0 0 
1836 5.83616e-05 0 0 0 0 0 0 0 0 
1840 5.84887e-05 0 0 0 0 0 0 0 0 
1844 5.86159e-05 0 0 0 0 0 0 0 0 
1848 5.87431e-05 0 0 0 0 0 0 0 0 
1852 5.88703e-05 0 0 0 0 0 0 0 0 
1856 5.89975e-05 0 0 0 0 0 0 0 0 
1860 5.91247e-05 0 0 0 0 0 0 0 0 
1864 5.92518e-05 0 0 0 0 0 0 0 0 
1868 5.9379e-05 0 0 0 0 0 0 0 0 
1872 5.95062e-05 0 0 0 0 0 0 0 0 
1876 5.96334e-05 0 0 0 0 0 0 0 0 
1880 5.97606e-05 0 0 0 0 0 0 0 0 
1884 5.98878e-05 0 0 0 0 0 0 0 0 
1888 6.00149e-05 0 0 0 0 0 0 0 0 
1892 6.01421e-05 0 0 0 0 0 0 0 0 
1896 6.02693e-05 0 0 0 0 0 0 0 0 
1900 6.03965e-05 0 0 0 0 0 0 0 0 
1904 6.05237e-05 0 0 0 0 0 0 0 0 
1908 6.06509e-05 0 0 0 0 0 0 0 0 
1912 6.07781e-05 0 0 0 0 0 0 0 0 
1916 6.09052e-05 0 0 0 0 0 0 0 0 
1920 6.10324e-05 0 0 0 0 0 0 0 0 
1924 6.11596e-05 0 0 0 0 0 0 0 0 
1928 6.12868e-05 0 0 0 0 0 0 0 0 
1932 6.1414e-05 0 0 0 0 0 0 0 0 
1936 6.15412e-05 0 0 0 0 0 0 0 0 
1940 6.16683e-05 0 0 0 0 0 0 0 0 
1944 6.17955e-05 0 0 0 0 0 0 0 0 
1948 6.19227e-05 0 0 0 0 0 0 0 0 
1952 6.20499e-05 0 0 0 0 0 0 0 0 
1956 6.21771e-05 0 0 0 0 0 0 0 0 
1960 6.23043e-05 0 0 0 0 0 0 0 0 
1964 6.24314e-05 0 0 0 0 0 0 0 0 
1968 6.25586e-05 0 0 0 0 0 0 0 0 
1972 6.26858e-05 0 0 0 0 0 0 0 0 
1976 6.2813e-05 0 0 0 0 0 0 0 0 
1980 6.29402e-05 0 0 0 0 0 0 0 0 
1984 6.30674e-05 0 0 0 0 0 0 0 0 
1988 6.31946e-05 0 0 0 0 0 0 0 0 
1992 6.33217e-05 0 0 0 0 0 0 0 0 
1996 6.34489e-05 0 0 0 0 0 0 0 0 
2000 6.35761e-05 0 0 0 0 0 0 0 0 
1501 4.77099e-05 0 0 0 0 0 0 0 0 
1505 4.78371e-05 0 0 0 0 0 0 0 0 
1509 4.79643e-05 0 0 0 0 0 0 0 0 
1513 4.80915e-05 0 0 0 0 0 0 0 0 
1517 4.82186e-05 0 0 0 0 0 0 0 0 
1521 4.83458e-05 0 0 0 0 0 0 0 0 
1525 4.8473e-05 0 0 0 0 0 0 0 0 
1529 4.86002e-05 0 0 0 0 0 0 0 0 
1533 4.87274e-05 0 0 0 0 0 0 0 0 
1537 4.88546e-05 0 0 0 0 0 0 0 0 
1541 4.89817e-05 0 0 0 0 0 0 0 0 
1545 4.91089e-05 0 0 0 0 0 0 0 0 
1549 4.92361e-05 0 0 0 0 0 0 0 0 
1553 4.93633e-05 0 0 0 0 0 0 0 0 
1557 4.94905e-05 0 0 0 0 0 0 0 0 
1561 4.96177e-05 0 0 0 0 0 0 0 0 
1565 4.97448e-05 0 0 0 0 0 0 0 0 
1569 4.9872e-05 0 0 0 0 0 0 0 0 
1573 4.99992e-05 0 0 0 0 0 0 0 0 
1577 5.01264e-05 0 0 0 0 0 0 0 0 
1581 5.02536e-05 0 0 0 0 0 0 0 0 
1585 5.03808e-05 0 0 0 0 0 0 0 0 
1589 5.05079e-05 0 0 0 0 0 0 0 0 
1593 5.06351e-05 0 0 0 0 0 0 0 0 
1597 5.07623e-05 0 0 0 0 0 0 0 0 
1601 5.08895e-05 0 0 0 0 0 0 0 0 
1605 5.10167e-05 0 0 0 0 0 0 0 0 
1609 5.11439e-05 0 0 0 0 0 0 0 0 
1613 5.1271e-05 0 0 0 0 0 0 0 0 
1617 5.13982e-05 0 0 0 0 0 0 0 0 
1621 5.15254e-05 0 0 0 0 0 0 0 0 
1625 5.16526e-05 0 0 0 0 0 0 0 0 
1629 5.17798e-05 0 0 0 0 0 0 0 0 
1633 5.1907e-05 0 0 0 0 0 0 0 0 
1637 5.20342e-05 0 0 0 0 0 0 0 0 
1641 5.21613e-05 0 0 0 0 0 0 0 0 
1645 5.22885e-05 0 0 0 0 0 0 0 0 
1649 5.24157e-05 0 0 0 0 0 0 0 0 
1653 5.25429e-05 0 0 0 0 0 0 0 0 
1657 5.26701e-05 0 0 0 0 0 0 0 0 
1661 5.27973e-05 0 0 0 0 0 0 0 0 
1665 5.29244e-05 0 0 0 0 0 0 0 0 
1669 5.30516e-05 0 0 0 0 0 0 0 0 
1673 5.31788e-05 0 0 0 0 0 0 0 0 
1677 5.3306e-05 0 0 0 0 0 0 0 0 
1681 5.34332e-05 0 0 0 0 0 0 0 0 
1685 5.35604e-05 0 0 0 0 0 0 0 0 
1689 5.36875e-05 0 0 0 0 0 0 0 0 
1693 5.38147e-05 0 0 0 0 0 0 0 0 
1697 5.39419e-05 0 0 0 0 0 0 0 0 
1701 5.40691e-05 0 0 0 0 0 0 0 0 
1705 5.41963e-05 0 0 0 0 0 0 0 0 
1709 5.43235e-05 0 0 0 0 0 0 0 0 
1713 5.44507e-05 0 0 0 0 0 0 0 0 
1717 5.45778e-05 0 0 0 0 0 0 0 0 
1721 5.4705e-05 0 0 0 0 0 0 0 0 
1725 5.48322e-05 0 0 0 0 0 0 0 0 
1729 5.49594e-05 0 0 0 0 0 0 0 0 
1733 5.50866e-05 0 0 0 0 0 0 0 0 
1737 5.52138e-05 0 0 0 0 0 0 0 0 
1741 5.53409e-05 0 0 0 0 0 0 0 0 
1745 5.54681e-05 0 0 0 0 0 0 0 0 
1749 5.55953e-05 0 0 0 0 0 0 0 0 
1753 5.57225e-05 0 0 0 0 0 0 0 0 
1757 5.58497e-05 0 0 0 0 0 0 0 0 
1761 5.59769e-05 0 0 0 0 0 0 0 0 
1765 5.6104e-05 0 0 0 0 0 0 0 0 
1769 5.62312e-05 0 0 0 0 0 0 0 0 
1773 5.63584e-05 0 0 0 0 0 0 0 0 
1777 5.64856e-05 0 0 0 0 0 0 0 0 
1781 5.66128e-05 0 0 0 0 0 0 0 0 
1785 5.674e-05 0 0 0 0 0 0 0 0 
1789 5.68671e-05 0 0 0 0 0 0 0 0 
1793 5.69943e-05 0 0 0 0 0 0 0 0 
1797 5.71215e-05 0 0 0 0 0 0 0 0 
1801 5.72487e-05 0 0 0 0 0 0 0 0 
1805 5.73759e-05 0 0 0 0 0 0 0 0 
1809 5.75031e-05 0 0 0 0 0 0 0 0 
1813 5.76302e-05 0 0 0 0 0 0 0 0 
1817 5.77574e-05 0 0 0 0 0 0 0 0 
1821 5.78846e-05 0 0 0 0 0 0 0 0 
1825 5.80118e-05 0 0 0 0 0 0 0 0 
1829 5.8139e-05 0 0 0 0 0 0 0 0 
1833 5.82662e-05 0 0 0 0 0 0 0 0 
1837 5.83934e-05 0 0 0 0 0 0 0 0 
1841 5.85205e-05 0 0 0 0 0 0 0 0 
1845 5.86477e-05 0 0 0 0 0 0 0 0 
1849 5.87749e-05 0 0 0 0 0 0 0 0 
1853 5.89021e-05 0 0 0 0 0 0 0 0 
1857 5.90293e-05 0 0 0 0 0 0 0 0 
1861 5.91565e-05 0 0 0 0 0 0 0 0 
1865 5.92836e-05 0 0 0 0 0 0 0 0 
1869 5.94108e-05 0 0 0 0 0 0 0 0 
1873 5.9538e-05 0 0 0 0 0 0 0 0 
1877 5.96652e-05 0 0 0 0 0 0 0 0 
1881 5.97924e-05 0 0 0 0 0 0 0 0 
1885 5.99196e-05 0 0 0 0 0 0 0 0 
1889 6.00467e-05 0 0 0 0 0 0 0 0 
1893 6.01739e-05 0 0 0 0 0 0 0 0 
1897 6.03011e-05 0 0 0 0 0 0 0 0 
1901 6.04283e-05 0 0 0 0 0 0 0 0 
1905 6.05555e-05 0 0 0 0 0 0 0 0 
1909 6.06827e-05 0 0 0 0 0 0 0 0 
1913 6.08098e-05 0 0 0 0 0 0 0 0 
1917 6.0937e-05 0 0 0 0 0 0 0 0 
1921 6.10642e-05 0 0 0 0 0 0 0 0 
1925 6.11914e-05 0 0 0 0 0 0 0 0 
1929 6.13186e-05 0 0 0 0 0 0 0 0 
1933 6.14458e-05 0 0 0 0 0 0 0 0 
1937 6.1573e-05 0 0 0 0 0 0 0 0 
1941 6.17001e-05 0 0 0 0 0 0 0 0 
1945 6.18273e-05 0 0 0 0 0 0 0 0 
1949 6.19545e-05 0 0 0 0 0 0 0 0 
1953 6.20817e-05 0 0 0 0 0 0 0 0 
1957 6.22089e-05 0 0 0 0 0 0 0 0 
1961 6.23361e-05 0 0 0 0 0 0 0 0 
1965 6.24632e-05 0 0 0 0 0 0 0 0 
1969 6.25904e-05 0 0 0 0 0 0 0 0 
1973 6.27176e-05 0 0 0 0 0 0 0 0 
1977 6.28448e-05 0 0 0 0 0 0 0 0 
1981 6.2972e-05 0 0 0 0 0 0 0 0 
1985 6.30992e-05 0 0 0 0 0 0 0 0 
1989 6.32263e-05 0 0 0 0 0 0 0 0 
1993 6.33535e-05 0 0 0 0 0 0 0 0 
1997 6.34807e-05 0 0 0 0 0 0 0 0 
1502 4.77417e-05 0 0 0 0 0 0 0 0 
1506 4.78689e-05 0 0 0 0 0 0 0 0 
1510 4.79961e-05 0 0 0 0 0 0 0 0 
1514 4.81232e-05 0 0 0 0 0 0 0 0 
1518 4.82504e-05 0 0 0 0 0 0 0 0 
1522 4.83776e-05 0 0 0 0 0 0 0 0 
1526 4.85048e-05 0 0 0 0 0 0 0 0 
1530 4.8632e-05 0 0 0 0 0 0 0 0 
1534 4.87592e-05 0 0 0 0 0 0 0 0 
1538 4.88863e-05 0 0 0 0 0 0 0 0 
1542 4.90135e-05 0 0 0 0 0 0 0 0 
1546 4.91407e-05 0 0 0 0 0 0 0 0 
1550 4.92679e-05 0 0 0 0 0 0 0 0 
1554 4.93951e-05 0 0 0 0 0 0 0 0 
1558 4.95223e-05 0 0 0 0 0 0 0 0 
1562 4.96495e-05 0 0 0 0 0 0 0 0 
1566 4.97766e-05 0 0 0 0 0 0 0 0 
1570 4.99038e-05 0 0 0 0 0 0 0 0 
1574 5.0031e-05 0 0 0 0 0 0 0 0 
1578 5.01582e-05 0 0 0 0 0 0 0 0 
1582 5.02854e-05 0 0 0 0 0 0 0 0 
1586 5.04126e-05 0 0 0 0 0 0 0 0 
1590 5.05397e-05 0 0 0 0 0 0 0 0 
1594 5.06669e-05 0 0 0 0 0 0 0 0 
1598 5.07941e-05 0 0 0 0 0 0 0 0 
1602 5.09213e-05 0 0 0 0 0 0 0 0 
1606 5.10485e-05 0 0 0 0 0 0 0 0 
1610 5.11757e-05 0 0 0 0 0 0 0 0 
1614 5.13028e-05 0 0 0 0 0 0 0 0 
1618 5.143e-05 0 0 0 0 0 0 0 0 
1622 5.15572e-05 0 0 0 0 0 0 0 0 
1626 5.16844e-05 0 0 0 0 0 0 0 0 
1630 5.18116e-05 0 0 0 0 0 0 0 0 
1634 5.19388e-05 0 0 0 0 0 0 0 0 
1638 5.20659e-05 0 0 0 0 0 0 0 0 
1642 5.21931e-05 0 0 0 0 0 0 0 0 
1646 5.23203e-05 0 0 0 0 0 0 0 0 
1650 5.24475e-05 0 0 0 0 0 0 0 0 
1654 5.25747e-05 0 0 0 0 0 0 0 0 
1658 5.27019e-05 0 0 0 0 0 0 0 0 
1662 5.28291e-05 0 0 0 0 0 0 0 0 
1666 5.29562e-05 0 0 0 0 0 0 0 0 
1670 5.30834e-05 0 0 0 0 0 0 0 0 
1674 5.32106e-05 0 0 0 0 0 0 0 0 
1678 5.33378e-05 0 0 0 0 0 0 0 0 
1682 5.3465e-05 0 0 0 0 0 0 0 0 
1686 5.35922e-05 0 0 0 0 0 0 0 0 
1690 5.37193e-05 0 0 0 0 0 0 0 0 
1694 5.38465e-05 0 0 0 0 0 0 0 0 
1698 5.39737e-05 0 0 0 0 0 0 0 0 
1702 5.41009e-05 0 0 0 0 0 0 0 0 
1706 5.42281e-05 0 0 0 0 0 0 0 0 
1710 5.43553e-05 0 0 0 0 0 0 0 0 
1714 5.44824e-05 0 0 0 0 0 0 0 0 
1718 5.46096e-05 0 0 0 0 0 0 0 0 
1722 5.47368e-05 0 0 0 0 0 0 0 0 
1726 5.4864e-05 0 0 0 0 0 0 0 0 
1730 5.49912e-05 0 0 0 0 0 0 0 0 
1734 5.51184e-05 0 0 0 0 0 0 0 0 
1738 5.52456e-05 0 0 0 0 0 0 0 0 
1742 5.53727e-05 0 0 0 0 0 0 0 0 
1746 5.54999e-05 0 0 0 0 0 0 0 0 
1750 5.56271e-05 0 0 0 0 0 0 0 0 
1754 5.57543e-05 0 0 0 0 0 0 0 0 
1758 5.58815e-05 0 0 0 0 0 0 0 0 
1762 5.60087e-05 0 0 0 0 0 0 0 0 
1766 5.61358e-05 0 0 0 0 0 0 0 0 
1770 5.6263e-05 0 0 0 0 0 0 0 0 
1774 5.63902e-05 0 0 0 0 0 0 0 0 
1778 5.65174e-05 0 0 0 0 0 0 0 0 
1782 5.66446e-05 0 0 0 0 0 0 0 0 
1786 5.67718e-05 0 0 0 0 0 0 0 0 
1790 5.68989e-05 0 0 0 0 0 0 0 0 
1794 5.70261e-05 0 0 0 0 0 0 0 0 
1798 5.71533e-05 0 0 0 0 0 0 0 0 
1802 5.72805e-05 0 0 0 0 0 0 0 0 
1806 5.74077e-05 0 0 0 0 0 0 0 0 
1810 5.75349e-05 0 0 0 0 0 0 0 0 
1814 5.7662e-05 0 0 0 0 0 0 0 0 
1818 5.77892e-05 0 0 0 0 0 0 0 0 
1822 5.79164e-05 0 0 0 0 0 0 0 0 
1826 5.80436e-05 0 0 0 0 0 0 0 0 
1830 5.81708e-05 0 0 0 0 0 0 0 0 
1834 5.8298e-05 0 0 0 0 0 0 0 0 
1838 5.84251e-05 0 0 0 0 0 0 0 0 
1842 5.85523e-05 0 0 0 0 0 0 0 0 
1846 5.86795e-05 0 0 0 0 0 0 0 0 
1850 5.88067e-05 0 0 0 0 0 0 0 0 
1854 5.89339e-05 0 0 0 0 0 0 0 0 
1858 5.90611e-05 0 0 0 0 0 0 0 0 
1862 5.91883e-05 0 0 0 0 0 0 0 0 
1866 5.93154e-05 0 0 0 0 0 0 0 0 
1870 5.94426e-05 0 0 0 0 0 0 0 0 
1874 5.95698e-05 0 0 0 0 0 0 0 0 
1878 5.9697e-05 0 0 0 0 0 0 0 0 
1882 5.98242e-05 0 0 0 0 0 0 0 0 
1886 5.99514e-05 0 0 0 0 0 0 0 0 
1890 6.00785e-05 0 0 0 0 0 0 0 0 
1894 6.02057e-05 0 0 0 0 0 0 0 0 
1898 6.03329e-05 0 0 0 0 0 0 0 0 
1902 6.04601e-05 0 0 0 0 0 0 0 0 
1906 6.05873e-05 0 0 0 0 0 0 0 0 
1910 6.07145e-05 0 0 0 0 0 0 0 0 
1914 6.08416e-05 0 0 0 0 0 0 0 0 
1918 6.09688e-05 0 0 0 0 0 0 0 0 
1922 6.1096e-05 0 0 0 0 0 0 0 0 
1926 6.12232e-05 0 0 0 0 0 0 0 0 
1930 6.13504e-05 0 0 0 0 0 0 0 0 
1934 6.14776e-05 0 0 0 0 0 0 0 0 
1938 6.16048e-05 0 0 0 0 0 0 0 0 
1942 6.17319e-05 0 0 0 0 0 0 0 0 
1946 6.18591e-05 0 0 0 0 0 0 0 0 
1950 6.19863e-05 0 0 0 0 0 0 0 0 
1954 6.21135e-05 0 0 0 0 0 0 0 0 
1958 6.22407e-05 0 0 0 0 0 0 0 0 
1962 6.23679e-05 0 0 0 0 0 0 0 0 
1966 6.2495e-05 0 0 0 0 0 0 0 0 
1970 6.26222e-05 0 0 0 0 0 0 0 0 
1974 6.27494e-05 0 0 0 0 0 0 0 0 
1978 6.28766e-05 0 0 0 0 0 0 0 0 
1982 6.30038e-05 0 0 0 0 0 0 0 0 
1986 6.3131e-05 0 0 0 0 0 0 0 0 
1990 6.32581e-05 0 0 0 0 0 0 0 0 
1994 6.33853e-05 0 0 0 0 0 0 0 0 
1998 6.35125e-05 0 0 0 0 0 0 0 0 
1503 4.77735e-05 0 0 0 0 0 0 0 0 
1507 4.79007e-05 0 0 0 0 0 0 0 0 
1511 4.80279e-05 0 0 0 0 0 0 0 0 
1515 4.8155e-05 0 0 0 0 0 0 0 0 
1519 4.82822e-05 0 0 0 0 0 0 0 0 
1523 4.84094e-05 0 0 0 0 0 0 0 0 
1527 4.85366e-05 0 0 0 0 0 0 0 0 
1531 4.86638e-05 0 0 0 0 0 0 0 0 
1535 4.8791e-05 0 0 0 0 0 0 0 0 
1539 4.89181e-05 0 0 0 0 0 0 0 0 
1543 4.90453e-05 0 0 0 0 0 0 0 0 
1547 4.91725e-05 0 0 0 0 0 0 0 0 
1551 4.92997e-05 0 0 0 0 0 0 0 0 
1555 4.94269e-05 0 0 0 0 0 0 0 0 
1559 4.95541e-05 0 0 0 0 0 0 0 0 
1563 4.96812e-05 0 0 0 0 0 0 0 0 
1567 4.98084e-05 0 0 0 0 0 0 0 0 
1571 4.99356e-05 0 0 0 0 0 0 0 0 
1575 5.00628e-05 0 0 0 0 0 0 0 0 
1579 5.019e-05 0 0 0 0 0 0 0 0 
1583 5.03172e-05 0 0 0 0 0 0 0 0 
1587 5.04444e-05 0 0 0 0 0 0 0 0 
1591 5.05715e-05 0 0 0 0 0 0 0 0 
1595 5.06987e-05 0 0 0 0 0 0 0 0 
1599 5.08259e-05 0 0 0 0 0 0 0 0 
1603 5.09531e-05 0 0 0 0 0 0 0 0 
1607 5.10803e-05 0 0 0 0 0 0 0 0 
1611 5.12075e-05 0 0 0 0 0 0 0 0 
1615 5.13346e-05 0 0 0 0 0 0 0 0 
1619 5.14618e-05 0 0 0 0 0 0 0 0 
1623 5.1589e-05 0 0 0 0 0 0 0 0 
1627 5.17162e-05 0 0 0 0 0 0 0 0 
1631 5.18434e-05 0 0 0 0 0 0 0 0 
1635 5.19706e-05 0 0 0 0 0 0 0 0 
1639 5.20977e-05 0 0 0 0 0 0 0 0 
1643 5.22249e-05 0 0 0 0 0 0 0 0 
1647 5.23521e-05 0 0 0 0 0 0 0 0 
1651 5.24793e-05 0 0 0 0 0 0 0 0 
1655 5.26065e-05 0 0 0 0 0 0 0 0 
1659 5.27337e-05 0 0 0 0 0 0 0 0 
1663 5.28608e-05 0 0 0 0 0 0 0 0 
1667 5.2988e-05 0 0 0 0 0 0 0 0 
1671 5.31152e-05 0 0 0 0 0 0 0 0 
1675 5.32424e-05 0 0 0 0 0 0 0 0 
1679 5.33696e-05 0 0 0 0 0 0 0 0 
1683 5.34968e-05 0 0 0 0 0 0 0 0 
1687 5.3624e-05 0 0 0 0 0 0 0 0 
1691 5.37511e-05 0 0 0 0 0 0 0 0 
1695 5.38783e-05 0 0 0 0 0 0 0 0 
1699 5.40055e-05 0 0 0 0 0 0 0 0 
1703 5.41327e-05 0 0 0 0 0 0 0 0 
1707 5.42599e-05 0 0 0 0 0 0 0 0 
1711 5.43871e-05 0 0 0 0 0 0 0 0 
1715 5.45142e-05 0 0 0 0 0 0 0 0 
1719 5.46414e-05 0 0 0 0 0 0 0 0 
1723 5.47686e-05 0 0 0 0 0 0 0 0 
1727 5.48958e-05 0 0 0 0 0 0 0 0 
1731 5.5023e-05 0 0 0 0 0 0 0 0 
1735 5.51502e-05 0 0 0 0 0 0 0 0 
1739 5.52773e-05 0 0 0 0 0 0 0 0 
1743 5.54045e-05 0 0 0 0 0 0 0 0 
1747 5.55317e-05 0 0 0 0 0 0 0 0 
1751 5.56589e-05 0 0 0 0 0 0 0 0 
1755 5.57861e-05 0 0 0 0 0 0 0 0 
1759 5.59133e-05 0 0 0 0 0 0 0 0 
1763 5.60405e-05 0 0 0 0 0 0 0 0 
1767 5.61676e-05 0 0 0 0 0 0 0 0 
1771 5.62948e-05 0 0 0 0 0 0 0 0 
1775 5.6422e-05 0 0 0 0 0 0 0 0 
1779 5.65492e-05 0 0 0 0 0 0 0 0 
1783 5.66764e-05 0 0 0 0 0 0 0 0 
1787 5.68036e-05 0 0 0 0 0 0 0 0 
1791 5.69307e-05 0 0 0 0 0 0 0 0 
1795 5.70579e-05 0 0 0 0 0 0 0 0 
1799 5.71851e-05 0 0 0 0 0 0 0 0 
1803 5.73123e-05 0 0 0 0 0 0 0 0 
1807 5.74395e-05 0 0 0 0 0 0 0 0 
1811 5.75667e-05 0 0 0 0 0 0 0 0 
1815 5.76938e-05 0 0 0 0 0 0 0 0 
1819 5.7821e-05 0 0 0 0 0 0 0 0 
1823 5.79482e-05 0 0 0 0 0 0 0 0 
1827 5.80754e-05 0 0 0 0 0 0 0 0 
1831 5.82026e-05 0 0 0 0 0 0 0 0 
1835 5.83298e-05 0 0 0 0 0 0 0 0 
1839 5.84569e-05 0 0 0 0 0 0 0 0 
1843 5.85841e-05 0 0 0 0 0 0 0 0 
1847 5.87113e-05 0 0 0 0 0 0 0 0 
1851 5.88385e-05 0 0 0 0 0 0 0 0 
1855 5.89657e-05 0 0 0 0 0 0 0 0 
1859 5.90929e-05 0 0 0 0 0 0 0 0 
1863 5.922e-05 0 0 0 0 0 0 0 0 
1867 5.93472e-05 0 0 0 0 0 0 0 0 
1871 5.94744e-05 0 0 0 0 0 0 0 0 
1875 5.96016e-05 0 0 0 0 0 0 0 0 
1879 5.97288e-05 0 0 0 0 0 0 0 0 
1883 5.9856e-05 0 0 0 0 0 0 0 0 
1887 5.99832e-05 0 0 0 0 0 0 0 0 
1891 6.01103e-05 0 0 0 0 0 0 0 0 
1895 6.02375e-05 0 0 0 0 0 0 0 0 
1899 6.03647e-05 0 0 0 0 0 0 0 0 
1903 6.04919e-05 0 0 0 0 0 0 0 0 
1907 6.06191e-05 0 0 0 0 0 0 0 0 
1911 6.07463e-05 0 0 0 0 0 0 0 0 
1915 6.08734e-05 0 0 0 0 0 0 0 0 
1919 6.10006e-05 0 0 0 0 0 0 0 0 
1923 6.11278e-05 0 0 0 0 0 0 0 0 
1927 6.1255e-05 0 0 0 0 0 0 0 0 
1931 6.13822e-05 0 0 0 0 0 0 0 0 
1935 6.15094e-05 0 0 0 0 0 0 0 0 
1939 6.16365e-05 0 0 0 0 0 0 0 0 
1943 6.17637e-05 0 0 0 0 0 0 0 0 
1947 6.18909e-05 0 0 0 0 0 0 0 0 
1951 6.20181e-05 0 0 0 0 0 0 0 0 
1955 6.21453e-05 0 0 0 0 0 0 0 0 
1959 6.22725e-05 0 0 0 0 0 0 0 0 
1963 6.23996e-05 0 0 0 0 0 0 0 0 
1967 6.25268e-05 0 0 0 0 0 0 0 0 
1971 6.2654e-05 0 0 0 0 0 0 0 0 
1975 6.27812e-05 0 0 0 0 0 0 0 0 
1979 6.29084e-05 0 0 0 0 0 0 0 0 
1983 6.30356e-05 0 0 0 0 0 0 0 0 
1987 6.31628e-05 0 0 0 0 0 0 0 0 
1991 6.32899e-05 0 0 0 0 0 0 0 0 
1995 6.34171e-05 0 0 0 0 0 0 0 0 
1999 6.35443e-05 0 0 0 0 0 0 0 0 
