ITEM: TIMESTEP
40000
ITEM: NUMBER OF CELLS
300
ITEM: BOX BOUNDS pp ss pp
0 1
0 4.9542e-06
-0.5 0.5
ITEM: CELLS id yc f_2[1] f_2[2] f_2[3] 
1 8.257e-09 88.8777 -45.1064 -16.5713 
5 7.4313e-08 99.2677 -119.943 -15.6066 
9 1.40369e-07 117.5 -9.72814 -49.6555 
13 2.06425e-07 145.125 -264.989 -8.30447 
17 2.72481e-07 90.3054 55.1656 -51.1781 
21 3.38537e-07 73.3096 82.6967 -51.2022 
25 4.04593e-07 147.264 -61.9835 -65.9935 
29 4.70649e-07 106.004 179.144 5.51543 
33 5.36705e-07 148.669 -6.41404 -0.368991 
37 6.02761e-07 108.458 -15.7296 5.96038 
41 6.68817e-07 58.6882 -27.5085 29.2644 
45 7.34873e-07 126.021 -146.894 -32.9175 
49 8.00929e-07 90.3012 -39.5915 17.5751 
53 8.66985e-07 86.4302 157.175 7.57008 
57 9.33041e-07 105.845 157.492 12.0823 
61 9.99097e-07 71.2422 141.338 -5.1477 
65 1.06515e-06 99.162 -99.1399 16.1361 
69 1.13121e-06 65.6764 -57.3704 -57.7892 
73 1.19727e-06 132.026 129.577 -84.8267 
2 2.4771e-08 88.6645 -34.8687 -33.9243 
6 9.0827e-08 134.508 -45.802 -38.2548 
10 1.56883e-07 139.213 64.7594 -15.4086 
14 2.22939e-07 56.5289 -4.82939 -51.1745 
18 2.88995e-07 114.833 -21.0986 -57.6416 
22 3.55051e-07 127.214 -58.9686 -51.4581 
26 4.21107e-07 75.9373 51.8845 -26.34 
30 4.87163e-07 118.691 305.255 -38.07 
34 5.53219e-07 76.0179 -163.548 40.2066 
38 6.19275e-07 138.872 24.4158 -4.10447 
42 6.85331e-07 103.225 15.6655 -17.9071 
46 7.51387e-07 113.694 -18.0231 31.9456 
50 8.17443e-07 111.677 -54.051 -38.6102 
54 8.83499e-07 66.995 121.755 -20.572 
58 9.49555e-07 55.4055 -24.0319 -49.502 
62 1.01561e-06 91.9496 -3.25461 -18.9232 
66 1.08167e-06 114.741 17.5883 -11.7663 
70 1.14772e-06 80.1236 216.495 -26.371 
74 1.21378e-06 76.1764 98.8083 20.822 
3 4.1285e-08 118.062 -103.926 -23.8627 
7 1.07341e-07 87.0946 57.6329 -9.50415 
11 1.73397e-07 26.9364 -28.8228 -14.6544 
15 2.39453e-07 124.529 -161.07 30.3328 
19 3.05509e-07 83.6178 -40.6183 -17.948 
23 3.71565e-07 97.6827 -6.00119 28.749 
27 4.37621e-07 134.475 -91.2536 8.14962 
31 5.03677e-07 85.106 107.52 -50.1347 
35 5.69733e-07 103.698 28.889 3.96845 
39 6.35789e-07 53.3224 134.661 -17.896 
43 7.01845e-07 169.013 -33.8161 -26.2949 
47 7.67901e-07 93.9377 73.0313 -21.7708 
51 8.33957e-07 103.036 -35.3225 -84.1106 
55 9.00013e-07 124.662 -33.9965 -41.4697 
59 9.66069e-07 94.7261 -184.73 11.5552 
63 1.03212e-06 90.8055 -39.6027 10.4836 
67 1.09818e-06 46.2619 78.2614 -10.2732 
71 1.16424e-06 117.755 236.424 31.8837 
75 1.23029e-06 116.98 -8.70227 13.8715 
4 5.7799e-08 92.2412 -112.624 2.21781 
8 1.23855e-07 69.7783 -161.68 -46.7523 
12 1.89911e-07 87.8155 -163.638 -4.56158 
16 2.55967e-07 133.214 21.3107 -11.9294 
20 3.22023e-07 102.417 -15.91 -1.97925 
24 3.88079e-07 103.613 40.9802 5.64914 
28 4.54135e-07 97.6391 160.53 14.7834 
32 5.20191e-07 103.97 -26.5093 -26.4845 
36 5.86247e-07 90.6641 -151.867 -41.0016 
40 6.52303e-07 138.898 53.163 -10.6235 
44 7.18359e-07 120.677 -52.0016 -44.5237 
48 7.84415e-07 134.401 -119.28 6.30161 
52 8.50471e-07 131.334 99.2803 -0.246957 
56 9.16527e-07 119.235 43.0704 -18.5155 
60 9.82583e-07 89.1081 -92.6168 12.9764 
64 1.04864e-06 122.06 69.5856 2.44087 
68 1.11469e-06 92.5054 -80.2859 -36.4384 
72 1.18075e-06 11.8815 199.655 -18.1569 
78 1.27983e-06 134.352 -85.7828 -27.3272 
82 1.34589e-06 84.8889 -60.1738 19.9898 
86 1.41195e-06 125.1 -165.177 -4.39641 
90 1.478e-06 73.3734 -139.092 -27.4332 
94 1.54406e-06 96.1146 -106.997 17.3407 
98 1.61011e-06 75.7825 25.9051 -7.79636 
102 1.67617e-06 94.5131 147.056 8.60474 
106 1.74223e-06 86.9203 -186.464 -34.2801 
110 1.80828e-06 115.284 -13.2112 35.2012 
114 1.87434e-06 147.229 -80.3545 -2.26265 
118 1.94039e-06 122.448 -126.125 -40.948 
122 2.00645e-06 124.617 147.751 -7.74368 
126 2.07251e-06 127.196 -7.29038 60.0104 
130 2.13856e-06 116.772 -69.2104 23.9955 
134 2.20462e-06 92.6312 -11.9378 -2.85436 
138 2.27068e-06 118.388 -217.933 13.7573 
142 2.33673e-06 151.692 156.51 -38.1008 
146 2.40279e-06 145.823 136.713 -9.43009 
150 2.46884e-06 108.862 -138.944 40.7844 
77 1.26332e-06 99.8587 -149.741 -19.5375 
81 1.32938e-06 92.7282 -26.148 16.654 
85 1.39543e-06 136.939 -19.4425 -17.3286 
89 1.46149e-06 50.7129 15.623 -2.64517 
93 1.52754e-06 95.5002 36.1018 -12.8632 
97 1.5936e-06 102.256 -84.2818 -22.7367 
101 1.65966e-06 58.4459 32.298 -19.9496 
105 1.72571e-06 85.8942 -30.2531 24.2199 
109 1.79177e-06 78.0728 96.2969 -22.9927 
113 1.85782e-06 86.4523 1.78624 15.2598 
117 1.92388e-06 86.1527 -34.7671 -27.9239 
121 1.98994e-06 132.783 10.9855 -37.8011 
125 2.05599e-06 121.18 27.3694 -26.9587 
129 2.12205e-06 70.0237 29.7813 -15.8779 
133 2.1881e-06 134.142 -129.829 -43.8322 
137 2.25416e-06 77.9815 -36.6116 -16.6479 
141 2.32022e-06 127.408 128.099 26.3142 
145 2.38627e-06 85.7248 -84.9076 30.4611 
149 2.45233e-06 98.2338 -131.375 -20.4498 
79 1.29635e-06 42.5554 21.3601 -14.7416 
83 1.3624e-06 95.2026 31.0599 7.37661 
87 1.42846e-06 88.2623 -24.7171 10.7047 
91 1.49452e-06 70.2077 -65.6296 -9.43465 
95 1.56057e-06 30.097 98.3475 -36.8567 
99 1.62663e-06 123.227 126.106 -5.82258 
103 1.69269e-06 73.2221 -106.315 -26.3549 
107 1.75874e-06 114.682 -108.474 10.4596 
111 1.8248e-06 91.7842 -58.1053 -3.4178 
115 1.89085e-06 81.9597 -142.795 -28.5137 
119 1.95691e-06 101.33 103.371 -4.43717 
123 2.02297e-06 92.6952 19.385 18.0975 
127 2.08902e-06 113.611 131.541 -24.0585 
131 2.15508e-06 120.892 1.8163 13.1292 
135 2.22113e-06 34.617 -137.792 25.673 
139 2.28719e-06 86.3498 -46.3509 7.37719 
143 2.35324e-06 65.4298 111.531 -62.7475 
147 2.4193e-06 75.6227 45.5408 -20.2786 
76 1.24681e-06 131.108 98.3363 23.4514 
80 1.31286e-06 94.7192 9.96879 14.412 
84 1.37892e-06 78.931 132.439 15.566 
88 1.44498e-06 135.409 -148.696 -4.54677 
92 1.51103e-06 74.8804 11.2018 -31.3026 
96 1.57709e-06 74.0712 9.27443 19.3549 
100 1.64314e-06 84.2066 -114.9 16.0532 
104 1.7092e-06 55.8672 -47.2794 4.78586 
108 1.77525e-06 110.038 -5.80181 -39.73 
112 1.84131e-06 71.4271 71.9344 -11.5914 
116 1.90737e-06 70.6137 93.0731 -30.2532 
120 1.97342e-06 111.41 123.894 28.7787 
124 2.03948e-06 45.0382 99.6688 -48.497 
128 2.10553e-06 82.3494 65.0675 10.2281 
132 2.17159e-06 71.1069 251.534 19.9742 
136 2.23765e-06 150.772 72.9516 -11.2795 
140 2.3037e-06 91.934 -60.6328 -25.4452 
144 2.36976e-06 119.161 -109.383 30.7064 
148 2.43581e-06 104.107 -64.5044 17.1095 
151 2.48536e-06 75.9309 15.8982 15.2275 
155 2.55141e-06 103.868 -31.9178 16.8182 
159 2.61747e-06 76.3046 56.5462 -26.3767 
163 2.68352e-06 84.4654 2.01471 37.8244 
167 2.74958e-06 64.4102 -70.0111 18.2138 
171 2.81564e-06 59.6628 -2.83865 -4.86116 
175 2.88169e-06 126.445 -22.7338 -35.7218 
179 2.94775e-06 93.9129 142.499 -2.89106 
183 3.01381e-06 131.191 65.7507 24.0274 
187 3.07986e-06 123.554 -170.588 -4.35398 
191 3.14592e-06 106.208 -117.351 35.1382 
195 3.21197e-06 62.5001 181.791 26.2866 
199 3.27803e-06 136.251 202.059 0.925975 
203 3.34408e-06 75.154 -76.2 7.39064 
207 3.41014e-06 163.747 106.302 -1.00602 
211 3.4762e-06 122.054 -27.6229 25.2357 
215 3.54225e-06 98.9943 4.94948 16.6576 
219 3.60831e-06 96.2459 169.51 78.4749 
223 3.67437e-06 100.115 100.57 31.2219 
153 2.51839e-06 69.1171 -240.577 -53.5571 
157 2.58444e-06 131.204 -263.328 10.6084 
161 2.6505e-06 76.0794 -89.6719 13.1399 
165 2.71655e-06 111.379 150.831 18.3892 
169 2.78261e-06 138.264 42.6799 -16.6198 
173 2.84867e-06 121.728 -42.768 26.0138 
177 2.91472e-06 106.015 -24.2513 -4.98723 
181 2.98078e-06 39.924 103.33 -28.9458 
185 3.04683e-06 120.509 18.7969 7.49751 
189 3.11289e-06 115.173 -52.8479 15.4597 
193 3.17894e-06 94.9444 -13.5165 -35.6801 
197 3.245e-06 101.853 138.94 34.1335 
201 3.31106e-06 81.0671 71.7646 -58.5379 
205 3.37711e-06 109.186 -79.0763 67.7323 
209 3.44317e-06 75.0857 264.533 -28.888 
213 3.50923e-06 111.304 -61.4768 30.8587 
217 3.57528e-06 108.445 108.697 28.6176 
221 3.64134e-06 72.998 -162.332 13.3204 
225 3.70739e-06 116.853 51.6164 -0.930675 
154 2.5349e-06 156.261 -148.607 2.15381 
158 2.60095e-06 78.7489 -137.229 45.7226 
162 2.66701e-06 29.124 61.1085 -9.98708 
166 2.73307e-06 77.8797 -92.2059 15.3298 
170 2.79912e-06 76.7295 -58.783 48.7107 
174 2.86518e-06 82.0009 -30.5694 -47.978 
178 2.93123e-06 104.84 -4.73516 67.4547 
182 2.99729e-06 107.242 26.8378 10.9821 
186 3.06335e-06 97.136 8.19719 -5.58354 
190 3.1294e-06 147.999 74.0575 20.427 
194 3.19546e-06 116.822 -145.69 -6.59897 
198 3.26152e-06 109.194 291.64 -34.1112 
202 3.32757e-06 124.794 6.53802 0.74458 
206 3.39363e-06 80.7579 179.634 4.04691 
210 3.45968e-06 97.114 -34.1487 -14.4889 
214 3.52574e-06 68.5807 -50.4896 31.1238 
218 3.59179e-06 103.675 -10.4321 -19.8433 
222 3.65785e-06 67.3827 -51.305 12.8589 
152 2.50187e-06 105.26 -235.734 9.19582 
156 2.56793e-06 54.6511 -15.4741 11.3199 
160 2.63398e-06 83.7206 -56.5563 31.0731 
164 2.70004e-06 118.946 76.0496 22.9856 
168 2.7661e-06 114.461 -64.959 -19.4786 
172 2.83215e-06 91.0505 -82.1802 24.9962 
176 2.89821e-06 95.7892 115.439 -23.7455 
180 2.96426e-06 132.892 193.29 -12.8797 
184 3.03032e-06 66.3274 -27.972 -22.1644 
188 3.09638e-06 97.827 77.9358 -42.5918 
192 3.16243e-06 103.372 18.8859 -43.2318 
196 3.22849e-06 102.079 -17.2119 19.0403 
200 3.29454e-06 90.2675 -8.58042 29.8041 
204 3.3606e-06 139.116 99.1232 -23.1134 
208 3.42665e-06 77.9658 273.895 4.83374 
212 3.49271e-06 105.537 -31.0639 -3.59584 
216 3.55877e-06 74.5756 -40.6408 -2.02057 
220 3.62482e-06 114.675 -140.238 7.39467 
224 3.69088e-06 75.7261 237.698 16.5796 
228 3.75694e-06 95.7975 -20.7613 21.4271 
232 3.82299e-06 117.759 -208.43 25.6219 
236 3.88905e-06 86.656 -137.176 -9.04597 
240 3.9551e-06 37.5984 -66.8219 63.7045 
244 4.02116e-06 122.472 46.706 25.2737 
248 4.08721e-06 79.5498 5.55466 36.2766 
252 4.15327e-06 123.993 136.413 18.5749 
256 4.21933e-06 126.832 108.361 -60.5177 
260 4.28538e-06 78.6224 43.1841 20.153 
264 4.35144e-06 68.2117 217.9 73.3961 
268 4.4175e-06 14.85 -43.8788 34.0017 
272 4.48355e-06 34.0471 51.4552 7.65332 
276 4.54961e-06 55.0511 29.9469 26.6252 
280 4.61566e-06 74.2571 110.724 81.9212 
284 4.68172e-06 101.192 99.2286 -3.92505 
288 4.74778e-06 105.969 18.2242 51.9033 
292 4.81383e-06 110.699 58.2669 9.31563 
296 4.87989e-06 71.0247 -36.9794 1.69066 
300 4.94594e-06 41.6098 171.108 23.5406 
229 3.77345e-06 66.4653 -186.557 52.8791 
233 3.8395e-06 96.4967 -73.7519 -17.2113 
237 3.90556e-06 111.381 -103.579 24.0027 
241 3.97162e-06 127.63 -66.4186 18.6738 
245 4.03767e-06 65.2722 47.1131 7.19522 
249 4.10373e-06 135.881 92.9834 -33.5446 
253 4.16978e-06 99.603 -94.2971 17.089 
257 4.23584e-06 110.873 -28.0415 -23.2283 
261 4.3019e-06 81.4585 149.511 -12.3099 
265 4.36795e-06 88.9082 214.881 13.7416 
269 4.43401e-06 145.255 115.094 -1.13354 
273 4.50006e-06 108.995 173.57 24.3161 
277 4.56612e-06 111.968 -14.7969 -1.27005 
281 4.63218e-06 101.193 -115.117 -2.94338 
285 4.69823e-06 131.682 160.812 25.8156 
289 4.76429e-06 101.067 140.375 -59.5594 
293 4.83034e-06 100.545 -36.9237 -7.14907 
297 4.8964e-06 80.6597 -95.4507 24.2976 
226 3.72391e-06 155.435 -90.0922 17.8152 
230 3.78996e-06 59.4378 -53.8492 5.37767 
234 3.85602e-06 70.7661 -98.3927 17.0546 
238 3.92208e-06 107.636 3.15897 -14.7664 
242 3.98813e-06 92.7985 -162.819 -5.88056 
246 4.05419e-06 121.557 137.886 30.6754 
250 4.12024e-06 122.671 25.5574 68.9829 
254 4.1863e-06 101.346 231.12 27.1577 
258 4.25236e-06 88.2797 63.1454 17.334 
262 4.31841e-06 112.293 -13.0612 45.451 
266 4.38447e-06 98.9738 -101.317 23.9722 
270 4.45052e-06 66.2545 57.7054 29.332 
274 4.51658e-06 78.072 68.3472 29.8689 
278 4.58263e-06 86.1948 148.678 32.8467 
282 4.64869e-06 48.1397 -25.9609 0.892837 
286 4.71475e-06 97.2087 -32.6015 11.9376 
290 4.7808e-06 104.574 1.31832 58.5274 
294 4.84686e-06 60.4646 -82.3701 72.9924 
298 4.91292e-06 103.03 12.6504 -1.94302 
227 3.74042e-06 88.8476 108.351 10.5209 
231 3.80648e-06 104.591 -147.982 32.5401 
235 3.87253e-06 83.3822 31.9624 15.8037 
239 3.93859e-06 120.253 47.983 8.13825 
243 4.00464e-06 86.3732 -119.724 21.1934 
247 4.0707e-06 52.8354 36.8814 29.7526 
251 4.13676e-06 89.8082 -89.1272 -14.2135 
255 4.20281e-06 70.4262 315.787 9.89266 
259 4.26887e-06 150.362 93.7746 20.6066 
263 4.33492e-06 60.8003 -71.2915 -26.4671 
267 4.40098e-06 105.023 -46.4295 48.5491 
271 4.46704e-06 97.1575 -82.5042 -1.70195 
275 4.53309e-06 62.3944 187.986 11.0222 
279 4.59915e-06 80.4899 119.458 42.9609 
283 4.6652e-06 78.3652 -109.65 61.8872 
287 4.73126e-06 109.719 -122.515 6.83072 
291 4.79732e-06 80.2387 -2.48176 45.8502 
295 4.86337e-06 71.8764 -220.284 5.4983 
299 4.92943e-06 116.151 -29.6619 60.5252 
