ITEM: TIMESTEP
60000
ITEM: NUMBER OF CELLS
300
ITEM: BOX BOUNDS pp ss pp
0 1
0 4.9542e-06
-0.5 0.5
ITEM: CELLS id yc f_2[1] f_2[2] f_2[3] 
1 8.257e-09 80.7386 194.377 -52.5613 
5 7.4313e-08 107.472 16.9723 -2.67988 
9 1.40369e-07 79.0841 65.0523 -10.4134 
13 2.06425e-07 99.2245 117.86 15.421 
17 2.72481e-07 110.666 -111.125 40.6347 
21 3.38537e-07 53.0976 -4.90832 10.306 
25 4.04593e-07 128.902 -17.0011 16.9575 
29 4.70649e-07 140.254 45.5318 -63.8593 
33 5.36705e-07 102.808 -103.74 3.29256 
37 6.02761e-07 108.899 -97.5595 -39.8786 
41 6.68817e-07 77.7474 -39.3493 68.781 
45 7.34873e-07 99.6155 131.882 -15.8764 
49 8.00929e-07 71.1055 -4.28552 40.2453 
53 8.66985e-07 97.6875 185.277 1.74873 
57 9.33041e-07 96.2826 -145.943 -20.1002 
61 9.99097e-07 95.6318 6.51354 13.1821 
65 1.06515e-06 78.4684 -10.6185 -50.1613 
69 1.13121e-06 80.9292 150.341 -31.4301 
73 1.19727e-06 101.525 -101.754 21.6957 
2 2.4771e-08 107.92 96.309 -24.5524 
6 9.0827e-08 106.65 8.36589 -44.0153 
10 1.56883e-07 107.868 7.27513 -27.3842 
14 2.22939e-07 52.1428 -20.2391 -19.4652 
18 2.88995e-07 109.013 168.496 46.7258 
22 3.55051e-07 84.4366 162.317 -0.767837 
26 4.21107e-07 135.187 -143.621 0.692572 
30 4.87163e-07 107.842 72.831 6.66601 
34 5.53219e-07 94.5914 -67.8699 -30.7669 
38 6.19275e-07 115.463 -105.032 -18.0573 
42 6.85331e-07 121.748 -11.3467 -61.5789 
46 7.51387e-07 123.788 141.698 17.2812 
50 8.17443e-07 100.706 -12.2537 -38.4966 
54 8.83499e-07 127.118 96.8446 10.9529 
58 9.49555e-07 109.74 -13.854 -39.9604 
62 1.01561e-06 81.8165 25.1042 -4.42112 
66 1.08167e-06 102.459 33.7144 -29.8511 
70 1.14772e-06 115.328 17.886 -3.15224 
74 1.21378e-06 109.095 41.0176 30.7538 
3 4.1285e-08 126.702 -27.0145 -2.66472 
7 1.07341e-07 78.7811 77.125 -9.84584 
11 1.73397e-07 107.705 -37.3867 -30.9823 
15 2.39453e-07 108.026 31.964 -25.0771 
19 3.05509e-07 131.473 -110.679 -29.7618 
23 3.71565e-07 106.372 80.8632 -36.2791 
27 4.37621e-07 120.27 -16.93 1.59364 
31 5.03677e-07 83.1026 -110.614 -12.3325 
35 5.69733e-07 78.4078 -55.7697 -31.9373 
39 6.35789e-07 127.768 -167.071 -24.0051 
43 7.01845e-07 85.7148 -172.086 -29.3058 
47 7.67901e-07 75.574 199.926 -16.7243 
51 8.33957e-07 90.1521 -33.8224 -30.0209 
55 9.00013e-07 95.7393 51.1888 -41.3875 
59 9.66069e-07 85.7604 11.0803 -10.2317 
63 1.03212e-06 165.87 133.258 -40.1178 
67 1.09818e-06 114.001 -83.3547 14.4584 
71 1.16424e-06 72.5093 -13.7466 21.4682 
75 1.23029e-06 110.399 33.9455 -24.5256 
4 5.7799e-08 124.492 98.1612 -3.05996 
8 1.23855e-07 95.5183 116.508 50.4941 
12 1.89911e-07 115.486 -18.0999 7.74203 
16 2.55967e-07 107.786 -159.076 -19.6471 
20 3.22023e-07 71.2462 58.6412 -35.7247 
24 3.88079e-07 127.08 -26.6993 -34.3542 
28 4.54135e-07 67.7595 70.2739 -14.5396 
32 5.20191e-07 103.031 -38.5696 -7.44022 
36 5.86247e-07 118.971 -20.6229 0.927666 
40 6.52303e-07 71.6657 -223.715 -22.598 
44 7.18359e-07 142.783 139.163 -0.337291 
48 7.84415e-07 147.854 -58.8677 -44.5259 
52 8.50471e-07 128.343 -102.217 -4.93797 
56 9.16527e-07 82.0293 36.228 52.6822 
60 9.82583e-07 92.4088 -173.211 -49.3035 
64 1.04864e-06 98.3041 -6.63529 44.7325 
68 1.11469e-06 113.572 213.911 -23.4365 
72 1.18075e-06 103.133 -58.2988 -5.7015 
78 1.27983e-06 70.09 -86.7933 19.4266 
82 1.34589e-06 100.828 36.5141 15.1052 
86 1.41195e-06 105.227 -120.647 9.11426 
90 1.478e-06 161.183 145.969 22.0687 
94 1.54406e-06 105.033 27.1204 -6.29839 
98 1.61011e-06 85.5352 10.3868 -34.422 
102 1.67617e-06 87.3199 -48.2905 -45.9268 
106 1.74223e-06 122.339 -112.461 33.7189 
110 1.80828e-06 60.8886 130.733 -4.91659 
114 1.87434e-06 142.514 -5.68095 16.2215 
118 1.94039e-06 140.182 8.66506 22.1862 
122 2.00645e-06 128.359 -43.5567 16.355 
126 2.07251e-06 147.543 -105.356 -27.0845 
130 2.13856e-06 71.4665 194.216 25.1769 
134 2.20462e-06 92.938 68.4099 9.74426 
138 2.27068e-06 105.338 -137.471 -1.89243 
142 2.33673e-06 122.572 56.7122 -5.95763 
146 2.40279e-06 93.8044 -43.4062 17.8839 
150 2.46884e-06 119.67 -34.3338 9.20676 
77 1.26332e-06 59.7214 -76.3019 38.0596 
81 1.32938e-06 102.794 -15.8224 44.057 
85 1.39543e-06 122.615 -2.58746 -0.49112 
89 1.46149e-06 66.1073 56.6034 -20.3846 
93 1.52754e-06 108.493 -39.5481 21.4799 
97 1.5936e-06 145.894 -48.1975 15.6014 
101 1.65966e-06 114.095 102.231 -22.1122 
105 1.72571e-06 76.5467 -38.1443 2.70511 
109 1.79177e-06 103.762 -57.2863 21.0051 
113 1.85782e-06 134.777 19.2775 34.3157 
117 1.92388e-06 91.9321 47.5274 22.9216 
121 1.98994e-06 180.686 -51.8273 10.2561 
125 2.05599e-06 105.877 -130.636 41.2419 
129 2.12205e-06 117.657 -125.886 59.6729 
133 2.1881e-06 129.797 36.8272 45.6333 
137 2.25416e-06 53.0217 108.2 -44.2134 
141 2.32022e-06 70.9602 -27.7614 -8.18256 
145 2.38627e-06 136.36 77.4846 23.6544 
149 2.45233e-06 103.603 6.89853 -7.81377 
79 1.29635e-06 73.1971 -76.0627 -15.3434 
83 1.3624e-06 122.694 112.985 -38.3308 
87 1.42846e-06 107.955 -36.6568 33.4659 
91 1.49452e-06 40.7827 -103.333 19.4463 
95 1.56057e-06 92.9024 298.061 25.2672 
99 1.62663e-06 137.431 77.9345 30.3355 
103 1.69269e-06 110.156 43.5746 20.0936 
107 1.75874e-06 128.378 -161.93 17.1972 
111 1.8248e-06 108.186 48.3251 4.14903 
115 1.89085e-06 59.3719 -84.7272 2.58207 
119 1.95691e-06 140.256 173.81 69.2512 
123 2.02297e-06 114.319 88.3422 16.2533 
127 2.08902e-06 109.553 -201.534 -48.9813 
131 2.15508e-06 154.356 95.8332 -32.7281 
135 2.22113e-06 116.361 -72.9907 7.45682 
139 2.28719e-06 117.094 21.3771 14.422 
143 2.35324e-06 98.5229 -67.9179 -42.4556 
147 2.4193e-06 130.112 -16.3043 29.053 
76 1.24681e-06 114.137 32.4599 -53.728 
80 1.31286e-06 127.922 -62.3512 -33.3031 
84 1.37892e-06 107.804 159.361 -41.5469 
88 1.44498e-06 134.213 96.1397 -28.2323 
92 1.51103e-06 104.561 -1.50099 -46.9298 
96 1.57709e-06 91.9981 12.0366 0.645035 
100 1.64314e-06 85.0705 74.4028 5.33954 
104 1.7092e-06 108.551 -21.9675 40.1372 
108 1.77525e-06 88.9323 13.0509 -21.5579 
112 1.84131e-06 107.29 166.044 30.8655 
116 1.90737e-06 152.287 78.6257 -24.4352 
120 1.97342e-06 85.4625 59.5414 -28.1101 
124 2.03948e-06 94.4841 -6.04123 6.61385 
128 2.10553e-06 116.957 3.36921 68.3901 
132 2.17159e-06 81.8223 117.524 2.17885 
136 2.23765e-06 156.85 52.836 -7.39392 
140 2.3037e-06 116.432 2.08263 -2.07807 
144 2.36976e-06 109.07 65.1821 -8.3199 
148 2.43581e-06 96.6787 -152.58 -35.0722 
151 2.48536e-06 85.758 49.0005 2.85281 
155 2.55141e-06 169.779 -14.5883 28.3083 
159 2.61747e-06 114.376 61.6804 3.49865 
163 2.68352e-06 75.4766 -122.795 -11.94 
167 2.74958e-06 171.412 -1.77269 -61.2011 
171 2.81564e-06 161.601 101.063 -0.949392 
175 2.88169e-06 148.324 -63.8375 31.1368 
179 2.94775e-06 69.6133 -61.1409 -31.935 
183 3.01381e-06 94.1724 105.128 -2.80961 
187 3.07986e-06 123.464 68.2969 -30.456 
191 3.14592e-06 126.438 -26.977 -28.49 
195 3.21197e-06 96.9254 12.3641 2.49124 
199 3.27803e-06 37.034 40.2944 -59.5463 
203 3.34408e-06 113.89 36.0029 -7.49754 
207 3.41014e-06 74.0224 -11.085 -20.6299 
211 3.4762e-06 122.445 75.7618 33.5625 
215 3.54225e-06 89.3104 67.1391 -30.3503 
219 3.60831e-06 106.543 -108.37 25.6053 
223 3.67437e-06 119.5 -162.881 -35.1289 
153 2.51839e-06 158.285 -150.666 7.72435 
157 2.58444e-06 173.995 55.4602 -0.356573 
161 2.6505e-06 95.6092 35.3441 0.813987 
165 2.71655e-06 63.9296 70.0843 -27.1585 
169 2.78261e-06 110.206 -66.5199 -0.512923 
173 2.84867e-06 109.439 121.211 -34.2833 
177 2.91472e-06 124.634 135.161 9.58992 
181 2.98078e-06 116.751 -52.4431 -45.9319 
185 3.04683e-06 138.675 -268.479 -12.5297 
189 3.11289e-06 93.313 -76.0429 -8.95726 
193 3.17894e-06 177.779 33.2353 20.2618 
197 3.245e-06 101.199 109.587 5.83271 
201 3.31106e-06 149.014 98.2662 32.6345 
205 3.37711e-06 78.2063 -146.129 14.8365 
209 3.44317e-06 85.3279 -211.168 1.63596 
213 3.50923e-06 105.474 138.239 19.6548 
217 3.57528e-06 72.678 -55.9991 -6.45365 
221 3.64134e-06 88.968 -35.9521 -15.2135 
225 3.70739e-06 143.423 166.97 66.5839 
154 2.5349e-06 83.0994 -75.0174 -4.8658 
158 2.60095e-06 126.886 70.9457 -31.6134 
162 2.66701e-06 156.732 -110.392 16.8329 
166 2.73307e-06 139.339 60.2318 10.5792 
170 2.79912e-06 97.3701 40.1471 -12.5074 
174 2.86518e-06 91.128 57.1298 -19.371 
178 2.93123e-06 112.756 45.2869 13.4301 
182 2.99729e-06 77.7883 -92.3671 28.1116 
186 3.06335e-06 98.3263 -27.5206 30.4617 
190 3.1294e-06 135.808 -29.7811 1.52663 
194 3.19546e-06 80.0743 -28.0193 -3.32036 
198 3.26152e-06 170.018 44.36 23.5718 
202 3.32757e-06 136.804 59.2695 -18.6837 
206 3.39363e-06 89.2502 -136.801 -20.1503 
210 3.45968e-06 43.1056 -73.6175 -25.0588 
214 3.52574e-06 108.591 108.975 -69.2881 
218 3.59179e-06 98.8895 -222.156 39.4946 
222 3.65785e-06 116.326 -9.10189 7.52134 
152 2.50187e-06 114.376 -33.8714 3.96174 
156 2.56793e-06 100.288 51.9585 23.1266 
160 2.63398e-06 118.935 33.835 -5.9653 
164 2.70004e-06 118.24 0.00617059 36.5835 
168 2.7661e-06 106.282 172.105 -4.79307 
172 2.83215e-06 88.8288 -82.2915 24.6284 
176 2.89821e-06 72.8975 -73.7035 -37.7162 
180 2.96426e-06 172.949 62.7975 -12.8689 
184 3.03032e-06 134.671 -203.508 15.3635 
188 3.09638e-06 104.1 66.5639 -13.4328 
192 3.16243e-06 80.7325 -10.6875 -38.4966 
196 3.22849e-06 115.605 69.7732 36.0926 
200 3.29454e-06 98.8058 -296.979 -28.5897 
204 3.3606e-06 139.253 -39.6555 12.2653 
208 3.42665e-06 135.639 -304.631 43.3982 
212 3.49271e-06 110.149 215.051 -73.4281 
216 3.55877e-06 100.62 -60.2093 14.8149 
220 3.62482e-06 71.0757 -86.0708 3.10895 
224 3.69088e-06 86.6494 26.884 -22.4699 
228 3.75694e-06 100.8 44.0478 -2.46505 
232 3.82299e-06 172.169 55.3983 13.164 
236 3.88905e-06 104.085 -181.366 38.0948 
240 3.9551e-06 132.69 -125.138 -30.3394 
244 4.02116e-06 152.603 26.0289 19.2752 
248 4.08721e-06 70.4268 96.9673 -2.15175 
252 4.15327e-06 125.204 -39.1138 28.2083 
256 4.21933e-06 97.1191 -44.9883 -7.38335 
260 4.28538e-06 96.0935 145.399 -17.0664 
264 4.35144e-06 99.4018 120.842 52.7616 
268 4.4175e-06 121.686 44.6188 -36.1212 
272 4.48355e-06 174.275 59.4904 -23.9037 
276 4.54961e-06 114.279 72.9137 30.1027 
280 4.61566e-06 128.74 57.98 12.2685 
284 4.68172e-06 142.96 62.771 -62.3541 
288 4.74778e-06 105.624 -40.8088 60.31 
292 4.81383e-06 155.437 -93.5805 -22.4018 
296 4.87989e-06 148.209 -83.5852 13.179 
300 4.94594e-06 99.5849 -85.7469 24.0752 
229 3.77345e-06 117.869 68.6037 52.4017 
233 3.8395e-06 138.63 155.653 2.97328 
237 3.90556e-06 120.071 -63.5238 19.0425 
241 3.97162e-06 99.1292 -28.2511 1.26392 
245 4.03767e-06 122.573 -162.996 -27.8165 
249 4.10373e-06 170.997 -72.3968 3.9188 
253 4.16978e-06 164.011 -18.0358 -32.6438 
257 4.23584e-06 139.01 -3.9692 -3.87685 
261 4.3019e-06 108.851 31.6309 4.04905 
265 4.36795e-06 122.807 30.8384 28.6661 
269 4.43401e-06 123.936 49.1211 38.0741 
273 4.50006e-06 122.275 66.8373 51.9725 
277 4.56612e-06 122.188 -33.3075 28.9673 
281 4.63218e-06 151.787 -104.574 2.7488 
285 4.69823e-06 98.1502 -32.9594 45.0006 
289 4.76429e-06 94.2761 78.8322 11.1584 
293 4.83034e-06 150.517 -1.00702 -37.9504 
297 4.8964e-06 150.121 65.2447 10.3748 
226 3.72391e-06 94.628 30.8687 -52.2729 
230 3.78996e-06 87.3965 9.82428 14.0656 
234 3.85602e-06 76.3824 68.4502 -27.1168 
238 3.92208e-06 62.7912 -15.804 -25.8012 
242 3.98813e-06 144.835 -46.8967 16.0002 
246 4.05419e-06 120.487 -35.4125 -45.1857 
250 4.12024e-06 97.2633 21.5061 -45.5191 
254 4.1863e-06 108.604 -116.563 38.6788 
258 4.25236e-06 159.8 175.204 -15.2284 
262 4.31841e-06 108.269 15.8762 30.5511 
266 4.38447e-06 133.157 -49.2807 16.6684 
270 4.45052e-06 65.59 216.252 -1.34138 
274 4.51658e-06 110.373 110.714 -42.14 
278 4.58263e-06 102.706 -221.941 -0.553248 
282 4.64869e-06 114.612 -72.8298 22.1274 
286 4.71475e-06 94.1293 -67.7649 88.8655 
290 4.7808e-06 127.414 -3.3978 -16.833 
294 4.84686e-06 72.4351 31.7757 0.490209 
298 4.91292e-06 125.582 257.132 0.747895 
227 3.74042e-06 132.998 62.7216 -17.6817 
231 3.80648e-06 84.2749 -32.4868 51.7225 
235 3.87253e-06 140.154 103.561 32.149 
239 3.93859e-06 93.9714 -115.925 -27.5761 
243 4.00464e-06 27.5791 -29.5468 -15.2572 
247 4.0707e-06 98.4877 248.304 -4.0853 
251 4.13676e-06 110.99 -65.1296 -10.0861 
255 4.20281e-06 89.7667 54.6816 12.7454 
259 4.26887e-06 134.42 3.07179 -0.912519 
263 4.33492e-06 129.09 40.0666 -1.27086 
267 4.40098e-06 109.111 74.3404 36.647 
271 4.46704e-06 91.2206 90.8209 19.505 
275 4.53309e-06 157.59 45.706 27.6274 
279 4.59915e-06 84.1385 -97.2535 17.4965 
283 4.6652e-06 118.404 -210.223 30.1265 
287 4.73126e-06 108.812 44.9033 -9.55377 
291 4.79732e-06 124.342 -15.3276 44.8475 
295 4.86337e-06 103.522 -4.39062 37.5982 
299 4.92943e-06 108.531 49.365 46.3625 
