ITEM: TIMESTEP
90000
ITEM: NUMBER OF CELLS
100
ITEM: BOX BOUNDS pp ss pp
0 1
0 4.9542e-06
-0.5 0.5
ITEM: CELLS id yc f_4[1] f_4[2] f_4[3] 
1 2.4771e-08 13070.4 -8844.23 2210.71 
5 2.22939e-07 13689.8 -17470.1 -13896.2 
9 4.21107e-07 21712.5 -6459.25 -13337 
13 6.19275e-07 -34973.8 -5956.99 12394.8 
17 8.17443e-07 18971.2 13060.2 -13958.2 
21 1.01561e-06 791.794 -25548.3 -20895.1 
25 1.21378e-06 18467 -5789.31 -13517.2 
2 7.4313e-08 4064.43 34843.8 -14145.3 
6 2.72481e-07 -8139.23 2714.52 -20745 
10 4.70649e-07 -18603.1 -15016.5 -42704.4 
14 6.68817e-07 21644.8 -8966.88 3192.84 
18 8.66985e-07 4630.29 15008.5 11575.8 
22 1.06515e-06 -18841.4 -36771.8 -9362.16 
3 1.23855e-07 -17620.8 27398.5 8747.63 
7 3.22023e-07 15487.1 -33842.9 -10011 
11 5.20191e-07 12646.7 -9048.52 -20209.6 
15 7.18359e-07 22975.3 -25930.8 -21181.3 
19 9.16527e-07 -16069.2 7475.97 -6103.67 
23 1.11469e-06 2165.15 26449.9 -6286.39 
4 1.73397e-07 9510.51 -13674.8 -29998 
8 3.71565e-07 17223 -6229.53 25597.8 
12 5.69733e-07 2349.61 -6707.32 35278.1 
16 7.67901e-07 10244.2 -9592.94 22784.2 
20 9.66069e-07 -2257.76 -2907.67 -12742.8 
24 1.16424e-06 -12162.6 -9386.26 18477.3 
26 1.26332e-06 6830.6 19121.9 4836.22 
30 1.46149e-06 -1355.17 16118.4 36005.8 
34 1.65966e-06 -25449.2 35364.8 -41236 
38 1.85782e-06 -13857.5 -9248.63 -2789.01 
42 2.05599e-06 12931.7 1343.63 -29508.7 
46 2.25416e-06 -8859.27 18865.9 6459.64 
50 2.45233e-06 -2990.82 -43689.2 -582.38 
29 1.41195e-06 -1832.75 -12742 13747.7 
33 1.61012e-06 9815.13 -2239.48 -21278.5 
37 1.80828e-06 -3354.72 -6137.7 -7266.5 
41 2.00645e-06 -51.1214 5818.78 2069.02 
45 2.20462e-06 -603.006 -19244.7 59.6753 
49 2.40279e-06 -2826.57 515.743 -5619.67 
27 1.31286e-06 -10214 6523.38 -9852.1 
31 1.51103e-06 9935.6 647.069 13987 
35 1.7092e-06 1947.62 -4838.1 -21401.5 
39 1.90737e-06 18367.1 2279.78 10508.6 
43 2.10553e-06 -1583.84 -15734.1 15599.2 
47 2.3037e-06 20332.5 27074.3 1172.51 
28 1.3624e-06 26444.2 -4806.1 19156.2 
32 1.56057e-06 -29734.6 1271.33 -24238.6 
36 1.75874e-06 -34987.8 15747 14024.2 
40 1.95691e-06 -10499.7 15013.2 2866.83 
44 2.15508e-06 -6817.29 14596.7 -4921.02 
48 2.35324e-06 -32431.9 7902.33 -15585 
51 2.50187e-06 -7565.84 -28662.9 -10279.4 
55 2.70004e-06 -23787.5 -7531.14 -2604.59 
59 2.89821e-06 3072.2 -16055.7 -24230.3 
63 3.09637e-06 12832.9 -11675.5 -177.709 
67 3.29454e-06 -19288.3 9165.65 16007.9 
71 3.49271e-06 -6409.32 17928.4 -6036.1 
75 3.69088e-06 41119.5 -5352.69 -2201.02 
53 2.60096e-06 -3924.89 24847.9 -6495.97 
57 2.79912e-06 -16232.1 -7354.13 3766.52 
61 2.99729e-06 16340.4 -44500.7 -17409.7 
65 3.19546e-06 -30190.4 -1247.58 -13642.2 
69 3.39363e-06 11905.1 2122.14 18256.8 
73 3.5918e-06 47051.8 35074.5 -2550.84 
54 2.6505e-06 -8566.75 -16129.3 -8264.06 
58 2.84867e-06 -7435.62 -3584.44 -26249.6 
62 3.04683e-06 -4622.64 -11099.9 17433.8 
66 3.245e-06 8178.72 13336.8 -20451.8 
70 3.44317e-06 16670.5 1337.65 31852 
74 3.64134e-06 -708.797 -30737 -30780.5 
52 2.55141e-06 -21149.9 12597.7 27376.8 
56 2.74958e-06 15638.8 -5521.13 -4582.9 
60 2.94775e-06 10419.9 8755.4 12656.1 
64 3.14592e-06 3335.29 -5072.8 22452 
68 3.34408e-06 18831.8 -10031.8 -7397.93 
72 3.54225e-06 -10055.4 -20837.6 5118.92 
76 3.74042e-06 6030.49 -3968.96 14504.2 
80 3.93859e-06 15094.9 -13565.8 -2589.23 
84 4.13676e-06 23067.2 -7015.44 4572.96 
88 4.33492e-06 12654.2 -17779.4 21.0911 
92 4.53309e-06 -22761.9 4592.16 -14766.7 
96 4.73126e-06 -34831.2 -7184.59 -1736.55 
100 4.92943e-06 -10265.6 -9771.99 12175.2 
77 3.78996e-06 16888.4 -18290.9 13356.7 
81 3.98813e-06 6932.58 -9608.57 -24156.3 
85 4.1863e-06 -19656.7 6244.34 3062.82 
89 4.38447e-06 -21468.4 17702.1 20284.6 
93 4.58263e-06 -8504.49 -5506.06 12257.5 
97 4.7808e-06 -10919.9 -11791.4 -12048.6 
78 3.8395e-06 -32.7084 -11719.2 -21173.7 
82 4.03767e-06 -18005.8 -17565.5 6789.69 
86 4.23584e-06 -6716.34 27782.6 6362.39 
90 4.43401e-06 -8168.62 -7505.63 5016.89 
94 4.63218e-06 22543.6 -16980.4 -2841.15 
98 4.83034e-06 -29422.6 -6599.53 -24338.8 
79 3.88905e-06 3813.06 -24060.7 -6994.54 
83 4.08721e-06 -11447 9399.57 -19798.5 
87 4.28538e-06 -194.208 -17164.9 31783.8 
91 4.48355e-06 -12508.7 -48.5772 -5590.51 
95 4.68172e-06 -8110.45 4939.62 22247.5 
99 4.87989e-06 -15624.1 13428.9 18365.1 
