ITEM: TIMESTEP
40000
ITEM: NUMBER OF CELLS
100
ITEM: BOX BOUNDS pp ss pp
0 1
0 4.9542e-06
-0.5 0.5
ITEM: CELLS id yc f_4[1] f_4[2] f_4[3] 
1 2.4771e-08 23468.8 -1073.69 2119.57 
5 2.22939e-07 22745 26111.9 8094.98 
9 4.21107e-07 2012.86 -37960.4 10843.9 
13 6.19275e-07 20991.3 -24474.4 -3774.9 
17 8.17443e-07 -5158.16 23760.7 12155.1 
21 1.01561e-06 6763.1 -17982.6 30770.1 
25 1.21378e-06 -10118.3 -4841 -29445.1 
2 7.4313e-08 12080.7 -16747.7 7597.21 
6 2.72481e-07 -6669.83 5818.63 -820.025 
10 4.70649e-07 2600.56 -9430.69 12004.1 
14 6.68817e-07 -11754.9 6015.66 417.379 
18 8.66985e-07 18117.1 -536.148 -559.576 
22 1.06515e-06 -15754.5 4260.33 -911.625 
3 1.23855e-07 57719 1908.88 -19823 
7 3.22023e-07 -9817.48 7862.53 -15406 
11 5.20191e-07 11768.1 3001.07 34134.9 
15 7.18359e-07 4166.19 9011.44 18102.1 
19 9.16527e-07 -13199.6 1802.13 10248.5 
23 1.11469e-06 -5354 3088.08 2654.34 
4 1.73397e-07 -4806.13 -20045.3 32659.5 
8 3.71565e-07 15623.3 15811.7 -8169.16 
12 5.69733e-07 -12584.4 2194.77 18513 
16 7.67901e-07 4957.9 4569.7 -32571.8 
20 9.66069e-07 -2352.95 -3505.46 1460.59 
24 1.16424e-06 46343.8 -513.013 17113.5 
26 1.26332e-06 20701.5 -1943.37 -2697.86 
30 1.46149e-06 -17416.5 15078.5 -6769.74 
34 1.65966e-06 -298.157 -3302.44 -25771.3 
38 1.85782e-06 15890.7 15056.3 8701.97 
42 2.05599e-06 -12928.3 12446.7 19688.8 
46 2.25416e-06 17075.4 13091.7 -5675.8 
50 2.45233e-06 -27632.3 -9831.29 -18929.8 
29 1.41195e-06 -508.586 -2827.14 -29554.9 
33 1.61012e-06 -13463.1 -3601.63 7643.75 
37 1.80828e-06 8596.07 -12828.5 -2001.45 
41 2.00645e-06 -19198.4 -9821.1 22080.5 
45 2.20462e-06 -13402.8 -5303.37 -8537.09 
49 2.40279e-06 -13408 5094.71 5313.27 
27 1.31286e-06 4170.39 17858.9 -11516.3 
31 1.51103e-06 8696.3 1870.85 4255.56 
35 1.7092e-06 15247.9 27854.7 -29320.9 
39 1.90737e-06 -24073.8 -15256.5 29239 
43 2.10553e-06 10179 23057.5 1296.35 
47 2.3037e-06 1700.08 599.273 -6436.67 
28 1.3624e-06 -10526.7 -4741.43 272.892 
32 1.56057e-06 -21654.7 -37741.9 -280.111 
36 1.75874e-06 -5286.87 21404.5 -18205.8 
40 1.95691e-06 -11822 19669.8 4359.5 
44 2.15508e-06 19559.1 12265.3 -10956.4 
48 2.35324e-06 5280.8 -2106.24 -25639.7 
51 2.50187e-06 29654.4 -15707.5 3997 
55 2.70004e-06 -12336.4 19653.1 5202.79 
59 2.89821e-06 -5672.99 1040.36 -22362.4 
63 3.09637e-06 -4120.12 -13097.7 -33081.4 
67 3.29454e-06 -949.098 18048.6 -5905.73 
71 3.49271e-06 15562.6 -2504.16 -3202.5 
75 3.69088e-06 411.537 -29078.1 13545 
53 2.60096e-06 7611.31 -23313.5 22818.3 
57 2.79912e-06 -6070.4 -18541.5 -21154.5 
61 2.99729e-06 -10271.9 -18625.8 -8527.37 
65 3.19546e-06 -18805.9 -16073 13516.9 
69 3.39363e-06 18215.4 2608.85 -15570.7 
73 3.5918e-06 24561 11059 -12120.6 
54 2.6505e-06 -17518.3 6064.98 -7528.99 
58 2.84867e-06 -1640.21 7347.22 -2498.06 
62 3.04683e-06 9431.96 22956.7 14787.9 
66 3.245e-06 -6621.07 33631.4 17730.3 
70 3.44317e-06 4239.36 1730.36 -6004.75 
74 3.64134e-06 7094.99 -34338.8 -19267.4 
52 2.55141e-06 -37571.9 8331.27 -948.855 
56 2.74958e-06 -8552.93 2352.1 8625.53 
60 2.94775e-06 -20887.7 -31298.4 23239.3 
64 3.14592e-06 17438.8 -4840.41 -8645.68 
68 3.34408e-06 19356.1 -35333.7 -17241.7 
72 3.54225e-06 -9080.58 -3457.57 17339.7 
76 3.74042e-06 -4148.06 -16892.4 -3905.28 
80 3.93859e-06 12975.8 13431.5 12713.6 
84 4.13676e-06 15958.4 -14602.6 -10788.3 
88 4.33492e-06 5674.87 -14304.9 -7161.38 
92 4.53309e-06 -12893.9 -11444 9034.49 
96 4.73126e-06 -3202.48 148.593 1104.91 
100 4.92943e-06 -29144 -7145.48 -52052.5 
77 3.78996e-06 -28758.1 -18714.7 5787.15 
81 3.98813e-06 -10421.4 15391.3 12083.6 
85 4.1863e-06 -15509.7 -13511.6 -8099.21 
89 4.38447e-06 16273.9 14692.9 -12474 
93 4.58263e-06 -7066.25 1932.48 -15068.8 
97 4.7808e-06 11069.8 21595.1 16895.9 
78 3.8395e-06 -5308.57 -7979.02 17702 
82 4.03767e-06 -3268.46 -6725.55 -3275.17 
86 4.23584e-06 -9444.85 -14280.3 3019.86 
90 4.43401e-06 -2398.79 -9326.42 903.457 
94 4.63218e-06 41122.9 -1976.35 -827.125 
98 4.83034e-06 -42373.5 37592.2 14787.3 
79 3.88905e-06 19432.5 19965 9171.01 
83 4.08721e-06 6960.99 -13699.1 -1451.2 
87 4.28538e-06 21581.6 -6527.06 23040.6 
91 4.48355e-06 -24327.5 -24667.1 -13026.6 
95 4.68172e-06 -9582.34 -3474.12 -10653.9 
99 4.87989e-06 -1391.53 15089 6790.47 
