ITEM: TIMESTEP
120000
ITEM: NUMBER OF CELLS
100
ITEM: BOX BOUNDS pp ss pp
0 1
0 4.9542e-06
-0.5 0.5
ITEM: CELLS id yc f_4[1] f_4[2] f_4[3] 
1 2.4771e-08 10566.5 5265.61 7052.97 
5 2.22939e-07 11165.7 -2598.23 -16294.8 
9 4.21107e-07 -14485.3 -12457.3 -4327.59 
13 6.19275e-07 14906.7 39065.4 -5012.94 
17 8.17443e-07 1679.64 10301.1 4874.88 
21 1.01561e-06 3027.85 -10574.7 -33036.3 
25 1.21378e-06 1134.68 -4883.32 19632.5 
2 7.4313e-08 7732.87 1195.44 15337.8 
6 2.72481e-07 10202.2 26468.3 20617.8 
10 4.70649e-07 -15974.6 -24248.7 -30711.5 
14 6.68817e-07 -12518.1 2040.37 -1562.78 
18 8.66985e-07 -1512.14 -2812.7 13559.1 
22 1.06515e-06 1529.44 3022.52 6212.56 
3 1.23855e-07 29917.9 -29307.6 8503.88 
7 3.22023e-07 -6395.39 -11247.2 1486.97 
11 5.20191e-07 11920.1 -22195.4 2973.63 
15 7.18359e-07 23980.3 17486.1 10662.6 
19 9.16527e-07 -6938.18 19022.7 -7451.33 
23 1.11469e-06 10948.3 5165.42 17127.1 
4 1.73397e-07 3823.82 14236.8 -20893.6 
8 3.71565e-07 12672.6 -10934.4 -4146.64 
12 5.69733e-07 -18246.3 -20296.4 127.543 
16 7.67901e-07 28471.3 11812.2 9275.8 
20 9.66069e-07 -8669.14 23533.2 -300.443 
24 1.16424e-06 -38827.1 -16372.2 -34346.8 
26 1.26332e-06 -18555.9 3570.86 -5907.23 
30 1.46149e-06 2771.41 10872.6 9710.11 
34 1.65966e-06 -9173.27 40332.3 7475.14 
38 1.85782e-06 60933.3 -5858.84 -6387.6 
42 2.05599e-06 28366.7 13958.5 -6593.18 
46 2.25416e-06 -1928.69 -975.507 -24480.4 
50 2.45233e-06 -29513.4 -7251.38 -7090.3 
29 1.41195e-06 12675 -14268.4 -4646.79 
33 1.61012e-06 3871.18 9284.05 6483.65 
37 1.80828e-06 2826.48 29724.8 10615.1 
41 2.00645e-06 7953.75 10302.1 -7645.7 
45 2.20462e-06 4003.83 24379.9 29518 
49 2.40279e-06 9475.17 5370.89 6422.68 
27 1.31286e-06 -14506.8 -13257.1 -3710.24 
31 1.51103e-06 922.146 47517.5 -1489.89 
35 1.7092e-06 9495.79 -3972.51 12158.5 
39 1.90737e-06 -24049.1 16165.1 -18232 
43 2.10553e-06 -3415.95 -9403.87 -4267.01 
47 2.3037e-06 12561.4 7900.75 -2481.96 
28 1.3624e-06 -19706.5 14517.2 26420.9 
32 1.56057e-06 -1517.3 16703.6 11550.2 
36 1.75874e-06 -14286.7 -3683.4 8181.88 
40 1.95691e-06 -15264.4 12165.9 -15046 
44 2.15508e-06 -2194.67 14880.7 -5191.08 
48 2.35324e-06 -20951.6 -1156.97 15056.8 
51 2.50187e-06 -1439.94 -27780.7 3745.49 
55 2.70004e-06 -17624.4 12291.1 650.031 
59 2.89821e-06 16633 -4621.3 -7470.19 
63 3.09637e-06 19343.2 12118.7 1145.33 
67 3.29454e-06 -8922.32 -1144.33 -21732.4 
71 3.49271e-06 -8048.91 -4151.4 53648.3 
75 3.69088e-06 -33764.6 2323.17 7926.97 
53 2.60096e-06 -2452.66 25386.3 -30021.5 
57 2.79912e-06 25856.4 -5214.62 -13650.3 
61 2.99729e-06 20042.6 -15574.7 -2134.5 
65 3.19546e-06 -19442 -15519.4 6326.7 
69 3.39363e-06 11929 -21461.5 8160.38 
73 3.5918e-06 -1158.48 6862.87 -8604.45 
54 2.6505e-06 -22865 25975.7 -5416.13 
58 2.84867e-06 -6948.48 -26475.3 52379 
62 3.04683e-06 -5311.13 -10420.3 7213.72 
66 3.245e-06 281.061 6833.24 27029.3 
70 3.44317e-06 10131.4 -25819.6 -11435.1 
74 3.64134e-06 16010.1 -6131 -12835.8 
52 2.55141e-06 -4215.05 -3181.63 -40750 
56 2.74958e-06 25024 9291.42 -27991.5 
60 2.94775e-06 14824.9 -18871.1 6784.92 
64 3.14592e-06 -25033.7 34069.4 -4780.34 
68 3.34408e-06 -9675.7 -37267.3 -3489.76 
72 3.54225e-06 5755.83 1115.1 2717.64 
76 3.74042e-06 -6811.8 -5185.85 3379.07 
80 3.93859e-06 616.577 -7662.58 -20540.6 
84 4.13676e-06 28467.6 -12209.6 -5765.08 
88 4.33492e-06 3788.32 -23248.9 22613.8 
92 4.53309e-06 -19963.4 6321.58 -20581.6 
96 4.73126e-06 -15213.7 -27350.4 19199.8 
100 4.92943e-06 -14780.5 -10590.4 -12950.1 
77 3.78996e-06 21241.6 5040.68 20197.5 
81 3.98813e-06 -3180.45 14249.2 -31215 
85 4.1863e-06 -24908 3521.84 -7882.09 
89 4.38447e-06 20788.8 -667.626 26434.9 
93 4.58263e-06 -4180.75 -13831.7 17856 
97 4.7808e-06 10141.4 1764.17 -11070 
78 3.8395e-06 17627.9 -5883.6 7746.75 
82 4.03767e-06 3527.28 -15035.1 -17701.2 
86 4.23584e-06 30282.5 5386.62 2440.67 
90 4.43401e-06 13281.5 7296.1 -15268.6 
94 4.63218e-06 -23267.5 -6139.39 6061.35 
98 4.83034e-06 -16461.6 9063.22 29425.4 
79 3.88905e-06 6232.37 -4295.13 -7900.23 
83 4.08721e-06 -35292.8 12142.9 6329.11 
87 4.28538e-06 -5359.53 2643.18 -6987.24 
91 4.48355e-06 -10152.1 -27886.1 -1530.92 
95 4.68172e-06 -27204.6 825.001 -4874.75 
99 4.87989e-06 -27430.4 -12448.2 -15149.3 
