ITEM: TIMESTEP
80000
ITEM: NUMBER OF CELLS
100
ITEM: BOX BOUNDS pp ss pp
0 1
0 4.9542e-06
-0.5 0.5
ITEM: CELLS id yc f_4[1] f_4[2] f_4[3] 
1 2.4771e-08 -6401.84 10957.6 -20259.4 
5 2.22939e-07 15895.3 -19079.9 -12221.6 
9 4.21107e-07 33989.3 25287.6 14572.8 
13 6.19275e-07 -622.96 2930.07 4768.77 
17 8.17443e-07 1675.31 -7736.61 -3600.93 
21 1.01561e-06 28881.3 -12002.1 13093.2 
25 1.21378e-06 -13886.9 1602.48 -7627.34 
2 7.4313e-08 23366 -4095.08 2578.3 
6 2.72481e-07 -16625.9 17007.3 8402.18 
10 4.70649e-07 1662.33 -4072.93 -6375.54 
14 6.68817e-07 12541.7 20297.4 -1151.79 
18 8.66985e-07 -39580.2 7388.29 -11571.6 
22 1.06515e-06 -2309.68 -33272.1 -11265.3 
3 1.23855e-07 16344.4 -3614.61 7027.74 
7 3.22023e-07 26125.1 26123.2 -6999.57 
11 5.20191e-07 5826.46 5924.05 -8035.48 
15 7.18359e-07 -4723.54 -28798.7 635.511 
19 9.16527e-07 -16195.7 9946.16 -5389.35 
23 1.11469e-06 -18069.6 -14416 -3195.98 
4 1.73397e-07 7740.49 -25165.9 -7566.06 
8 3.71565e-07 13177.3 -12301.1 1245.84 
12 5.69733e-07 -4325.94 -15481.5 552.686 
16 7.67901e-07 -3916.93 -2381.64 -19274.8 
20 9.66069e-07 11164.6 23759.4 10283.5 
24 1.16424e-06 -18042.3 361.507 43727.4 
26 1.26332e-06 17287.6 26347.6 -11290.2 
30 1.46149e-06 22346.6 -27609.5 -23747.2 
34 1.65966e-06 14584.3 41920.6 -2717.42 
38 1.85782e-06 1003.85 -18779.6 -21487.3 
42 2.05599e-06 -15862.2 -30783.1 31787 
46 2.25416e-06 1723.07 3432.32 15373.7 
50 2.45233e-06 -7088.32 8803 22382 
29 1.41195e-06 -12542.2 -36070.4 -22657.2 
33 1.61012e-06 -18650.6 5793.65 1513.65 
37 1.80828e-06 -7524.62 -12563.4 -18820.3 
41 2.00645e-06 -9546.62 21439.2 -13629.5 
45 2.20462e-06 -17679.2 -21314.8 4632.94 
49 2.40279e-06 15534.8 -9134.84 -18544.7 
27 1.31286e-06 6169.84 -9374.51 -13554.4 
31 1.51103e-06 10273.5 13717.4 14402 
35 1.7092e-06 -3885.07 20393.6 -1425.98 
39 1.90737e-06 21299.2 9354.81 4514.05 
43 2.10553e-06 -19330 26691.8 -21287.2 
47 2.3037e-06 -15645.1 -10094.8 -9218.49 
28 1.3624e-06 6060.21 -5365.85 15716.5 
32 1.56057e-06 -26882.7 6388.16 26827.5 
36 1.75874e-06 37931.7 17280.3 -10741 
40 1.95691e-06 6359.86 -4690.77 19680.7 
44 2.15508e-06 -9449.47 -13295.9 -28970.2 
48 2.35324e-06 -12845 -6252.9 25440.4 
51 2.50187e-06 -33286.4 -11072.4 17048.1 
55 2.70004e-06 6979.98 -2024.56 17067.7 
59 2.89821e-06 -16051.9 -20821.3 -3553.24 
63 3.09637e-06 27706.6 5097.15 7143.77 
67 3.29454e-06 -10585.4 24474.6 -11145.7 
71 3.49271e-06 -12717.9 21781.7 1691.08 
75 3.69088e-06 14558.6 4802.14 -9214.73 
53 2.60096e-06 25532.6 -4178.53 -11775.1 
57 2.79912e-06 21353.2 -7129.17 -1370.32 
61 2.99729e-06 -22328 -12114.8 3061.77 
65 3.19546e-06 19850.7 -11230.3 -21726.7 
69 3.39363e-06 -8947.41 -2122.6 -434.467 
73 3.5918e-06 5285.03 2295.25 4385.06 
54 2.6505e-06 -9214.01 -14424.9 15567.9 
58 2.84867e-06 9949.47 -7146.97 3370.2 
62 3.04683e-06 27279.2 30826 -1933.77 
66 3.245e-06 -16543.7 9331.9 -21484.2 
70 3.44317e-06 25002 6729.92 2305.5 
74 3.64134e-06 45028.7 -13144.4 -2054.57 
52 2.55141e-06 18766.5 -4614.8 -11343.4 
56 2.74958e-06 17140 -2417.83 570.896 
60 2.94775e-06 7531.76 4489.37 654.053 
64 3.14592e-06 -8500.25 29011.1 -23618.9 
68 3.34408e-06 -3679.6 15027.2 -11140.9 
72 3.54225e-06 4487.06 -20900.7 513.443 
76 3.74042e-06 -2772.93 15084.9 3452.26 
80 3.93859e-06 -4104.29 6369.51 -2637.64 
84 4.13676e-06 -11884.7 -5036.27 -12580.2 
88 4.33492e-06 2509.56 14430.3 -1816.59 
92 4.53309e-06 8578.7 9524.57 4596.46 
96 4.73126e-06 -4613.03 -15501.2 -11446 
100 4.92943e-06 -7209.92 477.444 -10246.8 
77 3.78996e-06 -18047.1 -25332.1 -16200.5 
81 3.98813e-06 -31830.5 -6674.83 8756.65 
85 4.1863e-06 -13821.5 -11383 32458.8 
89 4.38447e-06 -17307.4 -1366.59 7455.71 
93 4.58263e-06 -1458.17 -16123.3 25300.6 
97 4.7808e-06 -8415.49 -36991.2 -3866.3 
78 3.8395e-06 -7212.67 -4165 13065.3 
82 4.03767e-06 15898.9 -4301.1 2207.5 
86 4.23584e-06 2801.92 -12209.3 -41498.3 
90 4.43401e-06 -9483.06 13624.7 7263.28 
94 4.63218e-06 -31781.3 22248.6 -4814.42 
98 4.83034e-06 6610.98 16138.2 -24488.8 
79 3.88905e-06 27788.3 -13486.5 -5263.59 
83 4.08721e-06 14179.1 -19014.8 10578.3 
87 4.28538e-06 690.832 23393.1 11027.3 
91 4.48355e-06 -22033.2 -12118.1 -7820.06 
95 4.68172e-06 -24883.7 -19592.9 13342.8 
99 4.87989e-06 -3201.48 -2960.92 25205.7 
