ITEM: TIMESTEP
190000
ITEM: NUMBER OF CELLS
100
ITEM: BOX BOUNDS pp ss pp
0 1
0 4.9542e-06
-0.5 0.5
ITEM: CELLS id yc f_4[1] f_4[2] f_4[3] 
1 2.4771e-08 24980 -22281.9 -17862.4 
5 2.22939e-07 -5747.49 6871.27 13449.6 
9 4.21107e-07 -9289.66 -8496.91 12926.8 
13 6.19275e-07 22302 8104.6 17629.8 
17 8.17443e-07 10918 13137.6 -6910.31 
21 1.01561e-06 -9760.06 11403.4 1535.91 
25 1.21378e-06 -1811.64 16038.5 2436.52 
2 7.4313e-08 13233.4 5848.94 -28247.8 
6 2.72481e-07 1968 5708.24 5106.77 
10 4.70649e-07 -12566.7 -27076.4 -4890.71 
14 6.68817e-07 14178.8 2237.91 19971.8 
18 8.66985e-07 -6819.47 -37132.1 5855.27 
22 1.06515e-06 8479.83 26862.8 9876.43 
3 1.23855e-07 16785.1 11311.3 -12253.5 
7 3.22023e-07 14658.1 -18789.8 -8382.64 
11 5.20191e-07 952.233 -4343.43 -8947.06 
15 7.18359e-07 22110.2 1554.56 12950.1 
19 9.16527e-07 -5569.66 33837.5 26084.6 
23 1.11469e-06 -29004 2241.75 15895 
4 1.73397e-07 1687.72 -25666 15296.4 
8 3.71565e-07 7298.57 40154 13677.6 
12 5.69733e-07 -33606 -15168.7 8316.44 
16 7.67901e-07 -2603.05 32774 -13351.3 
20 9.66069e-07 -7289.35 10051.5 14498.5 
24 1.16424e-06 -22391.1 5587.42 16978.9 
26 1.26332e-06 -16251.5 2174.34 11630.8 
30 1.46149e-06 -4534.84 19745.3 -9383.21 
34 1.65966e-06 -30290.5 22943.1 -6342.99 
38 1.85782e-06 -7732.67 14051 3412.33 
42 2.05599e-06 -1715.44 5706.1 13746.1 
46 2.25416e-06 42068.1 18686.6 14313.6 
50 2.45233e-06 24463.7 20075.1 -28682.9 
29 1.41195e-06 1259.87 -13989.4 -10031.1 
33 1.61012e-06 -30.8966 9460.48 -30931.4 
37 1.80828e-06 -3235.06 -24100.9 -1377.59 
41 2.00645e-06 -2070.77 18319.6 -19438.1 
45 2.20462e-06 9669.96 -9657.36 15844.8 
49 2.40279e-06 15241.9 8542.16 1882.56 
27 1.31286e-06 -5545.22 26348.9 -14265.3 
31 1.51103e-06 -6000.98 -4538.48 4409.21 
35 1.7092e-06 42580.2 26495.7 6218.51 
39 1.90737e-06 12125.3 -27388.7 -296.862 
43 2.10553e-06 13037.5 39577.4 9354.73 
47 2.3037e-06 33557.1 280.826 -29018.1 
28 1.3624e-06 -161.545 10052.5 -19564.4 
32 1.56057e-06 10892.6 22634.3 -23069.6 
36 1.75874e-06 -23395.8 -21537.3 12595.6 
40 1.95691e-06 -7785.15 -1405.26 -3540.62 
44 2.15508e-06 5323.9 -16737.7 12093.6 
48 2.35324e-06 -5698.52 -22555.8 -9285.96 
51 2.50187e-06 15484.4 20004.9 7591.16 
55 2.70004e-06 4454.38 11059.5 1888.49 
59 2.89821e-06 28655.6 5995.03 10208.4 
63 3.09637e-06 4620.54 -1877.36 -14041.9 
67 3.29454e-06 -3560.69 -23679.6 7140.05 
71 3.49271e-06 13908 -5730.75 7478.03 
75 3.69088e-06 -21158.2 -963.892 -4392.01 
53 2.60096e-06 12872.6 -5614.21 6237.77 
57 2.79912e-06 -8704.68 33306.3 -37464.7 
61 2.99729e-06 -3525.63 18332.6 28370 
65 3.19546e-06 -21533.6 11866.3 -14331.8 
69 3.39363e-06 -2704.93 25771 13257.3 
73 3.5918e-06 -993.686 -766.074 5512.67 
54 2.6505e-06 -12021.2 11418.3 -2849.5 
58 2.84867e-06 -16059.6 -92.7711 -13459.4 
62 3.04683e-06 -11245.3 2489.66 -7781.92 
66 3.245e-06 -17939.5 18194.6 2588.17 
70 3.44317e-06 18677.1 -7860.32 13605.9 
74 3.64134e-06 -11532.4 -8193.85 -6834.85 
52 2.55141e-06 -7433.96 -5327.54 -6165.14 
56 2.74958e-06 10296.6 5087.73 -19083.9 
60 2.94775e-06 4175.81 905.143 10837.6 
64 3.14592e-06 4258.65 -29700.7 -8172.32 
68 3.34408e-06 -1566.9 10986.6 -19350.3 
72 3.54225e-06 16413.6 11259.9 -4318.14 
76 3.74042e-06 -11855.2 3318.38 7362.7 
80 3.93859e-06 -6657.9 -18095.7 2675.29 
84 4.13676e-06 -737.832 -19369.3 1718.92 
88 4.33492e-06 3934.87 -17465 15995.2 
92 4.53309e-06 -1272.92 5092.73 1851.27 
96 4.73126e-06 -34637.8 -34601.2 -17581.1 
100 4.92943e-06 -17580.9 -18096.6 781.714 
77 3.78996e-06 -15919.6 21910.9 4064.95 
81 3.98813e-06 23300 -10308.6 24321.1 
85 4.1863e-06 526.092 -20963.5 -4599.41 
89 4.38447e-06 14183.9 8740.21 3114.31 
93 4.58263e-06 2079.69 -7026.32 7065.94 
97 4.7808e-06 3162.78 -17571.8 650.922 
78 3.8395e-06 -31437.8 -16357.9 -896.811 
82 4.03767e-06 10370.3 16528.2 256.415 
86 4.23584e-06 -6220.74 -18085.3 4848.16 
90 4.43401e-06 4200.25 -16458.5 -3963.41 
94 4.63218e-06 1354.69 -8692.79 -17153.7 
98 4.83034e-06 -29869.3 -5119.15 2897.67 
79 3.88905e-06 26914.7 548.797 -5674.97 
83 4.08721e-06 7364.56 -8484.53 26101.4 
87 4.28538e-06 -436.608 -13663.8 -13963.2 
91 4.48355e-06 7163.47 -10178.8 -6737.95 
95 4.68172e-06 -12213.9 12018.6 10150.9 
99 4.87989e-06 -21147.1 20.128 13074.6 
